patch_n	x	y	stress_yy
0	 0.000000000000000e+00	 0.000000000000000e+00	 1.115522503823843e+01
0	 0.000000000000000e+00	 7.142881171115513e-01	 1.094668205160300e+01
0	 0.000000000000000e+00	 1.428580650948409e+00	 1.074029345854552e+01
0	 0.000000000000000e+00	 2.142877018163878e+00	 1.054122123358777e+01
0	 0.000000000000000e+00	 2.857176635411265e+00	 1.035462755177938e+01
0	 0.000000000000000e+00	 3.571478919343873e+00	 1.018567478868258e+01
0	 0.000000000000000e+00	 4.285783286615008e+00	 1.003952552035943e+01
0	 0.000000000000000e+00	 5.000089153877976e+00	 9.921342523361570e+00
0	 0.000000000000000e+00	 5.714395937786080e+00	 9.836288774722361e+00
0	 0.000000000000000e+00	 6.428703054992629e+00	 9.789527451951461e+00
0	 0.000000000000000e+00	 7.143009922150927e+00	 9.786221933031952e+00
0	 7.142881171115513e-01	 0.000000000000000e+00	 1.095535767493318e+01
0	 7.142881171115515e-01	 7.142881171115515e-01	 1.077748499896363e+01
0	 7.142881171115516e-01	 1.428580650948409e+00	 1.060516644875642e+01
0	 7.142881171115512e-01	 2.142877018163878e+00	 1.044183875928437e+01
0	 7.142881171115510e-01	 2.857176635411264e+00	 1.029093882033812e+01
0	 7.142881171115515e-01	 3.571478919343873e+00	 1.015590367651417e+01
0	 7.142881171115515e-01	 4.285783286615009e+00	 1.004017052720504e+01
0	 7.142881171115512e-01	 5.000089153877973e+00	 9.947176726591161e+00
0	 7.142881171115514e-01	 5.714395937786080e+00	 9.880359783634695e+00
0	 7.142881171115514e-01	 6.428703054992629e+00	 9.843157362075345e+00
0	 7.142881171115515e-01	 7.143009922150928e+00	 9.839007280427916e+00
0	 1.428580650948409e+00	 0.000000000000000e+00	 1.078006426114536e+01
0	 1.428580650948409e+00	 7.142881171115514e-01	 1.062857961140610e+01
0	 1.428580650948409e+00	 1.428580650948410e+00	 1.048564281770164e+01
0	 1.428580650948409e+00	 2.142877018163877e+00	 1.035320359772531e+01
0	 1.428580650948409e+00	 2.857176635411265e+00	 1.023321178480961e+01
0	 1.428580650948409e+00	 3.571478919343873e+00	 1.012761732791716e+01
0	 1.428580650948409e+00	 4.285783286615007e+00	 1.003837029163329e+01
0	 1.428580650948410e+00	 5.000089153877976e+00	 9.967420856159769e+00
0	 1.428580650948410e+00	 5.714395937786082e+00	 9.916719317310253e+00
0	 1.428580650948410e+00	 6.428703054992631e+00	 9.888216086506883e+00
0	 1.428580650948409e+00	 7.143009922150926e+00	 9.883861690778476e+00
0	 2.142877018163878e+00	 0.000000000000000e+00	 1.062746969731797e+01
0	 2.142877018163878e+00	 7.142881171115512e-01	 1.049878134652950e+01
0	 2.142877018163878e+00	 1.428580650948410e+00	 1.038113155600832e+01
0	 2.142877018163878e+00	 2.142877018163878e+00	 1.027522124380231e+01
0	 2.142877018163879e+00	 2.857176635411264e+00	 1.018175141047554e+01
0	 2.142877018163879e+00	 3.571478919343874e+00	 1.010142313910167e+01
0	 2.142877018163879e+00	 4.285783286615009e+00	 1.003493759525858e+01
0	 2.142877018163879e+00	 5.000089153877975e+00	 9.982996027023830e+00
0	 2.142877018163880e+00	 5.714395937786082e+00	 9.946299764971187e+00
0	 2.142877018163878e+00	 6.428703054992627e+00	 9.925550222168209e+00
0	 2.142877018163878e+00	 7.143009922150926e+00	 9.921448894174766e+00
0	 2.857176635411265e+00	 0.000000000000000e+00	 1.049569885350483e+01
0	 2.857176635411264e+00	 7.142881171115510e-01	 1.038690565947784e+01
0	 2.857176635411265e+00	 1.428580650948409e+00	 1.029104167126157e+01
0	 2.857176635411264e+00	 2.142877018163879e+00	 1.020779722142474e+01
0	 2.857176635411264e+00	 2.857176635411264e+00	 1.013686269750912e+01
0	 2.857176635411264e+00	 3.571478919343873e+00	 1.007792854202512e+01
0	 2.857176635411265e+00	 4.285783286615009e+00	 1.003068525244801e+01
0	 2.857176635411265e+00	 5.000089153877974e+00	 9.994823381214839e+00
0	 2.857176635411265e+00	 5.714395937786081e+00	 9.970033535721988e+00
0	 2.857176635411265e+00	 6.428703054992630e+00	 9.956006378323424e+00
0	 2.857176635411264e+00	 7.143009922150927e+00	 9.952432626329648e+00
0	 3.571478919343873e+00	 0.000000000000000e+00	 1.038287656937282e+01
0	 3.571478919343873e+00	 7.142881171115515e-01	 1.029176800294024e+01
0	 3.571478919343873e+00	 1.428580650948409e+00	 1.021478218800330e+01
0	 3.571478919343873e+00	 2.142877018163878e+00	 1.015083708351754e+01
0	 3.571478919343873e+00	 2.857176635411264e+00	 1.009885068097265e+01
0	 3.571478919343874e+00	 3.571478919343874e+00	 1.005774100438973e+01
0	 3.571478919343873e+00	 4.285783286615009e+00	 1.002642611031892e+01
0	 3.571478919343873e+00	 5.000089153877975e+00	 1.000382408783744e+01
0	 3.571478919343873e+00	 5.714395937786081e+00	 9.988853058548010e+00
0	 3.571478919343873e+00	 6.428703054992628e+00	 9.980431176577714e+00
0	 3.571478919343873e+00	 7.143009922150927e+00	 9.977476628577216e+00
0	 4.285783286615008e+00	 0.000000000000000e+00	 1.028712765420380e+01
0	 4.285783286615009e+00	 7.142881171115514e-01	 1.021218382715128e+01
0	 4.285783286615007e+00	 1.428580650948409e+00	 1.015176214773135e+01
0	 4.285783286615009e+00	 2.142877018163879e+00	 1.010424641201965e+01
0	 4.285783286615009e+00	 2.857176635411266e+00	 1.006802043081550e+01
0	 4.285783286615008e+00	 3.571478919343873e+00	 1.004146802964044e+01
0	 4.285783286615008e+00	 4.285783286615008e+00	 1.002297304873703e+01
0	 4.285783286615009e+00	 5.000089153877976e+00	 1.001091934306778e+01
0	 4.285783286615008e+00	 5.714395937786080e+00	 1.000369078231429e+01
0	 4.285783286615008e+00	 6.428703054992630e+00	 9.999671250876560e+00
0	 4.285783286615009e+00	 7.143009922150927e+00	 9.997244647872467e+00
0	 5.000089153877976e+00	 0.000000000000000e+00	 1.020657688689621e+01
0	 5.000089153877975e+00	 7.142881171115513e-01	 1.014696857989116e+01
0	 5.000089153877975e+00	 1.428580650948409e+00	 1.010139060889873e+01
0	 5.000089153877975e+00	 2.142877018163879e+00	 1.006793081788268e+01
0	 5.000089153877976e+00	 2.857176635411265e+00	 1.004467705187252e+01
0	 5.000089153877976e+00	 3.571478919343873e+00	 1.002971715696324e+01
0	 5.000089153877976e+00	 4.285783286615009e+00	 1.002113898031490e+01
0	 5.000089153877975e+00	 5.000089153877974e+00	 1.001703037015228e+01
0	 5.000089153877975e+00	 5.714395937786080e+00	 1.001547917576458e+01
0	 5.000089153877976e+00	 6.428703054992630e+00	 1.001457324750511e+01
0	 5.000089153877976e+00	 7.143009922150928e+00	 1.001240043679097e+01
0	 5.714395937786080e+00	 0.000000000000000e+00	 1.013934901596621e+01
0	 5.714395937786081e+00	 7.142881171115514e-01	 1.009493770648591e+01
0	 5.714395937786080e+00	 1.428580650948410e+00	 1.006307664691320e+01
0	 5.714395937786081e+00	 2.142877018163879e+00	 1.004179594106995e+01
0	 5.714395937786080e+00	 2.857176635411265e+00	 1.002912568386288e+01
0	 5.714395937786081e+00	 3.571478919343873e+00	 1.002309596128397e+01
0	 5.714395937786080e+00	 4.285783286615009e+00	 1.002173685041079e+01
0	 5.714395937786081e+00	 5.000089153877976e+00	 1.002307841940662e+01
0	 5.714395937786080e+00	 5.714395937786080e+00	 1.002515072752063e+01
0	 5.714395937786080e+00	 6.428703054992627e+00	 1.002598382508774e+01
0	 5.714395937786082e+00	 7.143009922150927e+00	 1.002360775352859e+01
0	 6.428703054992629e+00	 0.000000000000000e+00	 1.008356875954853e+01
0	 6.428703054992630e+00	 7.142881171115513e-01	 1.005490664980755e+01
0	 6.428703054992631e+00	 1.428580650948410e+00	 1.003622935413687e+01
0	 6.428703054992629e+00	 2.142877018163878e+00	 1.002574745055594e+01
0	 6.428703054992629e+00	 2.857176635411265e+00	 1.002167150138931e+01
0	 6.428703054992629e+00	 3.571478919343873e+00	 1.002221205326754e+01
0	 6.428703054992629e+00	 4.285783286615008e+00	 1.002557963712796e+01
0	 6.428703054992628e+00	 5.000089153877976e+00	 1.002998476821523e+01
0	 6.428703054992628e+00	 5.714395937786080e+00	 1.003363794608173e+01
0	 6.428703054992631e+00	 6.428703054992630e+00	 1.003474965458773e+01
0	 6.428703054992631e+00	 7.143009922150928e+00	 1.003153036190139e+01
0	 7.143009922150927e+00	 0.000000000000000e+00	 1.003736080539682e+01
0	 7.143009922150926e+00	 7.142881171115513e-01	 1.002569085027425e+01
0	 7.143009922150926e+00	 1.428580650948409e+00	 1.002025783988621e+01
0	 7.143009922150927e+00	 2.142877018163878e+00	 1.001969104432606e+01
0	 7.143009922150926e+00	 2.857176635411264e+00	 1.002261971393784e+01
0	 7.143009922150926e+00	 3.571478919343873e+00	 1.002767307931758e+01
0	 7.143009922150926e+00	 4.285783286615008e+00	 1.003348035131430e+01
0	 7.143009922150927e+00	 5.000089153877976e+00	 1.003867072103087e+01
0	 7.143009922150926e+00	 5.714395937786080e+00	 1.004187335982449e+01
0	 7.143009922150927e+00	 6.428703054992628e+00	 1.004171741930711e+01
0	 7.143009922150927e+00	 7.143009922150927e+00	 1.003683203134544e+01
0	 0.000000000000000e+00	 7.143009922150927e+00	 9.786221933031953e+00
0	 0.000000000000000e+00	 7.857266066626719e+00	 9.807886205822401e+00
0	 0.000000000000000e+00	 8.571521461152161e+00	 9.831921475149784e+00
0	 0.000000000000000e+00	 9.285776189055182e+00	 9.857317867011570e+00
0	 0.000000000000000e+00	 1.000003033366371e+01	 9.883065510432081e+00
0	 0.000000000000000e+00	 1.071428397830567e+01	 9.908154537462536e+00
0	 0.000000000000000e+00	 1.142853720630899e+01	 9.931575083181045e+00
0	 0.000000000000000e+00	 1.214279010100160e+01	 9.952317285692676e+00
0	 0.000000000000000e+00	 1.285704274571142e+01	 9.969371286129475e+00
0	 0.000000000000000e+00	 1.357129522376639e+01	 9.981727228650458e+00
0	 0.000000000000000e+00	 1.428554761849444e+01	 9.988375260441670e+00
0	 7.142881171115515e-01	 7.143009922150928e+00	 9.839007280427916e+00
0	 7.142881171115513e-01	 7.857266066626721e+00	 9.853553471332956e+00
0	 7.142881171115513e-01	 8.571521461152166e+00	 9.869719183715494e+00
0	 7.142881171115514e-01	 9.285776189055184e+00	 9.886858488405244e+00
0	 7.142881171115514e-01	 1.000003033366371e+01	 9.904325458077910e+00
0	 7.142881171115513e-01	 1.071428397830567e+01	 9.921474167255234e+00
0	 7.142881171115512e-01	 1.142853720630899e+01	 9.937658692304984e+00
0	 7.142881171115512e-01	 1.214279010100160e+01	 9.952233111441000e+00
0	 7.142881171115512e-01	 1.285704274571143e+01	 9.964551504723181e+00
0	 7.142881171115514e-01	 1.357129522376639e+01	 9.973967954057535e+00
0	 7.142881171115514e-01	 1.428554761849444e+01	 9.979836543196154e+00
0	 1.428580650948409e+00	 7.143009922150926e+00	 9.883861690778476e+00
0	 1.428580650948410e+00	 7.857266066626718e+00	 9.892796885684287e+00
0	 1.428580650948409e+00	 8.571521461152161e+00	 9.902640095315981e+00
0	 1.428580650948409e+00	 9.285776189055182e+00	 9.913056679156309e+00
0	 1.428580650948409e+00	 1.000003033366371e+01	 9.923711997572189e+00
0	 1.428580650948409e+00	 1.071428397830567e+01	 9.934271411814748e+00
0	 1.428580650948409e+00	 1.142853720630899e+01	 9.944400284019331e+00
0	 1.428580650948409e+00	 1.214279010100159e+01	 9.953763977205497e+00
0	 1.428580650948410e+00	 1.285704274571143e+01	 9.962027855277039e+00
0	 1.428580650948410e+00	 1.357129522376639e+01	 9.968857283021974e+00
0	 1.428580650948410e+00	 1.428554761849444e+01	 9.973917626112597e+00
0	 2.142877018163878e+00	 7.143009922150926e+00	 9.921448894174766e+00
0	 2.142877018163879e+00	 7.857266066626722e+00	 9.926062483202347e+00
0	 2.142877018163878e+00	 8.571521461152162e+00	 9.930939939551152e+00
0	 2.142877018163879e+00	 9.285776189055184e+00	 9.936005257000739e+00
0	 2.142877018163878e+00	 1.000003033366371e+01	 9.941182429452907e+00
0	 2.142877018163878e+00	 1.071428397830566e+01	 9.946395450931693e+00
0	 2.142877018163878e+00	 1.142853720630899e+01	 9.951568315583389e+00
0	 2.142877018163878e+00	 1.214279010100160e+01	 9.956625017676529e+00
0	 2.142877018163878e+00	 1.285704274571142e+01	 9.961489551601902e+00
0	 2.142877018163879e+00	 1.357129522376639e+01	 9.966085911872565e+00
0	 2.142877018163878e+00	 1.428554761849444e+01	 9.970338093123793e+00
0	 2.857176635411264e+00	 7.143009922150927e+00	 9.952432626329648e+00
0	 2.857176635411264e+00	 7.857266066626720e+00	 9.953796298864900e+00
0	 2.857176635411264e+00	 8.571521461152162e+00	 9.954874443432157e+00
0	 2.857176635411264e+00	 9.285776189055182e+00	 9.955797035316568e+00
0	 2.857176635411265e+00	 1.000003033366371e+01	 9.956694049344250e+00
0	 2.857176635411265e+00	 1.071428397830567e+01	 9.957695459882288e+00
0	 2.857176635411265e+00	 1.142853720630899e+01	 9.958931240838726e+00
0	 2.857176635411264e+00	 1.214279010100160e+01	 9.960531365662582e+00
0	 2.857176635411264e+00	 1.285704274571142e+01	 9.962625807343821e+00
0	 2.857176635411265e+00	 1.357129522376640e+01	 9.965344538413378e+00
0	 2.857176635411264e+00	 1.428554761849444e+01	 9.968817530943141e+00
0	 3.571478919343873e+00	 7.143009922150927e+00	 9.977476628577218e+00
0	 3.571478919343873e+00	 7.857266066626722e+00	 9.976444368301387e+00
0	 3.571478919343874e+00	 8.571521461152168e+00	 9.974699331381547e+00
0	 3.571478919343873e+00	 9.285776189055186e+00	 9.972524823124164e+00
0	 3.571478919343872e+00	 1.000003033366371e+01	 9.970204147956910e+00
0	 3.571478919343873e+00	 1.071428397830567e+01	 9.968020609428631e+00
0	 3.571478919343873e+00	 1.142853720630899e+01	 9.966257510209370e+00
0	 3.571478919343873e+00	 1.214279010100160e+01	 9.965198152090336e+00
0	 3.571478919343873e+00	 1.285704274571143e+01	 9.965125835983937e+00
0	 3.571478919343873e+00	 1.357129522376639e+01	 9.966323861923705e+00
0	 3.571478919343873e+00	 1.428554761849444e+01	 9.969075529064373e+00
0	 4.285783286615009e+00	 7.143009922150927e+00	 9.997244647872471e+00
0	 4.285783286615009e+00	 7.857266066626719e+00	 9.994452727792845e+00
0	 4.285783286615007e+00	 8.571521461152161e+00	 9.990670325233346e+00
0	 4.285783286615008e+00	 9.285776189055181e+00	 9.986281425086425e+00
0	 4.285783286615009e+00	 1.000003033366371e+01	 9.981670011088312e+00
0	 4.285783286615008e+00	 1.071428397830567e+01	 9.977220065818923e+00
0	 4.285783286615008e+00	 1.142853720630899e+01	 9.973315570701955e+00
0	 4.285783286615009e+00	 1.214279010100160e+01	 9.970340506004778e+00
0	 4.285783286615009e+00	 1.285704274571143e+01	 9.968678850838483e+00
0	 4.285783286615009e+00	 1.357129522376640e+01	 9.968714583157865e+00
0	 4.285783286615008e+00	 1.428554761849444e+01	 9.970831679761405e+00
0	 5.000089153877976e+00	 7.143009922150928e+00	 1.001240043679097e+01
0	 5.000089153877974e+00	 7.857266066626717e+00	 1.000826741427185e+01
0	 5.000089153877973e+00	 8.571521461152159e+00	 1.000304314423314e+01
0	 5.000089153877975e+00	 9.285776189055181e+00	 9.997159641508935e+00
0	 5.000089153877977e+00	 1.000003033366371e+01	 9.991048919622774e+00
0	 5.000089153877975e+00	 1.071428397830567e+01	 9.985142990787622e+00
0	 5.000089153877976e+00	 1.142853720630899e+01	 9.979873865905837e+00
0	 5.000089153877975e+00	 1.214279010100160e+01	 9.975673554569177e+00
0	 5.000089153877976e+00	 1.285704274571142e+01	 9.972974065058773e+00
0	 5.000089153877975e+00	 1.357129522376639e+01	 9.972207404345149e+00
0	 5.000089153877975e+00	 1.428554761849444e+01	 9.973805578088175e+00
0	 5.714395937786082e+00	 7.143009922150927e+00	 1.002360775352859e+01
0	 5.714395937786080e+00	 7.857266066626718e+00	 1.001833446532241e+01
0	 5.714395937786080e+00	 8.571521461152162e+00	 1.001207350503810e+01
0	 5.714395937786080e+00	 9.285776189055182e+00	 1.000525226834003e+01
0	 5.714395937786081e+00	 1.000003033366371e+01	 9.998298149531667e+00
0	 5.714395937786082e+00	 1.071428397830567e+01	 9.991638541555533e+00
0	 5.714395937786081e+00	 1.142853720630899e+01	 9.985700835993180e+00
0	 5.714395937786080e+00	 1.214279010100160e+01	 9.980912423065188e+00
0	 5.714395937786081e+00	 1.285704274571142e+01	 9.977700691631165e+00
0	 5.714395937786081e+00	 1.357129522376640e+01	 9.976493029189724e+00
0	 5.714395937786081e+00	 1.428554761849444e+01	 9.977716821878500e+00
0	 6.428703054992631e+00	 7.143009922150928e+00	 1.003153036190139e+01
0	 6.428703054992631e+00	 7.857266066626720e+00	 1.002509991917990e+01
0	 6.428703054992631e+00	 8.571521461152162e+00	 1.001801712171696e+01
0	 6.428703054992630e+00	 9.285776189055186e+00	 1.001065209717087e+01
0	 6.428703054992630e+00	 1.000003033366371e+01	 1.000337497187342e+01
0	 6.428703054992631e+00	 1.071428397830567e+01	 9.996555870829880e+00
0	 6.428703054992628e+00	 1.142853720630899e+01	 9.990564917718952e+00
0	 6.428703054992629e+00	 1.214279010100160e+01	 9.985772234892792e+00
0	 6.428703054992629e+00	 1.285704274571142e+01	 9.982547943376998e+00
0	 6.428703054992628e+00	 1.357129522376639e+01	 9.981262162870596e+00
0	 6.428703054992630e+00	 1.428554761849444e+01	 9.982285011746011e+00
0	 7.143009922150927e+00	 7.143009922150927e+00	 1.003683203134545e+01
0	 7.143009922150926e+00	 7.857266066626718e+00	 1.002900981473100e+01
0	 7.143009922150929e+00	 8.571521461152162e+00	 1.002112970575003e+01
0	 7.143009922150926e+00	 9.285776189055184e+00	 1.001345191523541e+01
0	 7.143009922150927e+00	 1.000003033366371e+01	 1.000623665279355e+01
0	 7.143009922150926e+00	 1.071428397830567e+01	 9.999744126804286e+00
0	 7.143009922150925e+00	 1.142853720630899e+01	 9.994234544420946e+00
0	 7.143009922150927e+00	 1.214279010100160e+01	 9.989968111570310e+00
0	 7.143009922150928e+00	 1.285704274571143e+01	 9.987205032952602e+00
0	 7.143009922150926e+00	 1.357129522376639e+01	 9.986205512041495e+00
0	 7.143009922150930e+00	 1.428554761849445e+01	 9.987229751084094e+00
0	 0.000000000000000e+00	 1.428554761849444e+01	 9.988375260441668e+00
0	 0.000000000000000e+00	 1.499984997172426e+01	 9.990871198739182e+00
0	 0.000000000000000e+00	 1.571415215828766e+01	 9.991686653313735e+00
0	 0.000000000000000e+00	 1.642845401151722e+01	 9.991186188892597e+00
0	 0.000000000000000e+00	 1.714275536474550e+01	 9.989734370691137e+00
0	 0.000000000000000e+00	 1.785705605130510e+01	 9.987695764412848e+00
0	 0.000000000000000e+00	 1.857135590452858e+01	 9.985434936249359e+00
0	 0.000000000000000e+00	 1.928565475774854e+01	 9.983316452880459e+00
0	 0.000000000000000e+00	 1.999995244429753e+01	 9.981704881474059e+00
0	 0.000000000000000e+00	 2.071424879750816e+01	 9.980964789686265e+00
0	 0.000000000000000e+00	 2.142854365071296e+01	 9.981460745661336e+00
0	 7.142881171115514e-01	 1.428554761849444e+01	 9.979836543196155e+00
0	 7.142881171115516e-01	 1.499984997172426e+01	 9.983011009041375e+00
0	 7.142881171115514e-01	 1.571415215828766e+01	 9.984934680473117e+00
0	 7.142881171115512e-01	 1.642845401151722e+01	 9.985846845369435e+00
0	 7.142881171115512e-01	 1.714275536474550e+01	 9.985986791701569e+00
0	 7.142881171115515e-01	 1.785705605130510e+01	 9.985593807533984e+00
0	 7.142881171115514e-01	 1.857135590452859e+01	 9.984907181024324e+00
0	 7.142881171115513e-01	 1.928565475774854e+01	 9.984166200423486e+00
0	 7.142881171115514e-01	 1.999995244429753e+01	 9.983610154075562e+00
0	 7.142881171115513e-01	 2.071424879750816e+01	 9.983478330417871e+00
0	 7.142881171115512e-01	 2.142854365071296e+01	 9.984010017980966e+00
0	 1.428580650948410e+00	 1.428554761849444e+01	 9.973917626112597e+00
0	 1.428580650948409e+00	 1.499984997172426e+01	 9.977503917245594e+00
0	 1.428580650948409e+00	 1.571415215828766e+01	 9.980221655421186e+00
0	 1.428580650948410e+00	 1.642845401151722e+01	 9.982202759798710e+00
0	 1.428580650948410e+00	 1.714275536474550e+01	 9.983579149313709e+00
0	 1.428580650948409e+00	 1.785705605130510e+01	 9.984482742677919e+00
0	 1.428580650948409e+00	 1.857135590452859e+01	 9.985045458379274e+00
0	 1.428580650948409e+00	 1.928565475774854e+01	 9.985399214681898e+00
0	 1.428580650948409e+00	 1.999995244429754e+01	 9.985675929626144e+00
0	 1.428580650948409e+00	 2.071424879750816e+01	 9.986007521028538e+00
0	 1.428580650948409e+00	 2.142854365071297e+01	 9.986525906481823e+00
0	 2.142877018163878e+00	 1.428554761849444e+01	 9.970338093123793e+00
0	 2.142877018163878e+00	 1.499984997172426e+01	 9.974110075022702e+00
0	 2.142877018163879e+00	 1.571415215828766e+01	 9.977344245304444e+00
0	 2.142877018163878e+00	 1.642845401151720e+01	 9.980083061988140e+00
0	 2.142877018163878e+00	 1.714275536474549e+01	 9.982368982624342e+00
0	 2.142877018163879e+00	 1.785705605130510e+01	 9.984244464295021e+00
0	 2.142877018163878e+00	 1.857135590452858e+01	 9.985751963613573e+00
0	 2.142877018163879e+00	 1.928565475774854e+01	 9.986933936724832e+00
0	 2.142877018163878e+00	 1.999995244429753e+01	 9.987832839305021e+00
0	 2.142877018163879e+00	 2.071424879750816e+01	 9.988491126561817e+00
0	 2.142877018163878e+00	 2.142854365071296e+01	 9.988951253234289e+00
0	 2.857176635411264e+00	 1.428554761849444e+01	 9.968817530943141e+00
0	 2.857176635411266e+00	 1.499984997172427e+01	 9.972589637594170e+00
0	 2.857176635411264e+00	 1.571415215828766e+01	 9.976099121084752e+00
0	 2.857176635411265e+00	 1.642845401151721e+01	 9.979316885408036e+00
0	 2.857176635411265e+00	 1.714275536474550e+01	 9.982213833910356e+00
0	 2.857176635411265e+00	 1.785705605130510e+01	 9.984760869291296e+00
0	 2.857176635411264e+00	 1.857135590452858e+01	 9.986928893603615e+00
0	 2.857176635411264e+00	 1.928565475774854e+01	 9.988688808253283e+00
0	 2.857176635411265e+00	 1.999995244429753e+01	 9.990011513999480e+00
0	 2.857176635411264e+00	 2.071424879750815e+01	 9.990867910954597e+00
0	 2.857176635411265e+00	 2.142854365071296e+01	 9.991228898584161e+00
0	 3.571478919343873e+00	 1.428554761849444e+01	 9.969075529064371e+00
0	 3.571478919343873e+00	 1.499984997172426e+01	 9.972702763731752e+00
0	 3.571478919343873e+00	 1.571415215828766e+01	 9.976282957539000e+00
0	 3.571478919343873e+00	 1.642845401151722e+01	 9.979733367190999e+00
0	 3.571478919343872e+00	 1.714275536474550e+01	 9.982971248628528e+00
0	 3.571478919343873e+00	 1.785705605130510e+01	 9.985913857028226e+00
0	 3.571478919343873e+00	 1.857135590452858e+01	 9.988478446802613e+00
0	 3.571478919343873e+00	 1.928565475774854e+01	 9.990582271600077e+00
0	 3.571478919343873e+00	 1.999995244429753e+01	 9.992142584304872e+00
0	 3.571478919343873e+00	 2.071424879750816e+01	 9.993076637037113e+00
0	 3.571478919343872e+00	 2.142854365071296e+01	 9.993301681152744e+00
0	 4.285783286615008e+00	 1.428554761849444e+01	 9.970831679761408e+00
0	 4.285783286615009e+00	 1.499984997172426e+01	 9.974209615757310e+00
0	 4.285783286615008e+00	 1.571415215828766e+01	 9.977692433258875e+00
0	 4.285783286615008e+00	 1.642845401151721e+01	 9.981161648131744e+00
0	 4.285783286615008e+00	 1.714275536474550e+01	 9.984498775415286e+00
0	 4.285783286615008e+00	 1.785705605130509e+01	 9.987585329322613e+00
0	 4.285783286615007e+00	 1.857135590452858e+01	 9.990302823240587e+00
0	 4.285783286615009e+00	 1.928565475774854e+01	 9.992532769729820e+00
0	 4.285783286615009e+00	 1.999995244429753e+01	 9.994156680524634e+00
0	 4.285783286615007e+00	 2.071424879750815e+01	 9.995056066533085e+00
0	 4.285783286615009e+00	 2.142854365071296e+01	 9.995112437836951e+00
0	 5.000089153877975e+00	 1.428554761849444e+01	 9.973805578088175e+00
0	 5.000089153877975e+00	 1.499984997172426e+01	 9.976870359542582e+00
0	 5.000089153877976e+00	 1.571415215828766e+01	 9.980124230650697e+00
0	 5.000089153877974e+00	 1.642845401151721e+01	 9.983430872686869e+00
0	 5.000089153877976e+00	 1.714275536474550e+01	 9.986653966086557e+00
0	 5.000089153877977e+00	 1.785705605130510e+01	 9.989657190446424e+00
0	 5.000089153877976e+00	 1.857135590452858e+01	 9.992304224524201e+00
0	 5.000089153877976e+00	 1.928565475774854e+01	 9.994458746238802e+00
0	 5.000089153877975e+00	 1.999995244429753e+01	 9.995984432670255e+00
0	 5.000089153877975e+00	 2.071424879750816e+01	 9.996744960059694e+00
0	 5.000089153877975e+00	 2.142854365071297e+01	 9.996604003809360e+00
0	 5.714395937786081e+00	 1.428554761849444e+01	 9.977716821878502e+00
0	 5.714395937786080e+00	 1.499984997172426e+01	 9.980445164509067e+00
0	 5.714395937786081e+00	 1.571415215828766e+01	 9.983375035935204e+00
0	 5.714395937786082e+00	 1.642845401151722e+01	 9.986370188974689e+00
0	 5.714395937786082e+00	 1.714275536474550e+01	 9.989294375637678e+00
0	 5.714395937786080e+00	 1.785705605130509e+01	 9.992011347126715e+00
0	 5.714395937786079e+00	 1.857135590452858e+01	 9.994384853836737e+00
0	 5.714395937786080e+00	 1.928565475774854e+01	 9.996278645355041e+00
0	 5.714395937786080e+00	 1.999995244429753e+01	 9.997556470461326e+00
0	 5.714395937786080e+00	 2.071424879750816e+01	 9.998082077127620e+00
0	 5.714395937786080e+00	 2.142854365071296e+01	 9.997719212518316e+00
0	 6.428703054992630e+00	 1.428554761849444e+01	 9.982285011746011e+00
0	 6.428703054992627e+00	 1.499984997172426e+01	 9.984694203627916e+00
0	 6.428703054992629e+00	 1.571415215828766e+01	 9.987241539147528e+00
0	 6.428703054992629e+00	 1.642845401151721e+01	 9.989808748775236e+00
0	 6.428703054992630e+00	 1.714275536474550e+01	 9.992277562243245e+00
0	 6.428703054992629e+00	 1.785705605130510e+01	 9.994529708545572e+00
0	 6.428703054992628e+00	 1.857135590452858e+01	 9.996446915938026e+00
0	 6.428703054992631e+00	 1.928565475774854e+01	 9.997910911938211e+00
0	 6.428703054992629e+00	 1.999995244429753e+01	 9.998803423325514e+00
0	 6.428703054992628e+00	 2.071424879750815e+01	 9.999006176141092e+00
0	 6.428703054992630e+00	 2.142854365071296e+01	 9.998400895687876e+00
0	 7.143009922150930e+00	 1.428554761849445e+01	 9.987229751084094e+00
0	 7.143009922150927e+00	 1.499984997172427e+01	 9.989377653419865e+00
0	 7.143009922150928e+00	 1.571415215828766e+01	 9.991520434137046e+00
0	 7.143009922150927e+00	 1.642845401151721e+01	 9.993575707530075e+00
0	 7.143009922150927e+00	 1.714275536474550e+01	 9.995461087257116e+00
0	 7.143009922150927e+00	 1.785705605130510e+01	 9.997094186340059e+00
0	 7.143009922150926e+00	 1.857135590452859e+01	 9.998392617164454e+00
0	 7.143009922150926e+00	 1.928565475774854e+01	 9.999273991479619e+00
0	 7.143009922150926e+00	 1.999995244429754e+01	 9.999655920398521e+00
0	 7.143009922150927e+00	 2.071424879750816e+01	 9.999456014397831e+00
0	 7.143009922150927e+00	 2.142854365071296e+01	 9.998591883317882e+00
0	 0.000000000000000e+00	 2.142854365071296e+01	 9.981460745661336e+00
0	 0.000000000000000e+00	 2.214283692057824e+01	 9.983018924462861e+00
0	 0.000000000000000e+00	 2.285712885710494e+01	 9.985101589023008e+00
0	 0.000000000000000e+00	 2.357141979362770e+01	 9.987527440801928e+00
0	 0.000000000000000e+00	 2.428571006348117e+01	 9.990115182788932e+00
0	 0.000000000000000e+00	 2.500000000000001e+01	 9.992683519502631e+00
0	 0.000000000000000e+00	 2.571428993651884e+01	 9.995051156990815e+00
0	 0.000000000000000e+00	 2.642858020637231e+01	 9.997036802830586e+00
0	 0.000000000000000e+00	 2.714287114289507e+01	 9.998459166128312e+00
0	 0.000000000000000e+00	 2.785716307942177e+01	 9.999136957519585e+00
0	 0.000000000000000e+00	 2.857145634928704e+01	 9.998888889169272e+00
0	 7.142881171115512e-01	 2.142854365071296e+01	 9.984010017980966e+00
0	 7.142881171115515e-01	 2.214283692057824e+01	 9.985172453025651e+00
0	 7.142881171115514e-01	 2.285712885710494e+01	 9.986693129169824e+00
0	 7.142881171115515e-01	 2.357141979362770e+01	 9.988451721800697e+00
0	 7.142881171115510e-01	 2.428571006348117e+01	 9.990327907306870e+00
0	 7.142881171115515e-01	 2.500000000000001e+01	 9.992201363078356e+00
0	 7.142881171115512e-01	 2.571428993651883e+01	 9.993951767506658e+00
0	 7.142881171115515e-01	 2.642858020637232e+01	 9.995458799984707e+00
0	 7.142881171115513e-01	 2.714287114289507e+01	 9.996602140906933e+00
0	 7.142881171115514e-01	 2.785716307942178e+01	 9.997261471669159e+00
0	 7.142881171115512e-01	 2.857145634928703e+01	 9.997316474668734e+00
0	 1.428580650948409e+00	 2.142854365071297e+01	 9.986525906481823e+00
0	 1.428580650948409e+00	 2.214283692057823e+01	 9.987312682242477e+00
0	 1.428580650948410e+00	 2.285712885710495e+01	 9.988316208519047e+00
0	 1.428580650948409e+00	 2.357141979362771e+01	 9.989468549071695e+00
0	 1.428580650948410e+00	 2.428571006348118e+01	 9.990701768203458e+00
0	 1.428580650948409e+00	 2.500000000000001e+01	 9.991947930760258e+00
0	 1.428580650948410e+00	 2.571428993651884e+01	 9.993139102130923e+00
0	 1.428580650948409e+00	 2.642858020637231e+01	 9.994207348247183e+00
0	 1.428580650948409e+00	 2.714287114289507e+01	 9.995084735583694e+00
0	 1.428580650948409e+00	 2.785716307942177e+01	 9.995703331157998e+00
0	 1.428580650948409e+00	 2.857145634928703e+01	 9.995995202530565e+00
0	 2.142877018163878e+00	 2.142854365071296e+01	 9.988951253234289e+00
0	 2.142877018163878e+00	 2.214283692057824e+01	 9.989384861399454e+00
0	 2.142877018163879e+00	 2.285712885710494e+01	 9.989919201370299e+00
0	 2.142877018163878e+00	 2.357141979362770e+01	 9.990530140002102e+00
0	 2.142877018163879e+00	 2.428571006348117e+01	 9.991193544301748e+00
0	 2.142877018163878e+00	 2.500000000000001e+01	 9.991885281427676e+00
0	 2.142877018163878e+00	 2.571428993651883e+01	 9.992581218689924e+00
0	 2.142877018163878e+00	 2.642858020637231e+01	 9.993257223550142e+00
0	 2.142877018163878e+00	 2.714287114289507e+01	 9.993889163621576e+00
0	 2.142877018163879e+00	 2.785716307942177e+01	 9.994452906669068e+00
0	 2.142877018163879e+00	 2.857145634928704e+01	 9.994924320609071e+00
0	 2.857176635411265e+00	 2.142854365071296e+01	 9.991228898584161e+00
0	 2.857176635411264e+00	 2.214283692057824e+01	 9.991334237703137e+00
0	 2.857176635411264e+00	 2.285712885710494e+01	 9.991450479831206e+00
0	 2.857176635411264e+00	 2.357141979362770e+01	 9.991588709875112e+00
0	 2.857176635411264e+00	 2.428571006348117e+01	 9.991760012567102e+00
0	 2.857176635411265e+00	 2.500000000000001e+01	 9.991975472464929e+00
0	 2.857176635411265e+00	 2.571428993651883e+01	 9.992246173951841e+00
0	 2.857176635411264e+00	 2.642858020637231e+01	 9.992583201236638e+00
0	 2.857176635411265e+00	 2.714287114289507e+01	 9.992997638353605e+00
0	 2.857176635411265e+00	 2.785716307942177e+01	 9.993500569162547e+00
0	 2.857176635411264e+00	 2.857145634928704e+01	 9.994103077348827e+00
0	 3.571478919343872e+00	 2.142854365071296e+01	 9.993301681152744e+00
0	 3.571478919343871e+00	 2.214283692057823e+01	 9.993106056280643e+00
0	 3.571478919343873e+00	 2.285712885710494e+01	 9.992858413817533e+00
0	 3.571478919343873e+00	 2.357141979362770e+01	 9.992596471870025e+00
0	 3.571478919343874e+00	 2.428571006348118e+01	 9.992357948107372e+00
0	 3.571478919343873e+00	 2.500000000000001e+01	 9.992180559761474e+00
0	 3.571478919343873e+00	 2.571428993651884e+01	 9.992102023626874e+00
0	 3.571478919343873e+00	 2.642858020637231e+01	 9.992160056060733e+00
0	 3.571478919343872e+00	 2.714287114289507e+01	 9.992392372982884e+00
0	 3.571478919343872e+00	 2.785716307942177e+01	 9.992836689875812e+00
0	 3.571478919343873e+00	 2.857145634928703e+01	 9.993530721784637e+00
0	 4.285783286615009e+00	 2.142854365071296e+01	 9.995112437836951e+00
0	 4.285783286615009e+00	 2.214283692057824e+01	 9.994645560179789e+00
0	 4.285783286615008e+00	 2.285712885710494e+01	 9.994091371053301e+00
0	 4.285783286615009e+00	 2.357141979362770e+01	 9.993505637062396e+00
0	 4.285783286615009e+00	 2.428571006348118e+01	 9.992944124172997e+00
0	 4.285783286615009e+00	 2.500000000000001e+01	 9.992462597711983e+00
0	 4.285783286615008e+00	 2.571428993651883e+01	 9.992116822367207e+00
0	 4.285783286615009e+00	 2.642858020637231e+01	 9.991962562187490e+00
0	 4.285783286615009e+00	 2.714287114289508e+01	 9.992055580582623e+00
0	 4.285783286615009e+00	 2.785716307942177e+01	 9.992451640323354e+00
0	 4.285783286615008e+00	 2.857145634928704e+01	 9.993206503541465e+00
0	 5.000089153877975e+00	 2.142854365071297e+01	 9.996604003809360e+00
0	 5.000089153877976e+00	 2.214283692057823e+01	 9.995897990369178e+00
0	 5.000089153877976e+00	 2.285712885710494e+01	 9.995097717070880e+00
0	 5.000089153877974e+00	 2.357141979362770e+01	 9.994268414424123e+00
0	 5.000089153877975e+00	 2.428571006348118e+01	 9.993475312157063e+00
0	 5.000089153877975e+00	 2.500000000000000e+01	 9.992783639216372e+00
0	 5.000089153877975e+00	 2.571428993651884e+01	 9.992258623767151e+00
0	 5.000089153877975e+00	 2.642858020637231e+01	 9.991965493193023e+00
0	 5.000089153877977e+00	 2.714287114289508e+01	 9.991969474096067e+00
0	 5.000089153877975e+00	 2.785716307942177e+01	 9.992335792296853e+00
0	 5.000089153877975e+00	 2.857145634928704e+01	 9.993129672834444e+00
0	 5.714395937786080e+00	 2.142854365071296e+01	 9.997719212518316e+00
0	 5.714395937786080e+00	 2.214283692057824e+01	 9.996808585738250e+00
0	 5.714395937786079e+00	 2.285712885710493e+01	 9.995825815211077e+00
0	 5.714395937786081e+00	 2.357141979362770e+01	 9.994837010823492e+00
0	 5.714395937786080e+00	 2.428571006348118e+01	 9.993908281595401e+00
0	 5.714395937786080e+00	 2.500000000000000e+01	 9.993105735679855e+00
0	 5.714395937786082e+00	 2.571428993651883e+01	 9.992495480363100e+00
0	 5.714395937786080e+00	 2.642858020637231e+01	 9.992143622064500e+00
0	 5.714395937786083e+00	 2.714287114289508e+01	 9.992116266336591e+00
0	 5.714395937786081e+00	 2.785716307942177e+01	 9.992479517865071e+00
0	 5.714395937786080e+00	 2.857145634928703e+01	 9.993299480468826e+00
0	 6.428703054992630e+00	 2.142854365071296e+01	 9.998400895687876e+00
0	 6.428703054992628e+00	 2.214283692057824e+01	 9.997322583097320e+00
0	 6.428703054992630e+00	 2.285712885710494e+01	 9.996224026623135e+00
0	 6.428703054992629e+00	 2.357141979362769e+01	 9.995163631025228e+00
0	 6.428703054992629e+00	 2.428571006348118e+01	 9.994199800166552e+00
0	 6.428703054992629e+00	 2.500000000000000e+01	 9.993390937013029e+00
0	 6.428703054992629e+00	 2.571428993651883e+01	 9.992795443633595e+00
0	 6.428703054992629e+00	 2.642858020637231e+01	 9.992471721200152e+00
0	 6.428703054992628e+00	 2.714287114289507e+01	 9.992478169987631e+00
0	 6.428703054992628e+00	 2.785716307942177e+01	 9.992873189373929e+00
0	 6.428703054992631e+00	 2.857145634928704e+01	 9.993715177839988e+00
0	 7.143009922150927e+00	 2.142854365071296e+01	 9.998591883317882e+00
0	 7.143009922150927e+00	 2.214283692057824e+01	 9.997385217177577e+00
0	 7.143009922150925e+00	 2.285712885710493e+01	 9.996240710264779e+00
0	 7.143009922150926e+00	 2.357141979362770e+01	 9.995200477690533e+00
0	 7.143009922150927e+00	 2.428571006348117e+01	 9.994306633691856e+00
0	 7.143009922150926e+00	 2.500000000000000e+01	 9.993601291631782e+00
0	 7.143009922150926e+00	 2.571428993651883e+01	 9.993126563999272e+00
0	 7.143009922150926e+00	 2.642858020637231e+01	 9.992924562409279e+00
0	 7.143009922150928e+00	 2.714287114289507e+01	 9.993037397602711e+00
0	 7.143009922150926e+00	 2.785716307942177e+01	 9.993507179446448e+00
0	 7.143009922150926e+00	 2.857145634928704e+01	 9.994376016933362e+00
0	 0.000000000000000e+00	 2.857145634928704e+01	 9.998888889169272e+00
0	 0.000000000000000e+00	 2.928575120249186e+01	 9.998030908877073e+00
0	 0.000000000000000e+00	 3.000004755570248e+01	 9.997055633554965e+00
0	 0.000000000000000e+00	 3.071434524225148e+01	 9.996046780561009e+00
0	 0.000000000000000e+00	 3.142864409547142e+01	 9.995088067757267e+00
0	 0.000000000000000e+00	 3.214294394869492e+01	 9.994263213509756e+00
0	 0.000000000000000e+00	 3.285724463525451e+01	 9.993655936688493e+00
0	 0.000000000000000e+00	 3.357154598848280e+01	 9.993349956667377e+00
0	 0.000000000000000e+00	 3.428584784171235e+01	 9.993428993324315e+00
0	 0.000000000000000e+00	 3.500015002827575e+01	 9.993976767041119e+00
0	 0.000000000000000e+00	 3.571445238150555e+01	 9.995076998703544e+00
0	 7.142881171115512e-01	 2.857145634928703e+01	 9.997316474668734e+00
0	 7.142881171115513e-01	 2.928575120249186e+01	 9.996961852860334e+00
0	 7.142881171115515e-01	 3.000004755570248e+01	 9.996509252794199e+00
0	 7.142881171115512e-01	 3.071434524225148e+01	 9.996013773236591e+00
0	 7.142881171115513e-01	 3.142864409547143e+01	 9.995530513253287e+00
0	 7.142881171115515e-01	 3.214294394869491e+01	 9.995114572209502e+00
0	 7.142881171115510e-01	 3.285724463525450e+01	 9.994821049769921e+00
0	 7.142881171115512e-01	 3.357154598848280e+01	 9.994705045898714e+00
0	 7.142881171115514e-01	 3.428584784171235e+01	 9.994821660859486e+00
0	 7.142881171115515e-01	 3.500015002827575e+01	 9.995225995215298e+00
0	 7.142881171115512e-01	 3.571445238150555e+01	 9.995973149828675e+00
0	 1.428580650948409e+00	 2.857145634928703e+01	 9.995995202530565e+00
0	 1.428580650948410e+00	 2.928575120249186e+01	 9.996052398391139e+00
0	 1.428580650948409e+00	 3.000004755570248e+01	 9.996032639850961e+00
0	 1.428580650948410e+00	 3.071434524225147e+01	 9.995966503607772e+00
0	 1.428580650948410e+00	 3.142864409547143e+01	 9.995884566489828e+00
0	 1.428580650948409e+00	 3.214294394869490e+01	 9.995817405455934e+00
0	 1.428580650948409e+00	 3.285724463525450e+01	 9.995795597595365e+00
0	 1.428580650948409e+00	 3.357154598848279e+01	 9.995849720127975e+00
0	 1.428580650948410e+00	 3.428584784171235e+01	 9.996010350404081e+00
0	 1.428580650948409e+00	 3.500015002827575e+01	 9.996308065904554e+00
0	 1.428580650948409e+00	 3.571445238150557e+01	 9.996773444240752e+00
0	 2.142877018163879e+00	 2.857145634928704e+01	 9.994924320609071e+00
0	 2.142877018163878e+00	 2.928575120249186e+01	 9.995310094508479e+00
0	 2.142877018163878e+00	 3.000004755570249e+01	 9.995639772774920e+00
0	 2.142877018163878e+00	 3.071434524225147e+01	 9.995923506445429e+00
0	 2.142877018163878e+00	 3.142864409547142e+01	 9.996171446551568e+00
0	 2.142877018163878e+00	 3.214294394869492e+01	 9.996393744119366e+00
0	 2.142877018163879e+00	 3.285724463525450e+01	 9.996600550169383e+00
0	 2.142877018163878e+00	 3.357154598848279e+01	 9.996802015716652e+00
0	 2.142877018163878e+00	 3.428584784171234e+01	 9.997008291770715e+00
0	 2.142877018163878e+00	 3.500015002827574e+01	 9.997229529335627e+00
0	 2.142877018163879e+00	 3.571445238150555e+01	 9.997475879409922e+00
0	 2.857176635411264e+00	 2.857145634928704e+01	 9.994103077348827e+00
0	 2.857176635411264e+00	 2.928575120249186e+01	 9.994742491028909e+00
0	 2.857176635411264e+00	 3.000004755570248e+01	 9.995344630464485e+00
0	 2.857176635411266e+00	 3.071434524225148e+01	 9.995903317344453e+00
0	 2.857176635411264e+00	 3.142864409547143e+01	 9.996412373246459e+00
0	 2.857176635411265e+00	 3.214294394869493e+01	 9.996865619636914e+00
0	 2.857176635411265e+00	 3.285724463525452e+01	 9.997256877871029e+00
0	 2.857176635411264e+00	 3.357154598848280e+01	 9.997579969192817e+00
0	 2.857176635411264e+00	 3.428584784171235e+01	 9.997828714735023e+00
0	 2.857176635411265e+00	 3.500015002827575e+01	 9.997996935519211e+00
0	 2.857176635411265e+00	 3.571445238150556e+01	 9.998078452455740e+00
0	 3.571478919343873e+00	 2.857145634928703e+01	 9.993530721784637e+00
0	 3.571478919343873e+00	 2.928575120249186e+01	 9.994357138546428e+00
0	 3.571478919343873e+00	 3.000004755570248e+01	 9.995161192666782e+00
0	 3.571478919343873e+00	 3.071434524225148e+01	 9.995924472723660e+00
0	 3.571478919343873e+00	 3.142864409547143e+01	 9.996628567105731e+00
0	 3.571478919343873e+00	 3.214294394869492e+01	 9.997255064012432e+00
0	 3.571478919343873e+00	 3.285724463525451e+01	 9.997785551453921e+00
0	 3.571478919343873e+00	 3.357154598848280e+01	 9.998201617251112e+00
0	 3.571478919343873e+00	 3.428584784171236e+01	 9.998484849035657e+00
0	 3.571478919343872e+00	 3.500015002827574e+01	 9.998616834249949e+00
0	 3.571478919343873e+00	 3.571445238150555e+01	 9.998579160147163e+00
0	 4.285783286615008e+00	 2.857145634928704e+01	 9.993206503541465e+00
0	 4.285783286615009e+00	 2.928575120249186e+01	 9.994161588432505e+00
0	 4.285783286615008e+00	 3.000004755570248e+01	 9.995103439977562e+00
0	 4.285783286615008e+00	 3.071434524225148e+01	 9.996005509825730e+00
0	 4.285783286615008e+00	 3.142864409547142e+01	 9.996841249383850e+00
0	 4.285783286615008e+00	 3.214294394869491e+01	 9.997584109816527e+00
0	 4.285783286615007e+00	 3.285724463525450e+01	 9.998207542046124e+00
0	 4.285783286615009e+00	 3.357154598848280e+01	 9.998684996752742e+00
0	 4.285783286615010e+00	 3.428584784171235e+01	 9.998989924374298e+00
0	 4.285783286615008e+00	 3.500015002827575e+01	 9.999095775106452e+00
0	 4.285783286615009e+00	 3.571445238150556e+01	 9.998975998902626e+00
0	 5.000089153877975e+00	 2.857145634928704e+01	 9.993129672834444e+00
0	 5.000089153877975e+00	 2.928575120249186e+01	 9.994163392836004e+00
0	 5.000089153877976e+00	 3.000004755570248e+01	 9.995185353841201e+00
0	 5.000089153877975e+00	 3.071434524225147e+01	 9.996164966717227e+00
0	 5.000089153877978e+00	 3.142864409547143e+01	 9.997071642058447e+00
0	 5.000089153877977e+00	 3.214294394869492e+01	 9.997874790186492e+00
0	 5.000089153877975e+00	 3.285724463525450e+01	 9.998543821150150e+00
0	 5.000089153877975e+00	 3.357154598848280e+01	 9.999048144725453e+00
0	 5.000089153877974e+00	 3.428584784171235e+01	 9.999357170415667e+00
0	 5.000089153877974e+00	 3.500015002827575e+01	 9.999440307451280e+00
0	 5.000089153877975e+00	 3.571445238150555e+01	 9.999266964789982e+00
0	 5.714395937786080e+00	 2.857145634928703e+01	 9.993299480468826e+00
0	 5.714395937786079e+00	 2.928575120249185e+01	 9.994370104683142e+00
0	 5.714395937786082e+00	 3.000004755570248e+01	 9.995420916550636e+00
0	 5.714395937786080e+00	 3.071434524225147e+01	 9.996421382288480e+00
0	 5.714395937786081e+00	 3.142864409547143e+01	 9.997340967830322e+00
0	 5.714395937786081e+00	 3.214294394869491e+01	 9.998149138826291e+00
0	 5.714395937786081e+00	 3.285724463525451e+01	 9.998815360642991e+00
0	 5.714395937786082e+00	 3.357154598848280e+01	 9.999309098363527e+00
0	 5.714395937786080e+00	 3.428584784171235e+01	 9.999599816787493e+00
0	 5.714395937786081e+00	 3.500015002827575e+01	 9.999656980430990e+00
0	 5.714395937786081e+00	 3.571445238150557e+01	 9.999450053526612e+00
0	 6.428703054992631e+00	 2.857145634928704e+01	 9.993715177839988e+00
0	 6.428703054992629e+00	 2.928575120249186e+01	 9.994789277677508e+00
0	 6.428703054992630e+00	 3.000004755570247e+01	 9.995824111247360e+00
0	 6.428703054992631e+00	 3.071434524225149e+01	 9.996793296253646e+00
0	 6.428703054992629e+00	 3.142864409547143e+01	 9.997670450123385e+00
0	 6.428703054992630e+00	 3.214294394869491e+01	 9.998429190006544e+00
0	 6.428703054992629e+00	 3.285724463525450e+01	 9.999043132776047e+00
0	 6.428703054992628e+00	 3.357154598848280e+01	 9.999485895027778e+00
0	 6.428703054992627e+00	 3.428584784171233e+01	 9.999731093080534e+00
0	 6.428703054992628e+00	 3.500015002827574e+01	 9.999752342976135e+00
0	 6.428703054992629e+00	 3.571445238150555e+01	 9.999523260479311e+00
0	 7.143009922150926e+00	 2.857145634928704e+01	 9.994376016933362e+00
0	 7.143009922150928e+00	 2.928575120249186e+01	 9.995428466300011e+00
0	 7.143009922150926e+00	 3.000004755570247e+01	 9.996408921921425e+00
0	 7.143009922150928e+00	 3.071434524225147e+01	 9.997299249150650e+00
0	 7.143009922150927e+00	 3.142864409547143e+01	 9.998081313084702e+00
0	 7.143009922150926e+00	 3.214294394869490e+01	 9.998736978564553e+00
0	 7.143009922150926e+00	 3.285724463525450e+01	 9.999248110175190e+00
0	 7.143009922150926e+00	 3.357154598848279e+01	 9.999596572245551e+00
0	 7.143009922150926e+00	 3.428584784171235e+01	 9.999764228848587e+00
0	 7.143009922150927e+00	 3.500015002827575e+01	 9.999732943801227e+00
0	 7.143009922150928e+00	 3.571445238150556e+01	 9.999484580664387e+00
0	 0.000000000000000e+00	 3.571445238150555e+01	 9.995076998703544e+00
0	 0.000000000000000e+00	 3.642870477623359e+01	 9.996453675440836e+00
0	 0.000000000000000e+00	 3.714295725428858e+01	 9.997747730010202e+00
0	 0.000000000000000e+00	 3.785720989899839e+01	 9.998918007372774e+00
0	 0.000000000000000e+00	 3.857146279369101e+01	 9.999923352711999e+00
0	 0.000000000000000e+00	 3.928571602169433e+01	 1.000072261143366e+01
0	 0.000000000000000e+00	 3.999996966633629e+01	 1.000127462916594e+01
0	 0.000000000000000e+00	 4.071422381094481e+01	 1.000153825175931e+01
0	 0.000000000000000e+00	 4.142847853884783e+01	 1.000147232528661e+01
0	 0.000000000000000e+00	 4.214273393337328e+01	 1.000103569604300e+01
0	 0.000000000000000e+00	 4.285699007784908e+01	 1.000018721054602e+01
0	 7.142881171115512e-01	 3.571445238150555e+01	 9.995973149828675e+00
0	 7.142881171115512e-01	 3.642870477623359e+01	 9.996896192307952e+00
0	 7.142881171115512e-01	 3.714295725428858e+01	 9.997773674375580e+00
0	 7.142881171115513e-01	 3.785720989899840e+01	 9.998578726644515e+00
0	 7.142881171115513e-01	 3.857146279369100e+01	 9.999284479869608e+00
0	 7.142881171115513e-01	 3.928571602169433e+01	 9.999864064947534e+00
0	 7.142881171115515e-01	 3.999996966633629e+01	 1.000029061291692e+01
0	 7.142881171115513e-01	 4.071422381094482e+01	 1.000053725495822e+01
0	 7.142881171115513e-01	 4.142847853884783e+01	 1.000057712239377e+01
0	 7.142881171115513e-01	 4.214273393337328e+01	 1.000038334668778e+01
0	 7.142881171115514e-01	 4.285699007784908e+01	 9.999929059446359e+00
0	 1.428580650948409e+00	 3.571445238150557e+01	 9.996773444240752e+00
0	 1.428580650948409e+00	 3.642870477623361e+01	 9.997328070676492e+00
0	 1.428580650948410e+00	 3.714295725428857e+01	 9.997863455600685e+00
0	 1.428580650948409e+00	 3.785720989899838e+01	 9.998364946995626e+00
0	 1.428580650948409e+00	 3.857146279369102e+01	 9.998817892920334e+00
0	 1.428580650948410e+00	 3.928571602169433e+01	 9.999207641510552e+00
0	 1.428580650948410e+00	 3.999996966633629e+01	 9.999519540978694e+00
0	 1.428580650948409e+00	 4.071422381094482e+01	 9.999738939613923e+00
0	 1.428580650948409e+00	 4.142847853884785e+01	 9.999851185782079e+00
0	 1.428580650948409e+00	 4.214273393337326e+01	 9.999841627925734e+00
0	 1.428580650948409e+00	 4.285699007784908e+01	 9.999695614564146e+00
0	 2.142877018163879e+00	 3.571445238150555e+01	 9.997475879409922e+00
0	 2.142877018163878e+00	 3.642870477623360e+01	 9.997738824066671e+00
0	 2.142877018163878e+00	 3.714295725428858e+01	 9.998000112847237e+00
0	 2.142877018163878e+00	 3.785720989899839e+01	 9.998255242887755e+00
0	 2.142877018163877e+00	 3.857146279369101e+01	 9.998499711349785e+00
0	 2.142877018163878e+00	 3.928571602169432e+01	 9.998729015420340e+00
0	 2.142877018163878e+00	 3.999996966633628e+01	 9.998938652311859e+00
0	 2.142877018163878e+00	 4.071422381094482e+01	 9.999124119262232e+00
0	 2.142877018163879e+00	 4.142847853884784e+01	 9.999280913534767e+00
0	 2.142877018163878e+00	 4.214273393337328e+01	 9.999404532418202e+00
0	 2.142877018163878e+00	 4.285699007784906e+01	 9.999490473226755e+00
0	 2.857176635411265e+00	 3.571445238150556e+01	 9.998078452455736e+00
0	 2.857176635411265e+00	 3.642870477623360e+01	 9.998117965573169e+00
0	 2.857176635411264e+00	 3.714295725428858e+01	 9.998166684830975e+00
0	 2.857176635411264e+00	 3.785720989899839e+01	 9.998228188360422e+00
0	 2.857176635411264e+00	 3.857146279369100e+01	 9.998306054279450e+00
0	 2.857176635411265e+00	 3.928571602169433e+01	 9.998403860692649e+00
0	 2.857176635411265e+00	 3.999996966633628e+01	 9.998525185691218e+00
0	 2.857176635411264e+00	 4.071422381094482e+01	 9.998673607353048e+00
0	 2.857176635411264e+00	 4.142847853884783e+01	 9.998852703742687e+00
0	 2.857176635411265e+00	 4.214273393337328e+01	 9.999066052911303e+00
0	 2.857176635411264e+00	 4.285699007784908e+01	 9.999317232896749e+00
0	 3.571478919343873e+00	 3.571445238150555e+01	 9.998579160147163e+00
0	 3.571478919343872e+00	 3.642870477623359e+01	 9.998455007865129e+00
0	 3.571478919343873e+00	 3.714295725428858e+01	 9.998346209821616e+00
0	 3.571478919343872e+00	 3.785720989899839e+01	 9.998262357031070e+00
0	 3.571478919343873e+00	 3.857146279369100e+01	 9.998213040466851e+00
0	 3.571478919343872e+00	 3.928571602169433e+01	 9.998207851061331e+00
0	 3.571478919343872e+00	 3.999996966633629e+01	 9.998256379705760e+00
0	 3.571478919343872e+00	 4.071422381094479e+01	 9.998368217250380e+00
0	 3.571478919343873e+00	 4.142847853884784e+01	 9.998552954504369e+00
0	 3.571478919343873e+00	 4.214273393337328e+01	 9.998820182235859e+00
0	 3.571478919343873e+00	 4.285699007784908e+01	 9.999179491171901e+00
0	 4.285783286615009e+00	 3.571445238150556e+01	 9.998975998902626e+00
0	 4.285783286615008e+00	 3.642870477623359e+01	 9.998739463186222e+00
0	 4.285783286615007e+00	 3.714295725428858e+01	 9.998521725642954e+00
0	 4.285783286615009e+00	 3.785720989899840e+01	 9.998336322094998e+00
0	 4.285783286615009e+00	 3.857146279369101e+01	 9.998196788305464e+00
0	 4.285783286615009e+00	 3.928571602169433e+01	 9.998116659978393e+00
0	 4.285783286615008e+00	 3.999996966633629e+01	 9.998109472758728e+00
0	 4.285783286615009e+00	 4.071422381094481e+01	 9.998188762232337e+00
0	 4.285783286615009e+00	 4.142847853884784e+01	 9.998368063926007e+00
0	 4.285783286615009e+00	 4.214273393337329e+01	 9.998660913307424e+00
0	 4.285783286615008e+00	 4.285699007784908e+01	 9.999080845785237e+00
0	 5.000089153877975e+00	 3.571445238150555e+01	 9.999266964789982e+00
0	 5.000089153877975e+00	 3.642870477623359e+01	 9.998960843354645e+00
0	 5.000089153877975e+00	 3.714295725428857e+01	 9.998676269672810e+00
0	 5.000089153877975e+00	 3.785720989899840e+01	 9.998428656325476e+00
0	 5.000089153877976e+00	 3.857146279369100e+01	 9.998233415824766e+00
0	 5.000089153877976e+00	 3.928571602169433e+01	 9.998105960613984e+00
0	 5.000089153877977e+00	 3.999996966633629e+01	 9.998061703067570e+00
0	 5.000089153877975e+00	 4.071422381094481e+01	 9.998116055491122e+00
0	 5.000089153877976e+00	 4.142847853884784e+01	 9.998284430121398e+00
0	 5.000089153877975e+00	 4.214273393337327e+01	 9.998582239126307e+00
0	 5.000089153877976e+00	 4.285699007784908e+01	 9.999024894604922e+00
0	 5.714395937786081e+00	 3.571445238150557e+01	 9.999450053526612e+00
0	 5.714395937786083e+00	 3.642870477623359e+01	 9.999108659763120e+00
0	 5.714395937786080e+00	 3.714295725428857e+01	 9.998792878843130e+00
0	 5.714395937786082e+00	 3.785720989899841e+01	 9.998517932073742e+00
0	 5.714395937786081e+00	 3.857146279369100e+01	 9.998299040690300e+00
0	 5.714395937786080e+00	 3.928571602169432e+01	 9.998151425856433e+00
0	 5.714395937786080e+00	 3.999996966633628e+01	 9.998090308663977e+00
0	 5.714395937786082e+00	 4.071422381094482e+01	 9.998130910133062e+00
0	 5.714395937786080e+00	 4.142847853884783e+01	 9.998288451212026e+00
0	 5.714395937786081e+00	 4.214273393337327e+01	 9.998578152777499e+00
0	 5.714395937786082e+00	 4.285699007784908e+01	 9.999015235634339e+00
0	 6.428703054992629e+00	 3.571445238150555e+01	 9.999523260479311e+00
0	 6.428703054992629e+00	 3.642870477623360e+01	 9.999172423378933e+00
0	 6.428703054992628e+00	 3.714295725428856e+01	 9.998854589639899e+00
0	 6.428703054992631e+00	 3.785720989899841e+01	 9.998582721268942e+00
0	 6.428703054992630e+00	 3.857146279369101e+01	 9.998369780203603e+00
0	 6.428703054992627e+00	 3.928571602169432e+01	 9.998228728312199e+00
0	 6.428703054992628e+00	 3.999996966633628e+01	 9.998172527393875e+00
0	 6.428703054992629e+00	 4.071422381094480e+01	 9.998214139178568e+00
0	 6.428703054992630e+00	 4.142847853884783e+01	 9.998366525327000e+00
0	 6.428703054992630e+00	 4.214273393337327e+01	 9.998642647430721e+00
0	 6.428703054992629e+00	 4.285699007784908e+01	 9.999055467012068e+00
0	 7.143009922150928e+00	 3.571445238150556e+01	 9.999484580664387e+00
0	 7.143009922150929e+00	 3.642870477623360e+01	 9.999141644743894e+00
0	 7.143009922150926e+00	 3.714295725428856e+01	 9.998844438103205e+00
0	 7.143009922150927e+00	 3.785720989899839e+01	 9.998601595418219e+00
0	 7.143009922150927e+00	 3.857146279369102e+01	 9.998421751302233e+00
0	 7.143009922150926e+00	 3.928571602169433e+01	 9.998313540305933e+00
0	 7.143009922150926e+00	 3.999996966633628e+01	 9.998285596917425e+00
0	 7.143009922150926e+00	 4.071422381094481e+01	 9.998346555562179e+00
0	 7.143009922150927e+00	 4.142847853884783e+01	 9.998505050603077e+00
0	 7.143009922150926e+00	 4.214273393337328e+01	 9.998769716340412e+00
0	 7.143009922150927e+00	 4.285699007784908e+01	 9.999149187011851e+00
0	 0.000000000000000e+00	 4.285699007784908e+01	 1.000018721054602e+01
0	 0.000000000000000e+00	 4.357129694500737e+01	 9.999220802038254e+00
0	 0.000000000000000e+00	 4.428560406221392e+01	 9.998478408841883e+00
0	 0.000000000000000e+00	 4.499991084612202e+01	 9.997990662149896e+00
0	 0.000000000000000e+00	 4.571421671338500e+01	 9.997788194766354e+00
0	 0.000000000000000e+00	 4.642852108065614e+01	 9.997901641106203e+00
0	 0.000000000000000e+00	 4.714282336458874e+01	 9.998361637195408e+00
0	 0.000000000000000e+00	 4.785712298183613e+01	 9.999198820671037e+00
0	 0.000000000000000e+00	 4.857141934905160e+01	 1.000044383078118e+01
0	 0.000000000000000e+00	 4.928571188288846e+01	 1.000212730838521e+01
0	 0.000000000000000e+00	 5.000000000000000e+01	 1.000427989595376e+01
0	 7.142881171115514e-01	 4.285699007784908e+01	 9.999929059446357e+00
0	 7.142881171115515e-01	 4.357129694500738e+01	 9.999389773881330e+00
0	 7.142881171115514e-01	 4.428560406221393e+01	 9.998972364456062e+00
0	 7.142881171115513e-01	 4.499991084612201e+01	 9.998696880804697e+00
0	 7.142881171115512e-01	 4.571421671338499e+01	 9.998583373475425e+00
0	 7.142881171115517e-01	 4.642852108065615e+01	 9.998651893930445e+00
0	 7.142881171115510e-01	 4.714282336458873e+01	 9.998922494545944e+00
0	 7.142881171115514e-01	 4.785712298183613e+01	 9.999415228612264e+00
0	 7.142881171115514e-01	 4.857141934905159e+01	 1.000015015033371e+01
0	 7.142881171115514e-01	 4.928571188288846e+01	 1.000114731482879e+01
0	 7.142881171115513e-01	 5.000000000000001e+01	 1.000242677813018e+01
0	 1.428580650948409e+00	 4.285699007784908e+01	 9.999695614564143e+00
0	 1.428580650948410e+00	 4.357129694500738e+01	 9.999495051303864e+00
0	 1.428580650948409e+00	 4.428560406221393e+01	 9.999339004592962e+00
0	 1.428580650948409e+00	 4.499991084612203e+01	 9.999238518527667e+00
0	 1.428580650948410e+00	 4.571421671338501e+01	 9.999204637571680e+00
0	 1.428580650948409e+00	 4.642852108065613e+01	 9.999248406556216e+00
0	 1.428580650948409e+00	 4.714282336458876e+01	 9.999380870679961e+00
0	 1.428580650948409e+00	 4.785712298183613e+01	 9.999613075509133e+00
0	 1.428580650948410e+00	 4.857141934905160e+01	 9.999956066977418e+00
0	 1.428580650948409e+00	 4.928571188288845e+01	 1.000042089138610e+01
0	 1.428580650948409e+00	 4.999999999999999e+01	 1.000101859540399e+01
0	 2.142877018163878e+00	 4.285699007784906e+01	 9.999490473226755e+00
0	 2.142877018163878e+00	 4.357129694500737e+01	 9.999549211726668e+00
0	 2.142877018163880e+00	 4.428560406221393e+01	 9.999596625995252e+00
0	 2.142877018163878e+00	 4.499991084612202e+01	 9.999636330575749e+00
0	 2.142877018163878e+00	 4.571421671338499e+01	 9.999671939966850e+00
0	 2.142877018163878e+00	 4.642852108065613e+01	 9.999707068622653e+00
0	 2.142877018163879e+00	 4.714282336458875e+01	 9.999745330952727e+00
0	 2.142877018163878e+00	 4.785712298183613e+01	 9.999790341322015e+00
0	 2.142877018163878e+00	 4.857141934905159e+01	 9.999845714050874e+00
0	 2.142877018163879e+00	 4.928571188288848e+01	 9.999915063415189e+00
0	 2.142877018163878e+00	 4.999999999999999e+01	 1.000000200364603e+01
0	 2.857176635411264e+00	 4.285699007784908e+01	 9.999317232896747e+00
0	 2.857176635411265e+00	 4.357129694500736e+01	 9.999564832722552e+00
0	 2.857176635411265e+00	 4.428560406221392e+01	 9.999763525545244e+00
0	 2.857176635411264e+00	 4.499991084612205e+01	 9.999911072311908e+00
0	 2.857176635411265e+00	 4.571421671338501e+01	 1.000000523363149e+01
0	 2.857176635411264e+00	 4.642852108065615e+01	 1.000004376977472e+01
0	 2.857176635411265e+00	 4.714282336458874e+01	 1.000002444067421e+01
0	 2.857176635411265e+00	 4.785712298183613e+01	 9.999945005924396e+00
0	 2.857176635411265e+00	 4.857141934905161e+01	 9.999803224781525e+00
0	 2.857176635411264e+00	 4.928571188288846e+01	 9.999596856163665e+00
0	 2.857176635411265e+00	 5.000000000000000e+01	 9.999323658650569e+00
0	 3.571478919343873e+00	 4.285699007784908e+01	 9.999179491171903e+00
0	 3.571478919343873e+00	 4.357129694500737e+01	 9.999554492016191e+00
0	 3.571478919343872e+00	 4.428560406221392e+01	 9.999858000264901e+00
0	 3.571478919343873e+00	 4.499991084612203e+01	 1.000008349920518e+01
0	 3.571478919343873e+00	 4.571421671338500e+01	 1.000022447159503e+01
0	 3.571478919343873e+00	 4.642852108065613e+01	 1.000027439966316e+01
0	 3.571478919343873e+00	 4.714282336458874e+01	 1.000022676510902e+01
0	 3.571478919343873e+00	 4.785712298183614e+01	 1.000007504910288e+01
0	 3.571478919343873e+00	 4.857141934905161e+01	 9.999812732285635e+00
0	 3.571478919343874e+00	 4.928571188288846e+01	 9.999433294768927e+00
0	 3.571478919343873e+00	 5.000000000000000e+01	 9.998930216135090e+00
0	 4.285783286615008e+00	 4.285699007784908e+01	 9.999080845785237e+00
0	 4.285783286615007e+00	 4.357129694500736e+01	 9.999530767484240e+00
0	 4.285783286615008e+00	 4.428560406221392e+01	 9.999898347315728e+00
0	 4.285783286615008e+00	 4.499991084612202e+01	 1.000017436683053e+01
0	 4.285783286615009e+00	 4.571421671338499e+01	 1.000034960694573e+01
0	 4.285783286615009e+00	 4.642852108065614e+01	 1.000041484794455e+01
0	 4.285783286615009e+00	 4.714282336458876e+01	 1.000036086947649e+01
0	 4.285783286615008e+00	 4.785712298183612e+01	 1.000017845055717e+01
0	 4.285783286615009e+00	 4.857141934905160e+01	 9.999858369568388e+00
0	 4.285783286615008e+00	 4.928571188288846e+01	 9.999391404258054e+00
0	 4.285783286615008e+00	 5.000000000000000e+01	 9.998768331740264e+00
0	 5.000089153877976e+00	 4.285699007784908e+01	 9.999024894604919e+00
0	 5.000089153877976e+00	 4.357129694500737e+01	 9.999506237155229e+00
0	 5.000089153877976e+00	 4.428560406221393e+01	 9.999902863998926e+00
0	 5.000089153877974e+00	 4.499991084612203e+01	 1.000020443086903e+01
0	 5.000089153877974e+00	 4.571421671338500e+01	 1.000040059283070e+01
0	 5.000089153877977e+00	 4.642852108065615e+01	 1.000048100428136e+01
0	 5.000089153877976e+00	 4.714282336458875e+01	 1.000043531895057e+01
0	 5.000089153877974e+00	 4.785712298183613e+01	 1.000025318990014e+01
0	 5.000089153877975e+00	 4.857141934905160e+01	 9.999924269523918e+00
0	 5.000089153877977e+00	 4.928571188288846e+01	 9.999438209547920e+00
0	 5.000089153877976e+00	 5.000000000000000e+01	 9.998784661030175e+00
0	 5.714395937786082e+00	 4.285699007784908e+01	 9.999015235634335e+00
0	 5.714395937786081e+00	 4.357129694500737e+01	 9.999493479209608e+00
0	 5.714395937786082e+00	 4.428560406221392e+01	 9.999889847755252e+00
0	 5.714395937786083e+00	 4.499991084612203e+01	 1.000019444710765e+01
0	 5.714395937786080e+00	 4.571421671338499e+01	 1.000039738245588e+01
0	 5.714395937786080e+00	 4.642852108065614e+01	 1.000048875834179e+01
0	 5.714395937786080e+00	 4.714282336458874e+01	 1.000045867865997e+01
0	 5.714395937786080e+00	 4.785712298183615e+01	 1.000029724665776e+01
0	 5.714395937786082e+00	 4.857141934905160e+01	 9.999994564935157e+00
0	 5.714395937786081e+00	 4.928571188288847e+01	 9.999540735444878e+00
0	 5.714395937786080e+00	 4.999999999999999e+01	 9.998925859492232e+00
0	 6.428703054992629e+00	 4.285699007784908e+01	 9.999055467012068e+00
0	 6.428703054992631e+00	 4.357129694500737e+01	 9.999505071979709e+00
0	 6.428703054992630e+00	 4.428560406221391e+01	 9.999877596165087e+00
0	 6.428703054992629e+00	 4.499991084612203e+01	 1.000016517143948e+01
0	 6.428703054992631e+00	 4.571421671338499e+01	 1.000035992908606e+01
0	 6.428703054992629e+00	 4.642852108065614e+01	 1.000045399979991e+01
0	 6.428703054992628e+00	 4.714282336458874e+01	 1.000043951368797e+01
0	 6.428703054992630e+00	 4.785712298183614e+01	 1.000030860026911e+01
0	 6.428703054992630e+00	 4.857141934905160e+01	 1.000005338847403e+01
0	 6.428703054992631e+00	 4.928571188288846e+01	 9.999666006645187e+00
0	 6.428703054992629e+00	 5.000000000000000e+01	 9.999138582536951e+00
0	 7.143009922150927e+00	 4.285699007784908e+01	 9.999149187011851e+00
0	 7.143009922150927e+00	 4.357129694500738e+01	 9.999553593949786e+00
0	 7.143009922150926e+00	 4.428560406221391e+01	 9.999884406948377e+00
0	 7.143009922150925e+00	 4.499991084612201e+01	 1.000013735986353e+01
0	 7.143009922150927e+00	 4.571421671338501e+01	 1.000030818604486e+01
0	 7.143009922150927e+00	 4.642852108065613e+01	 1.000039261833558e+01
0	 7.143009922150925e+00	 4.714282336458874e+01	 1.000038638907261e+01
0	 7.143009922150926e+00	 4.785712298183612e+01	 1.000028523008647e+01
0	 7.143009922150928e+00	 4.857141934905161e+01	 1.000008487270127e+01
0	 7.143009922150927e+00	 4.928571188288848e+01	 9.999781047734777e+00
0	 7.143009922150927e+00	 5.000000000000001e+01	 9.999369485498267e+00
0	 7.143009922150927e+00	 0.000000000000000e+00	 1.003736080539681e+01
0	 7.143009922150926e+00	 7.142881171115513e-01	 1.002569085027425e+01
0	 7.143009922150926e+00	 1.428580650948409e+00	 1.002025783988621e+01
0	 7.143009922150927e+00	 2.142877018163878e+00	 1.001969104432606e+01
0	 7.143009922150926e+00	 2.857176635411264e+00	 1.002261971393784e+01
0	 7.143009922150926e+00	 3.571478919343873e+00	 1.002767307931758e+01
0	 7.143009922150926e+00	 4.285783286615008e+00	 1.003348035131430e+01
0	 7.143009922150927e+00	 5.000089153877976e+00	 1.003867072103086e+01
0	 7.143009922150926e+00	 5.714395937786080e+00	 1.004187335982449e+01
0	 7.143009922150927e+00	 6.428703054992628e+00	 1.004171741930711e+01
0	 7.143009922150927e+00	 7.143009922150927e+00	 1.003683203134545e+01
0	 7.857266066626719e+00	 0.000000000000000e+00	 1.000226931728411e+01
0	 7.857266066626720e+00	 7.142881171115513e-01	 1.000593932224690e+01
0	 7.857266066626718e+00	 1.428580650948409e+00	 1.001194153047794e+01
0	 7.857266066626721e+00	 2.142877018163879e+00	 1.001940702147794e+01
0	 7.857266066626720e+00	 2.857176635411265e+00	 1.002746685321470e+01
0	 7.857266066626721e+00	 3.571478919343873e+00	 1.003525206212448e+01
0	 7.857266066626718e+00	 4.285783286615009e+00	 1.004189366311327e+01
0	 7.857266066626718e+00	 5.000089153877975e+00	 1.004652264955765e+01
0	 7.857266066626718e+00	 5.714395937786079e+00	 1.004826999330547e+01
0	 7.857266066626719e+00	 6.428703054992632e+00	 1.004626664467632e+01
0	 7.857266066626718e+00	 7.143009922150926e+00	 1.003964353246154e+01
0	 8.571521461152161e+00	 0.000000000000000e+00	 9.979824111730448e+00
0	 8.571521461152166e+00	 7.142881171115514e-01	 9.994198848463075e+00
0	 8.571521461152162e+00	 1.428580650948409e+00	 1.000788631162988e+01
0	 8.571521461152162e+00	 2.142877018163878e+00	 1.002044748062493e+01
0	 8.571521461152162e+00	 2.857176635411264e+00	 1.003144331342556e+01
0	 8.571521461152164e+00	 3.571478919343873e+00	 1.004043474659385e+01
0	 8.571521461152164e+00	 4.285783286615009e+00	 1.004698269527787e+01
0	 8.571521461152159e+00	 5.000089153877974e+00	 1.005064805321261e+01
0	 8.571521461152161e+00	 5.714395937786080e+00	 1.005099169272068e+01
0	 8.571521461152164e+00	 6.428703054992630e+00	 1.004757446471277e+01
0	 8.571521461152162e+00	 7.143009922150928e+00	 1.003995719868780e+01
0	 9.285776189055182e+00	 0.000000000000000e+00	 9.968137162164366e+00
0	 9.285776189055186e+00	 7.142881171115514e-01	 9.989136603011799e+00
0	 9.285776189055182e+00	 1.428580650948410e+00	 1.000724324875331e+01
0	 9.285776189055181e+00	 2.142877018163878e+00	 1.002237607121892e+01
0	 9.285776189055186e+00	 2.857176635411265e+00	 1.003445402248854e+01
0	 9.285776189055184e+00	 3.571478919343873e+00	 1.004339603489340e+01
0	 9.285776189055184e+00	 4.285783286615009e+00	 1.004912102101715e+01
0	 9.285776189055182e+00	 5.000089153877974e+00	 1.005154787369680e+01
0	 9.285776189055182e+00	 5.714395937786081e+00	 1.005059546602338e+01
0	 9.285776189055186e+00	 6.428703054992631e+00	 1.004618265134236e+01
0	 9.285776189055184e+00	 7.143009922150926e+00	 1.003822826325382e+01
0	 1.000003033366371e+01	 0.000000000000000e+00	 9.965320441567098e+00
0	 1.000003033366371e+01	 7.142881171115514e-01	 9.989419760532400e+00
0	 1.000003033366371e+01	 1.428580650948409e+00	 1.000916340845908e+01
0	 1.000003033366371e+01	 2.142877018163878e+00	 1.002475644426272e+01
0	 1.000003033366371e+01	 2.857176635411265e+00	 1.003640390997642e+01
0	 1.000003033366371e+01	 3.571478919343873e+00	 1.004431083075190e+01
0	 1.000003033366371e+01	 4.285783286615008e+00	 1.004868221486061e+01
0	 1.000003033366371e+01	 5.000089153877975e+00	 1.004972305369445e+01
0	 1.000003033366371e+01	 5.714395937786081e+00	 1.004763832176638e+01
0	 1.000003033366371e+01	 6.428703054992629e+00	 1.004263297671081e+01
0	 1.000003033366371e+01	 7.143009922150926e+00	 1.003491195928377e+01
0	 1.071428397830567e+01	 0.000000000000000e+00	 9.969485922472543e+00
0	 1.071428397830567e+01	 7.142881171115514e-01	 9.993715496214520e+00
0	 1.071428397830567e+01	 1.428580650948409e+00	 1.001279785855768e+01
0	 1.071428397830567e+01	 2.142877018163879e+00	 1.002715225231016e+01
0	 1.071428397830567e+01	 2.857176635411265e+00	 1.003719790711663e+01
0	 1.071428397830567e+01	 3.571478919343873e+00	 1.004335403945918e+01
0	 1.071428397830567e+01	 4.285783286615008e+00	 1.004603985265820e+01
0	 1.071428397830567e+01	 5.000089153877975e+00	 1.004567453687295e+01
0	 1.071428397830567e+01	 5.714395937786082e+00	 1.004267726910204e+01
0	 1.071428397830567e+01	 6.428703054992630e+00	 1.003746721318381e+01
0	 1.071428397830567e+01	 7.143009922150928e+00	 1.003046351979639e+01
0	 1.142853720630899e+01	 0.000000000000000e+00	 9.978745576967302e+00
0	 1.142853720630899e+01	 7.142881171115514e-01	 1.000069098579809e+01
0	 1.142853720630899e+01	 1.428580650948409e+00	 1.001729766805922e+01
0	 1.142853720630899e+01	 2.142877018163878e+00	 1.002912714946602e+01
0	 1.142853720630899e+01	 2.857176635411265e+00	 1.003674094679131e+01
0	 1.142853720630899e+01	 3.571478919343873e+00	 1.004070056786615e+01
0	 1.142853720630899e+01	 4.285783286615008e+00	 1.004156751158033e+01
0	 1.142853720630899e+01	 5.000089153877976e+00	 1.003990326788286e+01
0	 1.142853720630899e+01	 5.714395937786080e+00	 1.003626931778227e+01
0	 1.142853720630899e+01	 6.428703054992629e+00	 1.003122713334692e+01
0	 1.142853720630899e+01	 7.143009922150926e+00	 1.002533817770501e+01
0	 1.214279010100160e+01	 0.000000000000000e+00	 9.991211376690615e+00
0	 1.214279010100160e+01	 7.142881171115514e-01	 1.000901340557336e+01
0	 1.214279010100159e+01	 1.428580650948409e+00	 1.002181390717349e+01
0	 1.214279010100159e+01	 2.142877018163878e+00	 1.003024479138609e+01
0	 1.214279010100160e+01	 2.857176635411265e+00	 1.003493796353733e+01
0	 1.214279010100160e+01	 3.571478919343873e+00	 1.003652532438480e+01
0	 1.214279010100160e+01	 4.285783286615009e+00	 1.003563877011788e+01
0	 1.214279010100160e+01	 5.000089153877975e+00	 1.003291019235795e+01
0	 1.214279010100160e+01	 5.714395937786080e+00	 1.002897147815856e+01
0	 1.214279010100160e+01	 6.428703054992629e+00	 1.002445451000564e+01
0	 1.214279010100160e+01	 7.143009922150926e+00	 1.001999116581753e+01
0	 1.285704274571142e+01	 0.000000000000000e+00	 1.000499529283441e+01
0	 1.285704274571142e+01	 7.142881171115512e-01	 1.001734993238088e+01
0	 1.285704274571142e+01	 1.428580650948410e+00	 1.002549764730989e+01
0	 1.285704274571142e+01	 2.142877018163878e+00	 1.003006883527719e+01
0	 1.285704274571142e+01	 2.857176635411265e+00	 1.003169389354623e+01
0	 1.285704274571143e+01	 3.571478919343873e+00	 1.003100321898824e+01
0	 1.285704274571142e+01	 4.285783286615008e+00	 1.002862720808224e+01
0	 1.285704274571142e+01	 5.000089153877977e+00	 1.002519625691518e+01
0	 1.285704274571142e+01	 5.714395937786080e+00	 1.002134076118192e+01
0	 1.285704274571142e+01	 6.428703054992629e+00	 1.001769111618536e+01
0	 1.285704274571143e+01	 7.143009922150927e+00	 1.001487771683639e+01
0	 1.357129522376639e+01	 0.000000000000000e+00	 1.001820929614329e+01
0	 1.357129522376640e+01	 7.142881171115514e-01	 1.002436774361153e+01
0	 1.357129522376639e+01	 1.428580650948409e+00	 1.002749996107748e+01
0	 1.357129522376640e+01	 2.142877018163878e+00	 1.002816293989713e+01
0	 1.357129522376639e+01	 2.857176635411264e+00	 1.002691367466432e+01
0	 1.357129522376639e+01	 3.571478919343872e+00	 1.002430916321065e+01
0	 1.357129522376640e+01	 4.285783286615009e+00	 1.002090640660525e+01
0	 1.357129522376640e+01	 5.000089153877975e+00	 1.001726240915471e+01
0	 1.357129522376639e+01	 5.714395937786080e+00	 1.001393417840299e+01
0	 1.357129522376639e+01	 6.428703054992629e+00	 1.001147872513141e+01
0	 1.357129522376639e+01	 7.143009922150926e+00	 1.001045306335867e+01
0	 1.428554761849444e+01	 0.000000000000000e+00	 1.002896535691448e+01
0	 1.428554761849444e+01	 7.142881171115513e-01	 1.002873401720648e+01
0	 1.428554761849444e+01	 1.428580650948410e+00	 1.002697192228501e+01
0	 1.428554761849444e+01	 2.142877018163878e+00	 1.002409076555474e+01
0	 1.428554761849445e+01	 2.857176635411265e+00	 1.002050224639261e+01
0	 1.428554761849444e+01	 3.571478919343873e+00	 1.001661807014737e+01
0	 1.428554761849444e+01	 4.285783286615009e+00	 1.001284994813928e+01
0	 1.428554761849444e+01	 5.000089153877974e+00	 1.000960959765990e+01
0	 1.428554761849444e+01	 5.714395937786081e+00	 1.000730874197192e+01
0	 1.428554761849444e+01	 6.428703054992629e+00	 1.000635911030904e+01
0	 1.428554761849444e+01	 7.143009922150925e+00	 1.000717243787595e+01
0	 7.143009922150927e+00	 7.143009922150927e+00	 1.003683203134545e+01
0	 7.143009922150926e+00	 7.857266066626718e+00	 1.002900981473100e+01
0	 7.143009922150929e+00	 8.571521461152162e+00	 1.002112970575003e+01
0	 7.143009922150926e+00	 9.285776189055184e+00	 1.001345191523541e+01
0	 7.143009922150927e+00	 1.000003033366371e+01	 1.000623665279355e+01
0	 7.143009922150926e+00	 1.071428397830567e+01	 9.999744126804288e+00
0	 7.143009922150925e+00	 1.142853720630899e+01	 9.994234544420946e+00
0	 7.143009922150927e+00	 1.214279010100160e+01	 9.989968111570306e+00
0	 7.143009922150928e+00	 1.285704274571143e+01	 9.987205032952602e+00
0	 7.143009922150926e+00	 1.357129522376639e+01	 9.986205512041497e+00
0	 7.143009922150930e+00	 1.428554761849445e+01	 9.987229751084090e+00
0	 7.857266066626718e+00	 7.143009922150926e+00	 1.003964353246154e+01
0	 7.857266066626719e+00	 7.857266066626718e+00	 1.003066674768695e+01
0	 7.857266066626720e+00	 8.571521461152162e+00	 1.002226970246405e+01
0	 7.857266066626720e+00	 9.285776189055186e+00	 1.001458622698380e+01
0	 7.857266066626719e+00	 1.000003033366371e+01	 1.000775015035847e+01
0	 7.857266066626719e+00	 1.071428397830567e+01	 1.000189530062166e+01
0	 7.857266066626720e+00	 1.142853720630899e+01	 9.997155504728248e+00
0	 7.857266066626721e+00	 1.214279010100160e+01	 9.993664588554392e+00
0	 7.857266066626718e+00	 1.285704274571142e+01	 9.991556376897561e+00
0	 7.857266066626720e+00	 1.357129522376639e+01	 9.990964693476466e+00
0	 7.857266066626718e+00	 1.428554761849444e+01	 9.992023360931100e+00
0	 8.571521461152162e+00	 7.143009922150928e+00	 1.003995719868780e+01
0	 8.571521461152162e+00	 7.857266066626720e+00	 1.003060343921021e+01
0	 8.571521461152162e+00	 8.571521461152162e+00	 1.002228624271354e+01
0	 8.571521461152161e+00	 9.285776189055182e+00	 1.001503276110161e+01
0	 8.571521461152162e+00	 1.000003033366371e+01	 1.000887014538316e+01
0	 8.571521461152164e+00	 1.071428397830567e+01	 1.000382554567177e+01
0	 8.571521461152164e+00	 1.142853720630899e+01	 9.999926111185900e+00
0	 8.571521461152159e+00	 1.214279010100159e+01	 9.997198990248883e+00
0	 8.571521461152162e+00	 1.285704274571142e+01	 9.995671330288872e+00
0	 8.571521461152161e+00	 1.357129522376639e+01	 9.995370277838878e+00
0	 8.571521461152162e+00	 1.428554761849444e+01	 9.996322978536753e+00
0	 9.285776189055184e+00	 7.143009922150926e+00	 1.003822826325382e+01
0	 9.285776189055184e+00	 7.857266066626718e+00	 1.002916056414407e+01
0	 9.285776189055181e+00	 8.571521461152162e+00	 1.002142068969472e+01
0	 9.285776189055184e+00	 9.285776189055182e+00	 1.001494881605337e+01
0	 9.285776189055184e+00	 1.000003033366371e+01	 1.000968511868114e+01
0	 9.285776189055184e+00	 1.071428397830567e+01	 1.000556977235266e+01
0	 9.285776189055184e+00	 1.142853720630899e+01	 1.000254295115601e+01
0	 9.285776189055184e+00	 1.214279010100160e+01	 1.000054482849280e+01
0	 9.285776189055182e+00	 1.285704274571142e+01	 9.999515577078087e+00
0	 9.285776189055182e+00	 1.357129522376639e+01	 9.999395368940446e+00
0	 9.285776189055182e+00	 1.428554761849444e+01	 1.000012437542189e+01
0	 1.000003033366371e+01	 7.143009922150926e+00	 1.003491195928377e+01
0	 1.000003033366371e+01	 7.857266066626718e+00	 1.002667879699498e+01
0	 1.000003033366371e+01	 8.571521461152162e+00	 1.001991440612645e+01
0	 1.000003033366371e+01	 9.285776189055182e+00	 1.001449168976274e+01
0	 1.000003033366371e+01	 1.000003033366371e+01	 1.001028355052489e+01
0	 1.000003033366371e+01	 1.071428397830567e+01	 1.000716289057047e+01
0	 1.000003033366371e+01	 1.142853720630899e+01	 1.000500261159357e+01
0	 1.000003033366371e+01	 1.214279010100160e+01	 1.000367561482477e+01
0	 1.000003033366371e+01	 1.285704274571143e+01	 1.000305480103116e+01
0	 1.000003033366371e+01	 1.357129522376639e+01	 1.000301307051636e+01
0	 1.000003033366371e+01	 1.428554761849444e+01	 1.000342332312043e+01
0	 1.071428397830567e+01	 7.143009922150928e+00	 1.003046351979639e+01
0	 1.071428397830567e+01	 7.857266066626718e+00	 1.002349881193260e+01
0	 1.071428397830567e+01	 8.571521461152164e+00	 1.001800875425028e+01
0	 1.071428397830567e+01	 9.285776189055184e+00	 1.001381867961252e+01
0	 1.071428397830567e+01	 1.000003033366371e+01	 1.001075392064569e+01
0	 1.071428397830567e+01	 1.071428397830567e+01	 1.000863980973940e+01
0	 1.071428397830567e+01	 1.142853720630899e+01	 1.000730167904649e+01
0	 1.071428397830567e+01	 1.214279010100160e+01	 1.000656486048307e+01
0	 1.071428397830567e+01	 1.285704274571142e+01	 1.000625468572849e+01
0	 1.071428397830567e+01	 1.357129522376639e+01	 1.000619648622532e+01
0	 1.071428397830567e+01	 1.428554761849444e+01	 1.000621559317938e+01
0	 1.142853720630899e+01	 7.143009922150926e+00	 1.002533817770501e+01
0	 1.142853720630899e+01	 7.857266066626721e+00	 1.001996128278983e+01
0	 1.142853720630899e+01	 8.571521461152164e+00	 1.001594509583037e+01
0	 1.142853720630899e+01	 9.285776189055182e+00	 1.001308708244465e+01
0	 1.142853720630899e+01	 1.000003033366371e+01	 1.001118470823373e+01
0	 1.142853720630899e+01	 1.071428397830567e+01	 1.001003543878167e+01
0	 1.142853720630899e+01	 1.142853720630899e+01	 1.000943673965560e+01
0	 1.142853720630899e+01	 1.214279010100160e+01	 1.000918607640561e+01
0	 1.142853720630899e+01	 1.285704274571143e+01	 1.000908091456487e+01
0	 1.142853720630899e+01	 1.357129522376639e+01	 1.000891871964954e+01
0	 1.142853720630899e+01	 1.428554761849444e+01	 1.000849695715883e+01
0	 1.214279010100160e+01	 7.143009922150926e+00	 1.001999116581753e+01
0	 1.214279010100160e+01	 7.857266066626720e+00	 1.001640688306270e+01
0	 1.214279010100160e+01	 8.571521461152164e+00	 1.001396479215353e+01
0	 1.214279010100160e+01	 9.285776189055186e+00	 1.001245419456020e+01
0	 1.214279010100160e+01	 1.000003033366371e+01	 1.001166439193805e+01
0	 1.214279010100160e+01	 1.071428397830567e+01	 1.001138468612762e+01
0	 1.214279010100160e+01	 1.142853720630899e+01	 1.001140437915461e+01
0	 1.214279010100160e+01	 1.214279010100160e+01	 1.001151277322989e+01
0	 1.214279010100160e+01	 1.285704274571143e+01	 1.001149917074953e+01
0	 1.214279010100160e+01	 1.357129522376640e+01	 1.001115287429474e+01
0	 1.214279010100160e+01	 1.428554761849445e+01	 1.001026318663195e+01
0	 1.285704274571143e+01	 7.143009922150927e+00	 1.001487771683640e+01
0	 1.285704274571142e+01	 7.857266066626718e+00	 1.001317628591050e+01
0	 1.285704274571142e+01	 8.571521461152162e+00	 1.001230920402925e+01
0	 1.285704274571142e+01	 9.285776189055184e+00	 1.001207731171937e+01
0	 1.285704274571143e+01	 1.000003033366371e+01	 1.001228144986656e+01
0	 1.285704274571143e+01	 1.071428397830567e+01	 1.001272245971557e+01
0	 1.285704274571142e+01	 1.142853720630899e+01	 1.001320118287014e+01
0	 1.285704274571143e+01	 1.214279010100160e+01	 1.001351846129304e+01
0	 1.285704274571142e+01	 1.285704274571142e+01	 1.001347513730610e+01
0	 1.285704274571142e+01	 1.357129522376639e+01	 1.001287205359013e+01
0	 1.285704274571142e+01	 1.428554761849444e+01	 1.001151005318499e+01
0	 1.357129522376639e+01	 7.143009922150926e+00	 1.001045306335867e+01
0	 1.357129522376639e+01	 7.857266066626719e+00	 1.001061016415565e+01
0	 1.357129522376639e+01	 8.571521461152164e+00	 1.001121969178962e+01
0	 1.357129522376639e+01	 9.285776189055182e+00	 1.001211372914150e+01
0	 1.357129522376639e+01	 1.000003033366370e+01	 1.001312435958605e+01
0	 1.357129522376639e+01	 1.071428397830567e+01	 1.001408366699193e+01
0	 1.357129522376639e+01	 1.142853720630899e+01	 1.001482373572170e+01
0	 1.357129522376639e+01	 1.214279010100160e+01	 1.001517665063182e+01
0	 1.357129522376640e+01	 1.285704274571143e+01	 1.001497449707264e+01
0	 1.357129522376639e+01	 1.357129522376639e+01	 1.001404936088841e+01
0	 1.357129522376639e+01	 1.428554761849444e+01	 1.001223332841729e+01
0	 1.428554761849444e+01	 7.143009922150925e+00	 1.000717243787595e+01
0	 1.428554761849444e+01	 7.857266066626719e+00	 1.000904919028379e+01
0	 1.428554761849444e+01	 8.571521461152162e+00	 1.001093761528940e+01
0	 1.428554761849444e+01	 9.285776189055181e+00	 1.001272074150505e+01
0	 1.428554761849444e+01	 1.000003033366371e+01	 1.001428159812213e+01
0	 1.428554761849444e+01	 1.071428397830567e+01	 1.001550321491115e+01
0	 1.428554761849444e+01	 1.142853720630899e+01	 1.001626862222172e+01
0	 1.428554761849444e+01	 1.214279010100160e+01	 1.001646085098260e+01
0	 1.428554761849444e+01	 1.285704274571142e+01	 1.001596293270163e+01
0	 1.428554761849444e+01	 1.357129522376639e+01	 1.001465789946581e+01
0	 1.428554761849444e+01	 1.428554761849444e+01	 1.001242878394127e+01
0	 7.143009922150930e+00	 1.428554761849445e+01	 9.987229751084092e+00
0	 7.143009922150927e+00	 1.499984997172427e+01	 9.989377653419865e+00
0	 7.143009922150928e+00	 1.571415215828766e+01	 9.991520434137046e+00
0	 7.143009922150927e+00	 1.642845401151721e+01	 9.993575707530075e+00
0	 7.143009922150927e+00	 1.714275536474550e+01	 9.995461087257118e+00
0	 7.143009922150927e+00	 1.785705605130510e+01	 9.997094186340053e+00
0	 7.143009922150926e+00	 1.857135590452859e+01	 9.998392617164452e+00
0	 7.143009922150926e+00	 1.928565475774854e+01	 9.999273991479619e+00
0	 7.143009922150926e+00	 1.999995244429754e+01	 9.999655920398521e+00
0	 7.143009922150927e+00	 2.071424879750816e+01	 9.999456014397831e+00
0	 7.143009922150927e+00	 2.142854365071296e+01	 9.998591883317884e+00
0	 7.857266066626718e+00	 1.428554761849444e+01	 9.992023360931100e+00
0	 7.857266066626718e+00	 1.499984997172426e+01	 9.993885291692639e+00
0	 7.857266066626718e+00	 1.571415215828766e+01	 9.995586618913272e+00
0	 7.857266066626720e+00	 1.642845401151721e+01	 9.997086400119358e+00
0	 7.857266066626718e+00	 1.714275536474550e+01	 9.998343692329305e+00
0	 7.857266066626718e+00	 1.785705605130510e+01	 9.999317552053679e+00
0	 7.857266066626721e+00	 1.857135590452858e+01	 9.999967035295116e+00
0	 7.857266066626719e+00	 1.928565475774854e+01	 1.000025119754834e+01
0	 7.857266066626718e+00	 1.999995244429753e+01	 1.000012909380018e+01
0	 7.857266066626718e+00	 2.071424879750815e+01	 9.999559778529505e+00
0	 7.857266066626719e+00	 2.142854365071296e+01	 9.998502305707285e+00
0	 8.571521461152162e+00	 1.428554761849444e+01	 9.996322978536753e+00
0	 8.571521461152164e+00	 1.499984997172426e+01	 9.997783009820889e+00
0	 8.571521461152162e+00	 1.571415215828766e+01	 9.998981443298028e+00
0	 8.571521461152161e+00	 1.642845401151722e+01	 9.999911998544974e+00
0	 8.571521461152164e+00	 1.714275536474550e+01	 1.000056839477818e+01
0	 8.571521461152168e+00	 1.785705605130510e+01	 1.000094435085376e+01
0	 8.571521461152161e+00	 1.857135590452858e+01	 1.000103358526750e+01
0	 8.571521461152164e+00	 1.928565475774854e+01	 1.000082981615483e+01
0	 8.571521461152161e+00	 1.999995244429754e+01	 1.000032676129081e+01
0	 8.571521461152162e+00	 2.071424879750816e+01	 9.999518138090183e+00
0	 8.571521461152161e+00	 2.142854365071296e+01	 9.998397663607282e+00
0	 9.285776189055182e+00	 1.428554761849444e+01	 1.000012437542189e+01
0	 9.285776189055182e+00	 1.499984997172426e+01	 1.000109414506236e+01
0	 9.285776189055179e+00	 1.571415215828766e+01	 1.000175035417801e+01
0	 9.285776189055184e+00	 1.642845401151721e+01	 1.000211460319210e+01
0	 9.285776189055186e+00	 1.714275536474550e+01	 1.000220849232663e+01
0	 9.285776189055182e+00	 1.785705605130510e+01	 1.000205362160237e+01
0	 9.285776189055184e+00	 1.857135590452859e+01	 1.000167159083886e+01
0	 9.285776189055184e+00	 1.928565475774854e+01	 1.000108399965435e+01
0	 9.285776189055181e+00	 1.999995244429753e+01	 1.000031244746587e+01
0	 9.285776189055186e+00	 2.071424879750816e+01	 9.999378533489187e+00
0	 9.285776189055184e+00	 2.142854365071296e+01	 9.998303856738788e+00
0	 1.000003033366371e+01	 1.428554761849444e+01	 1.000342332312043e+01
0	 1.000003033366371e+01	 1.499984997172427e+01	 1.000384203474727e+01
0	 1.000003033366371e+01	 1.571415215828766e+01	 1.000393879854321e+01
0	 1.000003033366371e+01	 1.642845401151722e+01	 1.000375631455617e+01
0	 1.000003033366371e+01	 1.714275536474550e+01	 1.000333728279577e+01
0	 1.000003033366371e+01	 1.785705605130510e+01	 1.000272440323347e+01
0	 1.000003033366371e+01	 1.857135590452859e+01	 1.000196037580239e+01
0	 1.000003033366371e+01	 1.928565475774854e+01	 1.000108790039742e+01
0	 1.000003033366371e+01	 1.999995244429753e+01	 1.000014967687519e+01
0	 1.000003033366371e+01	 2.071424879750815e+01	 9.999188405054108e+00
0	 1.000003033366371e+01	 2.142854365071297e+01	 9.998246784714246e+00
0	 1.071428397830567e+01	 1.428554761849444e+01	 1.000621559317938e+01
0	 1.071428397830567e+01	 1.499984997172426e+01	 1.000605001627828e+01
0	 1.071428397830567e+01	 1.571415215828767e+01	 1.000559222348688e+01
0	 1.071428397830567e+01	 1.642845401151721e+01	 1.000489923324290e+01
0	 1.071428397830567e+01	 1.714275536474550e+01	 1.000402806410501e+01
0	 1.071428397830567e+01	 1.785705605130510e+01	 1.000303573475290e+01
0	 1.071428397830567e+01	 1.857135590452858e+01	 1.000197926398725e+01
0	 1.071428397830567e+01	 1.928565475774854e+01	 1.000091567072974e+01
0	 1.071428397830567e+01	 1.999995244429754e+01	 9.999901974023020e+00
0	 1.071428397830567e+01	 2.071424879750815e+01	 9.998995193030757e+00
0	 1.071428397830567e+01	 2.142854365071296e+01	 9.998252347037607e+00
0	 1.142853720630899e+01	 1.428554761849444e+01	 1.000849695715883e+01
0	 1.142853720630899e+01	 1.499984997172426e+01	 1.000774142713051e+01
0	 1.142853720630899e+01	 1.571415215828766e+01	 1.000675607620558e+01
0	 1.142853720630899e+01	 1.642845401151721e+01	 1.000560545996835e+01
0	 1.142853720630899e+01	 1.714275536474550e+01	 1.000435413427195e+01
0	 1.142853720630899e+01	 1.785705605130509e+01	 1.000306665523841e+01
0	 1.142853720630899e+01	 1.857135590452859e+01	 1.000180757925860e+01
0	 1.142853720630899e+01	 1.928565475774854e+01	 1.000064146299225e+01
0	 1.142853720630899e+01	 1.999995244429754e+01	 9.999632863367967e+00
0	 1.142853720630899e+01	 2.071424879750815e+01	 9.998846337583217e+00
0	 1.142853720630899e+01	 2.142854365071296e+01	 9.998346443104342e+00
0	 1.214279010100160e+01	 1.428554761849445e+01	 1.001026318663195e+01
0	 1.214279010100159e+01	 1.499984997172426e+01	 1.000893960485155e+01
0	 1.214279010100160e+01	 1.571415215828766e+01	 1.000747580399914e+01
0	 1.214279010100160e+01	 1.642845401151721e+01	 1.000593709555883e+01
0	 1.214279010100160e+01	 1.714275536474550e+01	 1.000438879141247e+01
0	 1.214279010100160e+01	 1.785705605130510e+01	 1.000289620383961e+01
0	 1.214279010100160e+01	 1.857135590452858e+01	 1.000152464551749e+01
0	 1.214279010100160e+01	 1.928565475774854e+01	 1.000033942952108e+01
0	 1.214279010100160e+01	 1.999995244429754e+01	 9.999405869323045e+00
0	 1.214279010100160e+01	 2.071424879750815e+01	 9.998789278793794e+00
0	 1.214279010100160e+01	 2.142854365071297e+01	 9.998554972201426e+00
0	 1.285704274571142e+01	 1.428554761849444e+01	 1.001151005318500e+01
0	 1.285704274571142e+01	 1.499984997172426e+01	 1.000966788706144e+01
0	 1.285704274571143e+01	 1.571415215828767e+01	 1.000779685427063e+01
0	 1.285704274571142e+01	 1.642845401151721e+01	 1.000595624095095e+01
0	 1.285704274571142e+01	 1.714275536474550e+01	 1.000420533374069e+01
0	 1.285704274571142e+01	 1.785705605130510e+01	 1.000260341977802e+01
0	 1.285704274571142e+01	 1.857135590452858e+01	 1.000120978670098e+01
0	 1.285704274571142e+01	 1.928565475774854e+01	 1.000008372264757e+01
0	 1.285704274571142e+01	 1.999995244429753e+01	 9.999284516255658e+00
0	 1.285704274571142e+01	 2.071424879750816e+01	 9.998871456663018e+00
0	 1.285704274571142e+01	 2.142854365071296e+01	 9.998903833507367e+00
0	 1.357129522376639e+01	 1.428554761849444e+01	 1.001223332841729e+01
0	 1.357129522376639e+01	 1.499984997172426e+01	 1.000994961145268e+01
0	 1.357129522376640e+01	 1.571415215828766e+01	 1.000776467452648e+01
0	 1.357129522376639e+01	 1.642845401151722e+01	 1.000572499719166e+01
0	 1.357129522376640e+01	 1.714275536474550e+01	 1.000387705956899e+01
0	 1.357129522376639e+01	 1.785705605130510e+01	 1.000226734234702e+01
0	 1.357129522376639e+01	 1.857135590452858e+01	 1.000094232678208e+01
0	 1.357129522376639e+01	 1.928565475774854e+01	 9.999948494698295e+00
0	 1.357129522376639e+01	 1.999995244429753e+01	 9.999332328487602e+00
0	 1.357129522376640e+01	 2.071424879750815e+01	 9.999140311109704e+00
0	 1.357129522376639e+01	 2.142854365071297e+01	 9.999418926092158e+00
0	 1.428554761849444e+01	 1.428554761849444e+01	 1.001242878394127e+01
0	 1.428554761849444e+01	 1.499984997172426e+01	 1.000980811579024e+01
0	 1.428554761849444e+01	 1.571415215828766e+01	 1.000742471237633e+01
0	 1.428554761849444e+01	 1.642845401151721e+01	 1.000530546543813e+01
0	 1.428554761849444e+01	 1.714275536474550e+01	 1.000347726730798e+01
0	 1.428554761849445e+01	 1.785705605130510e+01	 1.000196701091191e+01
0	 1.428554761849444e+01	 1.857135590452859e+01	 1.000080158976975e+01
0	 1.428554761849444e+01	 1.928565475774854e+01	 1.000000789799502e+01
0	 1.428554761849444e+01	 1.999995244429753e+01	 9.999612830295042e+00
0	 1.428554761849444e+01	 2.071424879750816e+01	 9.999643281970872e+00
0	 1.428554761849444e+01	 2.142854365071296e+01	 1.000012614891732e+01
0	 7.143009922150927e+00	 2.142854365071296e+01	 9.998591883317884e+00
0	 7.143009922150927e+00	 2.214283692057824e+01	 9.997385217177577e+00
0	 7.143009922150925e+00	 2.285712885710493e+01	 9.996240710264779e+00
0	 7.143009922150926e+00	 2.357141979362770e+01	 9.995200477690533e+00
0	 7.143009922150927e+00	 2.428571006348117e+01	 9.994306633691856e+00
0	 7.143009922150926e+00	 2.500000000000000e+01	 9.993601291631782e+00
0	 7.143009922150926e+00	 2.571428993651883e+01	 9.993126563999272e+00
0	 7.143009922150926e+00	 2.642858020637231e+01	 9.992924562409279e+00
0	 7.143009922150928e+00	 2.714287114289507e+01	 9.993037397602711e+00
0	 7.143009922150926e+00	 2.785716307942177e+01	 9.993507179446448e+00
0	 7.143009922150926e+00	 2.857145634928704e+01	 9.994376016933362e+00
0	 7.857266066626719e+00	 2.142854365071296e+01	 9.998502305707285e+00
0	 7.857266066626720e+00	 2.214283692057824e+01	 9.997250899687067e+00
0	 7.857266066626718e+00	 2.285712885710494e+01	 9.996142468914911e+00
0	 7.857266066626717e+00	 2.357141979362770e+01	 9.995200092518623e+00
0	 7.857266066626718e+00	 2.428571006348117e+01	 9.994446848824648e+00
0	 7.857266066626719e+00	 2.500000000000000e+01	 9.993905815358097e+00
0	 7.857266066626718e+00	 2.571428993651883e+01	 9.993600068842671e+00
0	 7.857266066626718e+00	 2.642858020637231e+01	 9.993552685200743e+00
0	 7.857266066626716e+00	 2.714287114289507e+01	 9.993786739553286e+00
0	 7.857266066626720e+00	 2.785716307942178e+01	 9.994325306219919e+00
0	 7.857266066626718e+00	 2.857145634928704e+01	 9.995191458718903e+00
0	 8.571521461152161e+00	 2.142854365071296e+01	 9.998397663607282e+00
0	 8.571521461152161e+00	 2.214283692057824e+01	 9.997212877236025e+00
0	 8.571521461152164e+00	 2.285712885710494e+01	 9.996220262318548e+00
0	 8.571521461152164e+00	 2.357141979362770e+01	 9.995426951045170e+00
0	 8.571521461152161e+00	 2.428571006348118e+01	 9.994840074918026e+00
0	 8.571521461152161e+00	 2.500000000000001e+01	 9.994466764751099e+00
0	 8.571521461152162e+00	 2.571428993651883e+01	 9.994314150670172e+00
0	 8.571521461152164e+00	 2.642858020637231e+01	 9.994389362112855e+00
0	 8.571521461152162e+00	 2.714287114289508e+01	 9.994699527828546e+00
0	 8.571521461152161e+00	 2.785716307942177e+01	 9.995251775878453e+00
0	 8.571521461152162e+00	 2.857145634928703e+01	 9.996053233635637e+00
0	 9.285776189055184e+00	 2.142854365071296e+01	 9.998303856738788e+00
0	 9.285776189055182e+00	 2.214283692057824e+01	 9.997274673330864e+00
0	 9.285776189055184e+00	 2.285712885710494e+01	 9.996459023317053e+00
0	 9.285776189055184e+00	 2.357141979362770e+01	 9.995851181055277e+00
0	 9.285776189055179e+00	 2.428571006348117e+01	 9.995445420358422e+00
0	 9.285776189055184e+00	 2.500000000000001e+01	 9.995236014494292e+00
0	 9.285776189055186e+00	 2.571428993651884e+01	 9.995217236185574e+00
0	 9.285776189055184e+00	 2.642858020637231e+01	 9.995383357609905e+00
0	 9.285776189055184e+00	 2.714287114289507e+01	 9.995728650399817e+00
0	 9.285776189055182e+00	 2.785716307942177e+01	 9.996247385642752e+00
0	 9.285776189055181e+00	 2.857145634928704e+01	 9.996933833881084e+00
0	 1.000003033366371e+01	 2.142854365071297e+01	 9.998246784714246e+00
0	 1.000003033366371e+01	 2.214283692057824e+01	 9.997439811355791e+00
0	 1.000003033366371e+01	 2.285712885710494e+01	 9.996843684627859e+00
0	 1.000003033366371e+01	 2.357141979362770e+01	 9.996442910218303e+00
0	 1.000003033366371e+01	 2.428571006348118e+01	 9.996221993432336e+00
0	 1.000003033366371e+01	 2.500000000000000e+01	 9.996165439192502e+00
0	 1.000003033366371e+01	 2.571428993651883e+01	 9.996257752038687e+00
0	 1.000003033366371e+01	 2.642858020637231e+01	 9.996483436128097e+00
0	 1.000003033366371e+01	 2.714287114289508e+01	 9.996826995235285e+00
0	 1.000003033366371e+01	 2.785716307942178e+01	 9.997272932752125e+00
0	 1.000003033366371e+01	 2.857145634928704e+01	 9.997805751687824e+00
0	 1.071428397830567e+01	 2.142854365071296e+01	 9.998252347037607e+00
0	 1.071428397830567e+01	 2.214283692057824e+01	 9.997711814572819e+00
0	 1.071428397830567e+01	 2.285712885710494e+01	 9.997359178844519e+00
0	 1.071428397830567e+01	 2.357141979362770e+01	 9.997172266087819e+00
0	 1.071428397830566e+01	 2.428571006348118e+01	 9.997128902326288e+00
0	 1.071428397830567e+01	 2.500000000000000e+01	 9.997206913371969e+00
0	 1.071428397830567e+01	 2.571428993651884e+01	 9.997384124825393e+00
0	 1.071428397830567e+01	 2.642858020637232e+01	 9.997638362075557e+00
0	 1.071428397830567e+01	 2.714287114289508e+01	 9.997947450299938e+00
0	 1.071428397830567e+01	 2.785716307942177e+01	 9.998289214464464e+00
0	 1.071428397830567e+01	 2.857145634928704e+01	 9.998641479323545e+00
0	 1.142853720630899e+01	 2.142854365071296e+01	 9.998346443104342e+00
0	 1.142853720630899e+01	 2.214283692057824e+01	 9.998094206121749e+00
0	 1.142853720630899e+01	 2.285712885710494e+01	 9.997990438436675e+00
0	 1.142853720630899e+01	 2.357141979362770e+01	 9.998009376101621e+00
0	 1.142853720630899e+01	 2.428571006348118e+01	 9.998125255126819e+00
0	 1.142853720630898e+01	 2.499999999999999e+01	 9.998312311480246e+00
0	 1.142853720630899e+01	 2.571428993651884e+01	 9.998544781087606e+00
0	 1.142853720630899e+01	 2.642858020637232e+01	 9.998796899832328e+00
0	 1.142853720630899e+01	 2.714287114289508e+01	 9.999042903555580e+00
0	 1.142853720630899e+01	 2.785716307942177e+01	 9.999257028056263e+00
0	 1.142853720630899e+01	 2.857145634928704e+01	 9.999413509090978e+00
0	 1.214279010100160e+01	 2.142854365071297e+01	 9.998554972201426e+00
0	 1.214279010100160e+01	 2.214283692057823e+01	 9.998590509020211e+00
0	 1.214279010100160e+01	 2.285712885710493e+01	 9.998722395750045e+00
0	 1.214279010100160e+01	 2.357141979362770e+01	 9.998924367581726e+00
0	 1.214279010100160e+01	 2.428571006348117e+01	 9.999170159820535e+00
0	 1.214279010100160e+01	 2.500000000000000e+01	 9.999433507886295e+00
0	 1.214279010100160e+01	 2.571428993651884e+01	 9.999688147313305e+00
0	 1.214279010100160e+01	 2.642858020637230e+01	 9.999907813750390e+00
0	 1.214279010100160e+01	 2.714287114289508e+01	 1.000006624296089e+01
0	 1.214279010100160e+01	 2.785716307942177e+01	 1.000013717082262e+01
0	 1.214279010100160e+01	 2.857145634928704e+01	 1.000009433332792e+01
0	 1.285704274571142e+01	 2.142854365071296e+01	 9.998903833507367e+00
0	 1.285704274571142e+01	 2.214283692057824e+01	 9.999204246163604e+00
0	 1.285704274571143e+01	 2.285712885710494e+01	 9.999539983006438e+00
0	 1.285704274571142e+01	 2.357141979362770e+01	 9.999887367734361e+00
0	 1.285704274571143e+01	 2.428571006348118e+01	 1.000022272429405e+01
0	 1.285704274571142e+01	 2.500000000000001e+01	 1.000052237688040e+01
0	 1.285704274571143e+01	 2.571428993651884e+01	 1.000076264993648e+01
0	 1.285704274571142e+01	 2.642858020637232e+01	 1.000091986815362e+01
0	 1.285704274571142e+01	 2.714287114289507e+01	 1.000097035647130e+01
0	 1.285704274571142e+01	 2.785716307942177e+01	 1.000089044007722e+01
0	 1.285704274571142e+01	 2.857145634928703e+01	 1.000065644440729e+01
0	 1.357129522376639e+01	 2.142854365071297e+01	 9.999418926092158e+00
0	 1.357129522376640e+01	 2.214283692057824e+01	 9.999938940325141e+00
0	 1.357129522376640e+01	 2.285712885710494e+01	 1.000042813230377e+01
0	 1.357129522376639e+01	 2.357141979362770e+01	 1.000086850365000e+01
0	 1.357129522376639e+01	 2.428571006348117e+01	 1.000124205633403e+01
0	 1.357129522376640e+01	 2.500000000000001e+01	 1.000153079267423e+01
0	 1.357129522376639e+01	 2.571428993651883e+01	 1.000171671533722e+01
0	 1.357129522376639e+01	 2.642858020637231e+01	 1.000178182733783e+01
0	 1.357129522376639e+01	 2.714287114289508e+01	 1.000170813203912e+01
0	 1.357129522376640e+01	 2.785716307942178e+01	 1.000147763315236e+01
0	 1.357129522376639e+01	 2.857145634928703e+01	 1.000107233473702e+01
0	 1.428554761849444e+01	 2.142854365071296e+01	 1.000012614891732e+01
0	 1.428554761849444e+01	 2.214283692057823e+01	 1.000079811415582e+01
0	 1.428554761849445e+01	 2.285712885710494e+01	 1.000137177561602e+01
0	 1.428554761849444e+01	 2.357141979362770e+01	 1.000183790230332e+01
0	 1.428554761849445e+01	 2.428571006348118e+01	 1.000218726362714e+01
0	 1.428554761849444e+01	 2.500000000000000e+01	 1.000241062940081e+01
0	 1.428554761849444e+01	 2.571428993651883e+01	 1.000249876984159e+01
0	 1.428554761849444e+01	 2.642858020637231e+01	 1.000244245557075e+01
0	 1.428554761849444e+01	 2.714287114289507e+01	 1.000223245761347e+01
0	 1.428554761849444e+01	 2.785716307942177e+01	 1.000185954739892e+01
0	 1.428554761849444e+01	 2.857145634928703e+01	 1.000131449676016e+01
0	 7.143009922150926e+00	 2.857145634928704e+01	 9.994376016933362e+00
0	 7.143009922150928e+00	 2.928575120249186e+01	 9.995428466300011e+00
0	 7.143009922150926e+00	 3.000004755570247e+01	 9.996408921921425e+00
0	 7.143009922150928e+00	 3.071434524225147e+01	 9.997299249150650e+00
0	 7.143009922150927e+00	 3.142864409547143e+01	 9.998081313084702e+00
0	 7.143009922150926e+00	 3.214294394869490e+01	 9.998736978564548e+00
0	 7.143009922150926e+00	 3.285724463525450e+01	 9.999248110175190e+00
0	 7.143009922150926e+00	 3.357154598848279e+01	 9.999596572245551e+00
0	 7.143009922150926e+00	 3.428584784171235e+01	 9.999764228848587e+00
0	 7.143009922150927e+00	 3.500015002827575e+01	 9.999732943801233e+00
0	 7.143009922150928e+00	 3.571445238150556e+01	 9.999484580664387e+00
0	 7.857266066626718e+00	 2.857145634928704e+01	 9.995191458718903e+00
0	 7.857266066626717e+00	 2.928575120249185e+01	 9.996180216007208e+00
0	 7.857266066626720e+00	 3.000004755570248e+01	 9.997065454410878e+00
0	 7.857266066626719e+00	 3.071434524225147e+01	 9.997838532733461e+00
0	 7.857266066626719e+00	 3.142864409547143e+01	 9.998490809555417e+00
0	 7.857266066626718e+00	 3.214294394869491e+01	 9.999013643234129e+00
0	 7.857266066626720e+00	 3.285724463525450e+01	 9.999398391903920e+00
0	 7.857266066626721e+00	 3.357154598848281e+01	 9.999636413476065e+00
0	 7.857266066626721e+00	 3.428584784171235e+01	 9.999719065638741e+00
0	 7.857266066626719e+00	 3.500015002827575e+01	 9.999637705857094e+00
0	 7.857266066626717e+00	 3.571445238150555e+01	 9.999383691373179e+00
0	 8.571521461152162e+00	 2.857145634928703e+01	 9.996053233635637e+00
0	 8.571521461152162e+00	 2.928575120249185e+01	 9.996922198129582e+00
0	 8.571521461152162e+00	 3.000004755570248e+01	 9.997671714653627e+00
0	 8.571521461152166e+00	 3.071434524225148e+01	 9.998301032324733e+00
0	 8.571521461152162e+00	 3.142864409547143e+01	 9.998809400078933e+00
0	 8.571521461152166e+00	 3.214294394869491e+01	 9.999196066671249e+00
0	 8.571521461152161e+00	 3.285724463525451e+01	 9.999460280675795e+00
0	 8.571521461152161e+00	 3.357154598848280e+01	 9.999601290485712e+00
0	 8.571521461152162e+00	 3.428584784171236e+01	 9.999618344313173e+00
0	 8.571521461152162e+00	 3.500015002827575e+01	 9.999510690189432e+00
0	 8.571521461152161e+00	 3.571445238150555e+01	 9.999277575964793e+00
0	 9.285776189055181e+00	 2.857145634928704e+01	 9.996933833881084e+00
0	 9.285776189055184e+00	 2.928575120249186e+01	 9.997639498718460e+00
0	 9.285776189055184e+00	 3.000004755570248e+01	 9.998223394605770e+00
0	 9.285776189055182e+00	 3.071434524225146e+01	 9.998691057848060e+00
0	 9.285776189055184e+00	 3.142864409547143e+01	 9.999048024617919e+00
0	 9.285776189055184e+00	 3.214294394869492e+01	 9.999299830955456e+00
0	 9.285776189055182e+00	 3.285724463525450e+01	 9.999452012768336e+00
0	 9.285776189055182e+00	 3.357154598848279e+01	 9.999510105831751e+00
0	 9.285776189055182e+00	 3.428584784171235e+01	 9.999479645788444e+00
0	 9.285776189055184e+00	 3.500015002827575e+01	 9.999366168148693e+00
0	 9.285776189055182e+00	 3.571445238150556e+01	 9.999175208290309e+00
0	 1.000003033366371e+01	 2.857145634928704e+01	 9.997805751687824e+00
0	 1.000003033366371e+01	 2.928575120249186e+01	 9.998317203869824e+00
0	 1.000003033366371e+01	 3.000004755570247e+01	 9.998716186271302e+00
0	 1.000003033366371e+01	 3.071434524225147e+01	 9.999012919272900e+00
0	 1.000003033366371e+01	 3.142864409547143e+01	 9.999217623174854e+00
0	 1.000003033366371e+01	 3.214294394869491e+01	 9.999340518197041e+00
0	 1.000003033366371e+01	 3.285724463525451e+01	 9.999391824478957e+00
0	 1.000003033366371e+01	 3.357154598848280e+01	 9.999381762079754e+00
0	 1.000003033366371e+01	 3.428584784171236e+01	 9.999320550978172e+00
0	 1.000003033366371e+01	 3.500015002827575e+01	 9.999218411072620e+00
0	 1.000003033366371e+01	 3.571445238150557e+01	 9.999085562181131e+00
0	 1.071428397830567e+01	 2.857145634928704e+01	 9.998641479323545e+00
0	 1.071428397830567e+01	 2.928575120249186e+01	 9.998940399724290e+00
0	 1.071428397830567e+01	 3.000004755570248e+01	 9.999145781702087e+00
0	 1.071428397830566e+01	 3.071434524225146e+01	 9.999270926614614e+00
0	 1.071428397830567e+01	 3.142864409547143e+01	 9.999329135792022e+00
0	 1.071428397830567e+01	 3.214294394869491e+01	 9.999333710537062e+00
0	 1.071428397830567e+01	 3.285724463525451e+01	 9.999297952124962e+00
0	 1.071428397830567e+01	 3.357154598848280e+01	 9.999235161803515e+00
0	 1.071428397830567e+01	 3.428584784171235e+01	 9.999158640793032e+00
0	 1.071428397830567e+01	 3.500015002827575e+01	 9.999081690286379e+00
0	 1.071428397830567e+01	 3.571445238150556e+01	 9.999017611448911e+00
0	 1.142853720630899e+01	 2.857145634928704e+01	 9.999413509090978e+00
0	 1.142853720630899e+01	 2.928575120249186e+01	 9.999494172467109e+00
0	 1.142853720630899e+01	 3.000004755570248e+01	 9.999507872997842e+00
0	 1.142853720630899e+01	 3.071434524225147e+01	 9.999469389934415e+00
0	 1.142853720630899e+01	 3.142864409547143e+01	 9.999393502551534e+00
0	 1.142853720630899e+01	 3.214294394869491e+01	 9.999294990147348e+00
0	 1.142853720630899e+01	 3.285724463525451e+01	 9.999188632043515e+00
0	 1.142853720630899e+01	 3.357154598848280e+01	 9.999089207585127e+00
0	 1.142853720630899e+01	 3.428584784171234e+01	 9.999011496140747e+00
0	 1.142853720630899e+01	 3.500015002827575e+01	 9.998970277102424e+00
0	 1.142853720630899e+01	 3.571445238150555e+01	 9.998980329885660e+00
0	 1.214279010100160e+01	 2.857145634928704e+01	 1.000009433332792e+01
0	 1.214279010100160e+01	 2.928575120249185e+01	 9.999963608328184e+00
0	 1.214279010100160e+01	 3.000004755570248e+01	 9.999798152306179e+00
0	 1.214279010100160e+01	 3.071434524225148e+01	 9.999612619339473e+00
0	 1.214279010100160e+01	 3.142864409547143e+01	 9.999421663575301e+00
0	 1.214279010100160e+01	 3.214294394869492e+01	 9.999239939230522e+00
0	 1.214279010100160e+01	 3.285724463525450e+01	 9.999082100591670e+00
0	 1.214279010100160e+01	 3.357154598848280e+01	 9.998962802014923e+00
0	 1.214279010100160e+01	 3.428584784171235e+01	 9.998896697926076e+00
0	 1.214279010100160e+01	 3.500015002827575e+01	 9.998898442820609e+00
0	 1.214279010100160e+01	 3.571445238150555e+01	 9.998982691263640e+00
0	 1.285704274571142e+01	 2.857145634928703e+01	 1.000065644440729e+01
0	 1.285704274571142e+01	 2.928575120249185e+01	 1.000033379358205e+01
0	 1.285704274571142e+01	 3.000004755570248e+01	 1.000001231182255e+01
0	 1.285704274571142e+01	 3.071434524225148e+01	 9.999704924982783e+00
0	 1.285704274571143e+01	 3.142864409547143e+01	 9.999424559025064e+00
0	 1.285704274571143e+01	 3.214294394869491e+01	 9.999184140019963e+00
0	 1.285704274571142e+01	 3.285724463525451e+01	 9.998996594146384e+00
0	 1.285704274571143e+01	 3.357154598848281e+01	 9.998874847691514e+00
0	 1.285704274571143e+01	 3.428584784171235e+01	 9.998831827050839e+00
0	 1.285704274571142e+01	 3.500015002827575e+01	 9.998880458728117e+00
0	 1.285704274571142e+01	 3.571445238150555e+01	 9.999033669335407e+00
0	 1.357129522376639e+01	 2.857145634928703e+01	 1.000107233473702e+01
0	 1.357129522376640e+01	 2.928575120249185e+01	 1.000058981454789e+01
0	 1.357129522376640e+01	 3.000004755570248e+01	 1.000014604379031e+01
0	 1.357129522376639e+01	 3.071434524225147e+01	 9.999750617063272e+00
0	 1.357129522376640e+01	 3.142864409547143e+01	 9.999413129102365e+00
0	 1.357129522376640e+01	 3.214294394869492e+01	 9.999143174779814e+00
0	 1.357129522376640e+01	 3.285724463525452e+01	 9.998950349104470e+00
0	 1.357129522376640e+01	 3.357154598848280e+01	 9.998844247221818e+00
0	 1.357129522376640e+01	 3.428584784171235e+01	 9.998834464413910e+00
0	 1.357129522376639e+01	 3.500015002827574e+01	 9.998930596099481e+00
0	 1.357129522376639e+01	 3.571445238150555e+01	 9.999142237833839e+00
0	 1.428554761849444e+01	 2.857145634928703e+01	 1.000131449676016e+01
0	 1.428554761849444e+01	 2.928575120249186e+01	 1.000071675758950e+01
0	 1.428554761849444e+01	 3.000004755570247e+01	 1.000019504050066e+01
0	 1.428554761849444e+01	 3.071434524225147e+01	 9.999754005825718e+00
0	 1.428554761849444e+01	 3.142864409547143e+01	 9.999398314048566e+00
0	 1.428554761849444e+01	 3.214294394869491e+01	 9.999132625805002e+00
0	 1.428554761849444e+01	 3.285724463525450e+01	 9.998961601882632e+00
0	 1.428554761849444e+01	 3.357154598848280e+01	 9.998889903220931e+00
0	 1.428554761849444e+01	 3.428584784171235e+01	 9.998922190911204e+00
0	 1.428554761849444e+01	 3.500015002827575e+01	 9.999063126196599e+00
0	 1.428554761849444e+01	 3.571445238150556e+01	 9.999317370472095e+00
0	 7.143009922150928e+00	 3.571445238150556e+01	 9.999484580664385e+00
0	 7.143009922150929e+00	 3.642870477623360e+01	 9.999141644743895e+00
0	 7.143009922150926e+00	 3.714295725428856e+01	 9.998844438103204e+00
0	 7.143009922150927e+00	 3.785720989899839e+01	 9.998601595418219e+00
0	 7.143009922150927e+00	 3.857146279369102e+01	 9.998421751302233e+00
0	 7.143009922150926e+00	 3.928571602169433e+01	 9.998313540305933e+00
0	 7.143009922150926e+00	 3.999996966633628e+01	 9.998285596917425e+00
0	 7.143009922150926e+00	 4.071422381094481e+01	 9.998346555562177e+00
0	 7.143009922150927e+00	 4.142847853884783e+01	 9.998505050603077e+00
0	 7.143009922150926e+00	 4.214273393337328e+01	 9.998769716340412e+00
0	 7.143009922150927e+00	 4.285699007784908e+01	 9.999149187011851e+00
0	 7.857266066626717e+00	 3.571445238150555e+01	 9.999383691373183e+00
0	 7.857266066626719e+00	 3.642870477623360e+01	 9.999068165243761e+00
0	 7.857266066626718e+00	 3.714295725428857e+01	 9.998810459009121e+00
0	 7.857266066626720e+00	 3.785720989899840e+01	 9.998614284504836e+00
0	 7.857266066626719e+00	 3.857146279369100e+01	 9.998483353513189e+00
0	 7.857266066626721e+00	 3.928571602169433e+01	 9.998421377763217e+00
0	 7.857266066626718e+00	 3.999996966633628e+01	 9.998432068930740e+00
0	 7.857266066626718e+00	 4.071422381094482e+01	 9.998519138638304e+00
0	 7.857266066626720e+00	 4.142847853884783e+01	 9.998686298455212e+00
0	 7.857266066626718e+00	 4.214273393337327e+01	 9.998937259897513e+00
0	 7.857266066626720e+00	 4.285699007784908e+01	 9.999275734428018e+00
0	 8.571521461152161e+00	 3.571445238150555e+01	 9.999277575964792e+00
0	 8.571521461152161e+00	 3.642870477623359e+01	 9.999012922303249e+00
0	 8.571521461152162e+00	 3.714295725428857e+01	 9.998810886805934e+00
0	 8.571521461152161e+00	 3.785720989899839e+01	 9.998671134740363e+00
0	 8.571521461152164e+00	 3.857146279369102e+01	 9.998593331332110e+00
0	 8.571521461152162e+00	 3.928571602169433e+01	 9.998577141764807e+00
0	 8.571521461152161e+00	 3.999996966633627e+01	 9.998622231180157e+00
0	 8.571521461152162e+00	 4.071422381094482e+01	 9.998728264677919e+00
0	 8.571521461152162e+00	 4.142847853884781e+01	 9.998894907315895e+00
0	 8.571521461152162e+00	 4.214273393337329e+01	 9.999121824109988e+00
0	 8.571521461152164e+00	 4.285699007784906e+01	 9.999408680034126e+00
0	 9.285776189055182e+00	 3.571445238150556e+01	 9.999175208290309e+00
0	 9.285776189055184e+00	 3.642870477623359e+01	 9.998979087310566e+00
0	 9.285776189055184e+00	 3.714295725428858e+01	 9.998844067554513e+00
0	 9.285776189055184e+00	 3.785720989899840e+01	 9.998766643999172e+00
0	 9.285776189055182e+00	 3.857146279369099e+01	 9.998743311592204e+00
0	 9.285776189055186e+00	 3.928571602169433e+01	 9.998770565251869e+00
0	 9.285776189055181e+00	 3.999996966633628e+01	 9.998844899867116e+00
0	 9.285776189055181e+00	 4.071422381094482e+01	 9.998962810297503e+00
0	 9.285776189055184e+00	 4.142847853884782e+01	 9.999120791373242e+00
0	 9.285776189055184e+00	 4.214273393337329e+01	 9.999315337895174e+00
0	 9.285776189055184e+00	 4.285699007784908e+01	 9.999542944634793e+00
0	 1.000003033366371e+01	 3.571445238150557e+01	 9.999085562181131e+00
0	 1.000003033366371e+01	 3.642870477623359e+01	 9.998969831630566e+00
0	 1.000003033366371e+01	 3.714295725428858e+01	 9.998908347292002e+00
0	 1.000003033366371e+01	 3.785720989899840e+01	 9.998895310134026e+00
0	 1.000003033366371e+01	 3.857146279369099e+01	 9.998924921109063e+00
0	 1.000003033366371e+01	 3.928571602169432e+01	 9.998991381153333e+00
0	 1.000003033366371e+01	 3.999996966633628e+01	 9.999088891186863e+00
0	 1.000003033366371e+01	 4.071422381094481e+01	 9.999211652113470e+00
0	 1.000003033366371e+01	 4.142847853884783e+01	 9.999353864820801e+00
0	 1.000003033366371e+01	 4.214273393337327e+01	 9.999509730180296e+00
0	 1.000003033366371e+01	 4.285699007784907e+01	 9.999673449047233e+00
0	 1.071428397830567e+01	 3.571445238150556e+01	 9.999017611448910e+00
0	 1.071428397830567e+01	 3.642870477623359e+01	 9.998988326604859e+00
0	 1.071428397830567e+01	 3.714295725428858e+01	 9.999002072031811e+00
0	 1.071428397830567e+01	 3.785720989899841e+01	 9.999051630976041e+00
0	 1.071428397830567e+01	 3.857146279369099e+01	 9.999129786680715e+00
0	 1.071428397830567e+01	 3.928571602169433e+01	 9.999229322385867e+00
0	 1.071428397830567e+01	 3.999996966633628e+01	 9.999343021328400e+00
0	 1.071428397830567e+01	 4.071422381094482e+01	 9.999463666742102e+00
0	 1.071428397830567e+01	 4.142847853884785e+01	 9.999584041857640e+00
0	 1.071428397830567e+01	 4.214273393337328e+01	 9.999696929902555e+00
0	 1.071428397830567e+01	 4.285699007784907e+01	 9.999795114101257e+00
0	 1.142853720630899e+01	 3.571445238150555e+01	 9.998980329885661e+00
0	 1.142853720630899e+01	 3.642870477623361e+01	 9.999037743551762e+00
0	 1.142853720630899e+01	 3.714295725428857e+01	 9.999123587763657e+00
0	 1.142853720630899e+01	 3.785720989899840e+01	 9.999230104334741e+00
0	 1.142853720630899e+01	 3.857146279369100e+01	 9.999349535087578e+00
0	 1.142853720630899e+01	 3.928571602169433e+01	 9.999474121853879e+00
0	 1.142853720630899e+01	 3.999996966633628e+01	 9.999596106474536e+00
0	 1.142853720630899e+01	 4.071422381094479e+01	 9.999707730799607e+00
0	 1.142853720630899e+01	 4.142847853884783e+01	 9.999801236688313e+00
0	 1.142853720630899e+01	 4.214273393337327e+01	 9.999868866009033e+00
0	 1.142853720630899e+01	 4.285699007784908e+01	 9.999902860639320e+00
0	 1.214279010100160e+01	 3.571445238150555e+01	 9.998982691263636e+00
0	 1.214279010100160e+01	 3.642870477623360e+01	 9.999121253766299e+00
0	 1.214279010100160e+01	 3.714295725428856e+01	 9.999271240453538e+00
0	 1.214279010100160e+01	 3.785720989899840e+01	 9.999425227998037e+00
0	 1.214279010100160e+01	 3.857146279369100e+01	 9.999575793092493e+00
0	 1.214279010100160e+01	 3.928571602169431e+01	 9.999715512449535e+00
0	 1.214279010100160e+01	 3.999996966633629e+01	 9.999836962801860e+00
0	 1.214279010100160e+01	 4.071422381094482e+01	 9.999932720902077e+00
0	 1.214279010100160e+01	 4.142847853884783e+01	 9.999995363522846e+00
0	 1.214279010100160e+01	 4.214273393337327e+01	 1.000001746745678e+01
0	 1.214279010100160e+01	 4.285699007784908e+01	 9.999991609516471e+00
0	 1.285704274571142e+01	 3.571445238150555e+01	 9.999033669335407e+00
0	 1.285704274571143e+01	 3.642870477623360e+01	 9.999242028520213e+00
0	 1.285704274571142e+01	 3.714295725428856e+01	 9.999443376043725e+00
0	 1.285704274571142e+01	 3.785720989899839e+01	 9.999631499732233e+00
0	 1.285704274571142e+01	 3.857146279369100e+01	 9.999800187440703e+00
0	 1.285704274571142e+01	 3.928571602169433e+01	 9.999943227052770e+00
0	 1.285704274571142e+01	 3.999996966633628e+01	 1.000005440648072e+01
0	 1.285704274571142e+01	 4.071422381094481e+01	 1.000012751366551e+01
0	 1.285704274571142e+01	 4.142847853884783e+01	 1.000015633657675e+01
0	 1.285704274571142e+01	 4.214273393337328e+01	 1.000013466321272e+01
0	 1.285704274571142e+01	 4.285699007784907e+01	 1.000005628160035e+01
0	 1.357129522376639e+01	 3.571445238150555e+01	 9.999142237833839e+00
0	 1.357129522376639e+01	 3.642870477623359e+01	 9.999403239061962e+00
0	 1.357129522376639e+01	 3.714295725428857e+01	 9.999638340452753e+00
0	 1.357129522376640e+01	 3.785720989899841e+01	 9.999843417281982e+00
0	 1.357129522376639e+01	 3.857146279369101e+01	 1.000001434485989e+01
0	 1.357129522376639e+01	 3.928571602169433e+01	 1.000014699853125e+01
0	 1.357129522376639e+01	 3.999996966633628e+01	 1.000023725367529e+01
0	 1.357129522376639e+01	 4.071422381094480e+01	 1.000028098570581e+01
0	 1.357129522376640e+01	 4.142847853884783e+01	 1.000027407007104e+01
0	 1.357129522376640e+01	 4.214273393337328e+01	 1.000021238225376e+01
0	 1.357129522376640e+01	 4.285699007784908e+01	 1.000009179777125e+01
0	 1.428554761849444e+01	 3.571445238150556e+01	 9.999317370472093e+00
0	 1.428554761849444e+01	 3.642870477623360e+01	 9.999608056616697e+00
0	 1.428554761849444e+01	 3.714295725428857e+01	 9.999854479575475e+00
0	 1.428554761849445e+01	 3.785720989899840e+01	 1.000005547837038e+01
0	 1.428554761849444e+01	 3.857146279369100e+01	 1.000020989206014e+01
0	 1.428554761849444e+01	 3.928571602169433e+01	 1.000031655974037e+01
0	 1.428554761849444e+01	 3.999996966633629e+01	 1.000037432054350e+01
0	 1.428554761849444e+01	 4.071422381094481e+01	 1.000038201363875e+01
0	 1.428554761849444e+01	 4.142847853884783e+01	 1.000033847823218e+01
0	 1.428554761849444e+01	 4.214273393337327e+01	 1.000024255356671e+01
0	 1.428554761849445e+01	 4.285699007784908e+01	 1.000009307892205e+01
0	 7.143009922150927e+00	 4.285699007784908e+01	 9.999149187011849e+00
0	 7.143009922150927e+00	 4.357129694500738e+01	 9.999553593949786e+00
0	 7.143009922150926e+00	 4.428560406221391e+01	 9.999884406948379e+00
0	 7.143009922150925e+00	 4.499991084612201e+01	 1.000013735986353e+01
0	 7.143009922150927e+00	 4.571421671338501e+01	 1.000030818604486e+01
0	 7.143009922150927e+00	 4.642852108065613e+01	 1.000039261833558e+01
0	 7.143009922150925e+00	 4.714282336458874e+01	 1.000038638907261e+01
0	 7.143009922150926e+00	 4.785712298183612e+01	 1.000028523008647e+01
0	 7.143009922150928e+00	 4.857141934905161e+01	 1.000008487270127e+01
0	 7.143009922150927e+00	 4.928571188288848e+01	 9.999781047734777e+00
0	 7.143009922150927e+00	 5.000000000000001e+01	 9.999369485498269e+00
0	 7.857266066626720e+00	 4.285699007784908e+01	 9.999275734428020e+00
0	 7.857266066626719e+00	 4.357129694500738e+01	 9.999624332463361e+00
0	 7.857266066626719e+00	 4.428560406221392e+01	 9.999902956687297e+00
0	 7.857266066626719e+00	 4.499991084612203e+01	 1.000011133714392e+01
0	 7.857266066626721e+00	 4.571421671338501e+01	 1.000024920346144e+01
0	 7.857266066626720e+00	 4.642852108065613e+01	 1.000031628485233e+01
0	 7.857266066626719e+00	 4.714282336458874e+01	 1.000031231011318e+01
0	 7.857266066626720e+00	 4.785712298183614e+01	 1.000023700762482e+01
0	 7.857266066626717e+00	 4.857141934905159e+01	 1.000009010535220e+01
0	 7.857266066626719e+00	 4.928571188288846e+01	 9.999871330844433e+00
0	 7.857266066626719e+00	 5.000000000000001e+01	 9.999580411234724e+00
0	 8.571521461152164e+00	 4.285699007784906e+01	 9.999408680034129e+00
0	 8.571521461152164e+00	 4.357129694500738e+01	 9.999692928276183e+00
0	 8.571521461152162e+00	 4.428560406221392e+01	 9.999914160740758e+00
0	 8.571521461152161e+00	 4.499991084612203e+01	 1.000007531671736e+01
0	 8.571521461152164e+00	 4.571421671338500e+01	 1.000017933517386e+01
0	 8.571521461152164e+00	 4.642852108065613e+01	 1.000022915475647e+01
0	 8.571521461152164e+00	 4.714282336458874e+01	 1.000022771378974e+01
0	 8.571521461152164e+00	 4.785712298183612e+01	 1.000017795027657e+01
0	 8.571521461152164e+00	 4.857141934905161e+01	 1.000008280189813e+01
0	 8.571521461152166e+00	 4.928571188288846e+01	 9.999945206013967e+00
0	 8.571521461152161e+00	 5.000000000000001e+01	 9.999768099661763e+00
0	 9.285776189055184e+00	 4.285699007784908e+01	 9.999542944634793e+00
0	 9.285776189055184e+00	 4.357129694500739e+01	 9.999757475167385e+00
0	 9.285776189055184e+00	 4.428560406221393e+01	 9.999918670394758e+00
0	 9.285776189055181e+00	 4.499991084612202e+01	 1.000003189191195e+01
0	 9.285776189055184e+00	 4.571421671338499e+01	 1.000010250108708e+01
0	 9.285776189055186e+00	 4.642852108065615e+01	 1.000013585906137e+01
0	 9.285776189055184e+00	 4.714282336458876e+01	 1.000013732674911e+01
0	 9.285776189055182e+00	 4.785712298183613e+01	 1.000011226483772e+01
0	 9.285776189055182e+00	 4.857141934905159e+01	 1.000006603378767e+01
0	 9.285776189055181e+00	 4.928571188288846e+01	 1.000000399383249e+01
0	 9.285776189055182e+00	 5.000000000000000e+01	 9.999931504978729e+00
0	 1.000003033366371e+01	 4.285699007784907e+01	 9.999673449047233e+00
0	 1.000003033366371e+01	 4.357129694500738e+01	 9.999816066929158e+00
0	 1.000003033366371e+01	 4.428560406221392e+01	 9.999917136947140e+00
0	 1.000003033366371e+01	 4.499991084612203e+01	 9.999983656065007e+00
0	 1.000003033366371e+01	 4.571421671338500e+01	 1.000002262111198e+01
0	 1.000003033366371e+01	 4.642852108065613e+01	 1.000004102878276e+01
0	 1.000003033366371e+01	 4.714282336458874e+01	 1.000004587563745e+01
0	 1.000003033366371e+01	 4.785712298183614e+01	 1.000004415810155e+01
0	 1.000003033366371e+01	 4.857141934905159e+01	 1.000004287246600e+01
0	 1.000003033366371e+01	 4.928571188288844e+01	 1.000004901488717e+01
0	 1.000003033366371e+01	 5.000000000000000e+01	 1.000006958138681e+01
0	 1.071428397830567e+01	 4.285699007784907e+01	 9.999795114101255e+00
0	 1.071428397830567e+01	 4.357129694500738e+01	 9.999866797366812e+00
0	 1.071428397830567e+01	 4.428560406221392e+01	 9.999910211707519e+00
0	 1.071428397830567e+01	 4.499991084612203e+01	 9.999933202523042e+00
0	 1.071428397830567e+01	 4.571421671338499e+01	 9.999943615165387e+00
0	 1.071428397830567e+01	 4.642852108065615e+01	 9.999949294938901e+00
0	 1.071428397830566e+01	 4.714282336458873e+01	 9.999958087100282e+00
0	 1.071428397830567e+01	 4.785712298183613e+01	 9.999977836858493e+00
0	 1.071428397830567e+01	 4.857141934905161e+01	 1.000001638937488e+01
0	 1.071428397830567e+01	 4.928571188288846e+01	 1.000008158976305e+01
0	 1.071428397830567e+01	 4.999999999999999e+01	 1.000018128308899e+01
0	 1.142853720630899e+01	 4.285699007784908e+01	 9.999902860639320e+00
0	 1.142853720630899e+01	 4.357129694500737e+01	 9.999907760298832e+00
0	 1.142853720630899e+01	 4.428560406221392e+01	 9.999898545997343e+00
0	 1.142853720630899e+01	 4.499991084612203e+01	 9.999883124641817e+00
0	 1.142853720630899e+01	 4.571421671338499e+01	 9.999869403170022e+00
0	 1.142853720630899e+01	 4.642852108065613e+01	 9.999865288550492e+00
0	 1.142853720630899e+01	 4.714282336458874e+01	 9.999878687782530e+00
0	 1.142853720630899e+01	 4.785712298183613e+01	 9.999917507896276e+00
0	 1.142853720630899e+01	 4.857141934905161e+01	 9.999989655952588e+00
0	 1.142853720630899e+01	 4.928571188288846e+01	 1.000010303904311e+01
0	 1.142853720630899e+01	 5.000000000000000e+01	 1.000026556429025e+01
0	 1.214279010100160e+01	 4.285699007784908e+01	 9.999991609516469e+00
0	 1.214279010100160e+01	 4.357129694500738e+01	 9.999937049556767e+00
0	 1.214279010100160e+01	 4.428560406221393e+01	 9.999882791149858e+00
0	 1.214279010100160e+01	 4.499991084612202e+01	 9.999836015786347e+00
0	 1.214279010100159e+01	 4.571421671338499e+01	 9.999803905054558e+00
0	 1.214279010100160e+01	 4.642852108065613e+01	 9.999793640640643e+00
0	 1.214279010100160e+01	 4.714282336458875e+01	 9.999812404328496e+00
0	 1.214279010100160e+01	 4.785712298183612e+01	 9.999867377999777e+00
0	 1.214279010100160e+01	 4.857141934905160e+01	 9.999965743633959e+00
0	 1.214279010100160e+01	 4.928571188288846e+01	 1.000011468330821e+01
0	 1.214279010100160e+01	 5.000000000000000e+01	 1.000032137919751e+01
0	 1.285704274571142e+01	 4.285699007784907e+01	 1.000005628160035e+01
0	 1.285704274571142e+01	 4.357129694500737e+01	 9.999952758985314e+00
0	 1.285704274571143e+01	 4.428560406221393e+01	 9.999863598510141e+00
0	 1.285704274571142e+01	 4.499991084612201e+01	 9.999794469330801e+00
0	 1.285704274571142e+01	 4.571421671338500e+01	 9.999751040753569e+00
0	 1.285704274571143e+01	 4.642852108065614e+01	 9.999738982234968e+00
0	 1.285704274571142e+01	 4.714282336458875e+01	 9.999763963381813e+00
0	 1.285704274571142e+01	 4.785712298183612e+01	 9.999831653951182e+00
0	 1.285704274571142e+01	 4.857141934905160e+01	 9.999947723850408e+00
0	 1.285704274571142e+01	 4.928571188288846e+01	 1.000011784313716e+01
0	 1.285704274571142e+01	 4.999999999999999e+01	 1.000034768201936e+01
0	 1.357129522376640e+01	 4.285699007784908e+01	 1.000009179777125e+01
0	 1.357129522376639e+01	 4.357129694500737e+01	 9.999952982442263e+00
0	 1.357129522376639e+01	 4.428560406221392e+01	 9.999841619435003e+00
0	 1.357129522376639e+01	 4.499991084612203e+01	 9.999761078658633e+00
0	 1.357129522376639e+01	 4.571421671338499e+01	 9.999714730207579e+00
0	 1.357129522376640e+01	 4.642852108065613e+01	 9.999705944361539e+00
0	 1.357129522376640e+01	 4.714282336458874e+01	 9.999738091585527e+00
0	 1.357129522376639e+01	 4.785712298183612e+01	 9.999814542529769e+00
0	 1.357129522376639e+01	 4.857141934905160e+01	 9.999938668029905e+00
0	 1.357129522376639e+01	 4.928571188288845e+01	 1.000011383910677e+01
0	 1.357129522376639e+01	 5.000000000000000e+01	 1.000034342696656e+01
0	 1.428554761849445e+01	 4.285699007784908e+01	 1.000009307892205e+01
0	 1.428554761849444e+01	 4.357129694500737e+01	 9.999935813798531e+00
0	 1.428554761849444e+01	 4.428560406221393e+01	 9.999817505293141e+00
0	 1.428554761849444e+01	 4.499991084612204e+01	 9.999738437162502e+00
0	 1.428554761849444e+01	 4.571421671338500e+01	 9.999698893363000e+00
0	 1.428554761849444e+01	 4.642852108065614e+01	 9.999699158050852e+00
0	 1.428554761849445e+01	 4.714282336458874e+01	 9.999739515581984e+00
0	 1.428554761849444e+01	 4.785712298183613e+01	 9.999820250512197e+00
0	 1.428554761849444e+01	 4.857141934905160e+01	 9.999941647596954e+00
0	 1.428554761849445e+01	 4.928571188288846e+01	 1.000010399179166e+01
0	 1.428554761849444e+01	 5.000000000000000e+01	 1.000030756825144e+01
0	 1.428554761849444e+01	 0.000000000000000e+00	 1.002896535691448e+01
0	 1.428554761849444e+01	 7.142881171115513e-01	 1.002873401720648e+01
0	 1.428554761849444e+01	 1.428580650948410e+00	 1.002697192228501e+01
0	 1.428554761849444e+01	 2.142877018163878e+00	 1.002409076555474e+01
0	 1.428554761849445e+01	 2.857176635411265e+00	 1.002050224639261e+01
0	 1.428554761849444e+01	 3.571478919343873e+00	 1.001661807014736e+01
0	 1.428554761849444e+01	 4.285783286615009e+00	 1.001284994813928e+01
0	 1.428554761849444e+01	 5.000089153877974e+00	 1.000960959765990e+01
0	 1.428554761849444e+01	 5.714395937786081e+00	 1.000730874197192e+01
0	 1.428554761849444e+01	 6.428703054992629e+00	 1.000635911030904e+01
0	 1.428554761849444e+01	 7.143009922150925e+00	 1.000717243787595e+01
0	 1.499984997172426e+01	 0.000000000000000e+00	 1.003554463127080e+01
0	 1.499984997172426e+01	 7.142881171115516e-01	 1.003006338953616e+01
0	 1.499984997172426e+01	 1.428580650948409e+00	 1.002447746954411e+01
0	 1.499984997172426e+01	 2.142877018163878e+00	 1.001902998534666e+01
0	 1.499984997172427e+01	 2.857176635411265e+00	 1.001396405854637e+01
0	 1.499984997172426e+01	 3.571478919343873e+00	 1.000952281829591e+01
0	 1.499984997172426e+01	 4.285783286615008e+00	 1.000594940129763e+01
0	 1.499984997172426e+01	 5.000089153877974e+00	 1.000348695180325e+01
0	 1.499984997172426e+01	 5.714395937786080e+00	 1.000237862161364e+01
0	 1.499984997172426e+01	 6.428703054992627e+00	 1.000286757007865e+01
0	 1.499984997172427e+01	 7.143009922150928e+00	 1.000519696409713e+01
0	 1.571415215828766e+01	 0.000000000000000e+00	 1.003796672562154e+01
0	 1.571415215828766e+01	 7.142881171115513e-01	 1.002916434466434e+01
0	 1.571415215828766e+01	 1.428580650948409e+00	 1.002130247421563e+01
0	 1.571415215828766e+01	 2.142877018163879e+00	 1.001448100069357e+01
0	 1.571415215828766e+01	 2.857176635411264e+00	 1.000879981858631e+01
0	 1.571415215828766e+01	 3.571478919343873e+00	 1.000435883045141e+01
0	 1.571415215828766e+01	 4.285783286615008e+00	 1.000125794691538e+01
0	 1.571415215828766e+01	 5.000089153877976e+00	 9.999597086673393e+00
0	 1.571415215828766e+01	 5.714395937786080e+00	 9.999476176488990e+00
0	 1.571415215828766e+01	 6.428703054992629e+00	 1.000099515119394e+01
0	 1.571415215828766e+01	 7.143009922150927e+00	 1.000425395368820e+01
0	 1.642845401151722e+01	 0.000000000000000e+00	 1.003695315409068e+01
0	 1.642845401151721e+01	 7.142881171115510e-01	 1.002649537825808e+01
0	 1.642845401151721e+01	 1.428580650948410e+00	 1.001768047489918e+01
0	 1.642845401151721e+01	 2.142877018163879e+00	 1.001049045323309e+01
0	 1.642845401151722e+01	 2.857176635411265e+00	 1.000490733019572e+01
0	 1.642845401151721e+01	 3.571478919343872e+00	 1.000091313043934e+01
0	 1.642845401151721e+01	 4.285783286615008e+00	 9.998489886332067e+00
0	 1.642845401151721e+01	 5.000089153877974e+00	 9.997619637957605e+00
0	 1.642845401151721e+01	 5.714395937786080e+00	 9.998284433114963e+00
0	 1.642845401151722e+01	 6.428703054992629e+00	 1.000046632731833e+01
0	 1.642845401151721e+01	 7.143009922150928e+00	 1.000414738379701e+01
0	 1.714275536474550e+01	 0.000000000000000e+00	 1.003322543095209e+01
0	 1.714275536474550e+01	 7.142881171115513e-01	 1.002251498670076e+01
0	 1.714275536474550e+01	 1.428580650948410e+00	 1.001384501124660e+01
0	 1.714275536474550e+01	 2.142877018163879e+00	 1.000710498579562e+01
0	 1.714275536474550e+01	 2.857176635411265e+00	 1.000218439823157e+01
0	 1.714275536474549e+01	 3.571478919343872e+00	 9.998972743115493e+00
0	 1.714275536474550e+01	 4.285783286615008e+00	 9.997359521685386e+00
0	 1.714275536474550e+01	 5.000089153877976e+00	 9.997234241855873e+00
0	 1.714275536474550e+01	 5.714395937786080e+00	 9.998486418218002e+00
0	 1.714275536474550e+01	 6.428703054992629e+00	 1.000100557203915e+01
0	 1.714275536474550e+01	 7.143009922150927e+00	 1.000468123126290e+01
0	 1.785705605130510e+01	 0.000000000000000e+00	 1.002750507062947e+01
0	 1.785705605130510e+01	 7.142881171115514e-01	 1.001768166709221e+01
0	 1.785705605130510e+01	 1.428580650948410e+00	 1.001002962396197e+01
0	 1.785705605130510e+01	 2.142877018163878e+00	 1.000437124240444e+01
0	 1.785705605130510e+01	 2.857176635411265e+00	 1.000052882872452e+01
0	 1.785705605130510e+01	 3.571478919343873e+00	 9.998324694365998e+00
0	 1.785705605130509e+01	 4.285783286615009e+00	 9.997581155911222e+00
0	 1.785705605130509e+01	 5.000089153877974e+00	 9.998120535080941e+00
0	 1.785705605130509e+01	 5.714395937786081e+00	 9.999765158734061e+00
0	 1.785705605130510e+01	 6.428703054992631e+00	 1.000233735886763e+01
0	 1.785705605130510e+01	 7.143009922150926e+00	 1.000565947261673e+01
0	 1.857135590452858e+01	 0.000000000000000e+00	 1.002051358769640e+01
0	 1.857135590452859e+01	 7.142881171115513e-01	 1.001245391724860e+01
0	 1.857135590452859e+01	 1.428580650948409e+00	 1.000646785480154e+01
0	 1.857135590452858e+01	 2.142877018163879e+00	 1.000233586827561e+01
0	 1.857135590452859e+01	 2.857176635411265e+00	 9.999838428878958e+00
0	 1.857135590452858e+01	 3.571478919343873e+00	 9.998756011107275e+00
0	 1.857135590452859e+01	 4.285783286615008e+00	 9.998869092743625e+00
0	 1.857135590452858e+01	 5.000089153877976e+00	 9.999958154858261e+00
0	 1.857135590452859e+01	 5.714395937786082e+00	 1.000180368180856e+01
0	 1.857135590452858e+01	 6.428703054992628e+00	 1.000418616123893e+01
0	 1.857135590452858e+01	 7.143009922150925e+00	 1.000688608408081e+01
0	 1.928565475774854e+01	 0.000000000000000e+00	 1.001297249687629e+01
0	 1.928565475774854e+01	 7.142881171115513e-01	 1.000729023570253e+01
0	 1.928565475774854e+01	 1.428580650948409e+00	 1.000339324657383e+01
0	 1.928565475774854e+01	 2.142877018163878e+00	 1.000104550981805e+01
0	 1.928565475774854e+01	 2.857176635411265e+00	 1.000001100707295e+01
0	 1.928565475774854e+01	 3.571478919343872e+00	 1.000005372128611e+01
0	 1.928565475774854e+01	 4.285783286615009e+00	 1.000093763671482e+01
0	 1.928565475774854e+01	 5.000089153877976e+00	 1.000242673892605e+01
0	 1.928565475774854e+01	 5.714395937786080e+00	 1.000428501479642e+01
0	 1.928565475774854e+01	 6.428703054992630e+00	 1.000627645251213e+01
0	 1.928565475774854e+01	 7.143009922150928e+00	 1.000816504156900e+01
0	 1.999995244429753e+01	 0.000000000000000e+00	 1.000560331304246e+01
0	 1.999995244429753e+01	 7.142881171115514e-01	 1.000264912170299e+01
0	 1.999995244429754e+01	 1.428580650948409e+00	 1.000103934313957e+01
0	 1.999995244429753e+01	 2.142877018163878e+00	 1.000054681463352e+01
0	 1.999995244429753e+01	 2.857176635411265e+00	 1.000094437285833e+01
0	 1.999995244429753e+01	 3.571478919343873e+00	 1.000200485387961e+01
0	 1.999995244429753e+01	 4.285783286615008e+00	 1.000350109315523e+01
0	 1.999995244429754e+01	 5.000089153877976e+00	 1.000520592553526e+01
0	 1.999995244429753e+01	 5.714395937786080e+00	 1.000689218526204e+01
0	 1.999995244429753e+01	 6.428703054992630e+00	 1.000833270597019e+01
0	 1.999995244429753e+01	 7.143009922150927e+00	 1.000930032068660e+01
0	 2.071424879750816e+01	 0.000000000000000e+00	 9.999127551218079e+00
0	 2.071424879750816e+01	 7.142881171115513e-01	 9.998989075215363e+00
0	 2.071424879750816e+01	 1.428580650948410e+00	 9.999639689411731e+00
0	 2.071424879750816e+01	 2.142877018163879e+00	 1.000088643151666e+01
0	 2.071424879750816e+01	 2.857176635411265e+00	 1.000253633696063e+01
0	 2.071424879750816e+01	 3.571478919343873e+00	 1.000439643889527e+01
0	 2.071424879750815e+01	 4.285783286615008e+00	 1.000627376819348e+01
0	 2.071424879750815e+01	 5.000089153877976e+00	 1.000797535344958e+01
0	 2.071424879750815e+01	 5.714395937786080e+00	 1.000930822097933e+01
0	 2.071424879750815e+01	 6.428703054992628e+00	 1.001007939482000e+01
0	 2.071424879750816e+01	 7.143009922150927e+00	 1.001009589673041e+01
0	 2.142854365071296e+01	 0.000000000000000e+00	 9.994266726576164e+00
0	 2.142854365071296e+01	 7.142881171115512e-01	 9.996768596921484e+00
0	 2.142854365071297e+01	 1.428580650948409e+00	 9.999427831355598e+00
0	 2.142854365071296e+01	 2.142877018163878e+00	 1.000211101045498e+01
0	 2.142854365071296e+01	 2.857176635411264e+00	 1.000468471127917e+01
0	 2.142854365071296e+01	 3.571478919343873e+00	 1.000701550737090e+01
0	 2.142854365071296e+01	 4.285783286615009e+00	 1.000896996875640e+01
0	 2.142854365071296e+01	 5.000089153877975e+00	 1.001041466194547e+01
0	 2.142854365071296e+01	 5.714395937786081e+00	 1.001121614993169e+01
0	 2.142854365071296e+01	 6.428703054992630e+00	 1.001124099219238e+01
0	 2.142854365071297e+01	 7.143009922150927e+00	 1.001035574468871e+01
0	 1.428554761849444e+01	 7.143009922150925e+00	 1.000717243787595e+01
0	 1.428554761849444e+01	 7.857266066626719e+00	 1.000904919028379e+01
0	 1.428554761849444e+01	 8.571521461152162e+00	 1.001093761528940e+01
0	 1.428554761849444e+01	 9.285776189055181e+00	 1.001272074150505e+01
0	 1.428554761849444e+01	 1.000003033366371e+01	 1.001428159812213e+01
0	 1.428554761849444e+01	 1.071428397830567e+01	 1.001550321491115e+01
0	 1.428554761849444e+01	 1.142853720630899e+01	 1.001626862222172e+01
0	 1.428554761849444e+01	 1.214279010100160e+01	 1.001646085098260e+01
0	 1.428554761849444e+01	 1.285704274571142e+01	 1.001596293270163e+01
0	 1.428554761849444e+01	 1.357129522376639e+01	 1.001465789946581e+01
0	 1.428554761849444e+01	 1.428554761849444e+01	 1.001242878394126e+01
0	 1.499984997172427e+01	 7.143009922150928e+00	 1.000519696409713e+01
0	 1.499984997172426e+01	 7.857266066626720e+00	 1.000835486247261e+01
0	 1.499984997172426e+01	 8.571521461152161e+00	 1.001112728061635e+01
0	 1.499984997172426e+01	 9.285776189055182e+00	 1.001345362702841e+01
0	 1.499984997172427e+01	 1.000003033366371e+01	 1.001527331081636e+01
0	 1.499984997172426e+01	 1.071428397830567e+01	 1.001652574169515e+01
0	 1.499984997172426e+01	 1.142853720630899e+01	 1.001715032998723e+01
0	 1.499984997172426e+01	 1.214279010100160e+01	 1.001708648662245e+01
0	 1.499984997172426e+01	 1.285704274571142e+01	 1.001627362313815e+01
0	 1.499984997172426e+01	 1.357129522376639e+01	 1.001465115167914e+01
0	 1.499984997172427e+01	 1.428554761849445e+01	 1.001215848499764e+01
0	 1.571415215828766e+01	 7.143009922150927e+00	 1.000425395368820e+01
0	 1.571415215828766e+01	 7.857266066626718e+00	 1.000809198451106e+01
0	 1.571415215828766e+01	 8.571521461152162e+00	 1.001127389044232e+01
0	 1.571415215828766e+01	 9.285776189055182e+00	 1.001378661622343e+01
0	 1.571415215828766e+01	 1.000003033366371e+01	 1.001561710718119e+01
0	 1.571415215828766e+01	 1.071428397830567e+01	 1.001675230922773e+01
0	 1.571415215828766e+01	 1.142853720630899e+01	 1.001717916886054e+01
0	 1.571415215828766e+01	 1.214279010100160e+01	 1.001688463316246e+01
0	 1.571415215828766e+01	 1.285704274571142e+01	 1.001585564980168e+01
0	 1.571415215828766e+01	 1.357129522376639e+01	 1.001407916703172e+01
0	 1.571415215828766e+01	 1.428554761849444e+01	 1.001154213369150e+01
0	 1.642845401151721e+01	 7.143009922150928e+00	 1.000414738379701e+01
0	 1.642845401151721e+01	 7.857266066626720e+00	 1.000815598827705e+01
0	 1.642845401151721e+01	 8.571521461152161e+00	 1.001135019118032e+01
0	 1.642845401151722e+01	 9.285776189055184e+00	 1.001375562979804e+01
0	 1.642845401151722e+01	 1.000003033366371e+01	 1.001539794194414e+01
0	 1.642845401151721e+01	 1.071428397830567e+01	 1.001630276595529e+01
0	 1.642845401151722e+01	 1.142853720630899e+01	 1.001649574069081e+01
0	 1.642845401151721e+01	 1.214279010100160e+01	 1.001600250553279e+01
0	 1.642845401151722e+01	 1.285704274571142e+01	 1.001484870038600e+01
0	 1.642845401151722e+01	 1.357129522376639e+01	 1.001305996567796e+01
0	 1.642845401151721e+01	 1.428554761849444e+01	 1.001066194235890e+01
0	 1.714275536474550e+01	 7.143009922150927e+00	 1.000468123126290e+01
0	 1.714275536474550e+01	 7.857266066626718e+00	 1.000844230518826e+01
0	 1.714275536474550e+01	 8.571521461152161e+00	 1.001132892870758e+01
0	 1.714275536474550e+01	 9.285776189055184e+00	 1.001339658791279e+01
0	 1.714275536474550e+01	 1.000003033366371e+01	 1.001470076932521e+01
0	 1.714275536474550e+01	 1.071428397830567e+01	 1.001529695989560e+01
0	 1.714275536474550e+01	 1.142853720630899e+01	 1.001524064700418e+01
0	 1.714275536474550e+01	 1.214279010100160e+01	 1.001458731846060e+01
0	 1.714275536474550e+01	 1.285704274571143e+01	 1.001339246250395e+01
0	 1.714275536474550e+01	 1.357129522376640e+01	 1.001171156780280e+01
0	 1.714275536474550e+01	 1.428554761849444e+01	 1.000960012345512e+01
0	 1.785705605130510e+01	 7.143009922150926e+00	 1.000565947261673e+01
0	 1.785705605130510e+01	 7.857266066626718e+00	 1.000884636620209e+01
0	 1.785705605130510e+01	 8.571521461152162e+00	 1.001118284836561e+01
0	 1.785705605130510e+01	 9.285776189055186e+00	 1.001274541018084e+01
0	 1.785705605130510e+01	 1.000003033366371e+01	 1.001361054303678e+01
0	 1.785705605130509e+01	 1.071428397830567e+01	 1.001385473863783e+01
0	 1.785705605130510e+01	 1.142853720630899e+01	 1.001355448900385e+01
0	 1.785705605130509e+01	 1.214279010100160e+01	 1.001278628647011e+01
0	 1.785705605130510e+01	 1.285704274571142e+01	 1.001162662368733e+01
0	 1.785705605130510e+01	 1.357129522376639e+01	 1.001015199362165e+01
0	 1.785705605130510e+01	 1.428554761849444e+01	 1.000843888955467e+01
0	 1.857135590452858e+01	 7.143009922150925e+00	 1.000688608408082e+01
0	 1.857135590452858e+01	 7.857266066626718e+00	 1.000926360181571e+01
0	 1.857135590452858e+01	 8.571521461152162e+00	 1.001088469496009e+01
0	 1.857135590452858e+01	 9.285776189055182e+00	 1.001183801566792e+01
0	 1.857135590452859e+01	 1.000003033366371e+01	 1.001221221628370e+01
0	 1.857135590452859e+01	 1.071428397830567e+01	 1.001209594934252e+01
0	 1.857135590452859e+01	 1.142853720630899e+01	 1.001157786757006e+01
0	 1.857135590452859e+01	 1.214279010100160e+01	 1.001074662388257e+01
0	 1.857135590452858e+01	 1.285704274571142e+01	 1.000969087138691e+01
0	 1.857135590452858e+01	 1.357129522376639e+01	 1.000849926338048e+01
0	 1.857135590452859e+01	 1.428554761849444e+01	 1.000726045335130e+01
0	 1.928565475774854e+01	 7.143009922150928e+00	 1.000816504156900e+01
0	 1.928565475774854e+01	 7.857266066626719e+00	 1.000958944206602e+01
0	 1.928565475774854e+01	 8.571521461152164e+00	 1.001040721276103e+01
0	 1.928565475774854e+01	 9.285776189055184e+00	 1.001071032289239e+01
0	 1.928565475774854e+01	 1.000003033366371e+01	 1.001059074176326e+01
0	 1.928565475774854e+01	 1.071428397830567e+01	 1.001014043874158e+01
0	 1.928565475774854e+01	 1.142853720630899e+01	 1.000945138326008e+01
0	 1.928565475774854e+01	 1.214279010100160e+01	 1.000861554481626e+01
0	 1.928565475774854e+01	 1.285704274571142e+01	 1.000772489297246e+01
0	 1.928565475774854e+01	 1.357129522376639e+01	 1.000687139735573e+01
0	 1.928565475774854e+01	 1.428554761849444e+01	 1.000614702765799e+01
0	 1.999995244429753e+01	 7.143009922150927e+00	 1.000930032068660e+01
0	 1.999995244429753e+01	 7.857266066626718e+00	 1.000971931652965e+01
0	 1.999995244429754e+01	 8.571521461152161e+00	 1.000972314550258e+01
0	 1.999995244429753e+01	 9.285776189055181e+00	 1.000939824982516e+01
0	 1.999995244429754e+01	 1.000003033366371e+01	 1.000883107166517e+01
0	 1.999995244429753e+01	 1.071428397830567e+01	 1.000810805313830e+01
0	 1.999995244429754e+01	 1.142853720630899e+01	 1.000731563630820e+01
0	 1.999995244429753e+01	 1.214279010100159e+01	 1.000654026318649e+01
0	 1.999995244429753e+01	 1.285704274571142e+01	 1.000586837573272e+01
0	 1.999995244429753e+01	 1.357129522376639e+01	 1.000538641585439e+01
0	 1.999995244429753e+01	 1.428554761849444e+01	 1.000518082540695e+01
0	 2.071424879750816e+01	 7.143009922150927e+00	 1.001009589673041e+01
0	 2.071424879750815e+01	 7.857266066626718e+00	 1.000954865432300e+01
0	 2.071424879750816e+01	 8.571521461152162e+00	 1.000880523638318e+01
0	 2.071424879750816e+01	 9.285776189055184e+00	 1.000793771388977e+01
0	 2.071424879750815e+01	 1.000003033366371e+01	 1.000701815767157e+01
0	 2.071424879750816e+01	 1.071428397830566e+01	 1.000611863840733e+01
0	 2.071424879750815e+01	 1.142853720630899e+01	 1.000531122662578e+01
0	 2.071424879750815e+01	 1.214279010100160e+01	 1.000466799270560e+01
0	 2.071424879750816e+01	 1.285704274571142e+01	 1.000426100687544e+01
0	 2.071424879750816e+01	 1.357129522376640e+01	 1.000416233921393e+01
0	 2.071424879750816e+01	 1.428554761849445e+01	 1.000444405964965e+01
0	 2.142854365071297e+01	 7.143009922150927e+00	 1.001035574468872e+01
0	 2.142854365071296e+01	 7.857266066626718e+00	 1.000897288410212e+01
0	 2.142854365071296e+01	 8.571521461152164e+00	 1.000762622806544e+01
0	 2.142854365071296e+01	 9.285776189055184e+00	 1.000636463196228e+01
0	 2.142854365071297e+01	 1.000003033366371e+01	 1.000523695095700e+01
0	 2.142854365071296e+01	 1.071428397830567e+01	 1.000429203999467e+01
0	 2.142854365071296e+01	 1.142853720630899e+01	 1.000357875380113e+01
0	 2.142854365071297e+01	 1.214279010100160e+01	 1.000314594688293e+01
0	 2.142854365071296e+01	 1.285704274571142e+01	 1.000304247352734e+01
0	 2.142854365071296e+01	 1.357129522376639e+01	 1.000331718780238e+01
0	 2.142854365071296e+01	 1.428554761849444e+01	 1.000401894355677e+01
0	 1.428554761849444e+01	 1.428554761849444e+01	 1.001242878394126e+01
0	 1.428554761849444e+01	 1.499984997172426e+01	 1.000980811579024e+01
0	 1.428554761849444e+01	 1.571415215828766e+01	 1.000742471237633e+01
0	 1.428554761849444e+01	 1.642845401151721e+01	 1.000530546543813e+01
0	 1.428554761849444e+01	 1.714275536474550e+01	 1.000347726730798e+01
0	 1.428554761849445e+01	 1.785705605130510e+01	 1.000196701091191e+01
0	 1.428554761849444e+01	 1.857135590452859e+01	 1.000080158976975e+01
0	 1.428554761849444e+01	 1.928565475774854e+01	 1.000000789799502e+01
0	 1.428554761849444e+01	 1.999995244429753e+01	 9.999612830295039e+00
0	 1.428554761849444e+01	 2.071424879750816e+01	 9.999643281970872e+00
0	 1.428554761849444e+01	 2.142854365071296e+01	 1.000012614891732e+01
0	 1.499984997172427e+01	 1.428554761849445e+01	 1.001215848499765e+01
0	 1.499984997172426e+01	 1.499984997172426e+01	 1.000938439852104e+01
0	 1.499984997172426e+01	 1.571415215828766e+01	 1.000696228983194e+01
0	 1.499984997172426e+01	 1.642845401151721e+01	 1.000489788669822e+01
0	 1.499984997172426e+01	 1.714275536474550e+01	 1.000319691746067e+01
0	 1.499984997172426e+01	 1.785705605130509e+01	 1.000186511103292e+01
0	 1.499984997172426e+01	 1.857135590452858e+01	 1.000090819690158e+01
0	 1.499984997172426e+01	 1.928565475774854e+01	 1.000033190512612e+01
0	 1.499984997172426e+01	 1.999995244429753e+01	 1.000014196633891e+01
0	 1.499984997172426e+01	 2.071424879750815e+01	 1.000034411174529e+01
0	 1.499984997172426e+01	 2.142854365071296e+01	 1.000094407312346e+01
0	 1.571415215828766e+01	 1.428554761849444e+01	 1.001154213369150e+01
0	 1.571415215828766e+01	 1.499984997172426e+01	 1.000883232779440e+01
0	 1.571415215828766e+01	 1.571415215828766e+01	 1.000653876723345e+01
0	 1.571415215828766e+01	 1.642845401151721e+01	 1.000464964791070e+01
0	 1.571415215828766e+01	 1.714275536474550e+01	 1.000315316623974e+01
0	 1.571415215828766e+01	 1.785705605130510e+01	 1.000203751914571e+01
0	 1.571415215828766e+01	 1.857135590452858e+01	 1.000129090406532e+01
0	 1.571415215828766e+01	 1.928565475774854e+01	 1.000090151894678e+01
0	 1.571415215828766e+01	 1.999995244429754e+01	 1.000085756224991e+01
0	 1.571415215828766e+01	 2.071424879750815e+01	 1.000114723294606e+01
0	 1.571415215828766e+01	 2.142854365071296e+01	 1.000175873051815e+01
0	 1.642845401151721e+01	 1.428554761849444e+01	 1.001066194235890e+01
0	 1.642845401151721e+01	 1.499984997172426e+01	 1.000819447359277e+01
0	 1.642845401151721e+01	 1.571415215828766e+01	 1.000616354937918e+01
0	 1.642845401151721e+01	 1.642845401151721e+01	 1.000454346583440e+01
0	 1.642845401151722e+01	 1.714275536474550e+01	 1.000330851949337e+01
0	 1.642845401151722e+01	 1.785705605130510e+01	 1.000243300730986e+01
0	 1.642845401151720e+01	 1.857135590452858e+01	 1.000189122665634e+01
0	 1.642845401151721e+01	 1.928565475774854e+01	 1.000165747532405e+01
0	 1.642845401151722e+01	 1.999995244429753e+01	 1.000170605152297e+01
0	 1.642845401151721e+01	 2.071424879750816e+01	 1.000201125388183e+01
0	 1.642845401151721e+01	 2.142854365071296e+01	 1.000254738144815e+01
0	 1.714275536474550e+01	 1.428554761849444e+01	 1.000960012345512e+01
0	 1.714275536474550e+01	 1.499984997172426e+01	 1.000751340607426e+01
0	 1.714275536474550e+01	 1.571415215828766e+01	 1.000584604126949e+01
0	 1.714275536474550e+01	 1.642845401151722e+01	 1.000456205743147e+01
0	 1.714275536474550e+01	 1.714275536474549e+01	 1.000362548325444e+01
0	 1.714275536474550e+01	 1.785705605130510e+01	 1.000300034773617e+01
0	 1.714275536474549e+01	 1.857135590452858e+01	 1.000265068017805e+01
0	 1.714275536474550e+01	 1.928565475774855e+01	 1.000254051018500e+01
0	 1.714275536474549e+01	 1.999995244429753e+01	 1.000263386766553e+01
0	 1.714275536474550e+01	 2.071424879750815e+01	 1.000289478283171e+01
0	 1.714275536474550e+01	 2.142854365071296e+01	 1.000328728619921e+01
0	 1.785705605130510e+01	 1.428554761849444e+01	 1.000843888955467e+01
0	 1.785705605130509e+01	 1.499984997172426e+01	 1.000683169557267e+01
0	 1.785705605130509e+01	 1.571415215828766e+01	 1.000559564810672e+01
0	 1.785705605130509e+01	 1.642845401151721e+01	 1.000468813986744e+01
0	 1.785705605130509e+01	 1.714275536474550e+01	 1.000406656374050e+01
0	 1.785705605130510e+01	 1.785705605130510e+01	 1.000368831278667e+01
0	 1.785705605130510e+01	 1.857135590452859e+01	 1.000351078024177e+01
0	 1.785705605130510e+01	 1.928565475774854e+01	 1.000349135951673e+01
0	 1.785705605130510e+01	 1.999995244429754e+01	 1.000358744419754e+01
0	 1.785705605130510e+01	 2.071424879750816e+01	 1.000375642804528e+01
0	 1.785705605130510e+01	 2.142854365071297e+01	 1.000395570499611e+01
0	 1.857135590452859e+01	 1.428554761849444e+01	 1.000726045335130e+01
0	 1.857135590452859e+01	 1.499984997172426e+01	 1.000619191259747e+01
0	 1.857135590452858e+01	 1.571415215828766e+01	 1.000542177529526e+01
0	 1.857135590452858e+01	 1.642845401151721e+01	 1.000490443051113e+01
0	 1.857135590452858e+01	 1.714275536474549e+01	 1.000459426735386e+01
0	 1.857135590452858e+01	 1.785705605130510e+01	 1.000444567497460e+01
0	 1.857135590452859e+01	 1.857135590452859e+01	 1.000441304256684e+01
0	 1.857135590452858e+01	 1.928565475774854e+01	 1.000445075936641e+01
0	 1.857135590452858e+01	 1.999995244429753e+01	 1.000451321465148e+01
0	 1.857135590452858e+01	 2.071424879750815e+01	 1.000455479774258e+01
0	 1.857135590452858e+01	 2.142854365071296e+01	 1.000452989800256e+01
0	 1.928565475774854e+01	 1.428554761849444e+01	 1.000614702765799e+01
0	 1.928565475774854e+01	 1.499984997172426e+01	 1.000563662783382e+01
0	 1.928565475774854e+01	 1.571415215828766e+01	 1.000533382844150e+01
0	 1.928565475774854e+01	 1.642845401151721e+01	 1.000519364693470e+01
0	 1.928565475774854e+01	 1.714275536474550e+01	 1.000517110068150e+01
0	 1.928565475774854e+01	 1.785705605130509e+01	 1.000522120696447e+01
0	 1.928565475774854e+01	 1.857135590452859e+01	 1.000529898298058e+01
0	 1.928565475774854e+01	 1.928565475774854e+01	 1.000535944584126e+01
0	 1.928565475774854e+01	 1.999995244429753e+01	 1.000535761257235e+01
0	 1.928565475774854e+01	 2.071424879750815e+01	 1.000524850011413e+01
0	 1.928565475774854e+01	 2.142854365071297e+01	 1.000498712532132e+01
0	 1.999995244429753e+01	 1.428554761849444e+01	 1.000518082540695e+01
0	 1.999995244429753e+01	 1.499984997172426e+01	 1.000520841214256e+01
0	 1.999995244429753e+01	 1.571415215828766e+01	 1.000534121335384e+01
0	 1.999995244429754e+01	 1.642845401151721e+01	 1.000553850691362e+01
0	 1.999995244429753e+01	 1.714275536474550e+01	 1.000575957049511e+01
0	 1.999995244429753e+01	 1.785705605130510e+01	 1.000596368157198e+01
0	 1.999995244429753e+01	 1.857135590452857e+01	 1.000611011741828e+01
0	 1.999995244429754e+01	 1.928565475774854e+01	 1.000615815510854e+01
0	 1.999995244429754e+01	 1.999995244429754e+01	 1.000606707151764e+01
0	 1.999995244429753e+01	 2.071424879750816e+01	 1.000579614332091e+01
0	 1.999995244429754e+01	 2.142854365071297e+01	 1.000530464699409e+01
0	 2.071424879750816e+01	 1.428554761849445e+01	 1.000444405964964e+01
0	 2.071424879750814e+01	 1.499984997172426e+01	 1.000494983656020e+01
0	 2.071424879750816e+01	 1.571415215828766e+01	 1.000545333604274e+01
0	 2.071424879750815e+01	 1.642845401151721e+01	 1.000592172842675e+01
0	 2.071424879750816e+01	 1.714275536474550e+01	 1.000632218375111e+01
0	 2.071424879750816e+01	 1.785705605130510e+01	 1.000662187176407e+01
0	 2.071424879750816e+01	 1.857135590452858e+01	 1.000678796192322e+01
0	 2.071424879750815e+01	 1.928565475774854e+01	 1.000678762339555e+01
0	 2.071424879750816e+01	 1.999995244429753e+01	 1.000658802505736e+01
0	 2.071424879750816e+01	 2.071424879750816e+01	 1.000615633549437e+01
0	 2.071424879750816e+01	 2.142854365071296e+01	 1.000545972300159e+01
0	 2.142854365071296e+01	 1.428554761849444e+01	 1.000401894355677e+01
0	 2.142854365071297e+01	 1.499984997172426e+01	 1.000490347229897e+01
0	 2.142854365071296e+01	 1.571415215828766e+01	 1.000567960272064e+01
0	 2.142854365071296e+01	 1.642845401151721e+01	 1.000632602965625e+01
0	 2.142854365071296e+01	 1.714275536474550e+01	 1.000682144759062e+01
0	 2.142854365071296e+01	 1.785705605130510e+01	 1.000714455065893e+01
0	 2.142854365071296e+01	 1.857135590452858e+01	 1.000727403264665e+01
0	 2.142854365071297e+01	 1.928565475774854e+01	 1.000718858698965e+01
0	 2.142854365071297e+01	 1.999995244429754e+01	 1.000686690677408e+01
0	 2.142854365071296e+01	 2.071424879750816e+01	 1.000628768473643e+01
0	 2.142854365071296e+01	 2.142854365071296e+01	 1.000542961326352e+01
0	 1.428554761849444e+01	 2.142854365071296e+01	 1.000012614891732e+01
0	 1.428554761849444e+01	 2.214283692057823e+01	 1.000079811415582e+01
0	 1.428554761849445e+01	 2.285712885710494e+01	 1.000137177561602e+01
0	 1.428554761849444e+01	 2.357141979362770e+01	 1.000183790230332e+01
0	 1.428554761849445e+01	 2.428571006348118e+01	 1.000218726362714e+01
0	 1.428554761849444e+01	 2.500000000000000e+01	 1.000241062940080e+01
0	 1.428554761849444e+01	 2.571428993651883e+01	 1.000249876984159e+01
0	 1.428554761849444e+01	 2.642858020637231e+01	 1.000244245557075e+01
0	 1.428554761849444e+01	 2.714287114289507e+01	 1.000223245761347e+01
0	 1.428554761849444e+01	 2.785716307942177e+01	 1.000185954739892e+01
0	 1.428554761849444e+01	 2.857145634928703e+01	 1.000131449676016e+01
0	 1.499984997172426e+01	 2.142854365071296e+01	 1.000094407312346e+01
0	 1.499984997172426e+01	 2.214283692057824e+01	 1.000166915380981e+01
0	 1.499984997172426e+01	 2.285712885710494e+01	 1.000224297892502e+01
0	 1.499984997172426e+01	 2.357141979362770e+01	 1.000266576365966e+01
0	 1.499984997172426e+01	 2.428571006348118e+01	 1.000293772361250e+01
0	 1.499984997172426e+01	 2.500000000000001e+01	 1.000305907479053e+01
0	 1.499984997172426e+01	 2.571428993651884e+01	 1.000303003360895e+01
0	 1.499984997172426e+01	 2.642858020637230e+01	 1.000285081689112e+01
0	 1.499984997172426e+01	 2.714287114289509e+01	 1.000252164186872e+01
0	 1.499984997172426e+01	 2.785716307942178e+01	 1.000204272618153e+01
0	 1.499984997172426e+01	 2.857145634928704e+01	 1.000141428787760e+01
0	 1.571415215828766e+01	 2.142854365071296e+01	 1.000175873051815e+01
0	 1.571415215828766e+01	 2.214283692057824e+01	 1.000243523088897e+01
0	 1.571415215828766e+01	 2.285712885710493e+01	 1.000293306190218e+01
0	 1.571415215828766e+01	 2.357141979362770e+01	 1.000326015158125e+01
0	 1.571415215828766e+01	 2.428571006348118e+01	 1.000342442831707e+01
0	 1.571415215828766e+01	 2.500000000000001e+01	 1.000343382086792e+01
0	 1.571415215828766e+01	 2.571428993651883e+01	 1.000329625835951e+01
0	 1.571415215828766e+01	 2.642858020637231e+01	 1.000301967028499e+01
0	 1.571415215828766e+01	 2.714287114289508e+01	 1.000261198650490e+01
0	 1.571415215828766e+01	 2.785716307942177e+01	 1.000208113724720e+01
0	 1.571415215828766e+01	 2.857145634928703e+01	 1.000143505310727e+01
0	 1.642845401151721e+01	 2.142854365071296e+01	 1.000254738144815e+01
0	 1.642845401151721e+01	 2.214283692057823e+01	 1.000309373981881e+01
0	 1.642845401151721e+01	 2.285712885710494e+01	 1.000345603984878e+01
0	 1.642845401151721e+01	 2.357141979362769e+01	 1.000364818900528e+01
0	 1.642845401151721e+01	 2.428571006348117e+01	 1.000368409504696e+01
0	 1.642845401151721e+01	 2.500000000000001e+01	 1.000357766602385e+01
0	 1.642845401151721e+01	 2.571428993651883e+01	 1.000334281027741e+01
0	 1.642845401151721e+01	 2.642858020637231e+01	 1.000299343644051e+01
0	 1.642845401151722e+01	 2.714287114289507e+01	 1.000254345343742e+01
0	 1.642845401151722e+01	 2.785716307942178e+01	 1.000200677048382e+01
0	 1.642845401151722e+01	 2.857145634928704e+01	 1.000139729708679e+01
0	 1.714275536474550e+01	 2.142854365071296e+01	 1.000328728619921e+01
0	 1.714275536474550e+01	 2.214283692057824e+01	 1.000364207494676e+01
0	 1.714275536474550e+01	 2.285712885710494e+01	 1.000382592798415e+01
0	 1.714275536474550e+01	 2.357141979362770e+01	 1.000385699879394e+01
0	 1.714275536474550e+01	 2.428571006348117e+01	 1.000375344104864e+01
0	 1.714275536474550e+01	 2.500000000000000e+01	 1.000353340861086e+01
0	 1.714275536474550e+01	 2.571428993651883e+01	 1.000321505553316e+01
0	 1.714275536474550e+01	 2.642858020637232e+01	 1.000281653605817e+01
0	 1.714275536474550e+01	 2.714287114289508e+01	 1.000235600461856e+01
0	 1.714275536474550e+01	 2.785716307942177e+01	 1.000185161583696e+01
0	 1.714275536474550e+01	 2.857145634928703e+01	 1.000132152452605e+01
0	 1.785705605130510e+01	 2.142854365071297e+01	 1.000395570499611e+01
0	 1.785705605130509e+01	 2.214283692057824e+01	 1.000407763054215e+01
0	 1.785705605130509e+01	 2.285712885710494e+01	 1.000405674144574e+01
0	 1.785705605130509e+01	 2.357141979362770e+01	 1.000391370373445e+01
0	 1.785705605130510e+01	 2.428571006348117e+01	 1.000366918350897e+01
0	 1.785705605130511e+01	 2.500000000000001e+01	 1.000334384694308e+01
0	 1.785705605130509e+01	 2.571428993651883e+01	 1.000295836028369e+01
0	 1.785705605130510e+01	 2.642858020637231e+01	 1.000253338985078e+01
0	 1.785705605130510e+01	 2.714287114289508e+01	 1.000208960203744e+01
0	 1.785705605130510e+01	 2.785716307942177e+01	 1.000164766330984e+01
0	 1.785705605130510e+01	 2.857145634928704e+01	 1.000122824020723e+01
0	 1.857135590452858e+01	 2.142854365071296e+01	 1.000452989800256e+01
0	 1.857135590452859e+01	 2.214283692057824e+01	 1.000439780079627e+01
0	 1.857135590452859e+01	 2.285712885710494e+01	 1.000416249528902e+01
0	 1.857135590452858e+01	 2.357141979362770e+01	 1.000384542653905e+01
0	 1.857135590452859e+01	 2.428571006348117e+01	 1.000346803955509e+01
0	 1.857135590452858e+01	 2.500000000000001e+01	 1.000305177929632e+01
0	 1.857135590452858e+01	 2.571428993651883e+01	 1.000261809067240e+01
0	 1.857135590452859e+01	 2.642858020637231e+01	 1.000218841854345e+01
0	 1.857135590452858e+01	 2.714287114289507e+01	 1.000178420772007e+01
0	 1.857135590452859e+01	 2.785716307942177e+01	 1.000142690296334e+01
0	 1.857135590452859e+01	 2.857145634928704e+01	 1.000113794898474e+01
0	 1.928565475774854e+01	 2.142854365071297e+01	 1.000498712532132e+01
0	 1.928565475774854e+01	 2.214283692057824e+01	 1.000459997982226e+01
0	 1.928565475774853e+01	 2.285712885710494e+01	 1.000415720448755e+01
0	 1.928565475774854e+01	 2.357141979362769e+01	 1.000367928984504e+01
0	 1.928565475774854e+01	 2.428571006348117e+01	 1.000318672625457e+01
0	 1.928565475774854e+01	 2.500000000000000e+01	 1.000270000390798e+01
0	 1.928565475774854e+01	 2.571428993651884e+01	 1.000223961282907e+01
0	 1.928565475774854e+01	 2.642858020637232e+01	 1.000182604287360e+01
0	 1.928565475774854e+01	 2.714287114289507e+01	 1.000147978372934e+01
0	 1.928565475774854e+01	 2.785716307942177e+01	 1.000122132491601e+01
0	 1.928565475774854e+01	 2.857145634928704e+01	 1.000107115578529e+01
0	 1.999995244429754e+01	 2.142854365071297e+01	 1.000530464699409e+01
0	 1.999995244429753e+01	 2.214283692057824e+01	 1.000468156165525e+01
0	 1.999995244429753e+01	 2.285712885710494e+01	 1.000405488393298e+01
0	 1.999995244429754e+01	 2.357141979362770e+01	 1.000344241621469e+01
0	 1.999995244429754e+01	 2.428571006348117e+01	 1.000286196061528e+01
0	 1.999995244429753e+01	 2.500000000000000e+01	 1.000233131897709e+01
0	 1.999995244429753e+01	 2.571428993651883e+01	 1.000186829286990e+01
0	 1.999995244429754e+01	 2.642858020637231e+01	 1.000149068359096e+01
0	 1.999995244429753e+01	 2.714287114289507e+01	 1.000121629216498e+01
0	 1.999995244429754e+01	 2.785716307942177e+01	 1.000106291934406e+01
0	 1.999995244429754e+01	 2.857145634928704e+01	 1.000104836560782e+01
0	 2.071424879750816e+01	 2.142854365071296e+01	 1.000545972300159e+01
0	 2.071424879750815e+01	 2.214283692057824e+01	 1.000463994025221e+01
0	 2.071424879750816e+01	 2.285712885710494e+01	 1.000386954843498e+01
0	 2.071424879750816e+01	 2.357141979362770e+01	 1.000316192813533e+01
0	 2.071424879750816e+01	 2.428571006348117e+01	 1.000253045958546e+01
0	 2.071424879750815e+01	 2.500000000000000e+01	 1.000198852266431e+01
0	 2.071424879750815e+01	 2.571428993651884e+01	 1.000154949689755e+01
0	 2.071424879750816e+01	 2.642858020637231e+01	 1.000122676145759e+01
0	 2.071424879750816e+01	 2.714287114289508e+01	 1.000103369516357e+01
0	 2.071424879750815e+01	 2.785716307942177e+01	 1.000098367648136e+01
0	 2.071424879750816e+01	 2.857145634928704e+01	 1.000109008352358e+01
0	 2.142854365071296e+01	 2.142854365071296e+01	 1.000542961326352e+01
0	 2.142854365071296e+01	 2.214283692057824e+01	 1.000447250949209e+01
0	 2.142854365071296e+01	 2.285712885710494e+01	 1.000361521272134e+01
0	 2.142854365071296e+01	 2.357141979362770e+01	 1.000286494801930e+01
0	 2.142854365071296e+01	 2.428571006348117e+01	 1.000222894005371e+01
0	 2.142854365071296e+01	 2.500000000000001e+01	 1.000171441309195e+01
0	 2.142854365071296e+01	 2.571428993651884e+01	 1.000132859100108e+01
0	 2.142854365071296e+01	 2.642858020637231e+01	 1.000107869724783e+01
0	 2.142854365071296e+01	 2.714287114289507e+01	 1.000097195489861e+01
0	 2.142854365071296e+01	 2.785716307942177e+01	 1.000101558661944e+01
0	 2.142854365071296e+01	 2.857145634928703e+01	 1.000121681467606e+01
0	 1.428554761849444e+01	 2.857145634928703e+01	 1.000131449676016e+01
0	 1.428554761849444e+01	 2.928575120249186e+01	 1.000071675758950e+01
0	 1.428554761849444e+01	 3.000004755570247e+01	 1.000019504050066e+01
0	 1.428554761849444e+01	 3.071434524225147e+01	 9.999754005825718e+00
0	 1.428554761849444e+01	 3.142864409547143e+01	 9.999398314048566e+00
0	 1.428554761849444e+01	 3.214294394869491e+01	 9.999132625805002e+00
0	 1.428554761849444e+01	 3.285724463525450e+01	 9.998961601882630e+00
0	 1.428554761849444e+01	 3.357154598848280e+01	 9.998889903220931e+00
0	 1.428554761849444e+01	 3.428584784171235e+01	 9.998922190911204e+00
0	 1.428554761849444e+01	 3.500015002827575e+01	 9.999063126196599e+00
0	 1.428554761849444e+01	 3.571445238150556e+01	 9.999317370472095e+00
0	 1.499984997172426e+01	 2.857145634928704e+01	 1.000141428787760e+01
0	 1.499984997172426e+01	 2.928575120249186e+01	 1.000076363537008e+01
0	 1.499984997172426e+01	 3.000004755570248e+01	 1.000021754112454e+01
0	 1.499984997172426e+01	 3.071434524225147e+01	 9.999775419687905e+00
0	 1.499984997172426e+01	 3.142864409547142e+01	 9.999436685759196e+00
0	 1.499984997172426e+01	 3.214294394869491e+01	 9.999200754189586e+00
0	 1.499984997172426e+01	 3.285724463525451e+01	 9.999067039982357e+00
0	 1.499984997172426e+01	 3.357154598848280e+01	 9.999034958292913e+00
0	 1.499984997172426e+01	 3.428584784171235e+01	 9.999103924428798e+00
0	 1.499984997172426e+01	 3.500015002827575e+01	 9.999273353849647e+00
0	 1.499984997172427e+01	 3.571445238150557e+01	 9.999542662167226e+00
0	 1.571415215828766e+01	 2.857145634928703e+01	 1.000143505310727e+01
0	 1.571415215828766e+01	 2.928575120249185e+01	 1.000079491274133e+01
0	 1.571415215828766e+01	 3.000004755570248e+01	 1.000027337382981e+01
0	 1.571415215828766e+01	 3.071434524225147e+01	 9.999865585884468e+00
0	 1.571415215828766e+01	 3.142864409547143e+01	 9.999566698556427e+00
0	 1.571415215828766e+01	 3.214294394869493e+01	 9.999371861636106e+00
0	 1.571415215828766e+01	 3.285724463525451e+01	 9.999276225053372e+00
0	 1.571415215828766e+01	 3.357154598848280e+01	 9.999274938877369e+00
0	 1.571415215828766e+01	 3.428584784171235e+01	 9.999363153316612e+00
0	 1.571415215828766e+01	 3.500015002827575e+01	 9.999536018718974e+00
0	 1.571415215828766e+01	 3.571445238150557e+01	 9.999788685571650e+00
0	 1.642845401151722e+01	 2.857145634928704e+01	 1.000139729708679e+01
0	 1.642845401151721e+01	 2.928575120249185e+01	 1.000081886650404e+01
0	 1.642845401151721e+01	 3.000004755570248e+01	 1.000036061558834e+01
0	 1.642845401151721e+01	 3.071434524225147e+01	 1.000001440954511e+01
0	 1.642845401151721e+01	 3.142864409547142e+01	 9.999772113696165e+00
0	 1.642845401151721e+01	 3.214294394869491e+01	 9.999625593479704e+00
0	 1.642845401151721e+01	 3.285724463525450e+01	 9.999566714450284e+00
0	 1.642845401151721e+01	 3.357154598848280e+01	 9.999587342278856e+00
0	 1.642845401151721e+01	 3.428584784171235e+01	 9.999679342752700e+00
0	 1.642845401151722e+01	 3.500015002827575e+01	 9.999834581775483e+00
0	 1.642845401151721e+01	 3.571445238150555e+01	 1.000004492536726e+01
0	 1.714275536474550e+01	 2.857145634928703e+01	 1.000132152452605e+01
0	 1.714275536474550e+01	 2.928575120249186e+01	 1.000084377353792e+01
0	 1.714275536474550e+01	 3.000004755570248e+01	 1.000047734345027e+01
0	 1.714275536474549e+01	 3.071434524225146e+01	 1.000021179587128e+01
0	 1.714275536474549e+01	 3.142864409547142e+01	 1.000003669249516e+01
0	 1.714275536474550e+01	 3.214294394869490e+01	 9.999941595102165e+00
0	 1.714275536474550e+01	 3.285724463525451e+01	 9.999916065558521e+00
0	 1.714275536474550e+01	 3.357154598848279e+01	 9.999949665816533e+00
0	 1.714275536474549e+01	 3.428584784171235e+01	 1.000003195791447e+01
0	 1.714275536474550e+01	 3.500015002827575e+01	 1.000015250397665e+01
0	 1.714275536474550e+01	 3.571445238150555e+01	 1.000030086621339e+01
0	 1.785705605130510e+01	 2.857145634928704e+01	 1.000122824020723e+01
0	 1.785705605130509e+01	 2.928575120249185e+01	 1.000087791080152e+01
0	 1.785705605130510e+01	 3.000004755570248e+01	 1.000062163454401e+01
0	 1.785705605130510e+01	 3.071434524225147e+01	 1.000044765013624e+01
0	 1.785705605130510e+01	 3.142864409547143e+01	 1.000034419633096e+01
0	 1.785705605130510e+01	 3.214294394869492e+01	 1.000029951193200e+01
0	 1.785705605130510e+01	 3.285724463525451e+01	 1.000030183579437e+01
0	 1.785705605130510e+01	 3.357154598848280e+01	 1.000033940682419e+01
0	 1.785705605130510e+01	 3.428584784171234e+01	 1.000040046397873e+01
0	 1.785705605130509e+01	 3.500015002827575e+01	 1.000047324626640e+01
0	 1.785705605130510e+01	 3.571445238150556e+01	 1.000054599274674e+01
0	 1.857135590452859e+01	 2.857145634928704e+01	 1.000113794898474e+01
0	 1.857135590452859e+01	 2.928575120249186e+01	 1.000092955533232e+01
0	 1.857135590452858e+01	 3.000004755570248e+01	 1.000079156607624e+01
0	 1.857135590452858e+01	 3.071434524225147e+01	 1.000071187768505e+01
0	 1.857135590452858e+01	 3.142864409547142e+01	 1.000067838664190e+01
0	 1.857135590452858e+01	 3.214294394869491e+01	 1.000067898944445e+01
0	 1.857135590452858e+01	 3.285724463525451e+01	 1.000070158260496e+01
0	 1.857135590452858e+01	 3.357154598848279e+01	 1.000073406265023e+01
0	 1.857135590452858e+01	 3.428584784171235e+01	 1.000076432612168e+01
0	 1.857135590452858e+01	 3.500015002827575e+01	 1.000078026957524e+01
0	 1.857135590452859e+01	 3.571445238150556e+01	 1.000076978958140e+01
0	 1.928565475774854e+01	 2.857145634928704e+01	 1.000107115578529e+01
0	 1.928565475774854e+01	 2.928575120249186e+01	 1.000100698424667e+01
0	 1.928565475774854e+01	 3.000004755570248e+01	 1.000098521533194e+01
0	 1.928565475774853e+01	 3.071434524225146e+01	 1.000099438393457e+01
0	 1.928565475774854e+01	 3.142864409547142e+01	 1.000102302492715e+01
0	 1.928565475774854e+01	 3.214294394869491e+01	 1.000105967316142e+01
0	 1.928565475774854e+01	 3.285724463525451e+01	 1.000109286346827e+01
0	 1.928565475774854e+01	 3.357154598848280e+01	 1.000111113065771e+01
0	 1.928565475774854e+01	 3.428584784171235e+01	 1.000110300951890e+01
0	 1.928565475774854e+01	 3.500015002827575e+01	 1.000105703482015e+01
0	 1.928565475774854e+01	 3.571445238150557e+01	 1.000096174130888e+01
0	 1.999995244429754e+01	 2.857145634928704e+01	 1.000104836560782e+01
0	 1.999995244429754e+01	 2.928575120249187e+01	 1.000111847473983e+01
0	 1.999995244429753e+01	 3.000004755570248e+01	 1.000120065967435e+01
0	 1.999995244429753e+01	 3.071434524225148e+01	 1.000128507437341e+01
0	 1.999995244429753e+01	 3.142864409547143e+01	 1.000136187274668e+01
0	 1.999995244429754e+01	 3.214294394869491e+01	 1.000142120865156e+01
0	 1.999995244429753e+01	 3.285724463525451e+01	 1.000145323589315e+01
0	 1.999995244429753e+01	 3.357154598848280e+01	 1.000144810822425e+01
0	 1.999995244429754e+01	 3.428584784171235e+01	 1.000139597934535e+01
0	 1.999995244429753e+01	 3.500015002827574e+01	 1.000128700290465e+01
0	 1.999995244429753e+01	 3.571445238150556e+01	 1.000111133249805e+01
0	 2.071424879750816e+01	 2.857145634928704e+01	 1.000109008352358e+01
0	 2.071424879750815e+01	 2.928575120249186e+01	 1.000127230408593e+01
0	 2.071424879750816e+01	 3.000004755570249e+01	 1.000143597654500e+01
0	 2.071424879750816e+01	 3.071434524225147e+01	 1.000157385456200e+01
0	 2.071424879750815e+01	 3.142864409547143e+01	 1.000167869172127e+01
0	 2.071424879750816e+01	 3.214294394869491e+01	 1.000174324153019e+01
0	 2.071424879750816e+01	 3.285724463525452e+01	 1.000176025741929e+01
0	 2.071424879750816e+01	 3.357154598848280e+01	 1.000172249274212e+01
0	 2.071424879750814e+01	 3.428584784171235e+01	 1.000162270077537e+01
0	 2.071424879750815e+01	 3.500015002827574e+01	 1.000145363471877e+01
0	 2.071424879750816e+01	 3.571445238150557e+01	 1.000120804769520e+01
0	 2.142854365071296e+01	 2.857145634928703e+01	 1.000121681467606e+01
0	 2.142854365071296e+01	 2.928575120249186e+01	 1.000147674963805e+01
0	 2.142854365071296e+01	 3.000004755570248e+01	 1.000168924346367e+01
0	 2.142854365071297e+01	 3.071434524225148e+01	 1.000185063013257e+01
0	 2.142854365071296e+01	 3.142864409547142e+01	 1.000195724353250e+01
0	 2.142854365071296e+01	 3.214294394869491e+01	 1.000200541745937e+01
0	 2.142854365071296e+01	 3.285724463525451e+01	 1.000199148561722e+01
0	 2.142854365071296e+01	 3.357154598848279e+01	 1.000191178161822e+01
0	 2.142854365071296e+01	 3.428584784171235e+01	 1.000176263898268e+01
0	 2.142854365071296e+01	 3.500015002827575e+01	 1.000154039113908e+01
0	 2.142854365071297e+01	 3.571445238150556e+01	 1.000124137142400e+01
0	 1.428554761849444e+01	 3.571445238150556e+01	 9.999317370472093e+00
0	 1.428554761849444e+01	 3.642870477623360e+01	 9.999608056616696e+00
0	 1.428554761849444e+01	 3.714295725428857e+01	 9.999854479575475e+00
0	 1.428554761849445e+01	 3.785720989899840e+01	 1.000005547837038e+01
0	 1.428554761849444e+01	 3.857146279369100e+01	 1.000020989206014e+01
0	 1.428554761849444e+01	 3.928571602169433e+01	 1.000031655974037e+01
0	 1.428554761849444e+01	 3.999996966633629e+01	 1.000037432054350e+01
0	 1.428554761849444e+01	 4.071422381094481e+01	 1.000038201363875e+01
0	 1.428554761849444e+01	 4.142847853884783e+01	 1.000033847823218e+01
0	 1.428554761849444e+01	 4.214273393337327e+01	 1.000024255356671e+01
0	 1.428554761849445e+01	 4.285699007784908e+01	 1.000009307892205e+01
0	 1.499984997172427e+01	 3.571445238150557e+01	 9.999542662167226e+00
0	 1.499984997172426e+01	 3.642870477623358e+01	 9.999832193415305e+00
0	 1.499984997172426e+01	 3.714295725428857e+01	 1.000006401330508e+01
0	 1.499984997172427e+01	 3.785720989899841e+01	 1.000024005310519e+01
0	 1.499984997172426e+01	 3.857146279369100e+01	 1.000036224411950e+01
0	 1.499984997172426e+01	 3.928571602169432e+01	 1.000043251768702e+01
0	 1.499984997172427e+01	 3.999996966633630e+01	 1.000045280518199e+01
0	 1.499984997172426e+01	 4.071422381094480e+01	 1.000042503801386e+01
0	 1.499984997172426e+01	 4.142847853884783e+01	 1.000035114762722e+01
0	 1.499984997172426e+01	 4.214273393337327e+01	 1.000023306550193e+01
0	 1.499984997172427e+01	 4.285699007784908e+01	 1.000007272315296e+01
0	 1.571415215828766e+01	 3.571445238150557e+01	 9.999788685571650e+00
0	 1.571415215828765e+01	 3.642870477623359e+01	 1.000004651783310e+01
0	 1.571415215828766e+01	 3.714295725428857e+01	 1.000024108894684e+01
0	 1.571415215828766e+01	 3.785720989899840e+01	 1.000037680265626e+01
0	 1.571415215828766e+01	 3.857146279369102e+01	 1.000045806273490e+01
0	 1.571415215828766e+01	 3.928571602169433e+01	 1.000048927298647e+01
0	 1.571415215828766e+01	 3.999996966633628e+01	 1.000047483724485e+01
0	 1.571415215828766e+01	 4.071422381094482e+01	 1.000041915937406e+01
0	 1.571415215828766e+01	 4.142847853884783e+01	 1.000032664326826e+01
0	 1.571415215828766e+01	 4.214273393337327e+01	 1.000020169285185e+01
0	 1.571415215828766e+01	 4.285699007784908e+01	 1.000004871207928e+01
0	 1.642845401151721e+01	 3.571445238150555e+01	 1.000004492536726e+01
0	 1.642845401151722e+01	 3.642870477623360e+01	 1.000024698308900e+01
0	 1.642845401151721e+01	 3.714295725428857e+01	 1.000038699097474e+01
0	 1.642845401151721e+01	 3.785720989899838e+01	 1.000047120547046e+01
0	 1.642845401151721e+01	 3.857146279369101e+01	 1.000050588304465e+01
0	 1.642845401151721e+01	 3.928571602169433e+01	 1.000049728018831e+01
0	 1.642845401151722e+01	 3.999996966633629e+01	 1.000045165341498e+01
0	 1.642845401151721e+01	 4.071422381094481e+01	 1.000037525926067e+01
0	 1.642845401151722e+01	 4.142847853884783e+01	 1.000027435428394e+01
0	 1.642845401151721e+01	 4.214273393337327e+01	 1.000015519506584e+01
0	 1.642845401151721e+01	 4.285699007784907e+01	 1.000002403820994e+01
0	 1.714275536474550e+01	 3.571445238150555e+01	 1.000030086621339e+01
0	 1.714275536474550e+01	 3.642870477623359e+01	 1.000042954237492e+01
0	 1.714275536474550e+01	 3.714295725428856e+01	 1.000050300383560e+01
0	 1.714275536474550e+01	 3.785720989899840e+01	 1.000052873997078e+01
0	 1.714275536474550e+01	 3.857146279369100e+01	 1.000051424016887e+01
0	 1.714275536474550e+01	 3.928571602169432e+01	 1.000046699383134e+01
0	 1.714275536474550e+01	 3.999996966633629e+01	 1.000039449037271e+01
0	 1.714275536474551e+01	 4.071422381094482e+01	 1.000030421922055e+01
0	 1.714275536474550e+01	 4.142847853884782e+01	 1.000020366981549e+01
0	 1.714275536474550e+01	 4.214273393337329e+01	 1.000010033161120e+01
0	 1.714275536474550e+01	 4.285699007784908e+01	 1.000000169407441e+01
0	 1.785705605130510e+01	 3.571445238150556e+01	 1.000054599274673e+01
0	 1.785705605130510e+01	 3.642870477623360e+01	 1.000059014885579e+01
0	 1.785705605130510e+01	 3.714295725428857e+01	 1.000059041194911e+01
0	 1.785705605130510e+01	 3.785720989899841e+01	 1.000055488455631e+01
0	 1.785705605130509e+01	 3.857146279369100e+01	 1.000049166920957e+01
0	 1.785705605130510e+01	 3.928571602169432e+01	 1.000040886844362e+01
0	 1.785705605130509e+01	 3.999996966633628e+01	 1.000031458479580e+01
0	 1.785705605130510e+01	 4.071422381094481e+01	 1.000021692080604e+01
0	 1.785705605130510e+01	 4.142847853884783e+01	 1.000012397901678e+01
0	 1.785705605130510e+01	 4.214273393337327e+01	 1.000004386197313e+01
0	 1.785705605130510e+01	 4.285699007784908e+01	 9.999984672222652e+00
0	 1.857135590452859e+01	 3.571445238150556e+01	 1.000076978958139e+01
0	 1.857135590452858e+01	 3.642870477623359e+01	 1.000072475566955e+01
0	 1.857135590452858e+01	 3.714295725428858e+01	 1.000065049970789e+01
0	 1.857135590452859e+01	 3.785720989899841e+01	 1.000055511760232e+01
0	 1.857135590452858e+01	 3.857146279369100e+01	 1.000044670525062e+01
0	 1.857135590452858e+01	 3.928571602169432e+01	 1.000033335854250e+01
0	 1.857135590452858e+01	 3.999996966633628e+01	 1.000022317335947e+01
0	 1.857135590452859e+01	 4.071422381094482e+01	 1.000012424557499e+01
0	 1.857135590452858e+01	 4.142847853884783e+01	 1.000004467105434e+01
0	 1.857135590452859e+01	 4.214273393337328e+01	 9.999992545654717e+00
0	 1.857135590452858e+01	 4.285699007784907e+01	 9.999975965225163e+00
0	 1.928565475774854e+01	 3.571445238150557e+01	 1.000096174130887e+01
0	 1.928565475774853e+01	 3.642870477623359e+01	 1.000082931592717e+01
0	 1.928565475774854e+01	 3.714295725428857e+01	 1.000068455147736e+01
0	 1.928565475774854e+01	 3.785720989899841e+01	 1.000053491746010e+01
0	 1.928565475774854e+01	 3.857146279369100e+01	 1.000038788335777e+01
0	 1.928565475774854e+01	 3.928571602169433e+01	 1.000025091863455e+01
0	 1.928565475774854e+01	 3.999996966633628e+01	 1.000013149273632e+01
0	 1.928565475774854e+01	 4.071422381094481e+01	 1.000003707509077e+01
0	 1.928565475774854e+01	 4.142847853884783e+01	 9.999975135107279e+00
0	 1.928565475774854e+01	 4.214273393337326e+01	 9.999953142177027e+00
0	 1.928565475774854e+01	 4.285699007784908e+01	 9.999978565672942e+00
0	 1.999995244429753e+01	 3.571445238150556e+01	 1.000111133249805e+01
0	 1.999995244429753e+01	 3.642870477623359e+01	 1.000089978271258e+01
0	 1.999995244429754e+01	 3.714295725428858e+01	 1.000069385159586e+01
0	 1.999995244429754e+01	 3.785720989899840e+01	 1.000049976245711e+01
0	 1.999995244429754e+01	 3.857146279369100e+01	 1.000032373857862e+01
0	 1.999995244429753e+01	 3.928571602169433e+01	 1.000017200321564e+01
0	 1.999995244429753e+01	 3.999996966633629e+01	 1.000005077959643e+01
0	 1.999995244429754e+01	 4.071422381094481e+01	 9.999966290922252e+00
0	 1.999995244429753e+01	 4.142847853884784e+01	 9.999924760367360e+00
0	 1.999995244429753e+01	 4.214273393337328e+01	 9.999932411079016e+00
0	 1.999995244429753e+01	 4.285699007784908e+01	 9.999995466177481e+00
0	 2.071424879750816e+01	 3.571445238150557e+01	 1.000120804769520e+01
0	 2.071424879750816e+01	 3.642870477623360e+01	 1.000093210908279e+01
0	 2.071424879750816e+01	 3.714295725428858e+01	 1.000067968437458e+01
0	 2.071424879750815e+01	 3.785720989899840e+01	 1.000045513089693e+01
0	 2.071424879750815e+01	 3.857146279369100e+01	 1.000026280594263e+01
0	 2.071424879750816e+01	 3.928571602169432e+01	 1.000010706677088e+01
0	 2.071424879750816e+01	 3.999996966633629e+01	 9.999992270607255e+00
0	 2.071424879750816e+01	 4.071422381094482e+01	 9.999922774643810e+00
0	 2.071424879750816e+01	 4.142847853884783e+01	 9.999902936038955e+00
0	 2.071424879750816e+01	 4.214273393337326e+01	 9.999937111917546e+00
0	 2.071424879750816e+01	 4.285699007784908e+01	 1.000002965937082e+01
0	 2.142854365071297e+01	 3.571445238150556e+01	 1.000124137142400e+01
0	 2.142854365071297e+01	 3.642870477623361e+01	 1.000092224806774e+01
0	 2.142854365071296e+01	 3.714295725428858e+01	 1.000064333409758e+01
0	 2.142854365071296e+01	 3.785720989899840e+01	 1.000040650105921e+01
0	 2.142854365071296e+01	 3.857146279369100e+01	 1.000021362046114e+01
0	 2.142854365071296e+01	 3.928571602169432e+01	 1.000006656377463e+01
0	 2.142854365071296e+01	 3.999996966633628e+01	 9.999967202433750e+00
0	 2.142854365071296e+01	 4.071422381094482e+01	 9.999917407835351e+00
0	 2.142854365071296e+01	 4.142847853884783e+01	 9.999919051339095e+00
0	 2.142854365071296e+01	 4.214273393337329e+01	 9.999974004267399e+00
0	 2.142854365071296e+01	 4.285699007784907e+01	 1.000008413790552e+01
0	 1.428554761849445e+01	 4.285699007784908e+01	 1.000009307892205e+01
0	 1.428554761849444e+01	 4.357129694500737e+01	 9.999935813798530e+00
0	 1.428554761849444e+01	 4.428560406221393e+01	 9.999817505293141e+00
0	 1.428554761849444e+01	 4.499991084612204e+01	 9.999738437162499e+00
0	 1.428554761849444e+01	 4.571421671338500e+01	 9.999698893363004e+00
0	 1.428554761849444e+01	 4.642852108065614e+01	 9.999699158050850e+00
0	 1.428554761849445e+01	 4.714282336458874e+01	 9.999739515581988e+00
0	 1.428554761849444e+01	 4.785712298183613e+01	 9.999820250512197e+00
0	 1.428554761849444e+01	 4.857141934905160e+01	 9.999941647596954e+00
0	 1.428554761849445e+01	 4.928571188288846e+01	 1.000010399179166e+01
0	 1.428554761849444e+01	 5.000000000000000e+01	 1.000030756825144e+01
0	 1.499984997172427e+01	 4.285699007784908e+01	 1.000007272315296e+01
0	 1.499984997172426e+01	 4.357129694500736e+01	 9.999915975370318e+00
0	 1.499984997172426e+01	 4.428560406221391e+01	 9.999805502755452e+00
0	 1.499984997172426e+01	 4.499991084612203e+01	 9.999738437735235e+00
0	 1.499984997172426e+01	 4.571421671338501e+01	 9.999711912928488e+00
0	 1.499984997172426e+01	 4.642852108065613e+01	 9.999723061146099e+00
0	 1.499984997172426e+01	 4.714282336458875e+01	 9.999769015390960e+00
0	 1.499984997172426e+01	 4.785712298183612e+01	 9.999846908857993e+00
0	 1.499984997172426e+01	 4.857141934905160e+01	 9.999953874934127e+00
0	 1.499984997172426e+01	 4.928571188288846e+01	 1.000008704719837e+01
0	 1.499984997172426e+01	 5.000000000000000e+01	 1.000024355942178e+01
0	 1.571415215828766e+01	 4.285699007784908e+01	 1.000004871207928e+01
0	 1.571415215828766e+01	 4.357129694500737e+01	 9.999908882309496e+00
0	 1.571415215828766e+01	 4.428560406221393e+01	 9.999816897425628e+00
0	 1.571415215828766e+01	 4.499991084612203e+01	 9.999767395552595e+00
0	 1.571415215828766e+01	 4.571421671338501e+01	 9.999755014980570e+00
0	 1.571415215828766e+01	 4.642852108065615e+01	 9.999774394165161e+00
0	 1.571415215828766e+01	 4.714282336458876e+01	 9.999820171727279e+00
0	 1.571415215828766e+01	 4.785712298183612e+01	 9.999886986453156e+00
0	 1.571415215828766e+01	 4.857141934905160e+01	 9.999969477294393e+00
0	 1.571415215828766e+01	 4.928571188288846e+01	 1.000006228336805e+01
0	 1.571415215828766e+01	 5.000000000000001e+01	 1.000016004395635e+01
0	 1.642845401151721e+01	 4.285699007784907e+01	 1.000002403820994e+01
0	 1.642845401151722e+01	 4.357129694500738e+01	 9.999913662200036e+00
0	 1.642845401151721e+01	 4.428560406221392e+01	 9.999847893849978e+00
0	 1.642845401151722e+01	 4.499991084612203e+01	 9.999819534002498e+00
0	 1.642845401151721e+01	 4.571421671338500e+01	 9.999821383624678e+00
0	 1.642845401151721e+01	 4.642852108065613e+01	 9.999846243807951e+00
0	 1.642845401151722e+01	 4.714282336458874e+01	 9.999886915768148e+00
0	 1.642845401151721e+01	 4.785712298183612e+01	 9.999936200845463e+00
0	 1.642845401151722e+01	 4.857141934905160e+01	 9.999986900504400e+00
0	 1.642845401151721e+01	 4.928571188288846e+01	 1.000003181633397e+01
0	 1.642845401151722e+01	 5.000000000000000e+01	 1.000006375004744e+01
0	 1.714275536474550e+01	 4.285699007784908e+01	 1.000000169407441e+01
0	 1.714275536474550e+01	 4.357129694500738e+01	 9.999929442645701e+00
0	 1.714275536474550e+01	 4.428560406221391e+01	 9.999894696591284e+00
0	 1.714275536474550e+01	 4.499991084612203e+01	 9.999889076484353e+00
0	 1.714275536474550e+01	 4.571421671338501e+01	 9.999904202971797e+00
0	 1.714275536474550e+01	 4.642852108065615e+01	 9.999931696774269e+00
0	 1.714275536474550e+01	 4.714282336458875e+01	 9.999963178686047e+00
0	 1.714275536474550e+01	 4.785712298183613e+01	 9.999990269575159e+00
0	 1.714275536474550e+01	 4.857141934905160e+01	 1.000000459038336e+01
0	 1.714275536474550e+01	 4.928571188288845e+01	 9.999997762126029e+00
0	 1.714275536474550e+01	 4.999999999999999e+01	 9.999961405892307e+00
0	 1.785705605130510e+01	 4.285699007784908e+01	 9.999984672222652e+00
0	 1.785705605130510e+01	 4.357129694500737e+01	 9.999955351270144e+00
0	 1.785705605130510e+01	 4.428560406221392e+01	 9.999953510228893e+00
0	 1.785705605130510e+01	 4.499991084612202e+01	 9.999970246409026e+00
0	 1.785705605130510e+01	 4.571421671338501e+01	 9.999996657138670e+00
0	 1.785705605130510e+01	 4.642852108065613e+01	 1.000002383976387e+01
0	 1.785705605130510e+01	 4.714282336458876e+01	 1.000004289164869e+01
0	 1.785705605130509e+01	 4.785712298183613e+01	 1.000004491017509e+01
0	 1.785705605130510e+01	 4.857141934905161e+01	 1.000002099274312e+01
0	 1.785705605130510e+01	 4.928571188288846e+01	 9.999962236770656e+00
0	 1.785705605130510e+01	 5.000000000000000e+01	 9.999859739693660e+00
0	 1.857135590452858e+01	 4.285699007784907e+01	 9.999975965225159e+00
0	 1.857135590452858e+01	 4.357129694500737e+01	 9.999990515716814e+00
0	 1.857135590452859e+01	 4.428560406221392e+01	 1.000002053935866e+01
0	 1.857135590452858e+01	 4.499991084612203e+01	 1.000005726719895e+01
0	 1.857135590452859e+01	 4.571421671338500e+01	 1.000009193024761e+01
0	 1.857135590452858e+01	 4.642852108065613e+01	 1.000011575947644e+01
0	 1.857135590452858e+01	 4.714282336458874e+01	 1.000011998581897e+01
0	 1.857135590452858e+01	 4.785712298183611e+01	 1.000009584017051e+01
0	 1.857135590452858e+01	 4.857141934905161e+01	 1.000003455338823e+01
0	 1.857135590452858e+01	 4.928571188288845e+01	 9.999927356290918e+00
0	 1.857135590452858e+01	 5.000000000000000e+01	 9.999765479659235e+00
0	 1.928565475774854e+01	 4.285699007784908e+01	 9.999978565672938e+00
0	 1.928565475774854e+01	 4.357129694500738e+01	 1.000003406364904e+01
0	 1.928565475774854e+01	 4.428560406221393e+01	 1.000009198859304e+01
0	 1.928565475774854e+01	 4.499991084612203e+01	 1.000014436228796e+01
0	 1.928565475774853e+01	 4.571421671338499e+01	 1.000018320642662e+01
0	 1.928565475774853e+01	 4.642852108065613e+01	 1.000020054261154e+01
0	 1.928565475774854e+01	 4.714282336458874e+01	 1.000018839235506e+01
0	 1.928565475774854e+01	 4.785712298183613e+01	 1.000013877707921e+01
0	 1.928565475774854e+01	 4.857141934905160e+01	 1.000004371811584e+01
0	 1.928565475774854e+01	 4.928571188288846e+01	 9.999895236706344e+00
0	 1.928565475774854e+01	 5.000000000000000e+01	 9.999685354002130e+00
0	 1.999995244429753e+01	 4.285699007784908e+01	 9.999995466177481e+00
0	 1.999995244429754e+01	 4.357129694500737e+01	 1.000008512274998e+01
0	 1.999995244429753e+01	 4.428560406221391e+01	 1.000016406256091e+01
0	 1.999995244429754e+01	 4.499991084612203e+01	 1.000022575512146e+01
0	 1.999995244429754e+01	 4.571421671338501e+01	 1.000026366980934e+01
0	 1.999995244429754e+01	 4.642852108065614e+01	 1.000027127586874e+01
0	 1.999995244429753e+01	 4.714282336458875e+01	 1.000024204241039e+01
0	 1.999995244429754e+01	 4.785712298183613e+01	 1.000016943841149e+01
0	 1.999995244429754e+01	 4.857141934905161e+01	 1.000004693271569e+01
0	 1.999995244429753e+01	 4.928571188288845e+01	 9.999867994033179e+00
0	 1.999995244429753e+01	 5.000000000000000e+01	 9.999626090940575e+00
0	 2.071424879750816e+01	 4.285699007784908e+01	 1.000002965937082e+01
0	 2.071424879750815e+01	 4.357129694500737e+01	 1.000014282072266e+01
0	 2.071424879750816e+01	 4.428560406221393e+01	 1.000023296590777e+01
0	 2.071424879750816e+01	 4.499991084612203e+01	 1.000029566915630e+01
0	 2.071424879750816e+01	 4.571421671338500e+01	 1.000032650453506e+01
0	 2.071424879750815e+01	 4.642852108065613e+01	 1.000032104594747e+01
0	 2.071424879750816e+01	 4.714282336458874e+01	 1.000027486713359e+01
0	 2.071424879750816e+01	 4.785712298183612e+01	 1.000018354167008e+01
0	 2.071424879750815e+01	 4.857141934905159e+01	 1.000004264297031e+01
0	 2.071424879750815e+01	 4.928571188288845e+01	 9.999847744284079e+00
0	 2.071424879750816e+01	 5.000000000000000e+01	 9.999594418698059e+00
0	 2.142854365071296e+01	 4.285699007784907e+01	 1.000008413790552e+01
0	 2.142854365071296e+01	 4.357129694500738e+01	 1.000020628528989e+01
0	 2.142854365071296e+01	 4.428560406221393e+01	 1.000029490329558e+01
0	 2.142854365071296e+01	 4.499991084612203e+01	 1.000034832786086e+01
0	 2.142854365071296e+01	 4.571421671338500e+01	 1.000036489474875e+01
0	 2.142854365071296e+01	 4.642852108065613e+01	 1.000034293954709e+01
0	 2.142854365071296e+01	 4.714282336458874e+01	 1.000028079766850e+01
0	 2.142854365071296e+01	 4.785712298183613e+01	 1.000017680435032e+01
0	 2.142854365071296e+01	 4.857141934905160e+01	 1.000002929465472e+01
0	 2.142854365071296e+01	 4.928571188288846e+01	 9.999836603468520e+00
0	 2.142854365071296e+01	 5.000000000000001e+01	 9.999597065503380e+00
0	 2.142854365071296e+01	 0.000000000000000e+00	 9.994266726576164e+00
0	 2.142854365071296e+01	 7.142881171115512e-01	 9.996768596921484e+00
0	 2.142854365071297e+01	 1.428580650948409e+00	 9.999427831355598e+00
0	 2.142854365071296e+01	 2.142877018163878e+00	 1.000211101045498e+01
0	 2.142854365071296e+01	 2.857176635411264e+00	 1.000468471127917e+01
0	 2.142854365071296e+01	 3.571478919343873e+00	 1.000701550737090e+01
0	 2.142854365071296e+01	 4.285783286615009e+00	 1.000896996875640e+01
0	 2.142854365071296e+01	 5.000089153877975e+00	 1.001041466194547e+01
0	 2.142854365071296e+01	 5.714395937786081e+00	 1.001121614993169e+01
0	 2.142854365071296e+01	 6.428703054992630e+00	 1.001124099219238e+01
0	 2.142854365071297e+01	 7.143009922150927e+00	 1.001035574468871e+01
0	 2.214283692057824e+01	 0.000000000000000e+00	 9.991468352288178e+00
0	 2.214283692057823e+01	 7.142881171115514e-01	 9.995958398489982e+00
0	 2.214283692057824e+01	 1.428580650948409e+00	 1.000004160702108e+01
0	 2.214283692057824e+01	 2.142877018163879e+00	 1.000365154740851e+01
0	 2.214283692057824e+01	 2.857176635411265e+00	 1.000672178499710e+01
0	 2.214283692057824e+01	 3.571478919343871e+00	 1.000918588094968e+01
0	 2.214283692057824e+01	 4.285783286615008e+00	 1.001097739224742e+01
0	 2.214283692057824e+01	 5.000089153877977e+00	 1.001202987168996e+01
0	 2.214283692057824e+01	 5.714395937786080e+00	 1.001227686789557e+01
0	 2.214283692057824e+01	 6.428703054992628e+00	 1.001165192530119e+01
0	 2.214283692057824e+01	 7.143009922150926e+00	 1.001008858416255e+01
0	 2.285712885710494e+01	 0.000000000000000e+00	 9.990481194290625e+00
0	 2.285712885710494e+01	 7.142881171115515e-01	 9.996090884094972e+00
0	 2.285712885710494e+01	 1.428580650948409e+00	 1.000090269069699e+01
0	 2.285712885710493e+01	 2.142877018163878e+00	 1.000490672327446e+01
0	 2.285712885710494e+01	 2.857176635411264e+00	 1.000809308668233e+01
0	 2.285712885710494e+01	 3.571478919343873e+00	 1.001045188145304e+01
0	 2.285712885710494e+01	 4.285783286615009e+00	 1.001197320379678e+01
0	 2.285712885710493e+01	 5.000089153877974e+00	 1.001264714560167e+01
0	 2.285712885710493e+01	 5.714395937786078e+00	 1.001246379443389e+01
0	 2.285712885710494e+01	 6.428703054992631e+00	 1.001141323353781e+01
0	 2.285712885710494e+01	 7.143009922150927e+00	 1.000948554183598e+01
0	 2.357141979362770e+01	 0.000000000000000e+00	 9.990978647208838e+00
0	 2.357141979362770e+01	 7.142881171115514e-01	 9.996967094227738e+00
0	 2.357141979362770e+01	 1.428580650948409e+00	 1.000192038419275e+01
0	 2.357141979362770e+01	 2.142877018163878e+00	 1.000587471710332e+01
0	 2.357141979362770e+01	 2.857176635411264e+00	 1.000886628892515e+01
0	 2.357141979362770e+01	 3.571478919343873e+00	 1.001093129159053e+01
0	 2.357141979362771e+01	 4.285783286615009e+00	 1.001210591299853e+01
0	 2.357141979362770e+01	 5.000089153877974e+00	 1.001242633701519e+01
0	 2.357141979362770e+01	 5.714395937786081e+00	 1.001192874347368e+01
0	 2.357141979362770e+01	 6.428703054992629e+00	 1.001064930817436e+01
0	 2.357141979362770e+01	 7.143009922150926e+00	 1.000862420288481e+01
0	 2.428571006348117e+01	 0.000000000000000e+00	 9.992634105924575e+00
0	 2.428571006348117e+01	 7.142881171115510e-01	 9.998388070064705e+00
0	 2.428571006348117e+01	 1.428580650948409e+00	 1.000300399024658e+01
0	 2.428571006348118e+01	 2.142877018163878e+00	 1.000655370896226e+01
0	 2.428571006348117e+01	 2.857176635411265e+00	 1.000910906529383e+01
0	 2.428571006348118e+01	 3.571478919343873e+00	 1.001074189491366e+01
0	 2.428571006348117e+01	 4.285783286615008e+00	 1.001152403008459e+01
0	 2.428571006348118e+01	 5.000089153877976e+00	 1.001152729966011e+01
0	 2.428571006348117e+01	 5.714395937786081e+00	 1.001082352908446e+01
0	 2.428571006348117e+01	 6.428703054992627e+00	 1.000948454039268e+01
0	 2.428571006348117e+01	 7.143009922150927e+00	 1.000758215221071e+01
0	 2.500000000000001e+01	 0.000000000000000e+00	 9.995120965576024e+00
0	 2.500000000000001e+01	 7.142881171115514e-01	 1.000015485346746e+01
0	 2.500000000000001e+01	 1.428580650948409e+00	 1.000406281252555e+01
0	 2.500000000000000e+01	 2.142877018163878e+00	 1.000694187993515e+01
0	 2.500000000000001e+01	 2.857176635411265e+00	 1.000888909033459e+01
0	 2.500000000000001e+01	 3.571478919343873e+00	 1.001000147581586e+01
0	 2.500000000000001e+01	 4.285783286615009e+00	 1.001037606592474e+01
0	 2.500000000000001e+01	 5.000089153877975e+00	 1.001010988766094e+01
0	 2.500000000000001e+01	 5.714395937786082e+00	 1.000929996547821e+01
0	 2.500000000000000e+01	 6.428703054992628e+00	 1.000804332128432e+01
0	 2.500000000000000e+01	 7.143009922150926e+00	 1.000643697444117e+01
0	 2.571428993651884e+01	 0.000000000000000e+00	 9.998112621557823e+00
0	 2.571428993651883e+01	 7.142881171115512e-01	 1.000206848698279e+01
0	 2.571428993651884e+01	 1.428580650948409e+00	 1.000500615562557e+01
0	 2.571428993651884e+01	 2.142877018163879e+00	 1.000703741212254e+01
0	 2.571428993651883e+01	 2.857176635411264e+00	 1.000827403957166e+01
0	 2.571428993651884e+01	 3.571478919343873e+00	 1.000882781953255e+01
0	 2.571428993651883e+01	 4.285783286615008e+00	 1.000881053202664e+01
0	 2.571428993651885e+01	 5.000089153877976e+00	 1.000833395553720e+01
0	 2.571428993651883e+01	 5.714395937786081e+00	 1.000750986700944e+01
0	 2.571428993651884e+01	 6.428703054992630e+00	 1.000645004185049e+01
0	 2.571428993651883e+01	 7.143009922150926e+00	 1.000526625392949e+01
0	 2.642858020637231e+01	 0.000000000000000e+00	 1.000128246952104e+01
0	 2.642858020637231e+01	 7.142881171115515e-01	 1.000393001384261e+01
0	 2.642858020637231e+01	 1.428580650948409e+00	 1.000574332507138e+01
0	 2.642858020637231e+01	 2.142877018163878e+00	 1.000683848864170e+01
0	 2.642858020637231e+01	 2.857176635411265e+00	 1.000733158950726e+01
0	 2.642858020637231e+01	 3.571478919343873e+00	 1.000733871214113e+01
0	 2.642858020637232e+01	 4.285783286615009e+00	 1.000697594053584e+01
0	 2.642858020637231e+01	 5.000089153877977e+00	 1.000635935820335e+01
0	 2.642858020637231e+01	 5.714395937786080e+00	 1.000560504817513e+01
0	 2.642858020637232e+01	 6.428703054992629e+00	 1.000482909300212e+01
0	 2.642858020637231e+01	 7.143009922150926e+00	 1.000414757475482e+01
0	 2.714287114289507e+01	 0.000000000000000e+00	 1.000430390537318e+01
0	 2.714287114289507e+01	 7.142881171115513e-01	 1.000554047796405e+01
0	 2.714287114289507e+01	 1.428580650948409e+00	 1.000618362731662e+01
0	 2.714287114289507e+01	 2.142877018163879e+00	 1.000634329362662e+01
0	 2.714287114289508e+01	 2.857176635411265e+00	 1.000612941762163e+01
0	 2.714287114289507e+01	 3.571478919343872e+00	 1.000565194056098e+01
0	 2.714287114289507e+01	 4.285783286615009e+00	 1.000502080423576e+01
0	 2.714287114289507e+01	 5.000089153877976e+00	 1.000434595096883e+01
0	 2.714287114289508e+01	 5.714395937786081e+00	 1.000373732361475e+01
0	 2.714287114289507e+01	 6.428703054992627e+00	 1.000330486555983e+01
0	 2.714287114289508e+01	 7.143009922150927e+00	 1.000315852072212e+01
0	 2.785716307942177e+01	 0.000000000000000e+00	 1.000685032527818e+01
0	 2.785716307942177e+01	 7.142881171115513e-01	 1.000670092394941e+01
0	 2.785716307942177e+01	 1.428580650948409e+00	 1.000623636974372e+01
0	 2.785716307942177e+01	 2.142877018163878e+00	 1.000555001222798e+01
0	 2.785716307942178e+01	 2.857176635411265e+00	 1.000473520237299e+01
0	 2.785716307942177e+01	 3.571478919343873e+00	 1.000388529255343e+01
0	 2.785716307942177e+01	 4.285783286615009e+00	 1.000309363654773e+01
0	 2.785716307942177e+01	 5.000089153877974e+00	 1.000245358953805e+01
0	 2.785716307942177e+01	 5.714395937786081e+00	 1.000205850811027e+01
0	 2.785716307942178e+01	 6.428703054992629e+00	 1.000200175025392e+01
0	 2.785716307942178e+01	 7.143009922150927e+00	 1.000237667536220e+01
0	 2.857145634928704e+01	 0.000000000000000e+00	 1.000859512565641e+01
0	 2.857145634928703e+01	 7.142881171115513e-01	 1.000721239708614e+01
0	 2.857145634928704e+01	 1.428580650948409e+00	 1.000581086066399e+01
0	 2.857145634928704e+01	 2.142877018163878e+00	 1.000445683061316e+01
0	 2.857145634928703e+01	 2.857176635411264e+00	 1.000321662319756e+01
0	 2.857145634928704e+01	 3.571478919343873e+00	 1.000215655672179e+01
0	 2.857145634928704e+01	 4.285783286615009e+00	 1.000134295153090e+01
0	 2.857145634928704e+01	 5.000089153877975e+00	 1.000084213001040e+01
0	 2.857145634928703e+01	 5.714395937786080e+00	 1.000072041658616e+01
0	 2.857145634928704e+01	 6.428703054992629e+00	 1.000104413772440e+01
0	 2.857145634928703e+01	 7.143009922150926e+00	 1.000187962193167e+01
0	 2.142854365071297e+01	 7.143009922150927e+00	 1.001035574468872e+01
0	 2.142854365071296e+01	 7.857266066626718e+00	 1.000897288410212e+01
0	 2.142854365071296e+01	 8.571521461152164e+00	 1.000762622806544e+01
0	 2.142854365071296e+01	 9.285776189055184e+00	 1.000636463196228e+01
0	 2.142854365071297e+01	 1.000003033366371e+01	 1.000523695095700e+01
0	 2.142854365071296e+01	 1.071428397830567e+01	 1.000429203999467e+01
0	 2.142854365071296e+01	 1.142853720630899e+01	 1.000357875380113e+01
0	 2.142854365071297e+01	 1.214279010100160e+01	 1.000314594688293e+01
0	 2.142854365071296e+01	 1.285704274571142e+01	 1.000304247352734e+01
0	 2.142854365071296e+01	 1.357129522376639e+01	 1.000331718780238e+01
0	 2.142854365071296e+01	 1.428554761849444e+01	 1.000401894355677e+01
0	 2.214283692057824e+01	 7.143009922150926e+00	 1.001008858416255e+01
0	 2.214283692057824e+01	 7.857266066626720e+00	 1.000814253835012e+01
0	 2.214283692057824e+01	 8.571521461152162e+00	 1.000642902054214e+01
0	 2.214283692057824e+01	 9.285776189055181e+00	 1.000497130735794e+01
0	 2.214283692057823e+01	 1.000003033366371e+01	 1.000379267516429e+01
0	 2.214283692057824e+01	 1.071428397830567e+01	 1.000291640007547e+01
0	 2.214283692057823e+01	 1.142853720630899e+01	 1.000236575795319e+01
0	 2.214283692057823e+01	 1.214279010100160e+01	 1.000216402440665e+01
0	 2.214283692057824e+01	 1.285704274571142e+01	 1.000233447479255e+01
0	 2.214283692057824e+01	 1.357129522376640e+01	 1.000290038421497e+01
0	 2.214283692057824e+01	 1.428554761849444e+01	 1.000388502752556e+01
0	 2.285712885710494e+01	 7.143009922150927e+00	 1.000948554183598e+01
0	 2.285712885710494e+01	 7.857266066626718e+00	 1.000729486096870e+01
0	 2.285712885710493e+01	 8.571521461152161e+00	 1.000546282787091e+01
0	 2.285712885710493e+01	 9.285776189055182e+00	 1.000399125857451e+01
0	 2.285712885710494e+01	 1.000003033366371e+01	 1.000288196885812e+01
0	 2.285712885710495e+01	 1.071428397830567e+01	 1.000213677424702e+01
0	 2.285712885710494e+01	 1.142853720630899e+01	 1.000175749001324e+01
0	 2.285712885710493e+01	 1.214279010100160e+01	 1.000174593117545e+01
0	 2.285712885710494e+01	 1.285704274571142e+01	 1.000210391249903e+01
0	 2.285712885710494e+01	 1.357129522376640e+01	 1.000283324849603e+01
0	 2.285712885710494e+01	 1.428554761849444e+01	 1.000393575342520e+01
0	 2.357141979362770e+01	 7.143009922150926e+00	 1.000862420288481e+01
0	 2.357141979362770e+01	 7.857266066626717e+00	 1.000645534710679e+01
0	 2.357141979362770e+01	 8.571521461152166e+00	 1.000470986308548e+01
0	 2.357141979362770e+01	 9.285776189055182e+00	 1.000337222453390e+01
0	 2.357141979362770e+01	 1.000003033366371e+01	 1.000242690493726e+01
0	 2.357141979362770e+01	 1.071428397830567e+01	 1.000185837755305e+01
0	 2.357141979362770e+01	 1.142853720630899e+01	 1.000165111541097e+01
0	 2.357141979362770e+01	 1.214279010100160e+01	 1.000178959131291e+01
0	 2.357141979362770e+01	 1.285704274571142e+01	 1.000225827783306e+01
0	 2.357141979362770e+01	 1.357129522376639e+01	 1.000304164731778e+01
0	 2.357141979362770e+01	 1.428554761849444e+01	 1.000412417188567e+01
0	 2.428571006348117e+01	 7.143009922150927e+00	 1.000758215221071e+01
0	 2.428571006348117e+01	 7.857266066626718e+00	 1.000564949152664e+01
0	 2.428571006348117e+01	 8.571521461152159e+00	 1.000415233878713e+01
0	 2.428571006348117e+01	 9.285776189055184e+00	 1.000306194373480e+01
0	 2.428571006348118e+01	 1.000003033366371e+01	 1.000234955593018e+01
0	 2.428571006348118e+01	 1.071428397830567e+01	 1.000198642475175e+01
0	 2.428571006348118e+01	 1.142853720630899e+01	 1.000194379939588e+01
0	 2.428571006348117e+01	 1.214279010100160e+01	 1.000219292887687e+01
0	 2.428571006348117e+01	 1.285704274571142e+01	 1.000270506202694e+01
0	 2.428571006348117e+01	 1.357129522376639e+01	 1.000345144749623e+01
0	 2.428571006348118e+01	 1.428554761849444e+01	 1.000440333375279e+01
0	 2.500000000000000e+01	 7.143009922150926e+00	 1.000643697444117e+01
0	 2.500000000000000e+01	 7.857266066626717e+00	 1.000490278860388e+01
0	 2.500000000000000e+01	 8.571521461152161e+00	 1.000377246714462e+01
0	 2.500000000000001e+01	 9.285776189055186e+00	 1.000300815425267e+01
0	 2.500000000000000e+01	 1.000003033366371e+01	 1.000257199399490e+01
0	 2.500000000000001e+01	 1.071428397830567e+01	 1.000242613031579e+01
0	 2.500000000000000e+01	 1.142853720630899e+01	 1.000253270703740e+01
0	 2.500000000000001e+01	 1.214279010100160e+01	 1.000285386785940e+01
0	 2.500000000000001e+01	 1.285704274571142e+01	 1.000335175635905e+01
0	 2.500000000000000e+01	 1.357129522376639e+01	 1.000398851599120e+01
0	 2.500000000000000e+01	 1.428554761849444e+01	 1.000472629008830e+01
0	 2.571428993651883e+01	 7.143009922150926e+00	 1.000526625392949e+01
0	 2.571428993651883e+01	 7.857266066626718e+00	 1.000424073232747e+01
0	 2.571428993651883e+01	 8.571521461152162e+00	 1.000355245989423e+01
0	 2.571428993651884e+01	 9.285776189055184e+00	 1.000315859373974e+01
0	 2.571428993651883e+01	 1.000003033366371e+01	 1.000301629091906e+01
0	 2.571428993651884e+01	 1.071428397830567e+01	 1.000308270843234e+01
0	 2.571428993651884e+01	 1.142853720630899e+01	 1.000331500322481e+01
0	 2.571428993651884e+01	 1.214279010100160e+01	 1.000367033218682e+01
0	 2.571428993651883e+01	 1.285704274571143e+01	 1.000410585215378e+01
0	 2.571428993651883e+01	 1.357129522376639e+01	 1.000457871990625e+01
0	 2.571428993651884e+01	 1.428554761849445e+01	 1.000504609216981e+01
0	 2.642858020637231e+01	 7.143009922150926e+00	 1.000414757475482e+01
0	 2.642858020637231e+01	 7.857266066626718e+00	 1.000368881629973e+01
0	 2.642858020637231e+01	 8.571521461152164e+00	 1.000347452833976e+01
0	 2.642858020637231e+01	 9.285776189055182e+00	 1.000346099942503e+01
0	 2.642858020637231e+01	 1.000003033366371e+01	 1.000360451811992e+01
0	 2.642858020637232e+01	 1.071428397830567e+01	 1.000386137300305e+01
0	 2.642858020637231e+01	 1.142853720630899e+01	 1.000418785266726e+01
0	 2.642858020637231e+01	 1.214279010100160e+01	 1.000454024571968e+01
0	 2.642858020637231e+01	 1.285704274571142e+01	 1.000487484078164e+01
0	 2.642858020637231e+01	 1.357129522376640e+01	 1.000514792648874e+01
0	 2.642858020637231e+01	 1.428554761849444e+01	 1.000531579149085e+01
0	 2.714287114289508e+01	 7.143009922150927e+00	 1.000315852072213e+01
0	 2.714287114289507e+01	 7.857266066626718e+00	 1.000327253373632e+01
0	 2.714287114289508e+01	 8.571521461152164e+00	 1.000352088335248e+01
0	 2.714287114289507e+01	 9.285776189055186e+00	 1.000386310811429e+01
0	 2.714287114289507e+01	 1.000003033366371e+01	 1.000425874664433e+01
0	 2.714287114289507e+01	 1.071428397830567e+01	 1.000466733764405e+01
0	 2.714287114289507e+01	 1.142853720630899e+01	 1.000504841989379e+01
0	 2.714287114289509e+01	 1.214279010100160e+01	 1.000536153225278e+01
0	 2.714287114289507e+01	 1.285704274571142e+01	 1.000556621365913e+01
0	 2.714287114289508e+01	 1.357129522376640e+01	 1.000562200312984e+01
0	 2.714287114289507e+01	 1.428554761849444e+01	 1.000548843976081e+01
0	 2.785716307942178e+01	 7.143009922150927e+00	 1.000237667536220e+01
0	 2.785716307942177e+01	 7.857266066626719e+00	 1.000301737746624e+01
0	 2.785716307942177e+01	 8.571521461152162e+00	 1.000367373537119e+01
0	 2.785716307942177e+01	 9.285776189055184e+00	 1.000431265619008e+01
0	 2.785716307942177e+01	 1.000003033366371e+01	 1.000490104716876e+01
0	 2.785716307942177e+01	 1.071428397830567e+01	 1.000540581568598e+01
0	 2.785716307942177e+01	 1.142853720630899e+01	 1.000579386925331e+01
0	 2.785716307942177e+01	 1.214279010100160e+01	 1.000603211551516e+01
0	 2.785716307942178e+01	 1.285704274571143e+01	 1.000608746224883e+01
0	 2.785716307942177e+01	 1.357129522376639e+01	 1.000592681736445e+01
0	 2.785716307942178e+01	 1.428554761849445e+01	 1.000551708890500e+01
0	 2.857145634928703e+01	 7.143009922150926e+00	 1.000187962193167e+01
0	 2.857145634928704e+01	 7.857266066626718e+00	 1.000294883993187e+01
0	 2.857145634928704e+01	 8.571521461152164e+00	 1.000391529440220e+01
0	 2.857145634928704e+01	 9.285776189055182e+00	 1.000475737961169e+01
0	 2.857145634928704e+01	 1.000003033366371e+01	 1.000545348999928e+01
0	 2.857145634928704e+01	 1.071428397830567e+01	 1.000598202017394e+01
0	 2.857145634928704e+01	 1.142853720630899e+01	 1.000632136491459e+01
0	 2.857145634928704e+01	 1.214279010100160e+01	 1.000644991917011e+01
0	 2.857145634928703e+01	 1.285704274571142e+01	 1.000634607805939e+01
0	 2.857145634928704e+01	 1.357129522376639e+01	 1.000598823687129e+01
0	 2.857145634928703e+01	 1.428554761849444e+01	 1.000535479106463e+01
0	 2.142854365071296e+01	 1.428554761849444e+01	 1.000401894355677e+01
0	 2.142854365071297e+01	 1.499984997172426e+01	 1.000490347229897e+01
0	 2.142854365071296e+01	 1.571415215828766e+01	 1.000567960272064e+01
0	 2.142854365071296e+01	 1.642845401151721e+01	 1.000632602965625e+01
0	 2.142854365071296e+01	 1.714275536474550e+01	 1.000682144759062e+01
0	 2.142854365071296e+01	 1.785705605130510e+01	 1.000714455065893e+01
0	 2.142854365071296e+01	 1.857135590452858e+01	 1.000727403264665e+01
0	 2.142854365071297e+01	 1.928565475774854e+01	 1.000718858698965e+01
0	 2.142854365071297e+01	 1.999995244429754e+01	 1.000686690677408e+01
0	 2.142854365071296e+01	 2.071424879750816e+01	 1.000628768473643e+01
0	 2.142854365071296e+01	 2.142854365071296e+01	 1.000542961326352e+01
0	 2.214283692057824e+01	 1.428554761849444e+01	 1.000388502752556e+01
0	 2.214283692057823e+01	 1.499984997172426e+01	 1.000499377608844e+01
0	 2.214283692057824e+01	 1.571415215828766e+01	 1.000591032257246e+01
0	 2.214283692057824e+01	 1.642845401151721e+01	 1.000662567570316e+01
0	 2.214283692057825e+01	 1.714275536474550e+01	 1.000713084383588e+01
0	 2.214283692057824e+01	 1.785705605130510e+01	 1.000741683495566e+01
0	 2.214283692057824e+01	 1.857135590452858e+01	 1.000747465667736e+01
0	 2.214283692057824e+01	 1.928565475774854e+01	 1.000729531624556e+01
0	 2.214283692057824e+01	 1.999995244429753e+01	 1.000686982053461e+01
0	 2.214283692057824e+01	 2.071424879750816e+01	 1.000618917604858e+01
0	 2.214283692057824e+01	 2.142854365071296e+01	 1.000524438892129e+01
0	 2.285712885710494e+01	 1.428554761849444e+01	 1.000393575342521e+01
0	 2.285712885710494e+01	 1.499984997172426e+01	 1.000510495919112e+01
0	 2.285712885710493e+01	 1.571415215828766e+01	 1.000603385414433e+01
0	 2.285712885710494e+01	 1.642845401151721e+01	 1.000672370760443e+01
0	 2.285712885710494e+01	 1.714275536474550e+01	 1.000717578853448e+01
0	 2.285712885710494e+01	 1.785705605130510e+01	 1.000739136554099e+01
0	 2.285712885710494e+01	 1.857135590452858e+01	 1.000737170687394e+01
0	 2.285712885710494e+01	 1.928565475774854e+01	 1.000711808042671e+01
0	 2.285712885710494e+01	 1.999995244429754e+01	 1.000663175373617e+01
0	 2.285712885710493e+01	 2.071424879750816e+01	 1.000591399398260e+01
0	 2.285712885710494e+01	 2.142854365071296e+01	 1.000496606798971e+01
0	 2.357141979362770e+01	 1.428554761849444e+01	 1.000412417188567e+01
0	 2.357141979362770e+01	 1.499984997172426e+01	 1.000521922494070e+01
0	 2.357141979362770e+01	 1.571415215828766e+01	 1.000605667803719e+01
0	 2.357141979362770e+01	 1.642845401151721e+01	 1.000664600777924e+01
0	 2.357141979362770e+01	 1.714275536474550e+01	 1.000699669045552e+01
0	 2.357141979362770e+01	 1.785705605130509e+01	 1.000711820203930e+01
0	 2.357141979362770e+01	 1.857135590452859e+01	 1.000702001818846e+01
0	 2.357141979362769e+01	 1.928565475774853e+01	 1.000671161424542e+01
0	 2.357141979362770e+01	 1.999995244429754e+01	 1.000620246523720e+01
0	 2.357141979362770e+01	 2.071424879750816e+01	 1.000550204587540e+01
0	 2.357141979362770e+01	 2.142854365071297e+01	 1.000461983055615e+01
0	 2.428571006348118e+01	 1.428554761849444e+01	 1.000440333375279e+01
0	 2.428571006348118e+01	 1.499984997172427e+01	 1.000531877692457e+01
0	 2.428571006348118e+01	 1.571415215828766e+01	 1.000598527511215e+01
0	 2.428571006348118e+01	 1.642845401151721e+01	 1.000641845888773e+01
0	 2.428571006348117e+01	 1.714275536474550e+01	 1.000663395856989e+01
0	 2.428571006348117e+01	 1.785705605130509e+01	 1.000664740422353e+01
0	 2.428571006348117e+01	 1.857135590452859e+01	 1.000647442565988e+01
0	 2.428571006348117e+01	 1.928565475774854e+01	 1.000613065243654e+01
0	 2.428571006348117e+01	 1.999995244429754e+01	 1.000563171385738e+01
0	 2.428571006348117e+01	 2.071424879750816e+01	 1.000499323897266e+01
0	 2.428571006348117e+01	 2.142854365071296e+01	 1.000423085657895e+01
0	 2.500000000000000e+01	 1.428554761849444e+01	 1.000472629008830e+01
0	 2.500000000000001e+01	 1.499984997172427e+01	 1.000538581898386e+01
0	 2.500000000000000e+01	 1.571415215828766e+01	 1.000582612649046e+01
0	 2.500000000000001e+01	 1.642845401151721e+01	 1.000606694383103e+01
0	 2.500000000000000e+01	 1.714275536474550e+01	 1.000612800205037e+01
0	 2.500000000000001e+01	 1.785705605130510e+01	 1.000602903201517e+01
0	 2.500000000000001e+01	 1.857135590452858e+01	 1.000578976441402e+01
0	 2.500000000000000e+01	 1.928565475774854e+01	 1.000542992975740e+01
0	 2.500000000000000e+01	 1.999995244429753e+01	 1.000496925837763e+01
0	 2.500000000000001e+01	 2.071424879750815e+01	 1.000442748042895e+01
0	 2.500000000000001e+01	 2.142854365071296e+01	 1.000382432588746e+01
0	 2.571428993651884e+01	 1.428554761849445e+01	 1.000504609216981e+01
0	 2.571428993651883e+01	 1.499984997172426e+01	 1.000540255521343e+01
0	 2.571428993651883e+01	 1.571415215828766e+01	 1.000558571355357e+01
0	 2.571428993651883e+01	 1.642845401151721e+01	 1.000561734575117e+01
0	 2.571428993651884e+01	 1.714275536474551e+01	 1.000551923027149e+01
0	 2.571428993651883e+01	 1.785705605130509e+01	 1.000531314548424e+01
0	 2.571428993651883e+01	 1.857135590452858e+01	 1.000502086966354e+01
0	 2.571428993651884e+01	 1.928565475774854e+01	 1.000466418098787e+01
0	 2.571428993651884e+01	 1.999995244429754e+01	 1.000426485754014e+01
0	 2.571428993651883e+01	 2.071424879750815e+01	 1.000384467730763e+01
0	 2.571428993651884e+01	 2.142854365071296e+01	 1.000342541818205e+01
0	 2.642858020637231e+01	 1.428554761849444e+01	 1.000531579149085e+01
0	 2.642858020637231e+01	 1.499984997172426e+01	 1.000535118996187e+01
0	 2.642858020637231e+01	 1.571415215828766e+01	 1.000527051794311e+01
0	 2.642858020637231e+01	 1.642845401151721e+01	 1.000509554803116e+01
0	 2.642858020637231e+01	 1.714275536474550e+01	 1.000484805280967e+01
0	 2.642858020637232e+01	 1.785705605130510e+01	 1.000454980484935e+01
0	 2.642858020637231e+01	 1.857135590452858e+01	 1.000422257670795e+01
0	 2.642858020637232e+01	 1.928565475774854e+01	 1.000388814093033e+01
0	 2.642858020637231e+01	 1.999995244429754e+01	 1.000356827004834e+01
0	 2.642858020637231e+01	 2.071424879750815e+01	 1.000328473658092e+01
0	 2.642858020637232e+01	 2.142854365071296e+01	 1.000305931303406e+01
0	 2.714287114289507e+01	 1.428554761849444e+01	 1.000548843976081e+01
0	 2.714287114289507e+01	 1.499984997172426e+01	 1.000521392783154e+01
0	 2.714287114289508e+01	 1.571415215828766e+01	 1.000488702156086e+01
0	 2.714287114289507e+01	 1.642845401151721e+01	 1.000452743429499e+01
0	 2.714287114289508e+01	 1.714275536474550e+01	 1.000415487944315e+01
0	 2.714287114289507e+01	 1.785705605130510e+01	 1.000378907047762e+01
0	 2.714287114289507e+01	 1.857135590452858e+01	 1.000344972093368e+01
0	 2.714287114289507e+01	 1.928565475774854e+01	 1.000315654440966e+01
0	 2.714287114289507e+01	 1.999995244429753e+01	 1.000292925456692e+01
0	 2.714287114289508e+01	 2.071424879750816e+01	 1.000278756512985e+01
0	 2.714287114289507e+01	 2.142854365071296e+01	 1.000275118988586e+01
0	 2.785716307942178e+01	 1.428554761849445e+01	 1.000551708890500e+01
0	 2.785716307942177e+01	 1.499984997172426e+01	 1.000497297367850e+01
0	 2.785716307942177e+01	 1.571415215828766e+01	 1.000444170656879e+01
0	 2.785716307942178e+01	 1.642845401151722e+01	 1.000393888840757e+01
0	 2.785716307942177e+01	 1.714275536474550e+01	 1.000348012015200e+01
0	 2.785716307942177e+01	 1.785705605130510e+01	 1.000308100288474e+01
0	 2.785716307942177e+01	 1.857135590452858e+01	 1.000275713781394e+01
0	 2.785716307942178e+01	 1.928565475774854e+01	 1.000252412627326e+01
0	 2.785716307942177e+01	 1.999995244429754e+01	 1.000239756972183e+01
0	 2.785716307942177e+01	 2.071424879750815e+01	 1.000239306974430e+01
0	 2.785716307942178e+01	 2.142854365071296e+01	 1.000252622805081e+01
0	 2.857145634928703e+01	 1.428554761849444e+01	 1.000535479106463e+01
0	 2.857145634928704e+01	 1.499984997172426e+01	 1.000461053261255e+01
0	 2.857145634928703e+01	 1.571415215828766e+01	 1.000394105538904e+01
0	 2.857145634928704e+01	 1.642845401151721e+01	 1.000335579447479e+01
0	 2.857145634928704e+01	 1.714275536474550e+01	 1.000286418511812e+01
0	 2.857145634928704e+01	 1.785705605130510e+01	 1.000247566273496e+01
0	 2.857145634928704e+01	 1.857135590452858e+01	 1.000219966290887e+01
0	 2.857145634928703e+01	 1.928565475774853e+01	 1.000204562139104e+01
0	 2.857145634928703e+01	 1.999995244429753e+01	 1.000202297410027e+01
0	 2.857145634928704e+01	 2.071424879750816e+01	 1.000214115712301e+01
0	 2.857145634928704e+01	 2.142854365071296e+01	 1.000240960671330e+01
0	 2.142854365071296e+01	 2.142854365071296e+01	 1.000542961326352e+01
0	 2.142854365071296e+01	 2.214283692057824e+01	 1.000447250949209e+01
0	 2.142854365071296e+01	 2.285712885710494e+01	 1.000361521272134e+01
0	 2.142854365071296e+01	 2.357141979362770e+01	 1.000286494801930e+01
0	 2.142854365071296e+01	 2.428571006348117e+01	 1.000222894005371e+01
0	 2.142854365071296e+01	 2.500000000000001e+01	 1.000171441309195e+01
0	 2.142854365071296e+01	 2.571428993651884e+01	 1.000132859100108e+01
0	 2.142854365071296e+01	 2.642858020637231e+01	 1.000107869724783e+01
0	 2.142854365071296e+01	 2.714287114289507e+01	 1.000097195489861e+01
0	 2.142854365071296e+01	 2.785716307942177e+01	 1.000101558661944e+01
0	 2.142854365071296e+01	 2.857145634928703e+01	 1.000121681467606e+01
0	 2.214283692057824e+01	 2.142854365071296e+01	 1.000524438892129e+01
0	 2.214283692057824e+01	 2.214283692057824e+01	 1.000423297114854e+01
0	 2.214283692057824e+01	 2.285712885710494e+01	 1.000335894861298e+01
0	 2.214283692057824e+01	 2.357141979362770e+01	 1.000262309769583e+01
0	 2.214283692057824e+01	 2.428571006348118e+01	 1.000202619437158e+01
0	 2.214283692057824e+01	 2.500000000000000e+01	 1.000156901420788e+01
0	 2.214283692057824e+01	 2.571428993651884e+01	 1.000125233236558e+01
0	 2.214283692057824e+01	 2.642858020637232e+01	 1.000107692359870e+01
0	 2.214283692057824e+01	 2.714287114289507e+01	 1.000104356225442e+01
0	 2.214283692057824e+01	 2.785716307942177e+01	 1.000115302227313e+01
0	 2.214283692057824e+01	 2.857145634928704e+01	 1.000140607718838e+01
0	 2.285712885710494e+01	 2.142854365071296e+01	 1.000496606798971e+01
0	 2.285712885710494e+01	 2.214283692057824e+01	 1.000398300624154e+01
0	 2.285712885710493e+01	 2.285712885710493e+01	 1.000315597846640e+01
0	 2.285712885710494e+01	 2.357141979362770e+01	 1.000248045980397e+01
0	 2.285712885710494e+01	 2.428571006348118e+01	 1.000195192501661e+01
0	 2.285712885710494e+01	 2.500000000000000e+01	 1.000156584848930e+01
0	 2.285712885710494e+01	 2.571428993651883e+01	 1.000131770422964e+01
0	 2.285712885710494e+01	 2.642858020637232e+01	 1.000120296586791e+01
0	 2.285712885710494e+01	 2.714287114289507e+01	 1.000121710665696e+01
0	 2.285712885710494e+01	 2.785716307942177e+01	 1.000135559947231e+01
0	 2.285712885710494e+01	 2.857145634928704e+01	 1.000161391681211e+01
0	 2.357141979362770e+01	 2.142854365071297e+01	 1.000461983055615e+01
0	 2.357141979362770e+01	 2.214283692057824e+01	 1.000373197734987e+01
0	 2.357141979362770e+01	 2.285712885710493e+01	 1.000300254263892e+01
0	 2.357141979362770e+01	 2.357141979362770e+01	 1.000242284781125e+01
0	 2.357141979362770e+01	 2.428571006348117e+01	 1.000198421393530e+01
0	 2.357141979362770e+01	 2.500000000000001e+01	 1.000167796175996e+01
0	 2.357141979362770e+01	 2.571428993651884e+01	 1.000149541171462e+01
0	 2.357141979362770e+01	 2.642858020637231e+01	 1.000142788390911e+01
0	 2.357141979362770e+01	 2.714287114289508e+01	 1.000146669813380e+01
0	 2.357141979362770e+01	 2.785716307942177e+01	 1.000160317385940e+01
0	 2.357141979362770e+01	 2.857145634928704e+01	 1.000182863023722e+01
0	 2.428571006348117e+01	 2.142854365071296e+01	 1.000423085657895e+01
0	 2.428571006348117e+01	 2.214283692057824e+01	 1.000348924690432e+01
0	 2.428571006348118e+01	 2.285712885710494e+01	 1.000289488133799e+01
0	 2.428571006348118e+01	 2.357141979362770e+01	 1.000243607504739e+01
0	 2.428571006348118e+01	 2.428571006348118e+01	 1.000210114295909e+01
0	 2.428571006348117e+01	 2.500000000000000e+01	 1.000187839975885e+01
0	 2.428571006348117e+01	 2.571428993651883e+01	 1.000175615989154e+01
0	 2.428571006348117e+01	 2.642858020637231e+01	 1.000172273756123e+01
0	 2.428571006348118e+01	 2.714287114289508e+01	 1.000176644673109e+01
0	 2.428571006348117e+01	 2.785716307942176e+01	 1.000187560112345e+01
0	 2.428571006348117e+01	 2.857145634928703e+01	 1.000203851421984e+01
0	 2.500000000000001e+01	 2.142854365071296e+01	 1.000382432588746e+01
0	 2.500000000000001e+01	 2.214283692057824e+01	 1.000326417718772e+01
0	 2.500000000000000e+01	 2.285712885710494e+01	 1.000282923462122e+01
0	 2.500000000000000e+01	 2.357141979362770e+01	 1.000250595470430e+01
0	 2.500000000000000e+01	 2.428571006348117e+01	 1.000228079380439e+01
0	 2.500000000000001e+01	 2.500000000000000e+01	 1.000214020814010e+01
0	 2.500000000000000e+01	 2.571428993651883e+01	 1.000207065378114e+01
0	 2.500000000000001e+01	 2.642858020637231e+01	 1.000205858664835e+01
0	 2.500000000000000e+01	 2.714287114289507e+01	 1.000209046251369e+01
0	 2.500000000000001e+01	 2.785716307942178e+01	 1.000215273700023e+01
0	 2.500000000000001e+01	 2.857145634928704e+01	 1.000223186558218e+01
0	 2.571428993651884e+01	 2.142854365071296e+01	 1.000342541818205e+01
0	 2.571428993651884e+01	 2.214283692057824e+01	 1.000306613033490e+01
0	 2.571428993651883e+01	 2.285712885710494e+01	 1.000280184239636e+01
0	 2.571428993651883e+01	 2.357141979362770e+01	 1.000261829983608e+01
0	 2.571428993651883e+01	 2.428571006348117e+01	 1.000250124807252e+01
0	 2.571428993651883e+01	 2.500000000000000e+01	 1.000243643247304e+01
0	 2.571428993651883e+01	 2.571428993651883e+01	 1.000240959835381e+01
0	 2.571428993651883e+01	 2.642858020637231e+01	 1.000240649097987e+01
0	 2.571428993651884e+01	 2.714287114289507e+01	 1.000241285556507e+01
0	 2.571428993651883e+01	 2.785716307942177e+01	 1.000241443727215e+01
0	 2.571428993651884e+01	 2.857145634928704e+01	 1.000239698121265e+01
0	 2.642858020637232e+01	 2.142854365071296e+01	 1.000305931303406e+01
0	 2.642858020637232e+01	 2.214283692057824e+01	 1.000290446833272e+01
0	 2.642858020637231e+01	 2.285712885710493e+01	 1.000280894442135e+01
0	 2.642858020637231e+01	 2.357141979362770e+01	 1.000275892335908e+01
0	 2.642858020637232e+01	 2.428571006348118e+01	 1.000274058724980e+01
0	 2.642858020637231e+01	 2.500000000000000e+01	 1.000274011824217e+01
0	 2.642858020637232e+01	 2.571428993651884e+01	 1.000274369852963e+01
0	 2.642858020637231e+01	 2.642858020637230e+01	 1.000273751035037e+01
0	 2.642858020637231e+01	 2.714287114289508e+01	 1.000270773598736e+01
0	 2.642858020637231e+01	 2.785716307942177e+01	 1.000264055776830e+01
0	 2.642858020637231e+01	 2.857145634928704e+01	 1.000252215806570e+01
0	 2.714287114289507e+01	 2.142854365071296e+01	 1.000275118988586e+01
0	 2.714287114289508e+01	 2.214283692057824e+01	 1.000278855302004e+01
0	 2.714287114289506e+01	 2.285712885710494e+01	 1.000284678030424e+01
0	 2.714287114289507e+01	 2.357141979362770e+01	 1.000291363805181e+01
0	 2.714287114289507e+01	 2.428571006348117e+01	 1.000297689270744e+01
0	 2.714287114289507e+01	 2.500000000000001e+01	 1.000302431084717e+01
0	 2.714287114289508e+01	 2.571428993651884e+01	 1.000304365917835e+01
0	 2.714287114289508e+01	 2.642858020637231e+01	 1.000302270453971e+01
0	 2.714287114289508e+01	 2.714287114289508e+01	 1.000294921390130e+01
0	 2.714287114289508e+01	 2.785716307942177e+01	 1.000281095436448e+01
0	 2.714287114289507e+01	 2.857145634928703e+01	 1.000259569316199e+01
0	 2.785716307942178e+01	 2.142854365071296e+01	 1.000252622805081e+01
0	 2.785716307942178e+01	 2.214283692057824e+01	 1.000272774608776e+01
0	 2.785716307942177e+01	 2.285712885710494e+01	 1.000291158950327e+01
0	 2.785716307942177e+01	 2.357141979362770e+01	 1.000306825655501e+01
0	 2.785716307942177e+01	 2.428571006348117e+01	 1.000318824570166e+01
0	 2.785716307942178e+01	 2.500000000000000e+01	 1.000326205560289e+01
0	 2.785716307942177e+01	 2.571428993651883e+01	 1.000328018511942e+01
0	 2.785716307942177e+01	 2.642858020637231e+01	 1.000323313331298e+01
0	 2.785716307942177e+01	 2.714287114289508e+01	 1.000311139944630e+01
0	 2.785716307942177e+01	 2.785716307942177e+01	 1.000290548298315e+01
0	 2.785716307942177e+01	 2.857145634928704e+01	 1.000260588358827e+01
0	 2.857145634928704e+01	 2.142854365071296e+01	 1.000240960671330e+01
0	 2.857145634928704e+01	 2.214283692057824e+01	 1.000273140907877e+01
0	 2.857145634928704e+01	 2.285712885710494e+01	 1.000299961132681e+01
0	 2.857145634928704e+01	 2.357141979362770e+01	 1.000320859137159e+01
0	 2.857145634928703e+01	 2.428571006348117e+01	 1.000335272737356e+01
0	 2.857145634928704e+01	 2.500000000000001e+01	 1.000342639773937e+01
0	 2.857145634928704e+01	 2.571428993651884e+01	 1.000342398112195e+01
0	 2.857145634928704e+01	 2.642858020637232e+01	 1.000333985642050e+01
0	 2.857145634928704e+01	 2.714287114289508e+01	 1.000316840278042e+01
0	 2.857145634928704e+01	 2.785716307942177e+01	 1.000290399959343e+01
0	 2.857145634928703e+01	 2.857145634928703e+01	 1.000254102649742e+01
0	 2.142854365071296e+01	 2.857145634928703e+01	 1.000121681467606e+01
0	 2.142854365071296e+01	 2.928575120249186e+01	 1.000147674963805e+01
0	 2.142854365071296e+01	 3.000004755570248e+01	 1.000168924346367e+01
0	 2.142854365071297e+01	 3.071434524225148e+01	 1.000185063013257e+01
0	 2.142854365071296e+01	 3.142864409547142e+01	 1.000195724353250e+01
0	 2.142854365071296e+01	 3.214294394869491e+01	 1.000200541745937e+01
0	 2.142854365071296e+01	 3.285724463525451e+01	 1.000199148561722e+01
0	 2.142854365071296e+01	 3.357154598848279e+01	 1.000191178161822e+01
0	 2.142854365071296e+01	 3.428584784171235e+01	 1.000176263898268e+01
0	 2.142854365071296e+01	 3.500015002827575e+01	 1.000154039113908e+01
0	 2.142854365071297e+01	 3.571445238150556e+01	 1.000124137142400e+01
0	 2.214283692057824e+01	 2.857145634928704e+01	 1.000140607718838e+01
0	 2.214283692057824e+01	 2.928575120249186e+01	 1.000169675419287e+01
0	 2.214283692057824e+01	 3.000004755570248e+01	 1.000191860397931e+01
0	 2.214283692057824e+01	 3.071434524225147e+01	 1.000207168495480e+01
0	 2.214283692057825e+01	 3.142864409547143e+01	 1.000215605543131e+01
0	 2.214283692057824e+01	 3.214294394869491e+01	 1.000217177362568e+01
0	 2.214283692057824e+01	 3.285724463525450e+01	 1.000211889765954e+01
0	 2.214283692057823e+01	 3.357154598848279e+01	 1.000199748555946e+01
0	 2.214283692057823e+01	 3.428584784171235e+01	 1.000180759525681e+01
0	 2.214283692057824e+01	 3.500015002827574e+01	 1.000154928458784e+01
0	 2.214283692057824e+01	 3.571445238150555e+01	 1.000122261129367e+01
0	 2.285712885710494e+01	 2.857145634928704e+01	 1.000161391681211e+01
0	 2.285712885710493e+01	 2.928575120249186e+01	 1.000188994500911e+01
0	 2.285712885710494e+01	 3.000004755570248e+01	 1.000208664925958e+01
0	 2.285712885710494e+01	 3.071434524225146e+01	 1.000220712000776e+01
0	 2.285712885710494e+01	 3.142864409547142e+01	 1.000225444760980e+01
0	 2.285712885710493e+01	 3.214294394869492e+01	 1.000223172233373e+01
0	 2.285712885710494e+01	 3.285724463525452e+01	 1.000214203435947e+01
0	 2.285712885710495e+01	 3.357154598848280e+01	 1.000198847377879e+01
0	 2.285712885710494e+01	 3.428584784171235e+01	 1.000177413059545e+01
0	 2.285712885710493e+01	 3.500015002827574e+01	 1.000150209472501e+01
0	 2.285712885710494e+01	 3.571445238150555e+01	 1.000117545599497e+01
0	 2.357141979362770e+01	 2.857145634928704e+01	 1.000182863023722e+01
0	 2.357141979362770e+01	 2.928575120249186e+01	 1.000205362624788e+01
0	 2.357141979362770e+01	 3.000004755570247e+01	 1.000219812836602e+01
0	 2.357141979362770e+01	 3.071434524225147e+01	 1.000226756668956e+01
0	 2.357141979362770e+01	 3.142864409547143e+01	 1.000226737124350e+01
0	 2.357141979362770e+01	 3.214294394869493e+01	 1.000220297197982e+01
0	 2.357141979362770e+01	 3.285724463525450e+01	 1.000207979877765e+01
0	 2.357141979362770e+01	 3.357154598848280e+01	 1.000190328144307e+01
0	 2.357141979362770e+01	 3.428584784171235e+01	 1.000167884970930e+01
0	 2.357141979362770e+01	 3.500015002827573e+01	 1.000141193323659e+01
0	 2.357141979362770e+01	 3.571445238150556e+01	 1.000110796161221e+01
0	 2.428571006348117e+01	 2.857145634928703e+01	 1.000203851421984e+01
0	 2.428571006348117e+01	 2.928575120249185e+01	 1.000218510214495e+01
0	 2.428571006348117e+01	 3.000004755570247e+01	 1.000225779043348e+01
0	 2.428571006348117e+01	 3.071434524225147e+01	 1.000226365646238e+01
0	 2.428571006348117e+01	 3.142864409547142e+01	 1.000220977755673e+01
0	 2.428571006348117e+01	 3.214294394869491e+01	 1.000210323098977e+01
0	 2.428571006348118e+01	 3.285724463525452e+01	 1.000195109398290e+01
0	 2.428571006348118e+01	 3.357154598848279e+01	 1.000176044370568e+01
0	 2.428571006348118e+01	 3.428584784171235e+01	 1.000153835727585e+01
0	 2.428571006348118e+01	 3.500015002827575e+01	 1.000129191175926e+01
0	 2.428571006348117e+01	 3.571445238150555e+01	 1.000102818416997e+01
0	 2.500000000000001e+01	 2.857145634928704e+01	 1.000223186558218e+01
0	 2.500000000000000e+01	 2.928575120249186e+01	 1.000228167701071e+01
0	 2.500000000000001e+01	 3.000004755570248e+01	 1.000227038467011e+01
0	 2.500000000000001e+01	 3.071434524225147e+01	 1.000220602085240e+01
0	 2.500000000000000e+01	 3.142864409547142e+01	 1.000209661782264e+01
0	 2.500000000000001e+01	 3.214294394869491e+01	 1.000195020781887e+01
0	 2.500000000000000e+01	 3.285724463525450e+01	 1.000177482305218e+01
0	 2.500000000000001e+01	 3.357154598848280e+01	 1.000157849570666e+01
0	 2.500000000000000e+01	 3.428584784171235e+01	 1.000136925793941e+01
0	 2.500000000000000e+01	 3.500015002827574e+01	 1.000115514188055e+01
0	 2.500000000000000e+01	 3.571445238150555e+01	 1.000094417963322e+01
0	 2.571428993651884e+01	 2.857145634928704e+01	 1.000239698121265e+01
0	 2.571428993651884e+01	 2.928575120249186e+01	 1.000234065523024e+01
0	 2.571428993651884e+01	 3.000004755570248e+01	 1.000224066035735e+01
0	 2.571428993651884e+01	 3.071434524225148e+01	 1.000210529144988e+01
0	 2.571428993651883e+01	 3.142864409547142e+01	 1.000194284336317e+01
0	 2.571428993651884e+01	 3.214294394869492e+01	 1.000176161095199e+01
0	 2.571428993651883e+01	 3.285724463525451e+01	 1.000156988907057e+01
0	 2.571428993651883e+01	 3.357154598848280e+01	 1.000137597257257e+01
0	 2.571428993651883e+01	 3.428584784171235e+01	 1.000118815631108e+01
0	 2.571428993651884e+01	 3.500015002827574e+01	 1.000101473513866e+01
0	 2.571428993651884e+01	 3.571445238150556e+01	 1.000086400390725e+01
0	 2.642858020637231e+01	 2.857145634928704e+01	 1.000252215806570e+01
0	 2.642858020637231e+01	 2.928575120249186e+01	 1.000235934126322e+01
0	 2.642858020637231e+01	 3.000004755570248e+01	 1.000217336684995e+01
0	 2.642858020637231e+01	 3.071434524225146e+01	 1.000197209990909e+01
0	 2.642858020637231e+01	 3.142864409547142e+01	 1.000176340554905e+01
0	 2.642858020637231e+01	 3.214294394869491e+01	 1.000155514890348e+01
0	 2.642858020637232e+01	 3.285724463525452e+01	 1.000135519513128e+01
0	 2.642858020637231e+01	 3.357154598848280e+01	 1.000117140941659e+01
0	 2.642858020637231e+01	 3.428584784171235e+01	 1.000101165696882e+01
0	 2.642858020637231e+01	 3.500015002827576e+01	 1.000088380302255e+01
0	 2.642858020637231e+01	 3.571445238150556e+01	 1.000079571283769e+01
0	 2.714287114289507e+01	 2.857145634928703e+01	 1.000259569316199e+01
0	 2.714287114289508e+01	 2.928575120249186e+01	 1.000233503964399e+01
0	 2.714287114289507e+01	 3.000004755570247e+01	 1.000207325357598e+01
0	 2.714287114289507e+01	 3.071434524225147e+01	 1.000181707794839e+01
0	 2.714287114289509e+01	 3.142864409547143e+01	 1.000157325579984e+01
0	 2.714287114289507e+01	 3.214294394869491e+01	 1.000134853021723e+01
0	 2.714287114289507e+01	 3.285724463525450e+01	 1.000114964433567e+01
0	 2.714287114289508e+01	 3.357154598848279e+01	 1.000098334133852e+01
0	 2.714287114289508e+01	 3.428584784171235e+01	 1.000085636445735e+01
0	 2.714287114289507e+01	 3.500015002827575e+01	 1.000077545697200e+01
0	 2.714287114289507e+01	 3.571445238150555e+01	 1.000074736221050e+01
0	 2.785716307942177e+01	 2.857145634928704e+01	 1.000260588358827e+01
0	 2.785716307942177e+01	 2.928575120249185e+01	 1.000226505498155e+01
0	 2.785716307942177e+01	 3.000004755570247e+01	 1.000194507003680e+01
0	 2.785716307942177e+01	 3.071434524225147e+01	 1.000165085735012e+01
0	 2.785716307942177e+01	 3.142864409547143e+01	 1.000138734558389e+01
0	 2.785716307942177e+01	 3.214294394869491e+01	 1.000115946346665e+01
0	 2.785716307942177e+01	 3.285724463525450e+01	 1.000097213979323e+01
0	 2.785716307942178e+01	 3.357154598848280e+01	 1.000083030342467e+01
0	 2.785716307942177e+01	 3.428584784171235e+01	 1.000073888328824e+01
0	 2.785716307942178e+01	 3.500015002827575e+01	 1.000070280837744e+01
0	 2.785716307942177e+01	 3.571445238150555e+01	 1.000072700775199e+01
0	 2.857145634928703e+01	 2.857145634928703e+01	 1.000254102649742e+01
0	 2.857145634928704e+01	 2.928575120249186e+01	 1.000214669195952e+01
0	 2.857145634928703e+01	 3.000004755570248e+01	 1.000179356580705e+01
0	 2.857145634928704e+01	 3.071434524225148e+01	 1.000148406996073e+01
0	 2.857145634928703e+01	 3.142864409547142e+01	 1.000122062641833e+01
0	 2.857145634928704e+01	 3.214294394869491e+01	 1.000100565725466e+01
0	 2.857145634928704e+01	 3.285724463525451e+01	 1.000084158462159e+01
0	 2.857145634928703e+01	 3.357154598848279e+01	 1.000073083074799e+01
0	 2.857145634928704e+01	 3.428584784171235e+01	 1.000067581793985e+01
0	 2.857145634928704e+01	 3.500015002827575e+01	 1.000067896858010e+01
0	 2.857145634928704e+01	 3.571445238150556e+01	 1.000074270512879e+01
0	 2.142854365071297e+01	 3.571445238150556e+01	 1.000124137142400e+01
0	 2.142854365071297e+01	 3.642870477623361e+01	 1.000092224806774e+01
0	 2.142854365071296e+01	 3.714295725428858e+01	 1.000064333409758e+01
0	 2.142854365071296e+01	 3.785720989899840e+01	 1.000040650105921e+01
0	 2.142854365071296e+01	 3.857146279369100e+01	 1.000021362046114e+01
0	 2.142854365071296e+01	 3.928571602169432e+01	 1.000006656377463e+01
0	 2.142854365071296e+01	 3.999996966633628e+01	 9.999967202433750e+00
0	 2.142854365071296e+01	 4.071422381094482e+01	 9.999917407835351e+00
0	 2.142854365071296e+01	 4.142847853884783e+01	 9.999919051339095e+00
0	 2.142854365071296e+01	 4.214273393337329e+01	 9.999974004267399e+00
0	 2.142854365071296e+01	 4.285699007784907e+01	 1.000008413790552e+01
0	 2.214283692057824e+01	 3.571445238150555e+01	 1.000122261129367e+01
0	 2.214283692057823e+01	 3.642870477623359e+01	 1.000088817285682e+01
0	 2.214283692057824e+01	 3.714295725428858e+01	 1.000060602356018e+01
0	 2.214283692057823e+01	 3.785720989899838e+01	 1.000037548201988e+01
0	 2.214283692057824e+01	 3.857146279369099e+01	 1.000019586681476e+01
0	 2.214283692057824e+01	 3.928571602169433e+01	 1.000006649648635e+01
0	 2.214283692057824e+01	 3.999996966633629e+01	 9.999986689538808e+00
0	 2.214283692057824e+01	 4.071422381094481e+01	 9.999955764439031e+00
0	 2.214283692057823e+01	 4.142847853884784e+01	 9.999973039616554e+00
0	 2.214283692057824e+01	 4.214273393337328e+01	 1.000003783346363e+01
0	 2.214283692057824e+01	 4.285699007784908e+01	 1.000014946433514e+01
0	 2.285712885710494e+01	 3.571445238150555e+01	 1.000117545599497e+01
0	 2.285712885710494e+01	 3.642870477623360e+01	 1.000085235561371e+01
0	 2.285712885710494e+01	 3.714295725428858e+01	 1.000058699302348e+01
0	 2.285712885710494e+01	 3.785720989899840e+01	 1.000037661942036e+01
0	 2.285712885710494e+01	 3.857146279369100e+01	 1.000021848596615e+01
0	 2.285712885710494e+01	 3.928571602169432e+01	 1.000010984378824e+01
0	 2.285712885710494e+01	 3.999996966633628e+01	 1.000004794397972e+01
0	 2.285712885710494e+01	 4.071422381094481e+01	 1.000003003759932e+01
0	 2.285712885710494e+01	 4.142847853884783e+01	 1.000005337567142e+01
0	 2.285712885710493e+01	 4.214273393337326e+01	 1.000011520918604e+01
0	 2.285712885710493e+01	 4.285699007784907e+01	 1.000021278909890e+01
0	 2.357141979362770e+01	 3.571445238150556e+01	 1.000110796161221e+01
0	 2.357141979362770e+01	 3.642870477623360e+01	 1.000081749776231e+01
0	 2.357141979362770e+01	 3.714295725428858e+01	 1.000058455290473e+01
0	 2.357141979362770e+01	 3.785720989899838e+01	 1.000040479633134e+01
0	 2.357141979362770e+01	 3.857146279369101e+01	 1.000027389730507e+01
0	 2.357141979362770e+01	 3.928571602169432e+01	 1.000018752505986e+01
0	 2.357141979362770e+01	 3.999996966633628e+01	 1.000014134880073e+01
0	 2.357141979362770e+01	 4.071422381094482e+01	 1.000013103770368e+01
0	 2.357141979362770e+01	 4.142847853884783e+01	 1.000015226091579e+01
0	 2.357141979362771e+01	 4.214273393337327e+01	 1.000020068755519e+01
0	 2.357141979362770e+01	 4.285699007784907e+01	 1.000027198671099e+01
0	 2.428571006348117e+01	 3.571445238150555e+01	 1.000102818416997e+01
0	 2.428571006348117e+01	 3.642870477623359e+01	 1.000078630066346e+01
0	 2.428571006348118e+01	 3.714295725428857e+01	 1.000059701356103e+01
0	 2.428571006348117e+01	 3.785720989899839e+01	 1.000045489577107e+01
0	 2.428571006348117e+01	 3.857146279369100e+01	 1.000035452018015e+01
0	 2.428571006348117e+01	 3.928571602169433e+01	 1.000029045965298e+01
0	 2.428571006348118e+01	 3.999996966633628e+01	 1.000025728703243e+01
0	 2.428571006348117e+01	 4.071422381094479e+01	 1.000024957513953e+01
0	 2.428571006348118e+01	 4.142847853884783e+01	 1.000026189677347e+01
0	 2.428571006348118e+01	 4.214273393337328e+01	 1.000028882471159e+01
0	 2.428571006348117e+01	 4.285699007784908e+01	 1.000032493170941e+01
0	 2.500000000000000e+01	 3.571445238150555e+01	 1.000094417963322e+01
0	 2.500000000000000e+01	 3.642870477623359e+01	 1.000076146561500e+01
0	 2.500000000000001e+01	 3.714295725428857e+01	 1.000062268528928e+01
0	 2.500000000000001e+01	 3.785720989899841e+01	 1.000052180070535e+01
0	 2.500000000000000e+01	 3.857146279369099e+01	 1.000045277389877e+01
0	 2.499999999999999e+01	 3.928571602169431e+01	 1.000040956689149e+01
0	 2.500000000000000e+01	 3.999996966633628e+01	 1.000038614169179e+01
0	 2.500000000000001e+01	 4.071422381094482e+01	 1.000037646029426e+01
0	 2.500000000000001e+01	 4.142847853884783e+01	 1.000037448467988e+01
0	 2.500000000000000e+01	 4.214273393337328e+01	 1.000037417681592e+01
0	 2.500000000000001e+01	 4.285699007784908e+01	 1.000036949865602e+01
0	 2.571428993651884e+01	 3.571445238150556e+01	 1.000086400390725e+01
0	 2.571428993651884e+01	 3.642870477623360e+01	 1.000074569385171e+01
0	 2.571428993651884e+01	 3.714295725428857e+01	 1.000065987832624e+01
0	 2.571428993651884e+01	 3.785720989899838e+01	 1.000060039404752e+01
0	 2.571428993651883e+01	 3.857146279369100e+01	 1.000056107772710e+01
0	 2.571428993651883e+01	 3.928571602169433e+01	 1.000053576607151e+01
0	 2.571428993651884e+01	 3.999996966633630e+01	 1.000051829578213e+01
0	 2.571428993651884e+01	 4.071422381094480e+01	 1.000050250355527e+01
0	 2.571428993651884e+01	 4.142847853884785e+01	 1.000048222608211e+01
0	 2.571428993651883e+01	 4.214273393337327e+01	 1.000045130004881e+01
0	 2.571428993651883e+01	 4.285699007784908e+01	 1.000040356213637e+01
0	 2.642858020637231e+01	 3.571445238150556e+01	 1.000079571283769e+01
0	 2.642858020637232e+01	 3.642870477623360e+01	 1.000074168654539e+01
0	 2.642858020637231e+01	 3.714295725428858e+01	 1.000070690284848e+01
0	 2.642858020637231e+01	 3.785720989899839e+01	 1.000068555865850e+01
0	 2.642858020637231e+01	 3.857146279369100e+01	 1.000067185089013e+01
0	 2.642858020637232e+01	 3.928571602169432e+01	 1.000065997646133e+01
0	 2.642858020637230e+01	 3.999996966633628e+01	 1.000064413229314e+01
0	 2.642858020637231e+01	 4.071422381094481e+01	 1.000061851530986e+01
0	 2.642858020637231e+01	 4.142847853884783e+01	 1.000057732243894e+01
0	 2.642858020637231e+01	 4.214273393337328e+01	 1.000051475061100e+01
0	 2.642858020637231e+01	 4.285699007784907e+01	 1.000042499675990e+01
0	 2.714287114289507e+01	 3.571445238150555e+01	 1.000074736221049e+01
0	 2.714287114289507e+01	 3.642870477623360e+01	 1.000075214480473e+01
0	 2.714287114289507e+01	 3.714295725428858e+01	 1.000076206897235e+01
0	 2.714287114289508e+01	 3.785720989899840e+01	 1.000077217734671e+01
0	 2.714287114289507e+01	 3.857146279369100e+01	 1.000077751257161e+01
0	 2.714287114289508e+01	 3.928571602169433e+01	 1.000077311730139e+01
0	 2.714287114289508e+01	 3.999996966633629e+01	 1.000075403420086e+01
0	 2.714287114289508e+01	 4.071422381094482e+01	 1.000071530594537e+01
0	 2.714287114289507e+01	 4.142847853884783e+01	 1.000065197522073e+01
0	 2.714287114289507e+01	 4.214273393337327e+01	 1.000055908472327e+01
0	 2.714287114289507e+01	 4.285699007784906e+01	 1.000043167715983e+01
0	 2.785716307942177e+01	 3.571445238150555e+01	 1.000072700775199e+01
0	 2.785716307942177e+01	 3.642870477623359e+01	 1.000077976967544e+01
0	 2.785716307942177e+01	 3.714295725428857e+01	 1.000082368675411e+01
0	 2.785716307942178e+01	 3.785720989899840e+01	 1.000085513286819e+01
0	 2.785716307942177e+01	 3.857146279369100e+01	 1.000087048191408e+01
0	 2.785716307942177e+01	 3.928571602169432e+01	 1.000086610780434e+01
0	 2.785716307942178e+01	 3.999996966633628e+01	 1.000083838446769e+01
0	 2.785716307942177e+01	 4.071422381094481e+01	 1.000078368584907e+01
0	 2.785716307942177e+01	 4.142847853884783e+01	 1.000069838590955e+01
0	 2.785716307942179e+01	 4.214273393337329e+01	 1.000057885862644e+01
0	 2.785716307942177e+01	 4.285699007784907e+01	 1.000042147799318e+01
0	 2.857145634928704e+01	 3.571445238150556e+01	 1.000074270512879e+01
0	 2.857145634928704e+01	 3.642870477623359e+01	 1.000082726214017e+01
0	 2.857145634928703e+01	 3.714295725428856e+01	 1.000089006618975e+01
0	 2.857145634928704e+01	 3.785720989899840e+01	 1.000092930792649e+01
0	 2.857145634928704e+01	 3.857146279369101e+01	 1.000094317801889e+01
0	 2.857145634928704e+01	 3.928571602169432e+01	 1.000092986715498e+01
0	 2.857145634928703e+01	 3.999996966633628e+01	 1.000088756604238e+01
0	 2.857145634928704e+01	 4.071422381094482e+01	 1.000081446540820e+01
0	 2.857145634928704e+01	 4.142847853884783e+01	 1.000070875599914e+01
0	 2.857145634928703e+01	 4.214273393337326e+01	 1.000056862858139e+01
0	 2.857145634928704e+01	 4.285699007784908e+01	 1.000039227394076e+01
0	 2.142854365071296e+01	 4.285699007784907e+01	 1.000008413790552e+01
0	 2.142854365071296e+01	 4.357129694500738e+01	 1.000020628528989e+01
0	 2.142854365071296e+01	 4.428560406221393e+01	 1.000029490329558e+01
0	 2.142854365071296e+01	 4.499991084612203e+01	 1.000034832786086e+01
0	 2.142854365071296e+01	 4.571421671338500e+01	 1.000036489474875e+01
0	 2.142854365071296e+01	 4.642852108065613e+01	 1.000034293954709e+01
0	 2.142854365071296e+01	 4.714282336458874e+01	 1.000028079766850e+01
0	 2.142854365071296e+01	 4.785712298183613e+01	 1.000017680435032e+01
0	 2.142854365071296e+01	 4.857141934905160e+01	 1.000002929465472e+01
0	 2.142854365071296e+01	 4.928571188288846e+01	 9.999836603468520e+00
0	 2.142854365071296e+01	 5.000000000000001e+01	 9.999597065503380e+00
0	 2.214283692057824e+01	 4.285699007784908e+01	 1.000014946433514e+01
0	 2.214283692057824e+01	 4.357129694500737e+01	 1.000026397229661e+01
0	 2.214283692057824e+01	 4.428560406221392e+01	 1.000033859490568e+01
0	 2.214283692057824e+01	 4.499991084612204e+01	 1.000037447491706e+01
0	 2.214283692057824e+01	 4.571421671338499e+01	 1.000037275491957e+01
0	 2.214283692057823e+01	 4.642852108065612e+01	 1.000033457733603e+01
0	 2.214283692057824e+01	 4.714282336458876e+01	 1.000026108442334e+01
0	 2.214283692057824e+01	 4.785712298183613e+01	 1.000015341827239e+01
0	 2.214283692057824e+01	 4.857141934905160e+01	 1.000001272080818e+01
0	 2.214283692057823e+01	 4.928571188288845e+01	 9.999840133789650e+00
0	 2.214283692057824e+01	 5.000000000000000e+01	 9.999636798809846e+00
0	 2.285712885710493e+01	 4.285699007784907e+01	 1.000021278909890e+01
0	 2.285712885710494e+01	 4.357129694500738e+01	 1.000030574116404e+01
0	 2.285712885710494e+01	 4.428560406221392e+01	 1.000035776308122e+01
0	 2.285712885710494e+01	 4.499991084612204e+01	 1.000037223764902e+01
0	 2.285712885710494e+01	 4.571421671338500e+01	 1.000035254752759e+01
0	 2.285712885710494e+01	 4.642852108065613e+01	 1.000030207523873e+01
0	 2.285712885710494e+01	 4.714282336458876e+01	 1.000022420316582e+01
0	 2.285712885710493e+01	 4.785712298183613e+01	 1.000012231355391e+01
0	 2.285712885710494e+01	 4.857141934905161e+01	 9.999999788509534e+00
0	 2.285712885710494e+01	 4.928571188288846e+01	 9.999860010000898e+00
0	 2.285712885710494e+01	 5.000000000000000e+01	 9.999706359857763e+00
0	 2.357141979362770e+01	 4.285699007784907e+01	 1.000027198671099e+01
0	 2.357141979362770e+01	 4.357129694500738e+01	 1.000033282501096e+01
0	 2.357141979362770e+01	 4.428560406221391e+01	 1.000035611575139e+01
0	 2.357141979362771e+01	 4.499991084612203e+01	 1.000034691500203e+01
0	 2.357141979362770e+01	 4.571421671338499e+01	 1.000031027873575e+01
0	 2.357141979362770e+01	 4.642852108065613e+01	 1.000025126282857e+01
0	 2.357141979362770e+01	 4.714282336458876e+01	 1.000017492305966e+01
0	 2.357141979362770e+01	 4.785712298183613e+01	 1.000008631511120e+01
0	 2.357141979362769e+01	 4.857141934905160e+01	 9.999990494568678e+00
0	 2.357141979362770e+01	 4.928571188288846e+01	 9.999892516920518e+00
0	 2.357141979362770e+01	 5.000000000000000e+01	 9.999797437558390e+00
0	 2.428571006348117e+01	 4.285699007784908e+01	 1.000032493170942e+01
0	 2.428571006348118e+01	 4.357129694500737e+01	 1.000034645697813e+01
0	 2.428571006348118e+01	 4.428560406221393e+01	 1.000033736086111e+01
0	 2.428571006348117e+01	 4.499991084612201e+01	 1.000030380592818e+01
0	 2.428571006348118e+01	 4.571421671338501e+01	 1.000025195470352e+01
0	 2.428571006348117e+01	 4.642852108065613e+01	 1.000018796966558e+01
0	 2.428571006348118e+01	 4.714282336458876e+01	 1.000011801324703e+01
0	 2.428571006348118e+01	 4.785712298183613e+01	 1.000004824783487e+01
0	 2.428571006348118e+01	 4.857141934905160e+01	 9.999984835770377e+00
0	 2.428571006348117e+01	 4.928571188288846e+01	 9.999933939349065e+00
0	 2.428571006348117e+01	 5.000000000000000e+01	 9.999901720820720e+00
0	 2.500000000000001e+01	 4.285699007784908e+01	 1.000036949865602e+01
0	 2.500000000000000e+01	 4.357129694500736e+01	 1.000034787022842e+01
0	 2.500000000000000e+01	 4.428560406221392e+01	 1.000030520637121e+01
0	 2.500000000000000e+01	 4.499991084612201e+01	 1.000024820938647e+01
0	 2.500000000000000e+01	 4.571421671338501e+01	 1.000018358158703e+01
0	 2.500000000000001e+01	 4.642852108065613e+01	 1.000011802529644e+01
0	 2.500000000000001e+01	 4.714282336458875e+01	 1.000005824284897e+01
0	 2.500000000000001e+01	 4.785712298183613e+01	 1.000001093658963e+01
0	 2.500000000000001e+01	 4.857141934905160e+01	 9.999982808874170e+00
0	 2.500000000000001e+01	 4.928571188288846e+01	 9.999980562068991e+00
0	 2.500000000000001e+01	 5.000000000000001e+01	 1.000001089855133e+01
0	 2.571428993651883e+01	 4.285699007784908e+01	 1.000040356213637e+01
0	 2.571428993651884e+01	 4.357129694500737e+01	 1.000033829794667e+01
0	 2.571428993651883e+01	 4.428560406221392e+01	 1.000026336025839e+01
0	 2.571428993651884e+01	 4.499991084612203e+01	 1.000018542434267e+01
0	 2.571428993651883e+01	 4.571421671338499e+01	 1.000011116553888e+01
0	 2.571428993651884e+01	 4.642852108065614e+01	 1.000004725925447e+01
0	 2.571428993651883e+01	 4.714282336458874e+01	 1.000000038096507e+01
0	 2.571428993651883e+01	 4.785712298183613e+01	 9.999977206214371e+00
0	 2.571428993651884e+01	 4.857141934905160e+01	 9.999984410614363e+00
0	 2.571428993651884e+01	 4.928571188288846e+01	 1.000002866984504e+01
0	 2.571428993651884e+01	 5.000000000000001e+01	 1.000011665965453e+01
0	 2.642858020637231e+01	 4.285699007784907e+01	 1.000042499675990e+01
0	 2.642858020637232e+01	 4.357129694500738e+01	 1.000031897333980e+01
0	 2.642858020637231e+01	 4.428560406221391e+01	 1.000021553051515e+01
0	 2.642858020637231e+01	 4.499991084612202e+01	 1.000012074976943e+01
0	 2.642858020637231e+01	 4.571421671338499e+01	 1.000004071270831e+01
0	 2.642858020637230e+01	 4.642852108065612e+01	 9.999981501059670e+00
0	 2.642858020637231e+01	 4.714282336458874e+01	 9.999949196673541e+00
0	 2.642858020637231e+01	 4.785712298183613e+01	 9.999949881522220e+00
0	 2.642858020637231e+01	 4.857141934905160e+01	 9.999989637700130e+00
0	 2.642858020637231e+01	 4.928571188288846e+01	 1.000007454742394e+01
0	 2.642858020637231e+01	 4.999999999999999e+01	 1.000021069303251e+01
0	 2.714287114289507e+01	 4.285699007784906e+01	 1.000043167715983e+01
0	 2.714287114289508e+01	 4.357129694500738e+01	 1.000029112963676e+01
0	 2.714287114289508e+01	 4.428560406221392e+01	 1.000016542514991e+01
0	 2.714287114289507e+01	 4.499991084612203e+01	 1.000005948464622e+01
0	 2.714287114289507e+01	 4.571421671338499e+01	 9.999978229241119e+00
0	 2.714287114289507e+01	 4.642852108065613e+01	 9.999926580218656e+00
0	 2.714287114289508e+01	 4.714282336458874e+01	 9.999909459031368e+00
0	 2.714287114289508e+01	 4.785712298183613e+01	 9.999931787300387e+00
0	 2.714287114289507e+01	 4.857141934905161e+01	 9.999998486815375e+00
0	 2.714287114289508e+01	 4.928571188288846e+01	 1.000011447953458e+01
0	 2.714287114289507e+01	 5.000000000000000e+01	 1.000028468758479e+01
0	 2.785716307942177e+01	 4.285699007784907e+01	 1.000042147799318e+01
0	 2.785716307942178e+01	 4.357129694500738e+01	 1.000025600008853e+01
0	 2.785716307942178e+01	 4.428560406221393e+01	 1.000011675218691e+01
0	 2.785716307942177e+01	 4.499991084612203e+01	 1.000000692795934e+01
0	 2.785716307942177e+01	 4.571421671338499e+01	 9.999929721279702e+00
0	 2.785716307942177e+01	 4.642852108065613e+01	 9.999888326224719e+00
0	 2.785716307942177e+01	 4.714282336458874e+01	 9.999885937074103e+00
0	 2.785716307942177e+01	 4.785712298183613e+01	 9.999925748310329e+00
0	 2.785716307942177e+01	 4.857141934905159e+01	 1.000001095461884e+01
0	 2.785716307942177e+01	 4.928571188288845e+01	 1.000014475088794e+01
0	 2.785716307942177e+01	 4.999999999999999e+01	 1.000033033220896e+01
0	 2.857145634928704e+01	 4.285699007784908e+01	 1.000039227394076e+01
0	 2.857145634928704e+01	 4.357129694500738e+01	 1.000021481796812e+01
0	 2.857145634928704e+01	 4.428560406221392e+01	 1.000007321966625e+01
0	 2.857145634928704e+01	 4.499991084612204e+01	 9.999968378701954e+00
0	 2.857145634928704e+01	 4.571421671338500e+01	 9.999901194962954e+00
0	 2.857145634928704e+01	 4.642852108065615e+01	 9.999872568557809e+00
0	 2.857145634928703e+01	 4.714282336458874e+01	 9.999883399815955e+00
0	 2.857145634928704e+01	 4.785712298183613e+01	 9.999934589287623e+00
0	 2.857145634928704e+01	 4.857141934905160e+01	 1.000002703774404e+01
0	 2.857145634928704e+01	 4.928571188288845e+01	 1.000016164617717e+01
0	 2.857145634928704e+01	 5.000000000000000e+01	 1.000033931580003e+01
0	 2.857145634928704e+01	 0.000000000000000e+00	 1.000859512565641e+01
0	 2.857145634928703e+01	 7.142881171115513e-01	 1.000721239708614e+01
0	 2.857145634928704e+01	 1.428580650948409e+00	 1.000581086066399e+01
0	 2.857145634928704e+01	 2.142877018163878e+00	 1.000445683061316e+01
0	 2.857145634928703e+01	 2.857176635411264e+00	 1.000321662319756e+01
0	 2.857145634928704e+01	 3.571478919343873e+00	 1.000215655672179e+01
0	 2.857145634928704e+01	 4.285783286615009e+00	 1.000134295153090e+01
0	 2.857145634928704e+01	 5.000089153877975e+00	 1.000084213001040e+01
0	 2.857145634928703e+01	 5.714395937786080e+00	 1.000072041658616e+01
0	 2.857145634928704e+01	 6.428703054992629e+00	 1.000104413772440e+01
0	 2.857145634928703e+01	 7.143009922150926e+00	 1.000187962193167e+01
0	 2.928575120249186e+01	 0.000000000000000e+00	 1.000937320808643e+01
0	 2.928575120249186e+01	 7.142881171115513e-01	 1.000711038830254e+01
0	 2.928575120249186e+01	 1.428580650948409e+00	 1.000508173451053e+01
0	 2.928575120249186e+01	 2.142877018163879e+00	 1.000332360533383e+01
0	 2.928575120249185e+01	 2.857176635411264e+00	 1.000187236176756e+01
0	 2.928575120249186e+01	 3.571478919343873e+00	 1.000076436717836e+01
0	 2.928575120249186e+01	 4.285783286615009e+00	 1.000003598730426e+01
0	 2.928575120249186e+01	 5.000089153877974e+00	 9.999723590254582e+00
0	 2.928575120249186e+01	 5.714395937786080e+00	 9.999863546509886e+00
0	 2.928575120249186e+01	 6.428703054992629e+00	 1.000049222892192e+01
0	 2.928575120249185e+01	 7.143009922150927e+00	 1.000164601271359e+01
0	 3.000004755570248e+01	 0.000000000000000e+00	 1.000934071863555e+01
0	 3.000004755570248e+01	 7.142881171115514e-01	 1.000662206434082e+01
0	 3.000004755570248e+01	 1.428580650948409e+00	 1.000430567692642e+01
0	 3.000004755570248e+01	 2.142877018163878e+00	 1.000240256290706e+01
0	 3.000004755570248e+01	 2.857176635411266e+00	 1.000092373122135e+01
0	 3.000004755570248e+01	 3.571478919343873e+00	 9.999880193231597e+00
0	 3.000004755570247e+01	 4.285783286615006e+00	 9.999282962723710e+00
0	 3.000004755570248e+01	 5.000089153877976e+00	 9.999143055907089e+00
0	 3.000004755570248e+01	 5.714395937786081e+00	 9.999471491414562e+00
0	 3.000004755570248e+01	 6.428703054992631e+00	 1.000027929030232e+01
0	 3.000004755570246e+01	 7.143009922150926e+00	 1.000157747604993e+01
0	 3.071434524225148e+01	 0.000000000000000e+00	 1.000865292072403e+01
0	 3.071434524225148e+01	 7.142881171115513e-01	 1.000583598485799e+01
0	 3.071434524225147e+01	 1.428580650948409e+00	 1.000351507390040e+01
0	 3.071434524225147e+01	 2.142877018163877e+00	 1.000168044538308e+01
0	 3.071434524225148e+01	 2.857176635411265e+00	 1.000032235908685e+01
0	 3.071434524225148e+01	 3.571478919343873e+00	 9.999431077041313e+00
0	 3.071434524225148e+01	 4.285783286615009e+00	 9.998996863524802e+00
0	 3.071434524225147e+01	 5.000089153877974e+00	 9.999009985064248e+00
0	 3.071434524225147e+01	 5.714395937786081e+00	 9.999460710435116e+00
0	 3.071434524225148e+01	 6.428703054992629e+00	 1.000033931066138e+01
0	 3.071434524225147e+01	 7.143009922150926e+00	 1.000163605901550e+01
0	 3.142864409547142e+01	 0.000000000000000e+00	 1.000746507787122e+01
0	 3.142864409547143e+01	 7.142881171115514e-01	 1.000484070969074e+01
0	 3.142864409547143e+01	 1.428580650948410e+00	 1.000274231164223e+01
0	 3.142864409547142e+01	 2.142877018163878e+00	 1.000114399504176e+01
0	 3.142864409547142e+01	 2.857176635411265e+00	 1.000001987310392e+01
0	 3.142864409547143e+01	 3.571478919343873e+00	 9.999344060941715e+00
0	 3.142864409547142e+01	 4.285783286615009e+00	 9.999090675566485e+00
0	 3.142864409547142e+01	 5.000089153877974e+00	 9.999233835887793e+00
0	 3.142864409547143e+01	 5.714395937786081e+00	 9.999747662713398e+00
0	 3.142864409547143e+01	 6.428703054992628e+00	 1.000060627874918e+01
0	 3.142864409547142e+01	 7.143009922150926e+00	 1.000178380859918e+01
0	 3.214294394869492e+01	 0.000000000000000e+00	 1.000593245369562e+01
0	 3.214294394869492e+01	 7.142881171115515e-01	 1.000372479885544e+01
0	 3.214294394869490e+01	 1.428580650948409e+00	 1.000201977658275e+01
0	 3.214294394869491e+01	 2.142877018163878e+00	 1.000077995439265e+01
0	 3.214294394869492e+01	 2.857176635411265e+00	 9.999967901224402e+00
0	 3.214294394869491e+01	 3.571478919343872e+00	 9.999546187441423e+00
0	 3.214294394869491e+01	 4.285783286615008e+00	 9.999477384831124e+00
0	 3.214294394869492e+01	 5.000089153877976e+00	 9.999724066604927e+00
0	 3.214294394869491e+01	 5.714395937786081e+00	 1.000024880739815e+01
0	 3.214294394869491e+01	 6.428703054992630e+00	 1.000101418327005e+01
0	 3.214294394869491e+01	 7.143009922150928e+00	 1.000198277170377e+01
0	 3.285724463525451e+01	 0.000000000000000e+00	 1.000421031191484e+01
0	 3.285724463525450e+01	 7.142881171115512e-01	 1.000257681254817e+01
0	 3.285724463525450e+01	 1.428580650948409e+00	 1.000137985537386e+01
0	 3.285724463525450e+01	 2.142877018163878e+00	 1.000057506617497e+01
0	 3.285724463525451e+01	 2.857176635411265e+00	 1.000011807161212e+01
0	 3.285724463525452e+01	 3.571478919343873e+00	 9.999964499223426e+00
0	 3.285724463525450e+01	 4.285783286615007e+00	 1.000006997742447e+01
0	 3.285724463525451e+01	 5.000089153877974e+00	 1.000039013550820e+01
0	 3.285724463525451e+01	 5.714395937786081e+00	 1.000088060364501e+01
0	 3.285724463525452e+01	 6.428703054992631e+00	 1.000149701288262e+01
0	 3.285724463525451e+01	 7.143009922150926e+00	 1.000219499514612e+01
0	 3.357154598848280e+01	 0.000000000000000e+00	 1.000245391634562e+01
0	 3.357154598848280e+01	 7.142881171115514e-01	 1.000148531114469e+01
0	 3.357154598848279e+01	 1.428580650948409e+00	 1.000085493488849e+01
0	 3.357154598848279e+01	 2.142877018163878e+00	 1.000051607335759e+01
0	 3.357154598848280e+01	 2.857176635411265e+00	 1.000042201264282e+01
0	 3.357154598848280e+01	 3.571478919343873e+00	 1.000052603914514e+01
0	 3.357154598848279e+01	 4.285783286615009e+00	 1.000078143957566e+01
0	 3.357154598848280e+01	 5.000089153877975e+00	 1.000114150095565e+01
0	 3.357154598848279e+01	 5.714395937786080e+00	 1.000155951061651e+01
0	 3.357154598848281e+01	 6.428703054992630e+00	 1.000198875619976e+01
0	 3.357154598848280e+01	 7.143009922150926e+00	 1.000238252565706e+01
0	 3.428584784171235e+01	 0.000000000000000e+00	 1.000081853090383e+01
0	 3.428584784171235e+01	 7.142881171115514e-01	 1.000053885520043e+01
0	 3.428584784171235e+01	 1.428580650948410e+00	 1.000047740222061e+01
0	 3.428584784171235e+01	 2.142877018163879e+00	 1.000058971913907e+01
0	 3.428584784171235e+01	 2.857176635411264e+00	 1.000083135290426e+01
0	 3.428584784171235e+01	 3.571478919343873e+00	 1.000115785023835e+01
0	 3.428584784171237e+01	 4.285783286615009e+00	 1.000152475763727e+01
0	 3.428584784171236e+01	 5.000089153877976e+00	 1.000188762137070e+01
0	 3.428584784171235e+01	 5.714395937786081e+00	 1.000220198748208e+01
0	 3.428584784171235e+01	 6.428703054992630e+00	 1.000242340178865e+01
0	 3.428584784171235e+01	 7.143009922150926e+00	 1.000250740988140e+01
0	 3.500015002827575e+01	 0.000000000000000e+00	 9.999459419604445e+00
0	 3.500015002827576e+01	 7.142881171115514e-01	 9.999826005450506e+00
0	 3.500015002827575e+01	 1.428580650948410e+00	 1.000027964468525e+01
0	 3.500015002827575e+01	 2.142877018163878e+00	 1.000078274694758e+01
0	 3.500015002827575e+01	 2.857176635411264e+00	 1.000129772119610e+01
0	 3.500015002827575e+01	 3.571478919343872e+00	 1.000178697570924e+01
0	 3.500015002827575e+01	 4.285783286615009e+00	 1.000221291808522e+01
0	 3.500015002827576e+01	 5.000089153877975e+00	 1.000253795524218e+01
0	 3.500015002827575e+01	 5.714395937786082e+00	 1.000272449341806e+01
0	 3.500015002827575e+01	 6.428703054992629e+00	 1.000273493817075e+01
0	 3.500015002827575e+01	 7.143009922150927e+00	 1.000253169437798e+01
0	 3.571445238150555e+01	 0.000000000000000e+00	 9.998531846561571e+00
0	 3.571445238150555e+01	 7.142881171115513e-01	 9.999435322809720e+00
0	 3.571445238150556e+01	 1.428580650948409e+00	 1.000029404981852e+01
0	 3.571445238150555e+01	 2.142877018163878e+00	 1.000108190044098e+01
0	 3.571445238150556e+01	 2.857176635411264e+00	 1.000177274652999e+01
0	 3.571445238150555e+01	 3.571478919343873e+00	 1.000234045893836e+01
0	 3.571445238150556e+01	 4.285783286615009e+00	 1.000275890751888e+01
0	 3.571445238150555e+01	 5.000089153877976e+00	 1.000300196112436e+01
0	 3.571445238150555e+01	 5.714395937786081e+00	 1.000304348760767e+01
0	 3.571445238150555e+01	 6.428703054992629e+00	 1.000285735382175e+01
0	 3.571445238150555e+01	 7.143009922150927e+00	 1.000241742561963e+01
0	 2.857145634928703e+01	 7.143009922150926e+00	 1.000187962193167e+01
0	 2.857145634928704e+01	 7.857266066626718e+00	 1.000294883993187e+01
0	 2.857145634928704e+01	 8.571521461152164e+00	 1.000391529440220e+01
0	 2.857145634928704e+01	 9.285776189055182e+00	 1.000475737961169e+01
0	 2.857145634928704e+01	 1.000003033366371e+01	 1.000545348999928e+01
0	 2.857145634928704e+01	 1.071428397830567e+01	 1.000598202017394e+01
0	 2.857145634928704e+01	 1.142853720630899e+01	 1.000632136491459e+01
0	 2.857145634928704e+01	 1.214279010100160e+01	 1.000644991917011e+01
0	 2.857145634928703e+01	 1.285704274571142e+01	 1.000634607805939e+01
0	 2.857145634928704e+01	 1.357129522376639e+01	 1.000598823687129e+01
0	 2.857145634928703e+01	 1.428554761849444e+01	 1.000535479106463e+01
0	 2.928575120249185e+01	 7.143009922150927e+00	 1.000164601271359e+01
0	 2.928575120249185e+01	 7.857266066626719e+00	 1.000297895494063e+01
0	 2.928575120249185e+01	 8.571521461152164e+00	 1.000411500598853e+01
0	 2.928575120249187e+01	 9.285776189055184e+00	 1.000504508302194e+01
0	 2.928575120249185e+01	 1.000003033366371e+01	 1.000576010339122e+01
0	 2.928575120249185e+01	 1.071428397830567e+01	 1.000625098463254e+01
0	 2.928575120249186e+01	 1.142853720630899e+01	 1.000650864446777e+01
0	 2.928575120249185e+01	 1.214279010100160e+01	 1.000652400080451e+01
0	 2.928575120249185e+01	 1.285704274571142e+01	 1.000628797173614e+01
0	 2.928575120249186e+01	 1.357129522376640e+01	 1.000579147554178e+01
0	 2.928575120249185e+01	 1.428554761849444e+01	 1.000502543068625e+01
0	 3.000004755570246e+01	 7.143009922150926e+00	 1.000157747604992e+01
0	 3.000004755570248e+01	 7.857266066626720e+00	 1.000299788520156e+01
0	 3.000004755570248e+01	 8.571521461152161e+00	 1.000416614922841e+01
0	 3.000004755570247e+01	 9.285776189055184e+00	 1.000508366107991e+01
0	 3.000004755570248e+01	 1.000003033366371e+01	 1.000575181388773e+01
0	 3.000004755570247e+01	 1.071428397830567e+01	 1.000617200096584e+01
0	 3.000004755570247e+01	 1.142853720630899e+01	 1.000634561581042e+01
0	 3.000004755570247e+01	 1.214279010100160e+01	 1.000627405209992e+01
0	 3.000004755570247e+01	 1.285704274571142e+01	 1.000595870369509e+01
0	 3.000004755570247e+01	 1.357129522376639e+01	 1.000540096463890e+01
0	 3.000004755570248e+01	 1.428554761849444e+01	 1.000460222915660e+01
0	 3.071434524225147e+01	 7.143009922150926e+00	 1.000163605901551e+01
0	 3.071434524225148e+01	 7.857266066626721e+00	 1.000299831613765e+01
0	 3.071434524225148e+01	 8.571521461152164e+00	 1.000408668404958e+01
0	 3.071434524225147e+01	 9.285776189055184e+00	 1.000491098436933e+01
0	 3.071434524225146e+01	 1.000003033366371e+01	 1.000548103887825e+01
0	 3.071434524225146e+01	 1.071428397830566e+01	 1.000580666952091e+01
0	 3.071434524225146e+01	 1.142853720630899e+01	 1.000589769840520e+01
0	 3.071434524225147e+01	 1.214279010100160e+01	 1.000576394780227e+01
0	 3.071434524225148e+01	 1.285704274571142e+01	 1.000541524014656e+01
0	 3.071434524225147e+01	 1.357129522376639e+01	 1.000486139803577e+01
0	 3.071434524225146e+01	 1.428554761849444e+01	 1.000411224423091e+01
0	 3.142864409547142e+01	 7.143009922150926e+00	 1.000178380859917e+01
0	 3.142864409547143e+01	 7.857266066626719e+00	 1.000297293306287e+01
0	 3.142864409547143e+01	 8.571521461152162e+00	 1.000389457026357e+01
0	 3.142864409547142e+01	 9.285776189055182e+00	 1.000456492336365e+01
0	 3.142864409547142e+01	 1.000003033366371e+01	 1.000500019565801e+01
0	 3.142864409547143e+01	 1.071428397830567e+01	 1.000521659057410e+01
0	 3.142864409547143e+01	 1.142853720630899e+01	 1.000523031167195e+01
0	 3.142864409547143e+01	 1.214279010100160e+01	 1.000505756264409e+01
0	 3.142864409547144e+01	 1.285704274571143e+01	 1.000471454731565e+01
0	 3.142864409547143e+01	 1.357129522376640e+01	 1.000421746964430e+01
0	 3.142864409547142e+01	 1.428554761849444e+01	 1.000358253372023e+01
0	 3.214294394869491e+01	 7.143009922150928e+00	 1.000198277170377e+01
0	 3.214294394869491e+01	 7.857266066626718e+00	 1.000291442118211e+01
0	 3.214294394869492e+01	 8.571521461152166e+00	 1.000360776756575e+01
0	 3.214294394869491e+01	 9.285776189055181e+00	 1.000408334842604e+01
0	 3.214294394869491e+01	 1.000003033366371e+01	 1.000436170142814e+01
0	 3.214294394869491e+01	 1.071428397830567e+01	 1.000446336433106e+01
0	 3.214294394869492e+01	 1.142853720630899e+01	 1.000440887498763e+01
0	 3.214294394869492e+01	 1.214279010100160e+01	 1.000421877134452e+01
0	 3.214294394869491e+01	 1.285704274571142e+01	 1.000391359144226e+01
0	 3.214294394869492e+01	 1.357129522376639e+01	 1.000351387341519e+01
0	 3.214294394869491e+01	 1.428554761849444e+01	 1.000304015549148e+01
0	 3.285724463525451e+01	 7.143009922150926e+00	 1.000219499514612e+01
0	 3.285724463525451e+01	 7.857266066626719e+00	 1.000281546559124e+01
0	 3.285724463525451e+01	 8.571521461152162e+00	 1.000324423553531e+01
0	 3.285724463525451e+01	 9.285776189055182e+00	 1.000350412980945e+01
0	 3.285724463525452e+01	 1.000003033366371e+01	 1.000361797329560e+01
0	 3.285724463525450e+01	 1.071428397830567e+01	 1.000360859092667e+01
0	 3.285724463525451e+01	 1.142853720630899e+01	 1.000349880768636e+01
0	 3.285724463525451e+01	 1.214279010100160e+01	 1.000331144860933e+01
0	 3.285724463525450e+01	 1.285704274571142e+01	 1.000306933878108e+01
0	 3.285724463525451e+01	 1.357129522376639e+01	 1.000279530333802e+01
0	 3.285724463525450e+01	 1.428554761849444e+01	 1.000251216746743e+01
0	 3.357154598848280e+01	 7.143009922150926e+00	 1.000238252565706e+01
0	 3.357154598848280e+01	 7.857266066626720e+00	 1.000266875127705e+01
0	 3.357154598848280e+01	 8.571521461152161e+00	 1.000282193363525e+01
0	 3.357154598848280e+01	 9.285776189055182e+00	 1.000286513765653e+01
0	 3.357154598848280e+01	 1.000003033366371e+01	 1.000282142827322e+01
0	 3.357154598848279e+01	 1.071428397830567e+01	 1.000271387042510e+01
0	 3.357154598848280e+01	 1.142853720630899e+01	 1.000256552905942e+01
0	 3.357154598848280e+01	 1.214279010100160e+01	 1.000239946913087e+01
0	 3.357154598848280e+01	 1.285704274571142e+01	 1.000223875560159e+01
0	 3.357154598848280e+01	 1.357129522376640e+01	 1.000210645344118e+01
0	 3.357154598848280e+01	 1.428554761849444e+01	 1.000202562762669e+01
0	 3.428584784171235e+01	 7.143009922150926e+00	 1.000250740988141e+01
0	 3.428584784171235e+01	 7.857266066626718e+00	 1.000246696311732e+01
0	 3.428584784171237e+01	 8.571521461152164e+00	 1.000235882121240e+01
0	 3.428584784171235e+01	 9.285776189055184e+00	 1.000220424199972e+01
0	 3.428584784171235e+01	 1.000003033366371e+01	 1.000202448327964e+01
0	 3.428584784171235e+01	 1.071428397830567e+01	 1.000184080281982e+01
0	 3.428584784171234e+01	 1.142853720630899e+01	 1.000167445835523e+01
0	 3.428584784171235e+01	 1.214279010100160e+01	 1.000154670758812e+01
0	 3.428584784171235e+01	 1.285704274571143e+01	 1.000147880818804e+01
0	 3.428584784171235e+01	 1.357129522376639e+01	 1.000149201779186e+01
0	 3.428584784171235e+01	 1.428554761849444e+01	 1.000160759400371e+01
0	 3.500015002827575e+01	 7.143009922150927e+00	 1.000253169437798e+01
0	 3.500015002827575e+01	 7.857266066626719e+00	 1.000220278588076e+01
0	 3.500015002827575e+01	 8.571521461152161e+00	 1.000187285749744e+01
0	 3.500015002827573e+01	 9.285776189055184e+00	 1.000155931276120e+01
0	 3.500015002827575e+01	 1.000003033366371e+01	 1.000127955513939e+01
0	 3.500015002827575e+01	 1.071428397830566e+01	 1.000105098803354e+01
0	 3.500015002827574e+01	 1.142853720630899e+01	 1.000089101477934e+01
0	 3.500015002827575e+01	 1.214279010100160e+01	 1.000081703864666e+01
0	 3.500015002827575e+01	 1.285704274571142e+01	 1.000084646283951e+01
0	 3.500015002827573e+01	 1.357129522376639e+01	 1.000099669049610e+01
0	 3.500015002827575e+01	 1.428554761849444e+01	 1.000128512468880e+01
0	 3.571445238150555e+01	 7.143009922150927e+00	 1.000241742561963e+01
0	 3.571445238150555e+01	 7.857266066626719e+00	 1.000186890422705e+01
0	 3.571445238150555e+01	 8.571521461152161e+00	 1.000138200160485e+01
0	 3.571445238150557e+01	 9.285776189055184e+00	 1.000096821975289e+01
0	 3.571445238150557e+01	 1.000003033366371e+01	 1.000063906058286e+01
0	 3.571445238150555e+01	 1.071428397830567e+01	 1.000040602591828e+01
0	 3.571445238150555e+01	 1.142853720630899e+01	 1.000028061749450e+01
0	 3.571445238150555e+01	 1.214279010100160e+01	 1.000027433695869e+01
0	 3.571445238150557e+01	 1.285704274571143e+01	 1.000039868586983e+01
0	 3.571445238150556e+01	 1.357129522376639e+01	 1.000066516569875e+01
0	 3.571445238150556e+01	 1.428554761849444e+01	 1.000108527782809e+01
0	 2.857145634928703e+01	 1.428554761849444e+01	 1.000535479106463e+01
0	 2.857145634928704e+01	 1.499984997172426e+01	 1.000461053261255e+01
0	 2.857145634928703e+01	 1.571415215828766e+01	 1.000394105538904e+01
0	 2.857145634928704e+01	 1.642845401151721e+01	 1.000335579447479e+01
0	 2.857145634928704e+01	 1.714275536474550e+01	 1.000286418511812e+01
0	 2.857145634928704e+01	 1.785705605130510e+01	 1.000247566273496e+01
0	 2.857145634928704e+01	 1.857135590452858e+01	 1.000219966290887e+01
0	 2.857145634928703e+01	 1.928565475774853e+01	 1.000204562139104e+01
0	 2.857145634928703e+01	 1.999995244429753e+01	 1.000202297410027e+01
0	 2.857145634928704e+01	 2.071424879750816e+01	 1.000214115712301e+01
0	 2.857145634928704e+01	 2.142854365071296e+01	 1.000240960671330e+01
0	 2.928575120249185e+01	 1.428554761849444e+01	 1.000502543068625e+01
0	 2.928575120249185e+01	 1.499984997172426e+01	 1.000418124183420e+01
0	 2.928575120249185e+01	 1.571415215828766e+01	 1.000345837069481e+01
0	 2.928575120249185e+01	 1.642845401151721e+01	 1.000285963176027e+01
0	 2.928575120249186e+01	 1.714275536474550e+01	 1.000238783970724e+01
0	 2.928575120249185e+01	 1.785705605130509e+01	 1.000204580939687e+01
0	 2.928575120249186e+01	 1.857135590452858e+01	 1.000183635587483e+01
0	 2.928575120249185e+01	 1.928565475774854e+01	 1.000176229437122e+01
0	 2.928575120249186e+01	 1.999995244429754e+01	 1.000182644030064e+01
0	 2.928575120249186e+01	 2.071424879750816e+01	 1.000203160926223e+01
0	 2.928575120249186e+01	 2.142854365071297e+01	 1.000238061703956e+01
0	 3.000004755570248e+01	 1.428554761849444e+01	 1.000460222915660e+01
0	 3.000004755570248e+01	 1.499984997172426e+01	 1.000375717514368e+01
0	 3.000004755570248e+01	 1.571415215828766e+01	 1.000305790441960e+01
0	 3.000004755570248e+01	 1.642845401151721e+01	 1.000250175441530e+01
0	 3.000004755570249e+01	 1.714275536474550e+01	 1.000208606274039e+01
0	 3.000004755570247e+01	 1.785705605130510e+01	 1.000180816718323e+01
0	 3.000004755570247e+01	 1.857135590452858e+01	 1.000166540571091e+01
0	 3.000004755570248e+01	 1.928565475774855e+01	 1.000165511646923e+01
0	 3.000004755570247e+01	 1.999995244429754e+01	 1.000177463778275e+01
0	 3.000004755570248e+01	 2.071424879750816e+01	 1.000202130815471e+01
0	 3.000004755570248e+01	 2.142854365071296e+01	 1.000239246626716e+01
0	 3.071434524225146e+01	 1.428554761849444e+01	 1.000411224423091e+01
0	 3.071434524225147e+01	 1.499984997172426e+01	 1.000334669278848e+01
0	 3.071434524225147e+01	 1.571415215828766e+01	 1.000273256311865e+01
0	 3.071434524225147e+01	 1.642845401151721e+01	 1.000226285910023e+01
0	 3.071434524225147e+01	 1.714275536474550e+01	 1.000193058476689e+01
0	 3.071434524225148e+01	 1.785705605130510e+01	 1.000172874430721e+01
0	 3.071434524225148e+01	 1.857135590452858e+01	 1.000165034206467e+01
0	 3.071434524225146e+01	 1.928565475774853e+01	 1.000168838253762e+01
0	 3.071434524225148e+01	 1.999995244429754e+01	 1.000183587037931e+01
0	 3.071434524225147e+01	 2.071424879750816e+01	 1.000208581039790e+01
0	 3.071434524225148e+01	 2.142854365071297e+01	 1.000243120755643e+01
0	 3.142864409547142e+01	 1.428554761849444e+01	 1.000358253372023e+01
0	 3.142864409547143e+01	 1.499984997172426e+01	 1.000295815507988e+01
0	 3.142864409547143e+01	 1.571415215828766e+01	 1.000247525341056e+01
0	 3.142864409547143e+01	 1.642845401151722e+01	 1.000212364253170e+01
0	 3.142864409547142e+01	 1.714275536474550e+01	 1.000189313638023e+01
0	 3.142864409547143e+01	 1.785705605130510e+01	 1.000177354901058e+01
0	 3.142864409547142e+01	 1.857135590452858e+01	 1.000175469459475e+01
0	 3.142864409547142e+01	 1.928565475774854e+01	 1.000182638742220e+01
0	 3.142864409547143e+01	 1.999995244429754e+01	 1.000197844189995e+01
0	 3.142864409547143e+01	 2.071424879750816e+01	 1.000220067255251e+01
0	 3.142864409547142e+01	 2.142854365071296e+01	 1.000248289402194e+01
0	 3.214294394869491e+01	 1.428554761849444e+01	 1.000304015549148e+01
0	 3.214294394869492e+01	 1.499984997172426e+01	 1.000259992239285e+01
0	 3.214294394869492e+01	 1.571415215828766e+01	 1.000227888197726e+01
0	 3.214294394869491e+01	 1.642845401151722e+01	 1.000206480148261e+01
0	 3.214294394869491e+01	 1.714275536474550e+01	 1.000194544821797e+01
0	 3.214294394869492e+01	 1.785705605130510e+01	 1.000190858956355e+01
0	 3.214294394869491e+01	 1.857135590452858e+01	 1.000194199297071e+01
0	 3.214294394869491e+01	 1.928565475774854e+01	 1.000203342596198e+01
0	 3.214294394869491e+01	 1.999995244429753e+01	 1.000217065613097e+01
0	 3.214294394869491e+01	 2.071424879750816e+01	 1.000234145114251e+01
0	 3.214294394869491e+01	 2.142854365071296e+01	 1.000253357873255e+01
0	 3.285724463525450e+01	 1.428554761849444e+01	 1.000251216746743e+01
0	 3.285724463525450e+01	 1.499984997172426e+01	 1.000228035516614e+01
0	 3.285724463525451e+01	 1.571415215828766e+01	 1.000213635556401e+01
0	 3.285724463525451e+01	 1.642845401151721e+01	 1.000206703278213e+01
0	 3.285724463525451e+01	 1.714275536474550e+01	 1.000205925096185e+01
0	 3.285724463525450e+01	 1.785705605130510e+01	 1.000209987426486e+01
0	 3.285724463525451e+01	 1.857135590452859e+01	 1.000217576687320e+01
0	 3.285724463525450e+01	 1.928565475774854e+01	 1.000227379298920e+01
0	 3.285724463525452e+01	 1.999995244429754e+01	 1.000238081683552e+01
0	 3.285724463525450e+01	 2.071424879750815e+01	 1.000248370265515e+01
0	 3.285724463525451e+01	 2.142854365071296e+01	 1.000256931471139e+01
0	 3.357154598848280e+01	 1.428554761849444e+01	 1.000202562762669e+01
0	 3.357154598848279e+01	 1.499984997172426e+01	 1.000200781390217e+01
0	 3.357154598848280e+01	 1.571415215828766e+01	 1.000204058097946e+01
0	 3.357154598848280e+01	 1.642845401151721e+01	 1.000211103331572e+01
0	 3.357154598848280e+01	 1.714275536474550e+01	 1.000220627533771e+01
0	 3.357154598848279e+01	 1.785705605130509e+01	 1.000231341144177e+01
0	 3.357154598848280e+01	 1.857135590452859e+01	 1.000241954599381e+01
0	 3.357154598848280e+01	 1.928565475774854e+01	 1.000251178332936e+01
0	 3.357154598848280e+01	 1.999995244429753e+01	 1.000257722775352e+01
0	 3.357154598848280e+01	 2.071424879750816e+01	 1.000260298354092e+01
0	 3.357154598848279e+01	 2.142854365071296e+01	 1.000257615493585e+01
0	 3.428584784171235e+01	 1.428554761849444e+01	 1.000160759400372e+01
0	 3.428584784171235e+01	 1.499984997172426e+01	 1.000179065916716e+01
0	 3.428584784171235e+01	 1.571415215828766e+01	 1.000198446509555e+01
0	 3.428584784171235e+01	 1.642845401151721e+01	 1.000217750002510e+01
0	 3.428584784171235e+01	 1.714275536474550e+01	 1.000235825211552e+01
0	 3.428584784171235e+01	 1.785705605130510e+01	 1.000251520944999e+01
0	 3.428584784171235e+01	 1.857135590452859e+01	 1.000263686003517e+01
0	 3.428584784171235e+01	 1.928565475774854e+01	 1.000271169180118e+01
0	 3.428584784171235e+01	 1.999995244429753e+01	 1.000272819260164e+01
0	 3.428584784171234e+01	 2.071424879750815e+01	 1.000267485021360e+01
0	 3.428584784171235e+01	 2.142854365071296e+01	 1.000254015233759e+01
0	 3.500015002827575e+01	 1.428554761849444e+01	 1.000128512468880e+01
0	 3.500015002827575e+01	 1.499984997172426e+01	 1.000163725159104e+01
0	 3.500015002827573e+01	 1.571415215828766e+01	 1.000196091484760e+01
0	 3.500015002827575e+01	 1.642845401151721e+01	 1.000224712990827e+01
0	 3.500015002827574e+01	 1.714275536474550e+01	 1.000248691210938e+01
0	 3.500015002827575e+01	 1.785705605130510e+01	 1.000267127667379e+01
0	 3.500015002827575e+01	 1.857135590452858e+01	 1.000279123871089e+01
0	 3.500015002827575e+01	 1.928565475774854e+01	 1.000283781321661e+01
0	 3.500015002827575e+01	 1.999995244429754e+01	 1.000280201507339e+01
0	 3.500015002827575e+01	 2.071424879750816e+01	 1.000267485905021e+01
0	 3.500015002827575e+01	 2.142854365071296e+01	 1.000244735980256e+01
0	 3.571445238150556e+01	 1.428554761849444e+01	 1.000108527782809e+01
0	 3.571445238150555e+01	 1.499984997172426e+01	 1.000155595186745e+01
0	 3.571445238150556e+01	 1.571415215828766e+01	 1.000196283723425e+01
0	 3.571445238150557e+01	 1.642845401151722e+01	 1.000230062001949e+01
0	 3.571445238150556e+01	 1.714275536474550e+01	 1.000256398617751e+01
0	 3.571445238150555e+01	 1.785705605130510e+01	 1.000274762152592e+01
0	 3.571445238150555e+01	 1.857135590452859e+01	 1.000284621174562e+01
0	 3.571445238150556e+01	 1.928565475774854e+01	 1.000285444238081e+01
0	 3.571445238150557e+01	 1.999995244429754e+01	 1.000276699883903e+01
0	 3.571445238150557e+01	 2.071424879750816e+01	 1.000257856639105e+01
0	 3.571445238150556e+01	 2.142854365071296e+01	 1.000228383017097e+01
0	 2.857145634928704e+01	 2.142854365071296e+01	 1.000240960671330e+01
0	 2.857145634928704e+01	 2.214283692057824e+01	 1.000273140907877e+01
0	 2.857145634928704e+01	 2.285712885710494e+01	 1.000299961132681e+01
0	 2.857145634928704e+01	 2.357141979362770e+01	 1.000320859137159e+01
0	 2.857145634928703e+01	 2.428571006348117e+01	 1.000335272737356e+01
0	 2.857145634928704e+01	 2.500000000000001e+01	 1.000342639773937e+01
0	 2.857145634928704e+01	 2.571428993651884e+01	 1.000342398112195e+01
0	 2.857145634928704e+01	 2.642858020637232e+01	 1.000333985642050e+01
0	 2.857145634928704e+01	 2.714287114289508e+01	 1.000316840278042e+01
0	 2.857145634928704e+01	 2.785716307942177e+01	 1.000290399959343e+01
0	 2.857145634928703e+01	 2.857145634928703e+01	 1.000254102649742e+01
0	 2.928575120249186e+01	 2.142854365071297e+01	 1.000238061703956e+01
0	 2.928575120249186e+01	 2.214283692057824e+01	 1.000276294003793e+01
0	 2.928575120249184e+01	 2.285712885710493e+01	 1.000306515635768e+01
0	 2.928575120249186e+01	 2.357141979362770e+01	 1.000328573465961e+01
0	 2.928575120249185e+01	 2.428571006348117e+01	 1.000342314386610e+01
0	 2.928575120249187e+01	 2.500000000000001e+01	 1.000347585316130e+01
0	 2.928575120249185e+01	 2.571428993651883e+01	 1.000344233199093e+01
0	 2.928575120249186e+01	 2.642858020637231e+01	 1.000332105006243e+01
0	 2.928575120249186e+01	 2.714287114289508e+01	 1.000311047734489e+01
0	 2.928575120249186e+01	 2.785716307942178e+01	 1.000280908406906e+01
0	 2.928575120249185e+01	 2.857145634928703e+01	 1.000241534072736e+01
0	 3.000004755570248e+01	 2.142854365071296e+01	 1.000239246626716e+01
0	 3.000004755570248e+01	 2.214283692057824e+01	 1.000277762834054e+01
0	 3.000004755570248e+01	 2.285712885710494e+01	 1.000306930716078e+01
0	 3.000004755570248e+01	 2.357141979362770e+01	 1.000326933658008e+01
0	 3.000004755570247e+01	 2.428571006348117e+01	 1.000337955070115e+01
0	 3.000004755570248e+01	 2.500000000000001e+01	 1.000340178387724e+01
0	 3.000004755570248e+01	 2.571428993651884e+01	 1.000333787071213e+01
0	 3.000004755570248e+01	 2.642858020637231e+01	 1.000318964606018e+01
0	 3.000004755570247e+01	 2.714287114289507e+01	 1.000295894502624e+01
0	 3.000004755570247e+01	 2.785716307942177e+01	 1.000264760296573e+01
0	 3.000004755570248e+01	 2.857145634928704e+01	 1.000225745548459e+01
0	 3.071434524225148e+01	 2.142854365071297e+01	 1.000243120755643e+01
0	 3.071434524225148e+01	 2.214283692057824e+01	 1.000277267237737e+01
0	 3.071434524225148e+01	 2.285712885710494e+01	 1.000301846086974e+01
0	 3.071434524225146e+01	 2.357141979362770e+01	 1.000317304650616e+01
0	 3.071434524225147e+01	 2.428571006348117e+01	 1.000324090297764e+01
0	 3.071434524225148e+01	 2.500000000000001e+01	 1.000322650419348e+01
0	 3.071434524225147e+01	 2.571428993651883e+01	 1.000313432428131e+01
0	 3.071434524225147e+01	 2.642858020637231e+01	 1.000296883758710e+01
0	 3.071434524225147e+01	 2.714287114289507e+01	 1.000273451867512e+01
0	 3.071434524225147e+01	 2.785716307942177e+01	 1.000243584232800e+01
0	 3.071434524225148e+01	 2.857145634928704e+01	 1.000207728354664e+01
0	 3.142864409547142e+01	 2.142854365071296e+01	 1.000248289402194e+01
0	 3.142864409547143e+01	 2.214283692057824e+01	 1.000274527049022e+01
0	 3.142864409547142e+01	 2.285712885710494e+01	 1.000291901457098e+01
0	 3.142864409547143e+01	 2.357141979362770e+01	 1.000301051376967e+01
0	 3.142864409547143e+01	 2.428571006348117e+01	 1.000302615576223e+01
0	 3.142864409547143e+01	 2.500000000000001e+01	 1.000297232839506e+01
0	 3.142864409547142e+01	 2.571428993651883e+01	 1.000285541968504e+01
0	 3.142864409547143e+01	 2.642858020637232e+01	 1.000268181781951e+01
0	 3.142864409547143e+01	 2.714287114289508e+01	 1.000245791115630e+01
0	 3.142864409547143e+01	 2.785716307942177e+01	 1.000219008822368e+01
0	 3.142864409547142e+01	 2.857145634928703e+01	 1.000188473772041e+01
0	 3.214294394869491e+01	 2.142854365071296e+01	 1.000253357873255e+01
0	 3.214294394869491e+01	 2.214283692057824e+01	 1.000269262097179e+01
0	 3.214294394869491e+01	 2.285712885710493e+01	 1.000277736530371e+01
0	 3.214294394869491e+01	 2.357141979362770e+01	 1.000279538766112e+01
0	 3.214294394869491e+01	 2.428571006348117e+01	 1.000275426408924e+01
0	 3.214294394869491e+01	 2.500000000000000e+01	 1.000266157074576e+01
0	 3.214294394869491e+01	 2.571428993651883e+01	 1.000252488390074e+01
0	 3.214294394869491e+01	 2.642858020637231e+01	 1.000235177993672e+01
0	 3.214294394869492e+01	 2.714287114289507e+01	 1.000214983534864e+01
0	 3.214294394869491e+01	 2.785716307942177e+01	 1.000192662674389e+01
0	 3.214294394869491e+01	 2.857145634928704e+01	 1.000168973084228e+01
0	 3.285724463525451e+01	 2.142854365071296e+01	 1.000256931471139e+01
0	 3.285724463525451e+01	 2.214283692057825e+01	 1.000261192206578e+01
0	 3.285724463525452e+01	 2.285712885710494e+01	 1.000259991005992e+01
0	 3.285724463525451e+01	 2.357141979362770e+01	 1.000254131742971e+01
0	 3.285724463525451e+01	 2.428571006348117e+01	 1.000244418296069e+01
0	 3.285724463525451e+01	 2.500000000000000e+01	 1.000231654548806e+01
0	 3.285724463525451e+01	 2.571428993651883e+01	 1.000216644389666e+01
0	 3.285724463525452e+01	 2.642858020637231e+01	 1.000200191712098e+01
0	 3.285724463525451e+01	 2.714287114289507e+01	 1.000183100414519e+01
0	 3.285724463525451e+01	 2.785716307942177e+01	 1.000166174400306e+01
0	 3.285724463525450e+01	 2.857145634928703e+01	 1.000150217577802e+01
0	 3.357154598848279e+01	 2.142854365071296e+01	 1.000257615493585e+01
0	 3.357154598848280e+01	 2.214283692057824e+01	 1.000250037196686e+01
0	 3.357154598848279e+01	 2.285712885710494e+01	 1.000239304578438e+01
0	 3.357154598848278e+01	 2.357141979362770e+01	 1.000226195228334e+01
0	 3.357154598848280e+01	 2.428571006348118e+01	 1.000211486734626e+01
0	 3.357154598848280e+01	 2.500000000000001e+01	 1.000195956684322e+01
0	 3.357154598848281e+01	 2.571428993651884e+01	 1.000180382663191e+01
0	 3.357154598848280e+01	 2.642858020637231e+01	 1.000165542255758e+01
0	 3.357154598848280e+01	 2.714287114289508e+01	 1.000152213045309e+01
0	 3.357154598848279e+01	 2.785716307942177e+01	 1.000141172613885e+01
0	 3.357154598848279e+01	 2.857145634928703e+01	 1.000133198542286e+01
0	 3.428584784171235e+01	 2.142854365071296e+01	 1.000254015233759e+01
0	 3.428584784171235e+01	 2.214283692057824e+01	 1.000235516882066e+01
0	 3.428584784171235e+01	 2.285712885710494e+01	 1.000216316937464e+01
0	 3.428584784171236e+01	 2.357141979362770e+01	 1.000197094138861e+01
0	 3.428584784171235e+01	 2.428571006348118e+01	 1.000178527218331e+01
0	 3.428584784171235e+01	 2.500000000000001e+01	 1.000161294901121e+01
0	 3.428584784171235e+01	 2.571428993651883e+01	 1.000146075905643e+01
0	 3.428584784171235e+01	 2.642858020637231e+01	 1.000133548943474e+01
0	 3.428584784171236e+01	 2.714287114289508e+01	 1.000124392719363e+01
0	 3.428584784171235e+01	 2.785716307942178e+01	 1.000119285931225e+01
0	 3.428584784171235e+01	 2.857145634928704e+01	 1.000118907270141e+01
0	 3.500015002827575e+01	 2.142854365071296e+01	 1.000244735980256e+01
0	 3.500015002827575e+01	 2.214283692057824e+01	 1.000217351072381e+01
0	 3.500015002827574e+01	 2.285712885710494e+01	 1.000191667768104e+01
0	 3.500015002827575e+01	 2.357141979362770e+01	 1.000168193387078e+01
0	 3.500015002827575e+01	 2.428571006348118e+01	 1.000147435237691e+01
0	 3.500015002827575e+01	 2.500000000000000e+01	 1.000129900617076e+01
0	 3.500015002827574e+01	 2.571428993651883e+01	 1.000116096811099e+01
0	 3.500015002827574e+01	 2.642858020637231e+01	 1.000106531094367e+01
0	 3.500015002827574e+01	 2.714287114289507e+01	 1.000101710730224e+01
0	 3.500015002827575e+01	 2.785716307942177e+01	 1.000102142970754e+01
0	 3.500015002827575e+01	 2.857145634928704e+01	 1.000108335056777e+01
0	 3.571445238150556e+01	 2.142854365071296e+01	 1.000228383017097e+01
0	 3.571445238150555e+01	 2.214283692057824e+01	 1.000195259572389e+01
0	 3.571445238150556e+01	 2.285712885710494e+01	 1.000165996750671e+01
0	 3.571445238150555e+01	 2.357141979362770e+01	 1.000140857881383e+01
0	 3.571445238150556e+01	 2.428571006348118e+01	 1.000120106279979e+01
0	 3.571445238150555e+01	 2.500000000000000e+01	 1.000104005247930e+01
0	 3.571445238150556e+01	 2.571428993651884e+01	 1.000092818072722e+01
0	 3.571445238150556e+01	 2.642858020637231e+01	 1.000086808027855e+01
0	 3.571445238150555e+01	 2.714287114289507e+01	 1.000086238372845e+01
0	 3.571445238150556e+01	 2.785716307942177e+01	 1.000091372353225e+01
0	 3.571445238150555e+01	 2.857145634928703e+01	 1.000102473200540e+01
0	 2.857145634928703e+01	 2.857145634928703e+01	 1.000254102649742e+01
0	 2.857145634928704e+01	 2.928575120249186e+01	 1.000214669195952e+01
0	 2.857145634928703e+01	 3.000004755570248e+01	 1.000179356580705e+01
0	 2.857145634928704e+01	 3.071434524225148e+01	 1.000148406996073e+01
0	 2.857145634928703e+01	 3.142864409547142e+01	 1.000122062641833e+01
0	 2.857145634928704e+01	 3.214294394869491e+01	 1.000100565725466e+01
0	 2.857145634928704e+01	 3.285724463525451e+01	 1.000084158462159e+01
0	 2.857145634928703e+01	 3.357154598848279e+01	 1.000073083074799e+01
0	 2.857145634928704e+01	 3.428584784171235e+01	 1.000067581793985e+01
0	 2.857145634928704e+01	 3.500015002827575e+01	 1.000067896858010e+01
0	 2.857145634928704e+01	 3.571445238150556e+01	 1.000074270512879e+01
0	 2.928575120249185e+01	 2.857145634928703e+01	 1.000241534072736e+01
0	 2.928575120249186e+01	 2.928575120249186e+01	 1.000200292482726e+01
0	 2.928575120249186e+01	 3.000004755570248e+01	 1.000164640728207e+01
0	 2.928575120249185e+01	 3.071434524225147e+01	 1.000134559894849e+01
0	 2.928575120249186e+01	 3.142864409547142e+01	 1.000110031076235e+01
0	 2.928575120249186e+01	 3.214294394869491e+01	 1.000091035373863e+01
0	 2.928575120249185e+01	 3.285724463525450e+01	 1.000077553897138e+01
0	 2.928575120249186e+01	 3.357154598848280e+01	 1.000069567763382e+01
0	 2.928575120249186e+01	 3.428584784171236e+01	 1.000067058097829e+01
0	 2.928575120249187e+01	 3.500015002827575e+01	 1.000070006033621e+01
0	 2.928575120249186e+01	 3.571445238150555e+01	 1.000078392711815e+01
0	 3.000004755570248e+01	 2.857145634928704e+01	 1.000225745548459e+01
0	 3.000004755570248e+01	 2.928575120249186e+01	 1.000186062931399e+01
0	 3.000004755570247e+01	 3.000004755570247e+01	 1.000152648280008e+01
0	 3.000004755570247e+01	 3.071434524225147e+01	 1.000125269921426e+01
0	 3.000004755570248e+01	 3.142864409547142e+01	 1.000103696190141e+01
0	 3.000004755570247e+01	 3.214294394869491e+01	 1.000087695427990e+01
0	 3.000004755570247e+01	 3.285724463525450e+01	 1.000077035984160e+01
0	 3.000004755570248e+01	 3.357154598848280e+01	 1.000071486215186e+01
0	 3.000004755570248e+01	 3.428584784171235e+01	 1.000070814484948e+01
0	 3.000004755570248e+01	 3.500015002827575e+01	 1.000074789164678e+01
0	 3.000004755570247e+01	 3.571445238150556e+01	 1.000083178632955e+01
0	 3.071434524225148e+01	 2.857145634928704e+01	 1.000207728354664e+01
0	 3.071434524225146e+01	 2.928575120249185e+01	 1.000172296240305e+01
0	 3.071434524225148e+01	 3.000004755570248e+01	 1.000143137492827e+01
0	 3.071434524225146e+01	 3.071434524225147e+01	 1.000119856027175e+01
0	 3.071434524225148e+01	 3.142864409547143e+01	 1.000102055764483e+01
0	 3.071434524225146e+01	 3.214294394869491e+01	 1.000089340632054e+01
0	 3.071434524225147e+01	 3.285724463525450e+01	 1.000081314563375e+01
0	 3.071434524225148e+01	 3.357154598848279e+01	 1.000077581498110e+01
0	 3.071434524225146e+01	 3.428584784171235e+01	 1.000077745382098e+01
0	 3.071434524225148e+01	 3.500015002827574e+01	 1.000081410167359e+01
0	 3.071434524225148e+01	 3.571445238150555e+01	 1.000088179812092e+01
0	 3.142864409547142e+01	 2.857145634928703e+01	 1.000188473772041e+01
0	 3.142864409547143e+01	 2.928575120249186e+01	 1.000159308110959e+01
0	 3.142864409547142e+01	 3.000004755570248e+01	 1.000135866626461e+01
0	 3.142864409547143e+01	 3.071434524225149e+01	 1.000117637166191e+01
0	 3.142864409547143e+01	 3.142864409547143e+01	 1.000104107582352e+01
0	 3.142864409547143e+01	 3.214294394869491e+01	 1.000094765731720e+01
0	 3.142864409547143e+01	 3.285724463525452e+01	 1.000089099475632e+01
0	 3.142864409547142e+01	 3.357154598848279e+01	 1.000086596679999e+01
0	 3.142864409547143e+01	 3.428584784171236e+01	 1.000086745215291e+01
0	 3.142864409547142e+01	 3.500015002827574e+01	 1.000089032956553e+01
0	 3.142864409547142e+01	 3.571445238150555e+01	 1.000092947783387e+01
0	 3.214294394869491e+01	 2.857145634928704e+01	 1.000168973084228e+01
0	 3.214294394869491e+01	 2.928575120249186e+01	 1.000147414248055e+01
0	 3.214294394869491e+01	 3.000004755570247e+01	 1.000130593943804e+01
0	 3.214294394869491e+01	 3.071434524225147e+01	 1.000117932295287e+01
0	 3.214294394869491e+01	 3.142864409547142e+01	 1.000108849429000e+01
0	 3.214294394869491e+01	 3.214294394869491e+01	 1.000102765474114e+01
0	 3.214294394869492e+01	 3.285724463525452e+01	 1.000099100562483e+01
0	 3.214294394869491e+01	 3.357154598848279e+01	 1.000097274828640e+01
0	 3.214294394869491e+01	 3.428584784171235e+01	 1.000096708409798e+01
0	 3.214294394869491e+01	 3.500015002827575e+01	 1.000096821445850e+01
0	 3.214294394869491e+01	 3.571445238150556e+01	 1.000097034079366e+01
0	 3.285724463525450e+01	 2.857145634928703e+01	 1.000150217577802e+01
0	 3.285724463525451e+01	 2.928575120249185e+01	 1.000136930359474e+01
0	 3.285724463525451e+01	 3.000004755570248e+01	 1.000127077710826e+01
0	 3.285724463525451e+01	 3.071434524225148e+01	 1.000120060374003e+01
0	 3.285724463525452e+01	 3.142864409547143e+01	 1.000115279091834e+01
0	 3.285724463525451e+01	 3.214294394869491e+01	 1.000112134607829e+01
0	 3.285724463525450e+01	 3.285724463525450e+01	 1.000110027666181e+01
0	 3.285724463525451e+01	 3.357154598848280e+01	 1.000108359011767e+01
0	 3.285724463525451e+01	 3.428584784171235e+01	 1.000106529390144e+01
0	 3.285724463525450e+01	 3.500015002827573e+01	 1.000103939547554e+01
0	 3.285724463525451e+01	 3.571445238150555e+01	 1.000099990230919e+01
0	 3.357154598848279e+01	 2.857145634928703e+01	 1.000133198542286e+01
0	 3.357154598848280e+01	 2.928575120249186e+01	 1.000128172156277e+01
0	 3.357154598848280e+01	 3.000004755570248e+01	 1.000125076196588e+01
0	 3.357154598848280e+01	 3.071434524225148e+01	 1.000123340364597e+01
0	 3.357154598848278e+01	 3.142864409547141e+01	 1.000122394360421e+01
0	 3.357154598848280e+01	 3.214294394869491e+01	 1.000121667882916e+01
0	 3.357154598848280e+01	 3.285724463525452e+01	 1.000120590629681e+01
0	 3.357154598848280e+01	 3.357154598848280e+01	 1.000118592297053e+01
0	 3.357154598848280e+01	 3.428584784171235e+01	 1.000115102580111e+01
0	 3.357154598848280e+01	 3.500015002827575e+01	 1.000109551172675e+01
0	 3.357154598848280e+01	 3.571445238150556e+01	 1.000101367767304e+01
0	 3.428584784171235e+01	 2.857145634928704e+01	 1.000118907270141e+01
0	 3.428584784171235e+01	 2.928575120249185e+01	 1.000121455352705e+01
0	 3.428584784171235e+01	 3.000004755570248e+01	 1.000124347673238e+01
0	 3.428584784171235e+01	 3.071434524225147e+01	 1.000127091232053e+01
0	 3.428584784171235e+01	 3.142864409547142e+01	 1.000129193026487e+01
0	 3.428584784171235e+01	 3.214294394869491e+01	 1.000130160050892e+01
0	 3.428584784171235e+01	 3.285724463525450e+01	 1.000129499296638e+01
0	 3.428584784171235e+01	 3.357154598848280e+01	 1.000126717752117e+01
0	 3.428584784171235e+01	 3.428584784171235e+01	 1.000121322402739e+01
0	 3.428584784171235e+01	 3.500015002827573e+01	 1.000112820230930e+01
0	 3.428584784171235e+01	 3.571445238150555e+01	 1.000100718216141e+01
0	 3.500015002827575e+01	 2.857145634928704e+01	 1.000108335056777e+01
0	 3.500015002827575e+01	 2.928575120249186e+01	 1.000117095666185e+01
0	 3.500015002827575e+01	 3.000004755570248e+01	 1.000124650416005e+01
0	 3.500015002827575e+01	 3.071434524225147e+01	 1.000130631944074e+01
0	 3.500015002827575e+01	 3.142864409547143e+01	 1.000134672883914e+01
0	 3.500015002827575e+01	 3.214294394869491e+01	 1.000136405864730e+01
0	 3.500015002827574e+01	 3.285724463525450e+01	 1.000135463511408e+01
0	 3.500015002827575e+01	 3.357154598848280e+01	 1.000131478444522e+01
0	 3.500015002827576e+01	 3.428584784171235e+01	 1.000124083280321e+01
0	 3.500015002827575e+01	 3.500015002827575e+01	 1.000112910630746e+01
0	 3.500015002827575e+01	 3.571445238150555e+01	 1.000097593103414e+01
0	 3.571445238150555e+01	 2.857145634928703e+01	 1.000102473200540e+01
0	 3.571445238150555e+01	 2.928575120249185e+01	 1.000115408817323e+01
0	 3.571445238150555e+01	 3.000004755570247e+01	 1.000125742703208e+01
0	 3.571445238150556e+01	 3.071434524225148e+01	 1.000133281471086e+01
0	 3.571445238150556e+01	 3.142864409547142e+01	 1.000137831728745e+01
0	 3.571445238150556e+01	 3.214294394869491e+01	 1.000139200078873e+01
0	 3.571445238150555e+01	 3.285724463525451e+01	 1.000137193119053e+01
0	 3.571445238150555e+01	 3.357154598848280e+01	 1.000131617441772e+01
0	 3.571445238150555e+01	 3.428584784171235e+01	 1.000122279634411e+01
0	 3.571445238150556e+01	 3.500015002827574e+01	 1.000108986279254e+01
0	 3.571445238150555e+01	 3.571445238150556e+01	 1.000091543953479e+01
0	 2.857145634928704e+01	 3.571445238150556e+01	 1.000074270512879e+01
0	 2.857145634928704e+01	 3.642870477623359e+01	 1.000082726214017e+01
0	 2.857145634928703e+01	 3.714295725428856e+01	 1.000089006618975e+01
0	 2.857145634928704e+01	 3.785720989899840e+01	 1.000092930792649e+01
0	 2.857145634928704e+01	 3.857146279369101e+01	 1.000094317801889e+01
0	 2.857145634928704e+01	 3.928571602169432e+01	 1.000092986715498e+01
0	 2.857145634928703e+01	 3.999996966633628e+01	 1.000088756604238e+01
0	 2.857145634928704e+01	 4.071422381094482e+01	 1.000081446540820e+01
0	 2.857145634928704e+01	 4.142847853884783e+01	 1.000070875599914e+01
0	 2.857145634928703e+01	 4.214273393337326e+01	 1.000056862858139e+01
0	 2.857145634928704e+01	 4.285699007784908e+01	 1.000039227394076e+01
0	 2.928575120249186e+01	 3.571445238150555e+01	 1.000078392711815e+01
0	 2.928575120249186e+01	 3.642870477623359e+01	 1.000087939446102e+01
0	 2.928575120249186e+01	 3.714295725428858e+01	 1.000094386387278e+01
0	 2.928575120249186e+01	 3.785720989899841e+01	 1.000097740608602e+01
0	 2.928575120249186e+01	 3.857146279369100e+01	 1.000098009185348e+01
0	 2.928575120249185e+01	 3.928571602169433e+01	 1.000095199194798e+01
0	 2.928575120249185e+01	 3.999996966633629e+01	 1.000089317716250e+01
0	 2.928575120249186e+01	 4.071422381094482e+01	 1.000080371831015e+01
0	 2.928575120249185e+01	 4.142847853884783e+01	 1.000068368622415e+01
0	 2.928575120249185e+01	 4.214273393337328e+01	 1.000053315175784e+01
0	 2.928575120249185e+01	 4.285699007784907e+01	 1.000035218578472e+01
0	 3.000004755570247e+01	 3.571445238150556e+01	 1.000083178632954e+01
0	 3.000004755570247e+01	 3.642870477623359e+01	 1.000091886892626e+01
0	 3.000004755570248e+01	 3.714295725428858e+01	 1.000097079957542e+01
0	 3.000004755570248e+01	 3.785720989899839e+01	 1.000098917020587e+01
0	 3.000004755570247e+01	 3.857146279369102e+01	 1.000097557276469e+01
0	 3.000004755570247e+01	 3.928571602169432e+01	 1.000093159921722e+01
0	 3.000004755570247e+01	 3.999996966633628e+01	 1.000085884154709e+01
0	 3.000004755570248e+01	 4.071422381094482e+01	 1.000075889175617e+01
0	 3.000004755570248e+01	 4.142847853884784e+01	 1.000063334186457e+01
0	 3.000004755570248e+01	 4.214273393337328e+01	 1.000048378391074e+01
0	 3.000004755570247e+01	 4.285699007784908e+01	 1.000031180995130e+01
0	 3.071434524225148e+01	 3.571445238150555e+01	 1.000088179812092e+01
0	 3.071434524225147e+01	 3.642870477623359e+01	 1.000094528149761e+01
0	 3.071434524225148e+01	 3.714295725428858e+01	 1.000097377800482e+01
0	 3.071434524225147e+01	 3.785720989899839e+01	 1.000097004188265e+01
0	 3.071434524225147e+01	 3.857146279369101e+01	 1.000093682738568e+01
0	 3.071434524225148e+01	 3.928571602169432e+01	 1.000087688878302e+01
0	 3.071434524225147e+01	 3.999996966633629e+01	 1.000079298035822e+01
0	 3.071434524225147e+01	 4.071422381094480e+01	 1.000068785640938e+01
0	 3.071434524225148e+01	 4.142847853884784e+01	 1.000056427124905e+01
0	 3.071434524225147e+01	 4.214273393337327e+01	 1.000042497920427e+01
0	 3.071434524225147e+01	 4.285699007784906e+01	 1.000027273461659e+01
0	 3.142864409547142e+01	 3.571445238150555e+01	 1.000092947783387e+01
0	 3.142864409547143e+01	 3.642870477623360e+01	 1.000095822811958e+01
0	 3.142864409547143e+01	 3.714295725428858e+01	 1.000095570385222e+01
0	 3.142864409547143e+01	 3.785720989899840e+01	 1.000092546270017e+01
0	 3.142864409547142e+01	 3.857146279369100e+01	 1.000087106234113e+01
0	 3.142864409547143e+01	 3.928571602169433e+01	 1.000079606046220e+01
0	 3.142864409547143e+01	 3.999996966633628e+01	 1.000070401475980e+01
0	 3.142864409547143e+01	 4.071422381094481e+01	 1.000059848293974e+01
0	 3.142864409547142e+01	 4.142847853884781e+01	 1.000048302271716e+01
0	 3.142864409547143e+01	 4.214273393337328e+01	 1.000036119181655e+01
0	 3.142864409547142e+01	 4.285699007784908e+01	 1.000023654797177e+01
0	 3.214294394869491e+01	 3.571445238150556e+01	 1.000097034079366e+01
0	 3.214294394869492e+01	 3.642870477623360e+01	 1.000095730471942e+01
0	 3.214294394869491e+01	 3.714295725428858e+01	 1.000091948179298e+01
0	 3.214294394869491e+01	 3.785720989899838e+01	 1.000086087422942e+01
0	 3.214294394869492e+01	 3.857146279369100e+01	 1.000078548424719e+01
0	 3.214294394869491e+01	 3.928571602169432e+01	 1.000069731406813e+01
0	 3.214294394869491e+01	 3.999996966633629e+01	 1.000060036591751e+01
0	 3.214294394869491e+01	 4.071422381094480e+01	 1.000049864202397e+01
0	 3.214294394869491e+01	 4.142847853884783e+01	 1.000039614461953e+01
0	 3.214294394869491e+01	 4.214273393337326e+01	 1.000029687593964e+01
0	 3.214294394869491e+01	 4.285699007784907e+01	 1.000020483822310e+01
0	 3.285724463525451e+01	 3.571445238150555e+01	 1.000099990230919e+01
0	 3.285724463525450e+01	 3.642870477623359e+01	 1.000094210720716e+01
0	 3.285724463525452e+01	 3.714295725428858e+01	 1.000086801648658e+01
0	 3.285724463525450e+01	 3.785720989899840e+01	 1.000078171802861e+01
0	 3.285724463525450e+01	 3.857146279369100e+01	 1.000068729971152e+01
0	 3.285724463525451e+01	 3.928571602169433e+01	 1.000058884941075e+01
0	 3.285724463525451e+01	 3.999996966633628e+01	 1.000049045499885e+01
0	 3.285724463525451e+01	 4.071422381094482e+01	 1.000039620434557e+01
0	 3.285724463525451e+01	 4.142847853884782e+01	 1.000031018531777e+01
0	 3.285724463525451e+01	 4.214273393337327e+01	 1.000023648577946e+01
0	 3.285724463525451e+01	 4.285699007784908e+01	 1.000017919359182e+01
0	 3.357154598848280e+01	 3.571445238150556e+01	 1.000101367767304e+01
0	 3.357154598848280e+01	 3.642870477623360e+01	 1.000091223147559e+01
0	 3.357154598848280e+01	 3.714295725428857e+01	 1.000080421257662e+01
0	 3.357154598848279e+01	 3.785720989899838e+01	 1.000069343564314e+01
0	 3.357154598848279e+01	 3.857146279369100e+01	 1.000058371533332e+01
0	 3.357154598848280e+01	 3.928571602169433e+01	 1.000047886629648e+01
0	 3.357154598848280e+01	 3.999996966633629e+01	 1.000038270317312e+01
0	 3.357154598848280e+01	 4.071422381094481e+01	 1.000029904059485e+01
0	 3.357154598848280e+01	 4.142847853884785e+01	 1.000023169318447e+01
0	 3.357154598848280e+01	 4.214273393337328e+01	 1.000018447555591e+01
0	 3.357154598848280e+01	 4.285699007784907e+01	 1.000016120231428e+01
0	 3.428584784171235e+01	 3.571445238150555e+01	 1.000100718216141e+01
0	 3.428584784171235e+01	 3.642870477623359e+01	 1.000086727340026e+01
0	 3.428584784171235e+01	 3.714295725428857e+01	 1.000073097469078e+01
0	 3.428584784171235e+01	 3.785720989899839e+01	 1.000060146860558e+01
0	 3.428584784171235e+01	 3.857146279369100e+01	 1.000048193770325e+01
0	 3.428584784171235e+01	 3.928571602169433e+01	 1.000037556452838e+01
0	 3.428584784171235e+01	 3.999996966633628e+01	 1.000028553161144e+01
0	 3.428584784171235e+01	 4.071422381094480e+01	 1.000021502146892e+01
0	 3.428584784171235e+01	 4.142847853884783e+01	 1.000016721660322e+01
0	 3.428584784171234e+01	 4.214273393337328e+01	 1.000014529950278e+01
0	 3.428584784171236e+01	 4.285699007784908e+01	 1.000015245264189e+01
0	 3.500015002827575e+01	 3.571445238150555e+01	 1.000097593103414e+01
0	 3.500015002827575e+01	 3.642870477623359e+01	 1.000080682883952e+01
0	 3.500015002827575e+01	 3.714295725428857e+01	 1.000065120744090e+01
0	 3.500015002827574e+01	 3.785720989899839e+01	 1.000051125843573e+01
0	 3.500015002827575e+01	 3.857146279369101e+01	 1.000038917340354e+01
0	 3.500015002827575e+01	 3.928571602169433e+01	 1.000028714390597e+01
0	 3.500015002827575e+01	 3.999996966633629e+01	 1.000020736148672e+01
0	 3.500015002827575e+01	 4.071422381094481e+01	 1.000015201767164e+01
0	 3.500015002827575e+01	 4.142847853884783e+01	 1.000012330396865e+01
0	 3.500015002827575e+01	 4.214273393337328e+01	 1.000012341186776e+01
0	 3.500015002827575e+01	 4.285699007784908e+01	 1.000015453284108e+01
0	 3.571445238150555e+01	 3.571445238150556e+01	 1.000091543953479e+01
0	 3.571445238150556e+01	 3.642870477623360e+01	 1.000073049363444e+01
0	 3.571445238150556e+01	 3.714295725428856e+01	 1.000056781542291e+01
0	 3.571445238150555e+01	 3.785720989899839e+01	 1.000042824664057e+01
0	 3.571445238150557e+01	 3.857146279369101e+01	 1.000031262900786e+01
0	 3.571445238150555e+01	 3.928571602169433e+01	 1.000022180422533e+01
0	 3.571445238150555e+01	 3.999996966633629e+01	 1.000015661397368e+01
0	 3.571445238150555e+01	 4.071422381094481e+01	 1.000011789991371e+01
0	 3.571445238150555e+01	 4.142847853884783e+01	 1.000010650368629e+01
0	 3.571445238150555e+01	 4.214273393337327e+01	 1.000012326691247e+01
0	 3.571445238150556e+01	 4.285699007784908e+01	 1.000016903119335e+01
0	 2.857145634928704e+01	 4.285699007784908e+01	 1.000039227394076e+01
0	 2.857145634928704e+01	 4.357129694500738e+01	 1.000021481796812e+01
0	 2.857145634928704e+01	 4.428560406221392e+01	 1.000007321966625e+01
0	 2.857145634928704e+01	 4.499991084612204e+01	 9.999968378701954e+00
0	 2.857145634928704e+01	 4.571421671338500e+01	 9.999901194962954e+00
0	 2.857145634928704e+01	 4.642852108065615e+01	 9.999872568557809e+00
0	 2.857145634928703e+01	 4.714282336458874e+01	 9.999883399815955e+00
0	 2.857145634928704e+01	 4.785712298183613e+01	 9.999934589287623e+00
0	 2.857145634928704e+01	 4.857141934905160e+01	 1.000002703774404e+01
0	 2.857145634928704e+01	 4.928571188288845e+01	 1.000016164617717e+01
0	 2.857145634928704e+01	 5.000000000000000e+01	 1.000033931580003e+01
0	 2.928575120249185e+01	 4.285699007784907e+01	 1.000035218578472e+01
0	 2.928575120249186e+01	 4.357129694500737e+01	 1.000017736931443e+01
0	 2.928575120249186e+01	 4.428560406221393e+01	 1.000004430090249e+01
0	 2.928575120249186e+01	 4.499991084612202e+01	 9.999951536725639e+00
0	 2.928575120249186e+01	 4.571421671338500e+01	 9.999897633180147e+00
0	 2.928575120249186e+01	 4.642852108065615e+01	 9.999881146881798e+00
0	 2.928575120249185e+01	 4.714282336458874e+01	 9.999900634665916e+00
0	 2.928575120249186e+01	 4.785712298183613e+01	 9.999954653587286e+00
0	 2.928575120249186e+01	 4.857141934905161e+01	 1.000004176092028e+01
0	 2.928575120249186e+01	 4.928571188288846e+01	 1.000016051415875e+01
0	 2.928575120249186e+01	 5.000000000000000e+01	 1.000030947101612e+01
0	 3.000004755570247e+01	 4.285699007784908e+01	 1.000031180995130e+01
0	 3.000004755570248e+01	 4.357129694500736e+01	 1.000015177067722e+01
0	 3.000004755570247e+01	 4.428560406221392e+01	 1.000003476782336e+01
0	 3.000004755570247e+01	 4.499991084612203e+01	 9.999957481818234e+00
0	 3.000004755570248e+01	 4.571421671338500e+01	 9.999916593291641e+00
0	 3.000004755570247e+01	 4.642852108065615e+01	 9.999908783074805e+00
0	 3.000004755570247e+01	 4.714282336458875e+01	 9.999930732200189e+00
0	 3.000004755570248e+01	 4.785712298183612e+01	 9.999979121901697e+00
0	 3.000004755570248e+01	 4.857141934905160e+01	 1.000005063361448e+01
0	 3.000004755570247e+01	 4.928571188288844e+01	 1.000014194897508e+01
0	 3.000004755570248e+01	 4.999999999999999e+01	 1.000024974982151e+01
0	 3.071434524225147e+01	 4.285699007784906e+01	 1.000027273461659e+01
0	 3.071434524225148e+01	 4.357129694500737e+01	 1.000013675112297e+01
0	 3.071434524225148e+01	 4.428560406221393e+01	 1.000004127640920e+01
0	 3.071434524225148e+01	 4.499991084612203e+01	 9.999981582888342e+00
0	 3.071434524225148e+01	 4.571421671338500e+01	 9.999952943143596e+00
0	 3.071434524225148e+01	 4.642852108065614e+01	 9.999950629928376e+00
0	 3.071434524225147e+01	 4.714282336458874e+01	 9.999969916166283e+00
0	 3.071434524225148e+01	 4.785712298183613e+01	 1.000000607495103e+01
0	 3.071434524225148e+01	 4.857141934905160e+01	 1.000005437954657e+01
0	 3.071434524225148e+01	 4.928571188288846e+01	 1.000011010338704e+01
0	 3.071434524225148e+01	 5.000000000000000e+01	 1.000016852007672e+01
0	 3.142864409547142e+01	 4.285699007784908e+01	 1.000023654797177e+01
0	 3.142864409547142e+01	 4.357129694500738e+01	 1.000013103973227e+01
0	 3.142864409547143e+01	 4.428560406221393e+01	 1.000006048265185e+01
0	 3.142864409547142e+01	 4.499991084612203e+01	 1.000001920885252e+01
0	 3.142864409547142e+01	 4.571421671338500e+01	 1.000000155058619e+01
0	 3.142864409547143e+01	 4.642852108065613e+01	 1.000000184023466e+01
0	 3.142864409547143e+01	 4.714282336458875e+01	 1.000001441030959e+01
0	 3.142864409547142e+01	 4.785712298183613e+01	 1.000003359345246e+01
0	 3.142864409547142e+01	 4.857141934905159e+01	 1.000005372243480e+01
0	 3.142864409547142e+01	 4.928571188288846e+01	 1.000006913015789e+01
0	 3.142864409547142e+01	 4.999999999999999e+01	 1.000007414965292e+01
0	 3.214294394869491e+01	 4.285699007784907e+01	 1.000020483822311e+01
0	 3.214294394869491e+01	 4.357129694500737e+01	 1.000013336559980e+01
0	 3.214294394869491e+01	 4.428560406221393e+01	 1.000008904255463e+01
0	 3.214294394869491e+01	 4.499991084612203e+01	 1.000006572863525e+01
0	 3.214294394869491e+01	 4.571421671338501e+01	 1.000005728347367e+01
0	 3.214294394869492e+01	 4.642852108065613e+01	 1.000005756678619e+01
0	 3.214294394869491e+01	 4.714282336458875e+01	 1.000006043837338e+01
0	 3.214294394869491e+01	 4.785712298183613e+01	 1.000005975812017e+01
0	 3.214294394869491e+01	 4.857141934905160e+01	 1.000004938599573e+01
0	 3.214294394869491e+01	 4.928571188288846e+01	 1.000002318205363e+01
0	 3.214294394869492e+01	 5.000000000000000e+01	 9.999975006431768e+00
0	 3.285724463525451e+01	 4.285699007784908e+01	 1.000017919359182e+01
0	 3.285724463525451e+01	 4.357129694500737e+01	 1.000014245783432e+01
0	 3.285724463525450e+01	 4.428560406221391e+01	 1.000012361213239e+01
0	 3.285724463525450e+01	 4.499991084612203e+01	 1.000011651116897e+01
0	 3.285724463525451e+01	 4.571421671338500e+01	 1.000011500966432e+01
0	 3.285724463525451e+01	 4.642852108065614e+01	 1.000011296237602e+01
0	 3.285724463525451e+01	 4.714282336458874e+01	 1.000010422409891e+01
0	 3.285724463525450e+01	 4.785712298183613e+01	 1.000008264966518e+01
0	 3.285724463525450e+01	 4.857141934905159e+01	 1.000004209394431e+01
0	 3.285724463525451e+01	 4.928571188288845e+01	 9.999976411843022e+00
0	 3.285724463525451e+01	 4.999999999999999e+01	 9.999879458305418e+00
0	 3.357154598848280e+01	 4.285699007784907e+01	 1.000016120231428e+01
0	 3.357154598848280e+01	 4.357129694500738e+01	 1.000015704555871e+01
0	 3.357154598848280e+01	 4.428560406221391e+01	 1.000016084741148e+01
0	 3.357154598848280e+01	 4.499991084612202e+01	 1.000016692539402e+01
0	 3.357154598848280e+01	 4.571421671338501e+01	 1.000016959702047e+01
0	 3.357154598848279e+01	 4.642852108065612e+01	 1.000016317979770e+01
0	 3.357154598848280e+01	 4.714282336458875e+01	 1.000014199122533e+01
0	 3.357154598848278e+01	 4.785712298183611e+01	 1.000010034879568e+01
0	 3.357154598848280e+01	 4.857141934905160e+01	 1.000003256999373e+01
0	 3.357154598848280e+01	 4.928571188288846e+01	 9.999932972297351e+00
0	 3.357154598848280e+01	 5.000000000000000e+01	 9.999795873176941e+00
0	 3.428584784171236e+01	 4.285699007784908e+01	 1.000015245264189e+01
0	 3.428584784171235e+01	 4.357129694500737e+01	 1.000017585790996e+01
0	 3.428584784171234e+01	 4.428560406221391e+01	 1.000019740442979e+01
0	 3.428584784171235e+01	 4.499991084612203e+01	 1.000021234025871e+01
0	 3.428584784171235e+01	 4.571421671338499e+01	 1.000021591340846e+01
0	 3.428584784171235e+01	 4.642852108065614e+01	 1.000020337184525e+01
0	 3.428584784171235e+01	 4.714282336458875e+01	 1.000016996348965e+01
0	 3.428584784171235e+01	 4.785712298183614e+01	 1.000011093621666e+01
0	 3.428584784171235e+01	 4.857141934905160e+01	 1.000002153785571e+01
0	 3.428584784171235e+01	 4.928571188288846e+01	 9.999897016190580e+00
0	 3.428584784171235e+01	 4.999999999999999e+01	 9.999732618959584e+00
0	 3.500015002827575e+01	 4.285699007784908e+01	 1.000015453284109e+01
0	 3.500015002827575e+01	 4.357129694500737e+01	 1.000019762403912e+01
0	 3.500015002827575e+01	 4.428560406221392e+01	 1.000022993923665e+01
0	 3.500015002827575e+01	 4.499991084612203e+01	 1.000024812471927e+01
0	 3.500015002827575e+01	 4.571421671338499e+01	 1.000024882669877e+01
0	 3.500015002827575e+01	 4.642852108065614e+01	 1.000022869131320e+01
0	 3.500015002827575e+01	 4.714282336458875e+01	 1.000018436462686e+01
0	 3.500015002827575e+01	 4.785712298183614e+01	 1.000011249263023e+01
0	 3.500015002827574e+01	 4.857141934905159e+01	 1.000000972124005e+01
0	 3.500015002827575e+01	 4.928571188288846e+01	 9.999872696299379e+00
0	 3.500015002827575e+01	 5.000000000000001e+01	 9.999698063577320e+00
0	 3.571445238150556e+01	 4.285699007784908e+01	 1.000016903119335e+01
0	 3.571445238150555e+01	 4.357129694500737e+01	 1.000022107311134e+01
0	 3.571445238150556e+01	 4.428560406221391e+01	 1.000025510789297e+01
0	 3.571445238150556e+01	 4.499991084612203e+01	 1.000026964773989e+01
0	 3.571445238150556e+01	 4.571421671338500e+01	 1.000026320476583e+01
0	 3.571445238150556e+01	 4.642852108065614e+01	 1.000023429099654e+01
0	 3.571445238150556e+01	 4.714282336458874e+01	 1.000018141836978e+01
0	 3.571445238150555e+01	 4.785712298183612e+01	 1.000010309873540e+01
0	 3.571445238150555e+01	 4.857141934905161e+01	 9.999997843855173e+00
0	 3.571445238150555e+01	 4.928571188288847e+01	 9.999864165402968e+00
0	 3.571445238150555e+01	 5.000000000000000e+01	 9.999700574964699e+00
0	 3.571445238150555e+01	 0.000000000000000e+00	 9.998531846561569e+00
0	 3.571445238150555e+01	 7.142881171115513e-01	 9.999435322809720e+00
0	 3.571445238150556e+01	 1.428580650948409e+00	 1.000029404981852e+01
0	 3.571445238150555e+01	 2.142877018163878e+00	 1.000108190044098e+01
0	 3.571445238150556e+01	 2.857176635411264e+00	 1.000177274652999e+01
0	 3.571445238150555e+01	 3.571478919343873e+00	 1.000234045893836e+01
0	 3.571445238150556e+01	 4.285783286615009e+00	 1.000275890751888e+01
0	 3.571445238150555e+01	 5.000089153877976e+00	 1.000300196112436e+01
0	 3.571445238150555e+01	 5.714395937786081e+00	 1.000304348760767e+01
0	 3.571445238150555e+01	 6.428703054992629e+00	 1.000285735382175e+01
0	 3.571445238150555e+01	 7.143009922150927e+00	 1.000241742561963e+01
0	 3.642870477623359e+01	 0.000000000000000e+00	 9.998094075223445e+00
0	 3.642870477623360e+01	 7.142881171115514e-01	 9.999337027092889e+00
0	 3.642870477623360e+01	 1.428580650948409e+00	 1.000043037921781e+01
0	 3.642870477623360e+01	 2.142877018163879e+00	 1.000136074036240e+01
0	 3.642870477623360e+01	 2.857176635411264e+00	 1.000211471814270e+01
0	 3.642870477623360e+01	 3.571478919343873e+00	 1.000267891902659e+01
0	 3.642870477623360e+01	 4.285783286615009e+00	 1.000303994833391e+01
0	 3.642870477623359e+01	 5.000089153877975e+00	 1.000318441023651e+01
0	 3.642870477623360e+01	 5.714395937786082e+00	 1.000309890775824e+01
0	 3.642870477623360e+01	 6.428703054992630e+00	 1.000277004277502e+01
0	 3.642870477623362e+01	 7.143009922150928e+00	 1.000218441601483e+01
0	 3.714295725428858e+01	 0.000000000000000e+00	 9.998043289033896e+00
0	 3.714295725428858e+01	 7.142881171115513e-01	 9.999411084856014e+00
0	 3.714295725428857e+01	 1.428580650948410e+00	 1.000056763060481e+01
0	 3.714295725428856e+01	 2.142877018163878e+00	 1.000151021786270e+01
0	 3.714295725428856e+01	 2.857176635411264e+00	 1.000223613706991e+01
0	 3.714295725428858e+01	 3.571478919343872e+00	 1.000274267752455e+01
0	 3.714295725428859e+01	 4.285783286615009e+00	 1.000302712738269e+01
0	 3.714295725428856e+01	 5.000089153877974e+00	 1.000308677365844e+01
0	 3.714295725428858e+01	 5.714395937786080e+00	 1.000291890222388e+01
0	 3.714295725428857e+01	 6.428703054992629e+00	 1.000252079780923e+01
0	 3.714295725428855e+01	 7.143009922150926e+00	 1.000188974400273e+01
0	 3.785720989899839e+01	 0.000000000000000e+00	 9.998293270804718e+00
0	 3.785720989899838e+01	 7.142881171115513e-01	 9.999610719309315e+00
0	 3.785720989899839e+01	 1.428580650948409e+00	 1.000069201833681e+01
0	 3.785720989899841e+01	 2.142877018163878e+00	 1.000154308938472e+01
0	 3.785720989899840e+01	 2.857176635411264e+00	 1.000216985293687e+01
0	 3.785720989899839e+01	 3.571478919343872e+00	 1.000257822846343e+01
0	 3.785720989899840e+01	 4.285783286615009e+00	 1.000277413442099e+01
0	 3.785720989899841e+01	 5.000089153877976e+00	 1.000276348825259e+01
0	 3.785720989899841e+01	 5.714395937786081e+00	 1.000255220638774e+01
0	 3.785720989899841e+01	 6.428703054992631e+00	 1.000214620424250e+01
0	 3.785720989899840e+01	 7.143009922150927e+00	 1.000155139621940e+01
0	 3.857146279369101e+01	 0.000000000000000e+00	 9.998757803377636e+00
0	 3.857146279369100e+01	 7.142881171115515e-01	 9.999889153707262e+00
0	 3.857146279369100e+01	 1.428580650948409e+00	 1.000078975682141e+01
0	 3.857146279369101e+01	 2.142877018163878e+00	 1.000147211142098e+01
0	 3.857146279369100e+01	 2.857176635411265e+00	 1.000194871541249e+01
0	 3.857146279369100e+01	 3.571478919343873e+00	 1.000223206590811e+01
0	 3.857146279369101e+01	 4.285783286615009e+00	 1.000233465922577e+01
0	 3.857146279369100e+01	 5.000089153877975e+00	 1.000226899088909e+01
0	 3.857146279369100e+01	 5.714395937786080e+00	 1.000204755562749e+01
0	 3.857146279369101e+01	 6.428703054992628e+00	 1.000168284737618e+01
0	 3.857146279369101e+01	 7.143009922150927e+00	 1.000118735927615e+01
0	 3.928571602169433e+01	 0.000000000000000e+00	 9.999350669624285e+00
0	 3.928571602169432e+01	 7.142881171115514e-01	 1.000019961134857e+01
0	 3.928571602169433e+01	 1.428580650948409e+00	 1.000084706051659e+01
0	 3.928571602169432e+01	 2.142877018163878e+00	 1.000131004051365e+01
0	 3.928571602169433e+01	 2.857176635411265e+00	 1.000160557420925e+01
0	 3.928571602169433e+01	 3.571478919343872e+00	 1.000175068395709e+01
0	 3.928571602169433e+01	 4.285783286615009e+00	 1.000176239159517e+01
0	 3.928571602169433e+01	 5.000089153877975e+00	 1.000165771844575e+01
0	 3.928571602169433e+01	 5.714395937786081e+00	 1.000145368531536e+01
0	 3.928571602169432e+01	 6.428703054992627e+00	 1.000116731249489e+01
0	 3.928571602169433e+01	 7.143009922150926e+00	 1.000081561975948e+01
0	 3.999996966633629e+01	 0.000000000000000e+00	 9.999985652446178e+00
0	 3.999996966633629e+01	 7.142881171115515e-01	 1.000049531557620e+01
0	 3.999996966633628e+01	 1.428580650948410e+00	 1.000085014393069e+01
0	 3.999996966633628e+01	 2.142877018163878e+00	 1.000106963325460e+01
0	 3.999996966633628e+01	 2.857176635411265e+00	 1.000117327908328e+01
0	 3.999996966633629e+01	 3.571478919343873e+00	 1.000118057674252e+01
0	 3.999996966633629e+01	 4.285783286615008e+00	 1.000111102134855e+01
0	 3.999996966633629e+01	 5.000089153877975e+00	 1.000098410780806e+01
0	 3.999996966633628e+01	 5.714395937786079e+00	 1.000081933081817e+01
0	 3.999996966633628e+01	 6.428703054992628e+00	 1.000063618486651e+01
0	 3.999996966633630e+01	 7.143009922150927e+00	 1.000045416423115e+01
0	 4.071422381094481e+01	 0.000000000000000e+00	 1.000057653477477e+01
0	 4.071422381094481e+01	 7.142881171115513e-01	 1.000072948977736e+01
0	 4.071422381094482e+01	 1.428580650948409e+00	 1.000078522162240e+01
0	 4.071422381094482e+01	 2.142877018163878e+00	 1.000076364628534e+01
0	 4.071422381094481e+01	 2.857176635411264e+00	 1.000068467983433e+01
0	 4.071422381094479e+01	 3.571478919343872e+00	 1.000056823843020e+01
0	 4.071422381094481e+01	 4.285783286615009e+00	 1.000043423832642e+01
0	 4.071422381094481e+01	 5.000089153877975e+00	 1.000030259586916e+01
0	 4.071422381094481e+01	 5.714395937786081e+00	 1.000019322749724e+01
0	 4.071422381094481e+01	 6.428703054992629e+00	 1.000012604974215e+01
0	 4.071422381094480e+01	 7.143009922150926e+00	 1.000012097922806e+01
0	 4.142847853884783e+01	 0.000000000000000e+00	 1.000103709957139e+01
0	 4.142847853884783e+01	 7.142881171115512e-01	 1.000085535738352e+01
0	 4.142847853884783e+01	 1.428580650948409e+00	 1.000063850820077e+01
0	 4.142847853884784e+01	 2.142877018163879e+00	 1.000040483629708e+01
0	 4.142847853884783e+01	 2.857176635411265e+00	 1.000017262630579e+01
0	 4.142847853884784e+01	 3.571478919343873e+00	 9.999960163219596e+00
0	 4.142847853884783e+01	 4.285783286615008e+00	 9.999785732390519e+00
0	 4.142847853884784e+01	 5.000089153877975e+00	 9.999667619529930e+00
0	 4.142847853884783e+01	 5.714395937786081e+00	 9.999624110708499e+00
0	 4.142847853884783e+01	 6.428703054992631e+00	 9.999673492356219e+00
0	 4.142847853884784e+01	 7.143009922150928e+00	 9.999834051262384e+00
0	 4.214273393337328e+01	 0.000000000000000e+00	 1.000128112982732e+01
0	 4.214273393337328e+01	 7.142881171115515e-01	 1.000082614187039e+01
0	 4.214273393337328e+01	 1.428580650948410e+00	 1.000039621832519e+01
0	 4.214273393337327e+01	 2.142877018163878e+00	 1.000000596003065e+01
0	 4.214273393337327e+01	 2.857176635411264e+00	 9.999669968384607e+00
0	 4.214273393337327e+01	 3.571478919343873e+00	 9.999402845343775e+00
0	 4.214273393337329e+01	 4.285783286615009e+00	 9.999219193423734e+00
0	 4.214273393337327e+01	 5.000089153877975e+00	 9.999133615698877e+00
0	 4.214273393337329e+01	 5.714395937786081e+00	 9.999160715802402e+00
0	 4.214273393337328e+01	 6.428703054992631e+00	 9.999315097926331e+00
0	 4.214273393337328e+01	 7.143009922150927e+00	 9.999611366821476e+00
0	 4.285699007784908e+01	 0.000000000000000e+00	 1.000122240856368e+01
0	 4.285699007784909e+01	 7.142881171115515e-01	 1.000059506675792e+01
0	 4.285699007784908e+01	 1.428580650948409e+00	 1.000004456670544e+01
0	 4.285699007784908e+01	 2.142877018163878e+00	 9.999579774276594e+00
0	 4.285699007784908e+01	 2.857176635411264e+00	 9.999209556001407e+00
0	 4.285699007784908e+01	 3.571478919343873e+00	 9.998942779069520e+00
0	 4.285699007784908e+01	 4.285783286615009e+00	 9.998788311330179e+00
0	 4.285699007784908e+01	 5.000089153877975e+00	 9.998755021292203e+00
0	 4.285699007784908e+01	 5.714395937786081e+00	 9.998851778123971e+00
0	 4.285699007784907e+01	 6.428703054992629e+00	 9.999087451653388e+00
0	 4.285699007784908e+01	 7.143009922150927e+00	 9.999470912367913e+00
0	 3.571445238150555e+01	 7.143009922150927e+00	 1.000241742561963e+01
0	 3.571445238150555e+01	 7.857266066626719e+00	 1.000186890422705e+01
0	 3.571445238150555e+01	 8.571521461152161e+00	 1.000138200160485e+01
0	 3.571445238150557e+01	 9.285776189055184e+00	 1.000096821975289e+01
0	 3.571445238150557e+01	 1.000003033366371e+01	 1.000063906058286e+01
0	 3.571445238150555e+01	 1.071428397830567e+01	 1.000040602591828e+01
0	 3.571445238150555e+01	 1.142853720630899e+01	 1.000028061749450e+01
0	 3.571445238150555e+01	 1.214279010100160e+01	 1.000027433695869e+01
0	 3.571445238150557e+01	 1.285704274571143e+01	 1.000039868586983e+01
0	 3.571445238150556e+01	 1.357129522376639e+01	 1.000066516569875e+01
0	 3.571445238150556e+01	 1.428554761849444e+01	 1.000108527782809e+01
0	 3.642870477623362e+01	 7.143009922150928e+00	 1.000218441601484e+01
0	 3.642870477623359e+01	 7.857266066626718e+00	 1.000151821655812e+01
0	 3.642870477623359e+01	 8.571521461152159e+00	 1.000095988183801e+01
0	 3.642870477623360e+01	 9.285776189055186e+00	 1.000051453505439e+01
0	 3.642870477623359e+01	 1.000003033366371e+01	 1.000018729931013e+01
0	 3.642870477623360e+01	 1.071428397830567e+01	 9.999983297611044e+00
0	 3.642870477623360e+01	 1.142853720630899e+01	 9.999907652865929e+00
0	 3.642870477623360e+01	 1.214279010100160e+01	 9.999965487886533e+00
0	 3.642870477623361e+01	 1.285704274571143e+01	 1.000016192538759e+01
0	 3.642870477623361e+01	 1.357129522376640e+01	 1.000050208798678e+01
0	 3.642870477623360e+01	 1.428554761849444e+01	 1.000099109820476e+01
0	 3.714295725428855e+01	 7.143009922150926e+00	 1.000188974400273e+01
0	 3.714295725428858e+01	 7.857266066626718e+00	 1.000120710578752e+01
0	 3.714295725428856e+01	 8.571521461152166e+00	 1.000065584570120e+01
0	 3.714295725428858e+01	 9.285776189055184e+00	 1.000023579990489e+01
0	 3.714295725428858e+01	 1.000003033366371e+01	 9.999946804465825e+00
0	 3.714295725428858e+01	 1.071428397830567e+01	 9.999788695357292e+00
0	 3.714295725428857e+01	 1.142853720630899e+01	 9.999761308458694e+00
0	 3.714295725428856e+01	 1.214279010100160e+01	 9.999864479555505e+00
0	 3.714295725428857e+01	 1.285704274571142e+01	 1.000009804433933e+01
0	 3.714295725428858e+01	 1.357129522376639e+01	 1.000046183840782e+01
0	 3.714295725428857e+01	 1.428554761849445e+01	 1.000095569726474e+01
0	 3.785720989899840e+01	 7.143009922150927e+00	 1.000155139621940e+01
0	 3.785720989899840e+01	 7.857266066626719e+00	 1.000093356118382e+01
0	 3.785720989899839e+01	 8.571521461152159e+00	 1.000045153333615e+01
0	 3.785720989899839e+01	 9.285776189055184e+00	 1.000010095357781e+01
0	 3.785720989899840e+01	 1.000003033366371e+01	 9.999877462728866e+00
0	 3.785720989899840e+01	 1.071428397830567e+01	 9.999776701528038e+00
0	 3.785720989899840e+01	 1.142853720630899e+01	 9.999794310632666e+00
0	 3.785720989899840e+01	 1.214279010100160e+01	 9.999925930618762e+00
0	 3.785720989899839e+01	 1.285704274571142e+01	 1.000016720198096e+01
0	 3.785720989899841e+01	 1.357129522376639e+01	 1.000051376513256e+01
0	 3.785720989899840e+01	 1.428554761849444e+01	 1.000096126040546e+01
0	 3.857146279369101e+01	 7.143009922150927e+00	 1.000118735927615e+01
0	 3.857146279369099e+01	 7.857266066626718e+00	 1.000069557198709e+01
0	 3.857146279369100e+01	 8.571521461152164e+00	 1.000032858485629e+01
0	 3.857146279369099e+01	 9.285776189055182e+00	 1.000007893532164e+01
0	 3.857146279369098e+01	 1.000003033366371e+01	 9.999939160759077e+00
0	 3.857146279369100e+01	 1.071428397830567e+01	 9.999901798482620e+00
0	 3.857146279369100e+01	 1.142853720630899e+01	 9.999959385744360e+00
0	 3.857146279369101e+01	 1.214279010100160e+01	 1.000010445973447e+01
0	 3.857146279369100e+01	 1.285704274571142e+01	 1.000032955758116e+01
0	 3.857146279369102e+01	 1.357129522376639e+01	 1.000062721635075e+01
0	 3.857146279369101e+01	 1.428554761849444e+01	 1.000098997304762e+01
0	 3.928571602169433e+01	 7.143009922150926e+00	 1.000081561975949e+01
0	 3.928571602169433e+01	 7.857266066626721e+00	 1.000049112740890e+01
0	 3.928571602169433e+01	 8.571521461152164e+00	 1.000026864034681e+01
0	 3.928571602169433e+01	 9.285776189055184e+00	 1.000013868436001e+01
0	 3.928571602169432e+01	 1.000003033366371e+01	 1.000009178519715e+01
0	 3.928571602169433e+01	 1.071428397830567e+01	 1.000011846856868e+01
0	 3.928571602169433e+01	 1.142853720630899e+01	 1.000020926014685e+01
0	 3.928571602169432e+01	 1.214279010100160e+01	 1.000035468556576e+01
0	 3.928571602169432e+01	 1.285704274571142e+01	 1.000054527042132e+01
0	 3.928571602169432e+01	 1.357129522376640e+01	 1.000077154027125e+01
0	 3.928571602169433e+01	 1.428554761849444e+01	 1.000102402063512e+01
0	 3.999996966633630e+01	 7.143009922150927e+00	 1.000045416423115e+01
0	 3.999996966633629e+01	 7.857266066626719e+00	 1.000031821663230e+01
0	 3.999996966633629e+01	 8.571521461152164e+00	 1.000025333986454e+01
0	 3.999996966633628e+01	 9.285776189055181e+00	 1.000024913989162e+01
0	 3.999996966633628e+01	 1.000003033366371e+01	 1.000029522266467e+01
0	 3.999996966633630e+01	 1.071428397830567e+01	 1.000038119412214e+01
0	 3.999996966633628e+01	 1.142853720630899e+01	 1.000049666018981e+01
0	 3.999996966633628e+01	 1.214279010100160e+01	 1.000063122678082e+01
0	 3.999996966633629e+01	 1.285704274571143e+01	 1.000077449979562e+01
0	 3.999996966633629e+01	 1.357129522376639e+01	 1.000091608512199e+01
0	 3.999996966633630e+01	 1.428554761849444e+01	 1.000104558863507e+01
0	 4.071422381094480e+01	 7.143009922150926e+00	 1.000012097922806e+01
0	 4.071422381094481e+01	 7.857266066626719e+00	 1.000017482881187e+01
0	 4.071422381094482e+01	 8.571521461152162e+00	 1.000026432343807e+01
0	 4.071422381094481e+01	 9.285776189055181e+00	 1.000037924109026e+01
0	 4.071422381094481e+01	 1.000003033366371e+01	 1.000050935976408e+01
0	 4.071422381094482e+01	 1.071428397830567e+01	 1.000064445746725e+01
0	 4.071422381094480e+01	 1.142853720630899e+01	 1.000077431221954e+01
0	 4.071422381094482e+01	 1.214279010100160e+01	 1.000088870205282e+01
0	 4.071422381094482e+01	 1.285704274571142e+01	 1.000097740501096e+01
0	 4.071422381094481e+01	 1.357129522376640e+01	 1.000103019914997e+01
0	 4.071422381094482e+01	 1.428554761849444e+01	 1.000103686253787e+01
0	 4.142847853884784e+01	 7.143009922150928e+00	 9.999834051262384e+00
0	 4.142847853884783e+01	 7.857266066626719e+00	 1.000005895307365e+01
0	 4.142847853884783e+01	 8.571521461152161e+00	 1.000028323106773e+01
0	 4.142847853884783e+01	 9.285776189055182e+00	 1.000049792710486e+01
0	 4.142847853884783e+01	 1.000003033366371e+01	 1.000069408307874e+01
0	 4.142847853884783e+01	 1.071428397830567e+01	 1.000086274091657e+01
0	 4.142847853884782e+01	 1.142853720630899e+01	 1.000099494257893e+01
0	 4.142847853884783e+01	 1.214279010100160e+01	 1.000108173005991e+01
0	 4.142847853884783e+01	 1.285704274571143e+01	 1.000111414538704e+01
0	 4.142847853884784e+01	 1.357129522376640e+01	 1.000108323062128e+01
0	 4.142847853884783e+01	 1.428554761849444e+01	 1.000098002785708e+01
0	 4.214273393337328e+01	 7.143009922150927e+00	 9.999611366821480e+00
0	 4.214273393337326e+01	 7.857266066626718e+00	 9.999968578515221e+00
0	 4.214273393337329e+01	 8.571521461152162e+00	 1.000029170272551e+01
0	 4.214273393337328e+01	 9.285776189055184e+00	 1.000057413705939e+01
0	 4.214273393337328e+01	 1.000003033366371e+01	 1.000080927917288e+01
0	 4.214273393337328e+01	 1.071428397830567e+01	 1.000099052677093e+01
0	 4.214273393337328e+01	 1.142853720630899e+01	 1.000111127760744e+01
0	 4.214273393337326e+01	 1.214279010100160e+01	 1.000116492948528e+01
0	 4.214273393337328e+01	 1.285704274571142e+01	 1.000114488025624e+01
0	 4.214273393337327e+01	 1.357129522376640e+01	 1.000104452782109e+01
0	 4.214273393337328e+01	 1.428554761849444e+01	 1.000085727012951e+01
0	 4.285699007784908e+01	 7.143009922150927e+00	 9.999470912367917e+00
0	 4.285699007784908e+01	 7.857266066626719e+00	 9.999901694205624e+00
0	 4.285699007784907e+01	 8.571521461152162e+00	 1.000027137835515e+01
0	 4.285699007784908e+01	 9.285776189055184e+00	 1.000057681005296e+01
0	 4.285699007784908e+01	 1.000003033366371e+01	 1.000081483459158e+01
0	 4.285699007784908e+01	 1.071428397830567e+01	 1.000098229731949e+01
0	 4.285699007784908e+01	 1.142853720630899e+01	 1.000107604364117e+01
0	 4.285699007784908e+01	 1.214279010100160e+01	 1.000109291901710e+01
0	 4.285699007784907e+01	 1.285704274571142e+01	 1.000102976896377e+01
0	 4.285699007784908e+01	 1.357129522376640e+01	 1.000088343905365e+01
0	 4.285699007784908e+01	 1.428554761849444e+01	 1.000065077491520e+01
0	 3.571445238150556e+01	 1.428554761849444e+01	 1.000108527782809e+01
0	 3.571445238150555e+01	 1.499984997172426e+01	 1.000155595186745e+01
0	 3.571445238150556e+01	 1.571415215828766e+01	 1.000196283723425e+01
0	 3.571445238150557e+01	 1.642845401151722e+01	 1.000230062001949e+01
0	 3.571445238150556e+01	 1.714275536474550e+01	 1.000256398617751e+01
0	 3.571445238150555e+01	 1.785705605130510e+01	 1.000274762152592e+01
0	 3.571445238150555e+01	 1.857135590452859e+01	 1.000284621174562e+01
0	 3.571445238150556e+01	 1.928565475774854e+01	 1.000285444238081e+01
0	 3.571445238150557e+01	 1.999995244429754e+01	 1.000276699883903e+01
0	 3.571445238150557e+01	 2.071424879750816e+01	 1.000257856639105e+01
0	 3.571445238150556e+01	 2.142854365071296e+01	 1.000228383017096e+01
0	 3.642870477623360e+01	 1.428554761849444e+01	 1.000099109820476e+01
0	 3.642870477623359e+01	 1.499984997172426e+01	 1.000151264592307e+01
0	 3.642870477623359e+01	 1.571415215828766e+01	 1.000194597600122e+01
0	 3.642870477623360e+01	 1.642845401151722e+01	 1.000228966193250e+01
0	 3.642870477623359e+01	 1.714275536474550e+01	 1.000254227706723e+01
0	 3.642870477623360e+01	 1.785705605130510e+01	 1.000270239461272e+01
0	 3.642870477623359e+01	 1.857135590452859e+01	 1.000276858763327e+01
0	 3.642870477623360e+01	 1.928565475774854e+01	 1.000273942905022e+01
0	 3.642870477623360e+01	 1.999995244429754e+01	 1.000261349164188e+01
0	 3.642870477623359e+01	 2.071424879750814e+01	 1.000238934804358e+01
0	 3.642870477623360e+01	 2.142854365071297e+01	 1.000206557074765e+01
0	 3.714295725428857e+01	 1.428554761849445e+01	 1.000095569726474e+01
0	 3.714295725428856e+01	 1.499984997172426e+01	 1.000146474635822e+01
0	 3.714295725428857e+01	 1.571415215828766e+01	 1.000187531040070e+01
0	 3.714295725428857e+01	 1.642845401151722e+01	 1.000218914098267e+01
0	 3.714295725428858e+01	 1.714275536474550e+01	 1.000240798956028e+01
0	 3.714295725428858e+01	 1.785705605130510e+01	 1.000253360745531e+01
0	 3.714295725428858e+01	 1.857135590452858e+01	 1.000256774585516e+01
0	 3.714295725428857e+01	 1.928565475774854e+01	 1.000251215581290e+01
0	 3.714295725428858e+01	 1.999995244429754e+01	 1.000236858824719e+01
0	 3.714295725428858e+01	 2.071424879750816e+01	 1.000213879394234e+01
0	 3.714295725428858e+01	 2.142854365071296e+01	 1.000182452354829e+01
0	 3.785720989899840e+01	 1.428554761849444e+01	 1.000096126040546e+01
0	 3.785720989899840e+01	 1.499984997172426e+01	 1.000140791285950e+01
0	 3.785720989899840e+01	 1.571415215828766e+01	 1.000175759817448e+01
0	 3.785720989899839e+01	 1.642845401151722e+01	 1.000201453673754e+01
0	 3.785720989899841e+01	 1.714275536474550e+01	 1.000218294882175e+01
0	 3.785720989899840e+01	 1.785705605130510e+01	 1.000226705458599e+01
0	 3.785720989899840e+01	 1.857135590452858e+01	 1.000227107407500e+01
0	 3.785720989899840e+01	 1.928565475774854e+01	 1.000219922721942e+01
0	 3.785720989899840e+01	 1.999995244429753e+01	 1.000205573383571e+01
0	 3.785720989899840e+01	 2.071424879750816e+01	 1.000184481362619e+01
0	 3.785720989899839e+01	 2.142854365071296e+01	 1.000157068617904e+01
0	 3.857146279369101e+01	 1.428554761849444e+01	 1.000098997304762e+01
0	 3.857146279369100e+01	 1.499984997172426e+01	 1.000133780513816e+01
0	 3.857146279369101e+01	 1.571415215828766e+01	 1.000159959708793e+01
0	 3.857146279369101e+01	 1.642845401151721e+01	 1.000178132878526e+01
0	 3.857146279369100e+01	 1.714275536474550e+01	 1.000188898003285e+01
0	 3.857146279369100e+01	 1.785705605130510e+01	 1.000192853054774e+01
0	 3.857146279369101e+01	 1.857135590452858e+01	 1.000190595996131e+01
0	 3.857146279369099e+01	 1.928565475774854e+01	 1.000182724781931e+01
0	 3.857146279369100e+01	 1.999995244429754e+01	 1.000169837358184e+01
0	 3.857146279369100e+01	 2.071424879750815e+01	 1.000152531662333e+01
0	 3.857146279369100e+01	 2.142854365071296e+01	 1.000131405623258e+01
0	 3.928571602169433e+01	 1.428554761849444e+01	 1.000102402063512e+01
0	 3.928571602169431e+01	 1.499984997172426e+01	 1.000125008293004e+01
0	 3.928571602169433e+01	 1.571415215828766e+01	 1.000140806493002e+01
0	 3.928571602169433e+01	 1.642845401151722e+01	 1.000150499673456e+01
0	 3.928571602169431e+01	 1.714275536474550e+01	 1.000154790839094e+01
0	 3.928571602169432e+01	 1.785705605130509e+01	 1.000154382989427e+01
0	 3.928571602169432e+01	 1.857135590452858e+01	 1.000149979118743e+01
0	 3.928571602169433e+01	 1.928565475774854e+01	 1.000142282216105e+01
0	 3.928571602169433e+01	 1.999995244429753e+01	 1.000131995265360e+01
0	 3.928571602169433e+01	 2.071424879750816e+01	 1.000119821245130e+01
0	 3.928571602169432e+01	 2.142854365071296e+01	 1.000106463128815e+01
0	 3.999996966633630e+01	 1.428554761849444e+01	 1.000104558863507e+01
0	 3.999996966633629e+01	 1.499984997172427e+01	 1.000114040599566e+01
0	 3.999996966633628e+01	 1.571415215828766e+01	 1.000118975951329e+01
0	 3.999996966633630e+01	 1.642845401151722e+01	 1.000120102021471e+01
0	 3.999996966633629e+01	 1.714275536474550e+01	 1.000118155910948e+01
0	 3.999996966633628e+01	 1.785705605130510e+01	 1.000113874719001e+01
0	 3.999996966633628e+01	 1.857135590452858e+01	 1.000107995543152e+01
0	 3.999996966633628e+01	 1.928565475774854e+01	 1.000101255479210e+01
0	 3.999996966633628e+01	 1.999995244429753e+01	 1.000094391621265e+01
0	 3.999996966633629e+01	 2.071424879750816e+01	 1.000088141061693e+01
0	 3.999996966633628e+01	 2.142854365071296e+01	 1.000083240891149e+01
0	 4.071422381094482e+01	 1.428554761849444e+01	 1.000103686253787e+01
0	 4.071422381094480e+01	 1.499984997172426e+01	 1.000100443412015e+01
0	 4.071422381094482e+01	 1.571415215828767e+01	 1.000095143867391e+01
0	 4.071422381094481e+01	 1.642845401151721e+01	 1.000088487887567e+01
0	 4.071422381094481e+01	 1.714275536474550e+01	 1.000081175741810e+01
0	 4.071422381094482e+01	 1.785705605130510e+01	 1.000073907701006e+01
0	 4.071422381094482e+01	 1.857135590452859e+01	 1.000067384037659e+01
0	 4.071422381094481e+01	 1.928565475774854e+01	 1.000062305025887e+01
0	 4.071422381094482e+01	 1.999995244429754e+01	 1.000059370941430e+01
0	 4.071422381094482e+01	 2.071424879750816e+01	 1.000059282061641e+01
0	 4.071422381094481e+01	 2.142854365071296e+01	 1.000062738665493e+01
0	 4.142847853884783e+01	 1.428554761849444e+01	 1.000098002785708e+01
0	 4.142847853884783e+01	 1.499984997172426e+01	 1.000083782711327e+01
0	 4.142847853884783e+01	 1.571415215828766e+01	 1.000069986027158e+01
0	 4.142847853884783e+01	 1.642845401151722e+01	 1.000057205238789e+01
0	 4.142847853884783e+01	 1.714275536474550e+01	 1.000046032856251e+01
0	 4.142847853884784e+01	 1.785705605130509e+01	 1.000037061394027e+01
0	 4.142847853884784e+01	 1.857135590452858e+01	 1.000030883371043e+01
0	 4.142847853884783e+01	 1.928565475774854e+01	 1.000028091310675e+01
0	 4.142847853884784e+01	 1.999995244429754e+01	 1.000029277740745e+01
0	 4.142847853884783e+01	 2.071424879750816e+01	 1.000035035193525e+01
0	 4.142847853884782e+01	 2.142854365071296e+01	 1.000045956205731e+01
0	 4.214273393337328e+01	 1.428554761849444e+01	 1.000085727012951e+01
0	 4.214273393337327e+01	 1.499984997172426e+01	 1.000063624480942e+01
0	 4.214273393337328e+01	 1.571415215828766e+01	 1.000044178218964e+01
0	 4.214273393337328e+01	 1.642845401151721e+01	 1.000027802044247e+01
0	 4.214273393337329e+01	 1.714275536474550e+01	 1.000014909780461e+01
0	 4.214273393337327e+01	 1.785705605130510e+01	 1.000005915257717e+01
0	 4.214273393337327e+01	 1.857135590452858e+01	 1.000001232312568e+01
0	 4.214273393337328e+01	 1.928565475774854e+01	 1.000001274788008e+01
0	 4.214273393337328e+01	 1.999995244429753e+01	 1.000006456533470e+01
0	 4.214273393337327e+01	 2.071424879750816e+01	 1.000017191404829e+01
0	 4.214273393337327e+01	 2.142854365071296e+01	 1.000033893264404e+01
0	 4.285699007784908e+01	 1.428554761849444e+01	 1.000065077491520e+01
0	 4.285699007784907e+01	 1.499984997172426e+01	 1.000039534706766e+01
0	 4.285699007784906e+01	 1.571415215828766e+01	 1.000018396233501e+01
0	 4.285699007784907e+01	 1.642845401151721e+01	 1.000001826275108e+01
0	 4.285699007784908e+01	 1.714275536474550e+01	 9.999899890422364e+00
0	 4.285699007784907e+01	 1.785705605130510e+01	 9.999830487528008e+00
0	 4.285699007784908e+01	 1.857135590452858e+01	 9.999811696319799e+00
0	 4.285699007784908e+01	 1.928565475774854e+01	 9.999845159122176e+00
0	 4.285699007784908e+01	 1.999995244429753e+01	 9.999932518332221e+00
0	 4.285699007784907e+01	 2.071424879750816e+01	 1.000007541641970e+01
0	 4.285699007784908e+01	 2.142854365071297e+01	 1.000027549592700e+01
0	 3.571445238150556e+01	 2.142854365071296e+01	 1.000228383017096e+01
0	 3.571445238150555e+01	 2.214283692057824e+01	 1.000195259572389e+01
0	 3.571445238150556e+01	 2.285712885710494e+01	 1.000165996750671e+01
0	 3.571445238150555e+01	 2.357141979362770e+01	 1.000140857881383e+01
0	 3.571445238150556e+01	 2.428571006348118e+01	 1.000120106279979e+01
0	 3.571445238150555e+01	 2.500000000000000e+01	 1.000104005247930e+01
0	 3.571445238150556e+01	 2.571428993651884e+01	 1.000092818072722e+01
0	 3.571445238150556e+01	 2.642858020637231e+01	 1.000086808027855e+01
0	 3.571445238150555e+01	 2.714287114289507e+01	 1.000086238372845e+01
0	 3.571445238150556e+01	 2.785716307942177e+01	 1.000091372353225e+01
0	 3.571445238150555e+01	 2.857145634928703e+01	 1.000102473200540e+01
0	 3.642870477623360e+01	 2.142854365071297e+01	 1.000206557074765e+01
0	 3.642870477623360e+01	 2.214283692057824e+01	 1.000171815590280e+01
0	 3.642870477623360e+01	 2.285712885710494e+01	 1.000142410225820e+01
0	 3.642870477623361e+01	 2.357141979362770e+01	 1.000118348598994e+01
0	 3.642870477623360e+01	 2.428571006348118e+01	 1.000099638312795e+01
0	 3.642870477623360e+01	 2.500000000000000e+01	 1.000086286955598e+01
0	 3.642870477623359e+01	 2.571428993651883e+01	 1.000078302101162e+01
0	 3.642870477623360e+01	 2.642858020637231e+01	 1.000075691308626e+01
0	 3.642870477623360e+01	 2.714287114289507e+01	 1.000078462122516e+01
0	 3.642870477623360e+01	 2.785716307942177e+01	 1.000086622072735e+01
0	 3.642870477623360e+01	 2.857145634928704e+01	 1.000100178674574e+01
0	 3.714295725428858e+01	 2.142854365071296e+01	 1.000182452354829e+01
0	 3.714295725428858e+01	 2.214283692057824e+01	 1.000149885616429e+01
0	 3.714295725428857e+01	 2.285712885710494e+01	 1.000123237723736e+01
0	 3.714295725428858e+01	 2.357141979362769e+01	 1.000102309673768e+01
0	 3.714295725428857e+01	 2.428571006348118e+01	 1.000086902450126e+01
0	 3.714295725428857e+01	 2.500000000000001e+01	 1.000076817022991e+01
0	 3.714295725428857e+01	 2.571428993651883e+01	 1.000071854349124e+01
0	 3.714295725428858e+01	 2.642858020637231e+01	 1.000071815371868e+01
0	 3.714295725428858e+01	 2.714287114289507e+01	 1.000076501021146e+01
0	 3.714295725428858e+01	 2.785716307942177e+01	 1.000085712213459e+01
0	 3.714295725428857e+01	 2.857145634928703e+01	 1.000099249851892e+01
0	 3.785720989899839e+01	 2.142854365071296e+01	 1.000157068617904e+01
0	 3.785720989899839e+01	 2.214283692057824e+01	 1.000129634445032e+01
0	 3.785720989899840e+01	 2.285712885710493e+01	 1.000107959157776e+01
0	 3.785720989899840e+01	 2.357141979362770e+01	 1.000091686225549e+01
0	 3.785720989899839e+01	 2.428571006348117e+01	 1.000080459106945e+01
0	 3.785720989899841e+01	 2.500000000000001e+01	 1.000073921249754e+01
0	 3.785720989899838e+01	 2.571428993651883e+01	 1.000071716090948e+01
0	 3.785720989899840e+01	 2.642858020637231e+01	 1.000073487056693e+01
0	 3.785720989899841e+01	 2.714287114289509e+01	 1.000078877562345e+01
0	 3.785720989899840e+01	 2.785716307942177e+01	 1.000087531012444e+01
0	 3.785720989899839e+01	 2.857145634928704e+01	 1.000099090800724e+01
0	 3.857146279369100e+01	 2.142854365071296e+01	 1.000131405623258e+01
0	 3.857146279369100e+01	 2.214283692057824e+01	 1.000111226868847e+01
0	 3.857146279369100e+01	 2.285712885710494e+01	 1.000096054439944e+01
0	 3.857146279369102e+01	 2.357141979362770e+01	 1.000085423373032e+01
0	 3.857146279369102e+01	 2.428571006348118e+01	 1.000078868697383e+01
0	 3.857146279369100e+01	 2.500000000000000e+01	 1.000075925435056e+01
0	 3.857146279369101e+01	 2.571428993651885e+01	 1.000076128600897e+01
0	 3.857146279369100e+01	 2.642858020637232e+01	 1.000079013202540e+01
0	 3.857146279369101e+01	 2.714287114289507e+01	 1.000084114240407e+01
0	 3.857146279369100e+01	 2.785716307942177e+01	 1.000090966707707e+01
0	 3.857146279369101e+01	 2.857145634928704e+01	 1.000099105590440e+01
0	 3.928571602169432e+01	 2.142854365071296e+01	 1.000106463128815e+01
0	 3.928571602169433e+01	 2.214283692057824e+01	 1.000094827679199e+01
0	 3.928571602169432e+01	 2.285712885710494e+01	 1.000087003480875e+01
0	 3.928571602169432e+01	 2.357141979362771e+01	 1.000082466233760e+01
0	 3.928571602169432e+01	 2.428571006348117e+01	 1.000080691634725e+01
0	 3.928571602169433e+01	 2.500000000000001e+01	 1.000081155377598e+01
0	 3.928571602169432e+01	 2.571428993651883e+01	 1.000083333153167e+01
0	 3.928571602169432e+01	 2.642858020637231e+01	 1.000086700649172e+01
0	 3.928571602169433e+01	 2.714287114289508e+01	 1.000090733550310e+01
0	 3.928571602169433e+01	 2.785716307942177e+01	 1.000094907538237e+01
0	 3.928571602169433e+01	 2.857145634928704e+01	 1.000098698291562e+01
0	 3.999996966633628e+01	 2.142854365071296e+01	 1.000083240891149e+01
0	 3.999996966633629e+01	 2.214283692057824e+01	 1.000080601665973e+01
0	 3.999996966633628e+01	 2.285712885710493e+01	 1.000080286189850e+01
0	 3.999996966633628e+01	 2.357141979362770e+01	 1.000081759924121e+01
0	 3.999996966633629e+01	 2.428571006348117e+01	 1.000084488331409e+01
0	 3.999996966633629e+01	 2.500000000000001e+01	 1.000087936875607e+01
0	 3.999996966633630e+01	 2.571428993651884e+01	 1.000091571021883e+01
0	 3.999996966633628e+01	 2.642858020637231e+01	 1.000094856236679e+01
0	 3.999996966633630e+01	 2.714287114289509e+01	 1.000097257987717e+01
0	 3.999996966633629e+01	 2.785716307942177e+01	 1.000098241743987e+01
0	 3.999996966633628e+01	 2.857145634928704e+01	 1.000097272975759e+01
0	 4.071422381094481e+01	 2.142854365071296e+01	 1.000062738665493e+01
0	 4.071422381094480e+01	 2.214283692057824e+01	 1.000068713617620e+01
0	 4.071422381094482e+01	 2.285712885710494e+01	 1.000075382474783e+01
0	 4.071422381094480e+01	 2.357141979362770e+01	 1.000082249559357e+01
0	 4.071422381094480e+01	 2.428571006348118e+01	 1.000088819199035e+01
0	 4.071422381094480e+01	 2.500000000000001e+01	 1.000094595726834e+01
0	 4.071422381094480e+01	 2.571428993651884e+01	 1.000099083481095e+01
0	 4.071422381094482e+01	 2.642858020637231e+01	 1.000101786805480e+01
0	 4.071422381094482e+01	 2.714287114289507e+01	 1.000102210048974e+01
0	 4.071422381094480e+01	 2.785716307942177e+01	 1.000099857565883e+01
0	 4.071422381094482e+01	 2.857145634928704e+01	 1.000094233715839e+01
0	 4.142847853884782e+01	 2.142854365071296e+01	 1.000045956205731e+01
0	 4.142847853884783e+01	 2.214283692057824e+01	 1.000059328321149e+01
0	 4.142847853884783e+01	 2.285712885710494e+01	 1.000071772242234e+01
0	 4.142847853884783e+01	 2.357141979362770e+01	 1.000082880253552e+01
0	 4.142847853884784e+01	 2.428571006348118e+01	 1.000092244648354e+01
0	 4.142847853884783e+01	 2.500000000000000e+01	 1.000099457728565e+01
0	 4.142847853884784e+01	 2.571428993651885e+01	 1.000104111804790e+01
0	 4.142847853884783e+01	 2.642858020637231e+01	 1.000105799196318e+01
0	 4.142847853884783e+01	 2.714287114289507e+01	 1.000104112231113e+01
0	 4.142847853884783e+01	 2.785716307942177e+01	 1.000098643245819e+01
0	 4.142847853884782e+01	 2.857145634928703e+01	 1.000088984585763e+01
0	 4.214273393337327e+01	 2.142854365071296e+01	 1.000033893264404e+01
0	 4.214273393337328e+01	 2.214283692057824e+01	 1.000052610562137e+01
0	 4.214273393337327e+01	 2.285712885710494e+01	 1.000068935397395e+01
0	 4.214273393337328e+01	 2.357141979362770e+01	 1.000082597119644e+01
0	 4.214273393337328e+01	 2.428571006348118e+01	 1.000093325089275e+01
0	 4.214273393337328e+01	 2.500000000000000e+01	 1.000100848677606e+01
0	 4.214273393337328e+01	 2.571428993651884e+01	 1.000104897266878e+01
0	 4.214273393337329e+01	 2.642858020637231e+01	 1.000105200250261e+01
0	 4.214273393337327e+01	 2.714287114289507e+01	 1.000101487031848e+01
0	 4.214273393337329e+01	 2.785716307942178e+01	 1.000093487026658e+01
0	 4.214273393337328e+01	 2.857145634928704e+01	 1.000080929660637e+01
0	 4.285699007784908e+01	 2.142854365071297e+01	 1.000027549592700e+01
0	 4.285699007784907e+01	 2.214283692057824e+01	 1.000048725124721e+01
0	 4.285699007784908e+01	 2.285712885710493e+01	 1.000066351844104e+01
0	 4.285699007784908e+01	 2.357141979362770e+01	 1.000080345269415e+01
0	 4.285699007784908e+01	 2.428571006348117e+01	 1.000090620930863e+01
0	 4.285699007784908e+01	 2.500000000000001e+01	 1.000097094370297e+01
0	 4.285699007784907e+01	 2.571428993651883e+01	 1.000099681141201e+01
0	 4.285699007784907e+01	 2.642858020637231e+01	 1.000098296808706e+01
0	 4.285699007784906e+01	 2.714287114289507e+01	 1.000092856949580e+01
0	 4.285699007784908e+01	 2.785716307942178e+01	 1.000083277152232e+01
0	 4.285699007784907e+01	 2.857145634928704e+01	 1.000069473016709e+01
0	 3.571445238150555e+01	 2.857145634928703e+01	 1.000102473200540e+01
0	 3.571445238150555e+01	 2.928575120249185e+01	 1.000115408817323e+01
0	 3.571445238150555e+01	 3.000004755570247e+01	 1.000125742703208e+01
0	 3.571445238150556e+01	 3.071434524225148e+01	 1.000133281471086e+01
0	 3.571445238150556e+01	 3.142864409547142e+01	 1.000137831728745e+01
0	 3.571445238150556e+01	 3.214294394869491e+01	 1.000139200078873e+01
0	 3.571445238150555e+01	 3.285724463525451e+01	 1.000137193119053e+01
0	 3.571445238150555e+01	 3.357154598848280e+01	 1.000131617441772e+01
0	 3.571445238150555e+01	 3.428584784171235e+01	 1.000122279634411e+01
0	 3.571445238150556e+01	 3.500015002827574e+01	 1.000108986279254e+01
0	 3.571445238150555e+01	 3.571445238150556e+01	 1.000091543953479e+01
0	 3.642870477623360e+01	 2.857145634928704e+01	 1.000100178674574e+01
0	 3.642870477623360e+01	 2.928575120249186e+01	 1.000114661587316e+01
0	 3.642870477623359e+01	 3.000004755570247e+01	 1.000125586885001e+01
0	 3.642870477623360e+01	 3.071434524225148e+01	 1.000132941690180e+01
0	 3.642870477623361e+01	 3.142864409547143e+01	 1.000136713120178e+01
0	 3.642870477623359e+01	 3.214294394869492e+01	 1.000136888287101e+01
0	 3.642870477623359e+01	 3.285724463525450e+01	 1.000133454297839e+01
0	 3.642870477623359e+01	 3.357154598848280e+01	 1.000126398254059e+01
0	 3.642870477623359e+01	 3.428584784171234e+01	 1.000115707252210e+01
0	 3.642870477623359e+01	 3.500015002827574e+01	 1.000101368383520e+01
0	 3.642870477623360e+01	 3.571445238150555e+01	 1.000083368734000e+01
0	 3.714295725428857e+01	 2.857145634928703e+01	 1.000099249851892e+01
0	 3.714295725428858e+01	 2.928575120249186e+01	 1.000112874150120e+01
0	 3.714295725428857e+01	 3.000004755570248e+01	 1.000122566324093e+01
0	 3.714295725428858e+01	 3.071434524225148e+01	 1.000128458766667e+01
0	 3.714295725428857e+01	 3.142864409547142e+01	 1.000130683865942e+01
0	 3.714295725428857e+01	 3.214294394869491e+01	 1.000129374005262e+01
0	 3.714295725428858e+01	 3.285724463525452e+01	 1.000124661563207e+01
0	 3.714295725428858e+01	 3.357154598848280e+01	 1.000116678913601e+01
0	 3.714295725428856e+01	 3.428584784171234e+01	 1.000105558425509e+01
0	 3.714295725428857e+01	 3.500015002827574e+01	 1.000091432463236e+01
0	 3.714295725428857e+01	 3.571445238150556e+01	 1.000074433386330e+01
0	 3.785720989899839e+01	 2.857145634928704e+01	 1.000099090800724e+01
0	 3.785720989899840e+01	 2.928575120249186e+01	 1.000109992370256e+01
0	 3.785720989899839e+01	 3.000004755570248e+01	 1.000117070525422e+01
0	 3.785720989899840e+01	 3.071434524225147e+01	 1.000120567690910e+01
0	 3.785720989899841e+01	 3.142864409547143e+01	 1.000120726287551e+01
0	 3.785720989899840e+01	 3.214294394869492e+01	 1.000117788732319e+01
0	 3.785720989899840e+01	 3.285724463525450e+01	 1.000111997438335e+01
0	 3.785720989899840e+01	 3.357154598848280e+01	 1.000103594814861e+01
0	 3.785720989899840e+01	 3.428584784171235e+01	 1.000092823267304e+01
0	 3.785720989899840e+01	 3.500015002827575e+01	 1.000079925197214e+01
0	 3.785720989899840e+01	 3.571445238150555e+01	 1.000065143002286e+01
0	 3.857146279369101e+01	 2.857145634928704e+01	 1.000099105590440e+01
0	 3.857146279369100e+01	 2.928575120249186e+01	 1.000105962113429e+01
0	 3.857146279369101e+01	 3.000004755570248e+01	 1.000109488995053e+01
0	 3.857146279369100e+01	 3.071434524225147e+01	 1.000110003454229e+01
0	 3.857146279369100e+01	 3.142864409547142e+01	 1.000107822707231e+01
0	 3.857146279369099e+01	 3.214294394869491e+01	 1.000103263967680e+01
0	 3.857146279369100e+01	 3.285724463525451e+01	 1.000096644446547e+01
0	 3.857146279369100e+01	 3.357154598848278e+01	 1.000088281352160e+01
0	 3.857146279369099e+01	 3.428584784171234e+01	 1.000078491890191e+01
0	 3.857146279369100e+01	 3.500015002827574e+01	 1.000067593263663e+01
0	 3.857146279369101e+01	 3.571445238150555e+01	 1.000055902672953e+01
0	 3.928571602169433e+01	 2.857145634928704e+01	 1.000098698291562e+01
0	 3.928571602169432e+01	 2.928575120249186e+01	 1.000100729246542e+01
0	 3.928571602169433e+01	 3.000004755570248e+01	 1.000100211240163e+01
0	 3.928571602169433e+01	 3.071434524225148e+01	 1.000097501048895e+01
0	 3.928571602169432e+01	 3.142864409547142e+01	 1.000092955447932e+01
0	 3.928571602169433e+01	 3.214294394869492e+01	 1.000086931211192e+01
0	 3.928571602169433e+01	 3.285724463525451e+01	 1.000079785111319e+01
0	 3.928571602169432e+01	 3.357154598848279e+01	 1.000071873919678e+01
0	 3.928571602169434e+01	 3.428584784171237e+01	 1.000063554406363e+01
0	 3.928571602169431e+01	 3.500015002827575e+01	 1.000055183340188e+01
0	 3.928571602169433e+01	 3.571445238150556e+01	 1.000047117488696e+01
0	 3.999996966633628e+01	 2.857145634928704e+01	 1.000097272975759e+01
0	 3.999996966633628e+01	 2.928575120249185e+01	 1.000094239637685e+01
0	 3.999996966633629e+01	 3.000004755570247e+01	 1.000089626769054e+01
0	 3.999996966633628e+01	 3.071434524225147e+01	 1.000083795468135e+01
0	 3.999996966633628e+01	 3.142864409547142e+01	 1.000077106833326e+01
0	 3.999996966633628e+01	 3.214294394869491e+01	 1.000069921963154e+01
0	 3.999996966633629e+01	 3.285724463525451e+01	 1.000062601956270e+01
0	 3.999996966633629e+01	 3.357154598848280e+01	 1.000055507911454e+01
0	 3.999996966633628e+01	 3.428584784171234e+01	 1.000049000927617e+01
0	 3.999996966633631e+01	 3.500015002827576e+01	 1.000043442103792e+01
0	 3.999996966633630e+01	 3.571445238150556e+01	 1.000039192539145e+01
0	 4.071422381094482e+01	 2.857145634928704e+01	 1.000094233715839e+01
0	 4.071422381094482e+01	 2.928575120249186e+01	 1.000086439156137e+01
0	 4.071422381094481e+01	 3.000004755570248e+01	 1.000078125091138e+01
0	 4.071422381094482e+01	 3.071434524225147e+01	 1.000069621706125e+01
0	 4.071422381094481e+01	 3.142864409547142e+01	 1.000061259187802e+01
0	 4.071422381094481e+01	 3.214294394869491e+01	 1.000053367724299e+01
0	 4.071422381094482e+01	 3.285724463525451e+01	 1.000046277505168e+01
0	 4.071422381094481e+01	 3.357154598848280e+01	 1.000040318721384e+01
0	 4.071422381094482e+01	 3.428584784171235e+01	 1.000035821565345e+01
0	 4.071422381094480e+01	 3.500015002827575e+01	 1.000033116230871e+01
0	 4.071422381094482e+01	 3.571445238150556e+01	 1.000032532913207e+01
0	 4.142847853884782e+01	 2.857145634928703e+01	 1.000088984585763e+01
0	 4.142847853884783e+01	 2.928575120249184e+01	 1.000077273672375e+01
0	 4.142847853884783e+01	 3.000004755570248e+01	 1.000066095716955e+01
0	 4.142847853884783e+01	 3.071434524225148e+01	 1.000055714757998e+01
0	 4.142847853884783e+01	 3.142864409547142e+01	 1.000046394836470e+01
0	 4.142847853884783e+01	 3.214294394869491e+01	 1.000038399995811e+01
0	 4.142847853884783e+01	 3.285724463525451e+01	 1.000031994281934e+01
0	 4.142847853884784e+01	 3.357154598848280e+01	 1.000027441743225e+01
0	 4.142847853884784e+01	 3.428584784171235e+01	 1.000025006430544e+01
0	 4.142847853884783e+01	 3.500015002827574e+01	 1.000024952397221e+01
0	 4.142847853884783e+01	 3.571445238150555e+01	 1.000027543699061e+01
0	 4.214273393337328e+01	 2.857145634928704e+01	 1.000080929660637e+01
0	 4.214273393337327e+01	 2.928575120249186e+01	 1.000066689058062e+01
0	 4.214273393337328e+01	 3.000004755570248e+01	 1.000053928158159e+01
0	 4.214273393337327e+01	 3.071434524225148e+01	 1.000042809619841e+01
0	 4.214273393337327e+01	 3.142864409547142e+01	 1.000033496105161e+01
0	 4.214273393337326e+01	 3.214294394869491e+01	 1.000026150279313e+01
0	 4.214273393337327e+01	 3.285724463525452e+01	 1.000020934810632e+01
0	 4.214273393337327e+01	 3.357154598848280e+01	 1.000018012370592e+01
0	 4.214273393337329e+01	 3.428584784171234e+01	 1.000017545633806e+01
0	 4.214273393337328e+01	 3.500015002827575e+01	 1.000019697278030e+01
0	 4.214273393337327e+01	 3.571445238150555e+01	 1.000024629984157e+01
0	 4.285699007784907e+01	 2.857145634928704e+01	 1.000069473016709e+01
0	 4.285699007784908e+01	 2.928575120249185e+01	 1.000054631186052e+01
0	 4.285699007784908e+01	 3.000004755570248e+01	 1.000042011927521e+01
0	 4.285699007784908e+01	 3.071434524225148e+01	 1.000031641288691e+01
0	 4.285699007784907e+01	 3.142864409547143e+01	 1.000023545320425e+01
0	 4.285699007784908e+01	 3.214294394869492e+01	 1.000017750076874e+01
0	 4.285699007784908e+01	 3.285724463525452e+01	 1.000014281615476e+01
0	 4.285699007784908e+01	 3.357154598848280e+01	 1.000013165996956e+01
0	 4.285699007784908e+01	 3.428584784171235e+01	 1.000014429285325e+01
0	 4.285699007784908e+01	 3.500015002827575e+01	 1.000018097547884e+01
0	 4.285699007784907e+01	 3.571445238150555e+01	 1.000024196855218e+01
0	 3.571445238150555e+01	 3.571445238150556e+01	 1.000091543953479e+01
0	 3.571445238150556e+01	 3.642870477623360e+01	 1.000073049363444e+01
0	 3.571445238150556e+01	 3.714295725428856e+01	 1.000056781542291e+01
0	 3.571445238150555e+01	 3.785720989899839e+01	 1.000042824664057e+01
0	 3.571445238150557e+01	 3.857146279369101e+01	 1.000031262900786e+01
0	 3.571445238150555e+01	 3.928571602169433e+01	 1.000022180422533e+01
0	 3.571445238150555e+01	 3.999996966633629e+01	 1.000015661397368e+01
0	 3.571445238150555e+01	 4.071422381094481e+01	 1.000011789991371e+01
0	 3.571445238150555e+01	 4.142847853884783e+01	 1.000010650368629e+01
0	 3.571445238150555e+01	 4.214273393337327e+01	 1.000012326691247e+01
0	 3.571445238150556e+01	 4.285699007784908e+01	 1.000016903119335e+01
0	 3.642870477623360e+01	 3.571445238150555e+01	 1.000083368734000e+01
0	 3.642870477623361e+01	 3.642870477623361e+01	 1.000064955895801e+01
0	 3.642870477623360e+01	 3.714295725428857e+01	 1.000049346936203e+01
0	 3.642870477623360e+01	 3.785720989899840e+01	 1.000036487313651e+01
0	 3.642870477623360e+01	 3.857146279369100e+01	 1.000026322484627e+01
0	 3.642870477623360e+01	 3.928571602169432e+01	 1.000018797903652e+01
0	 3.642870477623360e+01	 3.999996966633628e+01	 1.000013859023280e+01
0	 3.642870477623359e+01	 4.071422381094481e+01	 1.000011451294109e+01
0	 3.642870477623359e+01	 4.142847853884784e+01	 1.000011520164768e+01
0	 3.642870477623359e+01	 4.214273393337328e+01	 1.000014011081927e+01
0	 3.642870477623362e+01	 4.285699007784908e+01	 1.000018869490292e+01
0	 3.714295725428857e+01	 3.571445238150556e+01	 1.000074433386330e+01
0	 3.714295725428858e+01	 3.642870477623360e+01	 1.000057589919438e+01
0	 3.714295725428858e+01	 3.714295725428858e+01	 1.000043730076025e+01
0	 3.714295725428856e+01	 3.785720989899840e+01	 1.000032689006133e+01
0	 3.714295725428858e+01	 3.857146279369101e+01	 1.000024301858057e+01
0	 3.714295725428857e+01	 3.928571602169432e+01	 1.000018403778355e+01
0	 3.714295725428858e+01	 3.999996966633629e+01	 1.000014829911836e+01
0	 3.714295725428858e+01	 4.071422381094482e+01	 1.000013415401571e+01
0	 3.714295725428855e+01	 4.142847853884783e+01	 1.000013995388882e+01
0	 3.714295725428857e+01	 4.214273393337327e+01	 1.000016405013353e+01
0	 3.714295725428856e+01	 4.285699007784907e+01	 1.000020479412824e+01
0	 3.785720989899840e+01	 3.571445238150555e+01	 1.000065143002286e+01
0	 3.785720989899839e+01	 3.642870477623359e+01	 1.000051000270964e+01
0	 3.785720989899840e+01	 3.714295725428857e+01	 1.000039692305085e+01
0	 3.785720989899838e+01	 3.785720989899838e+01	 1.000030972353557e+01
0	 3.785720989899841e+01	 3.857146279369100e+01	 1.000024593663912e+01
0	 3.785720989899841e+01	 3.928571602169433e+01	 1.000020309482303e+01
0	 3.785720989899840e+01	 3.999996966633629e+01	 1.000017873053508e+01
0	 3.785720989899839e+01	 4.071422381094482e+01	 1.000017037620921e+01
0	 3.785720989899838e+01	 4.142847853884782e+01	 1.000017556426561e+01
0	 3.785720989899838e+01	 4.214273393337328e+01	 1.000019182711071e+01
0	 3.785720989899840e+01	 4.285699007784908e+01	 1.000021669713712e+01
0	 3.857146279369101e+01	 3.571445238150555e+01	 1.000055902672954e+01
0	 3.857146279369101e+01	 3.642870477623359e+01	 1.000045235786236e+01
0	 3.857146279369100e+01	 3.714295725428857e+01	 1.000036994966014e+01
0	 3.857146279369100e+01	 3.785720989899841e+01	 1.000030879967407e+01
0	 3.857146279369099e+01	 3.857146279369099e+01	 1.000026590544621e+01
0	 3.857146279369099e+01	 3.928571602169433e+01	 1.000023826450945e+01
0	 3.857146279369099e+01	 3.999996966633628e+01	 1.000022287438749e+01
0	 3.857146279369100e+01	 4.071422381094481e+01	 1.000021673259493e+01
0	 3.857146279369100e+01	 4.142847853884783e+01	 1.000021683663715e+01
0	 3.857146279369100e+01	 4.214273393337327e+01	 1.000022018401036e+01
0	 3.857146279369101e+01	 4.285699007784907e+01	 1.000022377220168e+01
0	 3.928571602169433e+01	 3.571445238150556e+01	 1.000047117488696e+01
0	 3.928571602169433e+01	 3.642870477623360e+01	 1.000040345300355e+01
0	 3.928571602169431e+01	 3.714295725428856e+01	 1.000035399400747e+01
0	 3.928571602169434e+01	 3.785720989899840e+01	 1.000031954458593e+01
0	 3.928571602169433e+01	 3.857146279369100e+01	 1.000029685142210e+01
0	 3.928571602169433e+01	 3.928571602169433e+01	 1.000028266119514e+01
0	 3.928571602169433e+01	 3.999996966633629e+01	 1.000027372058007e+01
0	 3.928571602169432e+01	 4.071422381094481e+01	 1.000026677624792e+01
0	 3.928571602169432e+01	 4.142847853884783e+01	 1.000025857486565e+01
0	 3.928571602169432e+01	 4.214273393337328e+01	 1.000024586309620e+01
0	 3.928571602169431e+01	 4.285699007784905e+01	 1.000022538759840e+01
0	 3.999996966633630e+01	 3.571445238150556e+01	 1.000039192539145e+01
0	 3.999996966633628e+01	 3.642870477623360e+01	 1.000036377647668e+01
0	 3.999996966633630e+01	 3.714295725428858e+01	 1.000034666950523e+01
0	 3.999996966633629e+01	 3.785720989899839e+01	 1.000033738437451e+01
0	 3.999996966633628e+01	 3.857146279369100e+01	 1.000033270098304e+01
0	 3.999996966633629e+01	 3.928571602169434e+01	 1.000032939923036e+01
0	 3.999996966633628e+01	 3.999996966633628e+01	 1.000032425901708e+01
0	 3.999996966633630e+01	 4.071422381094482e+01	 1.000031406024491e+01
0	 3.999996966633629e+01	 4.142847853884783e+01	 1.000029558281663e+01
0	 3.999996966633628e+01	 4.214273393337327e+01	 1.000026560663605e+01
0	 3.999996966633630e+01	 4.285699007784908e+01	 1.000022091160807e+01
0	 4.071422381094482e+01	 3.571445238150556e+01	 1.000032532913207e+01
0	 4.071422381094482e+01	 3.642870477623361e+01	 1.000033381661768e+01
0	 4.071422381094482e+01	 3.714295725428857e+01	 1.000034558955885e+01
0	 4.071422381094482e+01	 3.785720989899840e+01	 1.000035774513747e+01
0	 4.071422381094482e+01	 3.857146279369100e+01	 1.000036738054115e+01
0	 4.071422381094482e+01	 3.928571602169432e+01	 1.000037159296321e+01
0	 4.071422381094482e+01	 3.999996966633629e+01	 1.000036747960270e+01
0	 4.071422381094481e+01	 4.071422381094480e+01	 1.000035213766437e+01
0	 4.071422381094481e+01	 4.142847853884782e+01	 1.000032266435870e+01
0	 4.071422381094482e+01	 4.214273393337328e+01	 1.000027615690188e+01
0	 4.071422381094481e+01	 4.285699007784907e+01	 1.000020971251581e+01
0	 4.142847853884783e+01	 3.571445238150555e+01	 1.000027543699062e+01
0	 4.142847853884783e+01	 3.642870477623360e+01	 1.000031406175496e+01
0	 4.142847853884783e+01	 3.714295725428857e+01	 1.000034836756683e+01
0	 4.142847853884783e+01	 3.785720989899841e+01	 1.000037605296670e+01
0	 4.142847853884782e+01	 3.857146279369100e+01	 1.000039481650457e+01
0	 4.142847853884783e+01	 3.928571602169433e+01	 1.000040235673972e+01
0	 4.142847853884784e+01	 3.999996966633629e+01	 1.000039637224095e+01
0	 4.142847853884783e+01	 4.071422381094482e+01	 1.000037456158641e+01
0	 4.142847853884782e+01	 4.142847853884782e+01	 1.000033462336368e+01
0	 4.142847853884783e+01	 4.214273393337326e+01	 1.000027425616976e+01
0	 4.142847853884783e+01	 4.285699007784908e+01	 1.000019115861106e+01
0	 4.214273393337327e+01	 3.571445238150555e+01	 1.000024629984157e+01
0	 4.214273393337328e+01	 3.642870477623360e+01	 1.000030500020938e+01
0	 4.214273393337327e+01	 3.714295725428857e+01	 1.000035261692066e+01
0	 4.214273393337327e+01	 3.785720989899839e+01	 1.000038773394843e+01
0	 4.214273393337329e+01	 3.857146279369100e+01	 1.000040893527735e+01
0	 4.214273393337328e+01	 3.928571602169432e+01	 1.000041480490378e+01
0	 4.214273393337328e+01	 3.999996966633628e+01	 1.000040392683572e+01
0	 4.214273393337328e+01	 4.071422381094482e+01	 1.000037488509287e+01
0	 4.214273393337329e+01	 4.142847853884783e+01	 1.000032626370660e+01
0	 4.214273393337328e+01	 4.214273393337328e+01	 1.000025664671994e+01
0	 4.214273393337329e+01	 4.285699007784908e+01	 1.000016461818760e+01
0	 4.285699007784907e+01	 3.571445238150555e+01	 1.000024196855218e+01
0	 4.285699007784907e+01	 3.642870477623359e+01	 1.000030712029425e+01
0	 4.285699007784907e+01	 3.714295725428857e+01	 1.000035595100495e+01
0	 4.285699007784908e+01	 3.785720989899839e+01	 1.000038821416310e+01
0	 4.285699007784907e+01	 3.857146279369100e+01	 1.000040366325954e+01
0	 4.285699007784906e+01	 3.928571602169431e+01	 1.000040205179714e+01
0	 4.285699007784908e+01	 3.999996966633628e+01	 1.000038313329076e+01
0	 4.285699007784908e+01	 4.071422381094481e+01	 1.000034666126730e+01
0	 4.285699007784908e+01	 4.142847853884783e+01	 1.000029238926566e+01
0	 4.285699007784908e+01	 4.214273393337328e+01	 1.000022007083678e+01
0	 4.285699007784907e+01	 4.285699007784908e+01	 1.000012945954355e+01
0	 3.571445238150556e+01	 4.285699007784908e+01	 1.000016903119335e+01
0	 3.571445238150555e+01	 4.357129694500737e+01	 1.000022107311134e+01
0	 3.571445238150556e+01	 4.428560406221391e+01	 1.000025510789297e+01
0	 3.571445238150556e+01	 4.499991084612203e+01	 1.000026964773989e+01
0	 3.571445238150556e+01	 4.571421671338500e+01	 1.000026320476583e+01
0	 3.571445238150556e+01	 4.642852108065614e+01	 1.000023429099654e+01
0	 3.571445238150556e+01	 4.714282336458874e+01	 1.000018141836978e+01
0	 3.571445238150555e+01	 4.785712298183612e+01	 1.000010309873540e+01
0	 3.571445238150555e+01	 4.857141934905161e+01	 9.999997843855173e+00
0	 3.571445238150555e+01	 4.928571188288847e+01	 9.999864165402968e+00
0	 3.571445238150555e+01	 5.000000000000000e+01	 9.999700574964701e+00
0	 3.642870477623362e+01	 4.285699007784908e+01	 1.000018869490292e+01
0	 3.642870477623359e+01	 4.357129694500737e+01	 1.000023781790923e+01
0	 3.642870477623360e+01	 4.428560406221392e+01	 1.000026497370127e+01
0	 3.642870477623359e+01	 4.499991084612202e+01	 1.000027057407694e+01
0	 3.642870477623359e+01	 4.571421671338500e+01	 1.000025503074846e+01
0	 3.642870477623359e+01	 4.642852108065613e+01	 1.000021875534251e+01
0	 3.642870477623360e+01	 4.714282336458875e+01	 1.000016215940016e+01
0	 3.642870477623360e+01	 4.785712298183613e+01	 1.000008565437681e+01
0	 3.642870477623361e+01	 4.857141934905160e+01	 9.999989651642341e+00
0	 3.642870477623359e+01	 4.928571188288846e+01	 9.999874562481015e+00
0	 3.642870477623359e+01	 4.999999999999998e+01	 9.999740798091288e+00
0	 3.714295725428856e+01	 4.285699007784907e+01	 1.000020479412824e+01
0	 3.714295725428857e+01	 4.357129694500737e+01	 1.000024162691771e+01
0	 3.714295725428858e+01	 4.428560406221394e+01	 1.000025635612188e+01
0	 3.714295725428856e+01	 4.499991084612201e+01	 1.000025089310623e+01
0	 3.714295725428857e+01	 4.571421671338500e+01	 1.000022714916717e+01
0	 3.714295725428858e+01	 4.642852108065614e+01	 1.000018703553189e+01
0	 3.714295725428858e+01	 4.714282336458875e+01	 1.000013246335846e+01
0	 3.714295725428856e+01	 4.785712298183613e+01	 1.000006534373586e+01
0	 3.714295725428856e+01	 4.857141934905160e+01	 9.999987587683835e+00
0	 3.714295725428858e+01	 4.928571188288846e+01	 9.999901106152963e+00
0	 3.714295725428858e+01	 5.000000000000000e+01	 9.999807810024770e+00
0	 3.785720989899840e+01	 4.285699007784908e+01	 1.000021669713712e+01
0	 3.785720989899841e+01	 4.357129694500737e+01	 1.000023445785688e+01
0	 3.785720989899839e+01	 4.428560406221393e+01	 1.000023304118478e+01
0	 3.785720989899841e+01	 4.499991084612204e+01	 1.000021545802944e+01
0	 3.785720989899839e+01	 4.571421671338500e+01	 1.000018471925721e+01
0	 3.785720989899841e+01	 4.642852108065614e+01	 1.000014383569210e+01
0	 3.785720989899841e+01	 4.714282336458876e+01	 1.000009581811578e+01
0	 3.785720989899840e+01	 4.785712298183613e+01	 1.000004367726766e+01
0	 3.785720989899838e+01	 4.857141934905158e+01	 9.999990423844734e+00
0	 3.785720989899840e+01	 4.928571188288847e+01	 9.999939068501726e+00
0	 3.785720989899839e+01	 5.000000000000001e+01	 9.999892621851036e+00
0	 3.857146279369101e+01	 4.285699007784907e+01	 1.000022377220168e+01
0	 3.857146279369100e+01	 4.357129694500736e+01	 1.000021826845047e+01
0	 3.857146279369100e+01	 4.428560406221391e+01	 1.000019881492231e+01
0	 3.857146279369100e+01	 4.499991084612203e+01	 1.000016912204881e+01
0	 3.857146279369100e+01	 4.571421671338499e+01	 1.000013290025270e+01
0	 3.857146279369102e+01	 4.642852108065615e+01	 1.000009385994782e+01
0	 3.857146279369101e+01	 4.714282336458875e+01	 1.000005571153920e+01
0	 3.857146279369100e+01	 4.785712298183613e+01	 1.000002216542300e+01
0	 3.857146279369100e+01	 4.857141934905160e+01	 9.999996931986518e+00
0	 3.857146279369101e+01	 4.928571188288846e+01	 9.999983721608139e+00
0	 3.857146279369101e+01	 5.000000000000001e+01	 9.999986244657444e+00
0	 3.928571602169431e+01	 4.285699007784905e+01	 1.000022538759840e+01
0	 3.928571602169431e+01	 4.357129694500736e+01	 1.000019501642586e+01
0	 3.928571602169433e+01	 4.428560406221393e+01	 1.000015746336918e+01
0	 3.928571602169432e+01	 4.499991084612203e+01	 1.000011673836726e+01
0	 3.928571602169433e+01	 4.571421671338499e+01	 1.000007685138653e+01
0	 3.928571602169433e+01	 4.642852108065613e+01	 1.000004181242088e+01
0	 3.928571602169433e+01	 4.714282336458874e+01	 1.000001563149181e+01
0	 3.928571602169434e+01	 4.785712298183613e+01	 1.000000231864824e+01
0	 3.928571602169433e+01	 4.857141934905160e+01	 1.000000588396669e+01
0	 3.928571602169432e+01	 4.928571188288845e+01	 1.000003033755106e+01
0	 3.928571602169433e+01	 5.000000000000000e+01	 1.000007968953298e+01
0	 3.999996966633630e+01	 4.285699007784908e+01	 1.000022091160807e+01
0	 3.999996966633629e+01	 4.357129694500738e+01	 1.000016665951416e+01
0	 3.999996966633628e+01	 4.428560406221393e+01	 1.000011277256241e+01
0	 3.999996966633630e+01	 4.499991084612203e+01	 1.000006316018830e+01
0	 3.999996966633628e+01	 4.571421671338500e+01	 1.000002173189036e+01
0	 3.999996966633629e+01	 4.642852108065614e+01	 9.999992397230265e+00
0	 3.999996966633628e+01	 4.714282336458874e+01	 9.999979065832639e+00
0	 3.999996966633629e+01	 4.785712298183614e+01	 9.999985647385241e+00
0	 3.999996966633628e+01	 4.857141934905158e+01	 1.000001605163888e+01
0	 3.999996966633628e+01	 4.928571188288846e+01	 1.000007418840740e+01
0	 3.999996966633629e+01	 5.000000000000000e+01	 1.000016396756777e+01
0	 4.071422381094481e+01	 4.285699007784907e+01	 1.000020971251581e+01
0	 4.071422381094481e+01	 4.357129694500738e+01	 1.000013515545010e+01
0	 4.071422381094482e+01	 4.428560406221392e+01	 1.000006852854137e+01
0	 4.071422381094482e+01	 4.499991084612203e+01	 1.000001324071609e+01
0	 4.071422381094481e+01	 4.571421671338499e+01	 9.999972700994832e+00
0	 4.071422381094482e+01	 4.642852108065613e+01	 9.999950318492191e+00
0	 4.071422381094482e+01	 4.714282336458875e+01	 9.999949502416829e+00
0	 4.071422381094481e+01	 4.785712298183613e+01	 9.999973662071463e+00
0	 4.071422381094481e+01	 4.857141934905158e+01	 1.000002620685294e+01
0	 4.071422381094481e+01	 4.928571188288846e+01	 1.000011054625204e+01
0	 4.071422381094481e+01	 5.000000000000001e+01	 1.000023008985370e+01
0	 4.142847853884783e+01	 4.285699007784908e+01	 1.000019115861106e+01
0	 4.142847853884783e+01	 4.357129694500738e+01	 1.000010246197208e+01
0	 4.142847853884783e+01	 4.428560406221393e+01	 1.000002851734777e+01
0	 4.142847853884784e+01	 4.499991084612204e+01	 9.999971833155445e+00
0	 4.142847853884783e+01	 4.571421671338500e+01	 9.999934917929240e+00
0	 4.142847853884784e+01	 4.642852108065613e+01	 9.999920280320032e+00
0	 4.142847853884783e+01	 4.714282336458875e+01	 9.999930429095452e+00
0	 4.142847853884783e+01	 4.785712298183613e+01	 9.999967873139971e+00
0	 4.142847853884784e+01	 4.857141934905161e+01	 1.000003512145480e+01
0	 4.142847853884784e+01	 4.928571188288846e+01	 1.000013468315790e+01
0	 4.142847853884783e+01	 4.999999999999999e+01	 1.000026906748409e+01
0	 4.214273393337329e+01	 4.285699007784908e+01	 1.000016461818760e+01
0	 4.214273393337328e+01	 4.357129694500738e+01	 1.000007053682216e+01
0	 4.214273393337328e+01	 4.428560406221392e+01	 9.999996525025644e+00
0	 4.214273393337327e+01	 4.499991084612203e+01	 9.999943790711779e+00
0	 4.214273393337327e+01	 4.571421671338499e+01	 9.999913541921771e+00
0	 4.214273393337327e+01	 4.642852108065613e+01	 9.999906986824348e+00
0	 4.214273393337327e+01	 4.714282336458876e+01	 9.999925333715645e+00
0	 4.214273393337327e+01	 4.785712298183612e+01	 9.999969791019339e+00
0	 4.214273393337328e+01	 4.857141934905160e+01	 1.000004156728656e+01
0	 4.214273393337327e+01	 4.928571188288846e+01	 1.000014187119592e+01
0	 4.214273393337328e+01	 5.000000000000000e+01	 1.000027191155360e+01
0	 4.285699007784907e+01	 4.285699007784908e+01	 1.000012945954355e+01
0	 4.285699007784908e+01	 4.357129694500737e+01	 1.000004133774611e+01
0	 4.285699007784906e+01	 4.428560406221393e+01	 9.999976337621398e+00
0	 4.285699007784908e+01	 4.499991084612203e+01	 9.999933966591145e+00
0	 4.285699007784908e+01	 4.571421671338501e+01	 9.999913732199452e+00
0	 4.285699007784907e+01	 4.642852108065613e+01	 9.999915142112890e+00
0	 4.285699007784908e+01	 4.714282336458876e+01	 9.999937704120487e+00
0	 4.285699007784908e+01	 4.785712298183613e+01	 9.999980926133709e+00
0	 4.285699007784908e+01	 4.857141934905160e+01	 1.000004431618645e+01
0	 4.285699007784908e+01	 4.928571188288846e+01	 1.000012738243508e+01
0	 4.285699007784908e+01	 5.000000000000001e+01	 1.000022963315846e+01
0	 4.285699007784908e+01	 0.000000000000000e+00	 1.000122240856368e+01
0	 4.285699007784909e+01	 7.142881171115515e-01	 1.000059506675792e+01
0	 4.285699007784908e+01	 1.428580650948409e+00	 1.000004456670544e+01
0	 4.285699007784908e+01	 2.142877018163878e+00	 9.999579774276594e+00
0	 4.285699007784908e+01	 2.857176635411264e+00	 9.999209556001407e+00
0	 4.285699007784908e+01	 3.571478919343873e+00	 9.998942779069518e+00
0	 4.285699007784908e+01	 4.285783286615009e+00	 9.998788311330177e+00
0	 4.285699007784908e+01	 5.000089153877975e+00	 9.998755021292206e+00
0	 4.285699007784908e+01	 5.714395937786081e+00	 9.998851778123971e+00
0	 4.285699007784907e+01	 6.428703054992629e+00	 9.999087451653388e+00
0	 4.285699007784908e+01	 7.143009922150927e+00	 9.999470912367913e+00
0	 4.357129694500737e+01	 0.000000000000000e+00	 1.000085311629183e+01
0	 4.357129694500739e+01	 7.142881171115514e-01	 1.000019310415432e+01
0	 4.357129694500737e+01	 1.428580650948410e+00	 9.999640028291807e+00
0	 4.357129694500737e+01	 2.142877018163878e+00	 9.999196626020417e+00
0	 4.357129694500737e+01	 2.857176635411265e+00	 9.998865635297303e+00
0	 4.357129694500735e+01	 3.571478919343872e+00	 9.998649794720647e+00
0	 4.357129694500737e+01	 4.285783286615008e+00	 9.998551843529576e+00
0	 4.357129694500738e+01	 5.000089153877975e+00	 9.998574521604201e+00
0	 4.357129694500737e+01	 5.714395937786082e+00	 9.998720569465524e+00
0	 4.357129694500738e+01	 6.428703054992631e+00	 9.998992728275484e+00
0	 4.357129694500738e+01	 7.143009922150927e+00	 9.999393739836943e+00
0	 4.428560406221392e+01	 0.000000000000000e+00	 1.000028053138246e+01
0	 4.428560406221393e+01	 7.142881171115514e-01	 9.999712047988186e+00
0	 4.428560406221393e+01	 1.428580650948409e+00	 9.999254592443975e+00
0	 4.428560406221393e+01	 2.142877018163880e+00	 9.998906038537489e+00
0	 4.428560406221392e+01	 2.857176635411264e+00	 9.998664260582757e+00
0	 4.428560406221393e+01	 3.571478919343873e+00	 9.998527133420184e+00
0	 4.428560406221392e+01	 4.285783286615009e+00	 9.998492532416510e+00
0	 4.428560406221392e+01	 5.000089153877976e+00	 9.998558333464770e+00
0	 4.428560406221392e+01	 5.714395937786083e+00	 9.998722412984295e+00
0	 4.428560406221391e+01	 6.428703054992628e+00	 9.998982647920720e+00
0	 4.428560406221393e+01	 7.143009922150928e+00	 9.999336915745964e+00
0	 4.499991084612202e+01	 0.000000000000000e+00	 9.999591033718225e+00
0	 4.499991084612204e+01	 7.142881171115514e-01	 9.999196281771926e+00
0	 4.499991084612203e+01	 1.428580650948409e+00	 9.998897659448312e+00
0	 4.499991084612202e+01	 2.142877018163878e+00	 9.998689441813408e+00
0	 4.499991084612204e+01	 2.857176635411265e+00	 9.998565904283355e+00
0	 4.499991084612203e+01	 3.571478919343873e+00	 9.998521322624283e+00
0	 4.499991084612203e+01	 4.285783286615008e+00	 9.998549972952416e+00
0	 4.499991084612203e+01	 5.000089153877975e+00	 9.998646131733995e+00
0	 4.499991084612203e+01	 5.714395937786082e+00	 9.998804075785255e+00
0	 4.499991084612203e+01	 6.428703054992630e+00	 9.999018082272439e+00
0	 4.499991084612203e+01	 7.143009922150927e+00	 9.999282428711826e+00
0	 4.571421671338500e+01	 0.000000000000000e+00	 9.998871003459239e+00
0	 4.571421671338500e+01	 7.142881171115513e-01	 9.998690189321627e+00
0	 4.571421671338499e+01	 1.428580650948409e+00	 9.998578629889668e+00
0	 4.571421671338500e+01	 2.142877018163878e+00	 9.998528266101903e+00
0	 4.571421671338499e+01	 2.857176635411264e+00	 9.998531039043392e+00
0	 4.571421671338499e+01	 3.571478919343873e+00	 9.998578889945613e+00
0	 4.571421671338499e+01	 4.285783286615009e+00	 9.998663760186524e+00
0	 4.571421671338500e+01	 5.000089153877975e+00	 9.998777591290537e+00
0	 4.571421671338498e+01	 5.714395937786080e+00	 9.998912324928479e+00
0	 4.571421671338499e+01	 6.428703054992630e+00	 9.999059902917637e+00
0	 4.571421671338501e+01	 7.143009922150926e+00	 9.999212267221740e+00
0	 4.642852108065614e+01	 0.000000000000000e+00	 9.998206821043027e+00
0	 4.642852108065613e+01	 7.142881171115514e-01	 9.998238154757027e+00
0	 4.642852108065613e+01	 1.428580650948409e+00	 9.998306904651386e+00
0	 4.642852108065614e+01	 2.142877018163878e+00	 9.998403941924806e+00
0	 4.642852108065614e+01	 2.857176635411264e+00	 9.998520137725972e+00
0	 4.642852108065613e+01	 3.571478919343873e+00	 9.998646363153467e+00
0	 4.642852108065614e+01	 4.285783286615009e+00	 9.998773489255854e+00
0	 4.642852108065615e+01	 5.000089153877976e+00	 9.998892387031608e+00
0	 4.642852108065614e+01	 5.714395937786081e+00	 9.998993927429190e+00
0	 4.642852108065613e+01	 6.428703054992630e+00	 9.999068981346969e+00
0	 4.642852108065613e+01	 7.143009922150926e+00	 9.999108419633309e+00
0	 4.714282336458874e+01	 0.000000000000000e+00	 9.997684867184562e+00
0	 4.714282336458874e+01	 7.142881171115513e-01	 9.997884562501527e+00
0	 4.714282336458874e+01	 1.428580650948409e+00	 9.998091884915295e+00
0	 4.714282336458874e+01	 2.142877018163879e+00	 9.998297900072084e+00
0	 4.714282336458874e+01	 2.857176635411265e+00	 9.998493673412909e+00
0	 4.714282336458873e+01	 3.571478919343873e+00	 9.998670270173676e+00
0	 4.714282336458875e+01	 4.285783286615009e+00	 9.998818755385155e+00
0	 4.714282336458874e+01	 5.000089153877975e+00	 9.998930193872994e+00
0	 4.714282336458874e+01	 5.714395937786080e+00	 9.998995650257729e+00
0	 4.714282336458874e+01	 6.428703054992628e+00	 9.999006188954798e+00
0	 4.714282336458874e+01	 7.143009922150926e+00	 9.998952874174508e+00
0	 4.785712298183613e+01	 0.000000000000000e+00	 9.997391522876260e+00
0	 4.785712298183613e+01	 7.142881171115514e-01	 9.997673797282186e+00
0	 4.785712298183613e+01	 1.428580650948409e+00	 9.997942972161761e+00
0	 4.785712298183613e+01	 2.142877018163878e+00	 9.998191571601829e+00
0	 4.785712298183612e+01	 2.857176635411265e+00	 9.998412119404797e+00
0	 4.785712298183613e+01	 3.571478919343872e+00	 9.998597139088648e+00
0	 4.785712298183613e+01	 4.285783286615009e+00	 9.998739153887000e+00
0	 4.785712298183613e+01	 5.000089153877973e+00	 9.998830686749033e+00
0	 4.785712298183614e+01	 5.714395937786080e+00	 9.998864260339577e+00
0	 4.785712298183614e+01	 6.428703054992630e+00	 9.998832397039095e+00
0	 4.785712298183613e+01	 7.143009922150927e+00	 9.998727618943697e+00
0	 4.857141934905160e+01	 0.000000000000000e+00	 9.997413169388000e+00
0	 4.857141934905161e+01	 7.142881171115514e-01	 9.997650244129776e+00
0	 4.857141934905160e+01	 1.428580650948409e+00	 9.997869568169644e+00
0	 4.857141934905160e+01	 2.142877018163879e+00	 9.998066387840311e+00
0	 4.857141934905161e+01	 2.857176635411265e+00	 9.998235949220994e+00
0	 4.857141934905160e+01	 3.571478919343873e+00	 9.998373498137402e+00
0	 4.857141934905159e+01	 4.285783286615009e+00	 9.998474280161711e+00
0	 4.857141934905162e+01	 5.000089153877976e+00	 9.998533540612616e+00
0	 4.857141934905160e+01	 5.714395937786081e+00	 9.998546524555319e+00
0	 4.857141934905160e+01	 6.428703054992631e+00	 9.998508476801559e+00
0	 4.857141934905160e+01	 7.143009922150926e+00	 9.998414641909569e+00
0	 4.928571188288846e+01	 0.000000000000000e+00	 9.997836188267135e+00
0	 4.928571188288846e+01	 7.142881171115513e-01	 9.997858288378783e+00
0	 4.928571188288845e+01	 1.428580650948409e+00	 9.997881075016322e+00
0	 4.928571188288845e+01	 2.142877018163878e+00	 9.997903780381895e+00
0	 4.928571188288846e+01	 2.857176635411265e+00	 9.997925636599623e+00
0	 4.928571188288846e+01	 3.571478919343873e+00	 9.997945875715502e+00
0	 4.928571188288846e+01	 4.285783286615008e+00	 9.997963729697425e+00
0	 4.928571188288846e+01	 5.000089153877976e+00	 9.997978430435229e+00
0	 4.928571188288846e+01	 5.714395937786080e+00	 9.997989209740705e+00
0	 4.928571188288846e+01	 6.428703054992630e+00	 9.997995299347490e+00
0	 4.928571188288846e+01	 7.143009922150927e+00	 9.997995930911232e+00
0	 5.000000000000000e+01	 0.000000000000000e+00	 9.998746961338487e+00
0	 5.000000000000001e+01	 7.142881171115513e-01	 9.998342315667376e+00
0	 4.999999999999999e+01	 1.428580650948409e+00	 9.997986895077741e+00
0	 4.999999999999999e+01	 2.142877018163878e+00	 9.997685181089196e+00
0	 5.000000000000000e+01	 2.857176635411265e+00	 9.997441655497628e+00
0	 5.000000000000000e+01	 3.571478919343873e+00	 9.997260800375107e+00
0	 5.000000000000000e+01	 4.285783286615008e+00	 9.997147098070036e+00
0	 5.000000000000000e+01	 5.000089153877976e+00	 9.997105031206919e+00
0	 4.999999999999999e+01	 5.714395937786080e+00	 9.997139082686530e+00
0	 5.000000000000000e+01	 6.428703054992629e+00	 9.997253735685870e+00
0	 5.000000000000001e+01	 7.143009922150927e+00	 9.997453473658098e+00
0	 4.285699007784908e+01	 7.143009922150927e+00	 9.999470912367913e+00
0	 4.285699007784908e+01	 7.857266066626719e+00	 9.999901694205624e+00
0	 4.285699007784907e+01	 8.571521461152162e+00	 1.000027137835515e+01
0	 4.285699007784908e+01	 9.285776189055184e+00	 1.000057681005296e+01
0	 4.285699007784908e+01	 1.000003033366371e+01	 1.000081483459158e+01
0	 4.285699007784908e+01	 1.071428397830567e+01	 1.000098229731949e+01
0	 4.285699007784908e+01	 1.142853720630899e+01	 1.000107604364117e+01
0	 4.285699007784908e+01	 1.214279010100160e+01	 1.000109291901710e+01
0	 4.285699007784907e+01	 1.285704274571142e+01	 1.000102976896377e+01
0	 4.285699007784908e+01	 1.357129522376640e+01	 1.000088343905365e+01
0	 4.285699007784908e+01	 1.428554761849444e+01	 1.000065077491520e+01
0	 4.357129694500738e+01	 7.143009922150927e+00	 9.999393739836945e+00
0	 4.357129694500737e+01	 7.857266066626718e+00	 9.999822694828616e+00
0	 4.357129694500738e+01	 8.571521461152164e+00	 1.000017719012152e+01
0	 4.357129694500738e+01	 9.285776189055184e+00	 1.000045762939537e+01
0	 4.357129694500738e+01	 1.000003033366371e+01	 1.000066441638283e+01
0	 4.357129694500736e+01	 1.071428397830567e+01	 1.000079795486955e+01
0	 4.357129694500737e+01	 1.142853720630899e+01	 1.000085864869411e+01
0	 4.357129694500738e+01	 1.214279010100160e+01	 1.000084690174807e+01
0	 4.357129694500738e+01	 1.285704274571142e+01	 1.000076311797594e+01
0	 4.357129694500738e+01	 1.357129522376640e+01	 1.000060770137520e+01
0	 4.357129694500737e+01	 1.428554761849444e+01	 1.000038105599624e+01
0	 4.428560406221393e+01	 7.143009922150928e+00	 9.999336915745964e+00
0	 4.428560406221391e+01	 7.857266066626718e+00	 9.999700324369877e+00
0	 4.428560406221393e+01	 8.571521461152159e+00	 9.999991513379660e+00
0	 4.428560406221392e+01	 9.285776189055182e+00	 1.000021357406988e+01
0	 4.428560406221391e+01	 1.000003033366371e+01	 1.000036959777699e+01
0	 4.428560406221393e+01	 1.071428397830567e+01	 1.000046267587926e+01
0	 4.428560406221391e+01	 1.142853720630899e+01	 1.000049589979692e+01
0	 4.428560406221392e+01	 1.214279010100159e+01	 1.000047236099198e+01
0	 4.428560406221392e+01	 1.285704274571142e+01	 1.000039515096839e+01
0	 4.428560406221392e+01	 1.357129522376639e+01	 1.000026736127192e+01
0	 4.428560406221391e+01	 1.428554761849444e+01	 1.000009208349025e+01
0	 4.499991084612203e+01	 7.143009922150927e+00	 9.999282428711826e+00
0	 4.499991084612204e+01	 7.857266066626720e+00	 9.999539084004187e+00
0	 4.499991084612203e+01	 8.571521461152162e+00	 9.999737144161804e+00
0	 4.499991084612202e+01	 9.285776189055184e+00	 9.999881517253179e+00
0	 4.499991084612203e+01	 1.000003033366371e+01	 9.999977111372541e+00
0	 4.499991084612203e+01	 1.071428397830567e+01	 1.000002883463979e+01
0	 4.499991084612203e+01	 1.142853720630899e+01	 1.000004159520051e+01
0	 4.499991084612203e+01	 1.214279010100160e+01	 1.000002030122597e+01
0	 4.499991084612203e+01	 1.285704274571142e+01	 9.999969860913101e+00
0	 4.499991084612203e+01	 1.357129522376640e+01	 9.999895182484575e+00
0	 4.499991084612203e+01	 1.428554761849445e+01	 9.999801174188704e+00
0	 4.571421671338501e+01	 7.143009922150926e+00	 9.999212267221740e+00
0	 4.571421671338501e+01	 7.857266066626719e+00	 9.999343474766071e+00
0	 4.571421671338500e+01	 8.571521461152164e+00	 9.999436878369323e+00
0	 4.571421671338499e+01	 9.285776189055182e+00	 9.999498332016325e+00
0	 4.571421671338499e+01	 1.000003033366371e+01	 9.999533689699227e+00
0	 4.571421671338500e+01	 1.071428397830567e+01	 9.999548805417572e+00
0	 4.571421671338498e+01	 1.142853720630899e+01	 9.999549533178238e+00
0	 4.571421671338499e+01	 1.214279010100160e+01	 9.999541726995451e+00
0	 4.571421671338499e+01	 1.285704274571142e+01	 9.999531240890798e+00
0	 4.571421671338500e+01	 1.357129522376639e+01	 9.999523928893211e+00
0	 4.571421671338500e+01	 1.428554761849444e+01	 9.999525645038975e+00
0	 4.642852108065613e+01	 7.143009922150926e+00	 9.999108419633311e+00
0	 4.642852108065613e+01	 7.857266066626718e+00	 9.999117997549730e+00
0	 4.642852108065613e+01	 8.571521461152161e+00	 9.999113511772748e+00
0	 4.642852108065613e+01	 9.285776189055182e+00	 9.999100891324742e+00
0	 4.642852108065613e+01	 1.000003033366371e+01	 9.999086065217941e+00
0	 4.642852108065614e+01	 1.071428397830567e+01	 9.999074962454376e+00
0	 4.642852108065614e+01	 1.142853720630899e+01	 9.999073512025911e+00
0	 4.642852108065613e+01	 1.214279010100160e+01	 9.999087642914244e+00
0	 4.642852108065614e+01	 1.285704274571143e+01	 9.999123284090890e+00
0	 4.642852108065613e+01	 1.357129522376639e+01	 9.999186364517186e+00
0	 4.642852108065614e+01	 1.428554761849444e+01	 9.999282813144324e+00
0	 4.714282336458874e+01	 7.143009922150926e+00	 9.998952874174510e+00
0	 4.714282336458874e+01	 7.857266066626722e+00	 9.998867153109080e+00
0	 4.714282336458874e+01	 8.571521461152161e+00	 9.998789840011716e+00
0	 4.714282336458874e+01	 9.285776189055184e+00	 9.998726068038296e+00
0	 4.714282336458874e+01	 1.000003033366371e+01	 9.998680970320809e+00
0	 4.714282336458874e+01	 1.071428397830567e+01	 9.998659679967263e+00
0	 4.714282336458874e+01	 1.142853720630899e+01	 9.998667330061750e+00
0	 4.714282336458874e+01	 1.214279010100160e+01	 9.998709053664424e+00
0	 4.714282336458875e+01	 1.285704274571142e+01	 9.998789983811482e+00
0	 4.714282336458874e+01	 1.357129522376639e+01	 9.998915253515170e+00
0	 4.714282336458874e+01	 1.428554761849444e+01	 9.999089995763841e+00
0	 4.785712298183613e+01	 7.143009922150927e+00	 9.998727618943697e+00
0	 4.785712298183613e+01	 7.857266066626720e+00	 9.998595442057761e+00
0	 4.785712298183613e+01	 8.571521461152164e+00	 9.998488658594992e+00
0	 4.785712298183613e+01	 9.285776189055182e+00	 9.998410734911172e+00
0	 4.785712298183613e+01	 1.000003033366371e+01	 9.998365137331108e+00
0	 4.785712298183614e+01	 1.071428397830567e+01	 9.998355332148599e+00
0	 4.785712298183612e+01	 1.142853720630899e+01	 9.998384785626440e+00
0	 4.785712298183613e+01	 1.214279010100160e+01	 9.998456963996436e+00
0	 4.785712298183613e+01	 1.285704274571142e+01	 9.998575333459403e+00
0	 4.785712298183613e+01	 1.357129522376639e+01	 9.998743360185163e+00
0	 4.785712298183613e+01	 1.428554761849445e+01	 9.998964510312510e+00
0	 4.857141934905160e+01	 7.143009922150926e+00	 9.998414641909573e+00
0	 4.857141934905159e+01	 7.857266066626718e+00	 9.998307364869085e+00
0	 4.857141934905160e+01	 8.571521461152162e+00	 9.998232762900489e+00
0	 4.857141934905160e+01	 9.285776189055184e+00	 9.998191764591990e+00
0	 4.857141934905161e+01	 1.000003033366371e+01	 9.998185298503362e+00
0	 4.857141934905160e+01	 1.071428397830567e+01	 9.998214293166058e+00
0	 4.857141934905161e+01	 1.142853720630899e+01	 9.998279677083064e+00
0	 4.857141934905160e+01	 1.214279010100160e+01	 9.998382378729035e+00
0	 4.857141934905160e+01	 1.285704274571142e+01	 9.998523326550220e+00
0	 4.857141934905160e+01	 1.357129522376639e+01	 9.998703448964445e+00
0	 4.857141934905161e+01	 1.428554761849444e+01	 9.998923674361212e+00
0	 4.928571188288846e+01	 7.143009922150927e+00	 9.997995930911232e+00
0	 4.928571188288846e+01	 7.857266066626719e+00	 9.998007421876062e+00
0	 4.928571188288846e+01	 8.571521461152164e+00	 9.998044948175227e+00
0	 4.928571188288846e+01	 9.285776189055184e+00	 9.998106029623692e+00
0	 4.928571188288846e+01	 1.000003033366371e+01	 9.998188186023270e+00
0	 4.928571188288846e+01	 1.071428397830567e+01	 9.998288937162609e+00
0	 4.928571188288846e+01	 1.142853720630899e+01	 9.998405802817194e+00
0	 4.928571188288846e+01	 1.214279010100160e+01	 9.998536302749336e+00
0	 4.928571188288846e+01	 1.285704274571142e+01	 9.998677956708164e+00
0	 4.928571188288846e+01	 1.357129522376639e+01	 9.998828284429688e+00
0	 4.928571188288846e+01	 1.428554761849444e+01	 9.998984805636709e+00
0	 5.000000000000001e+01	 7.143009922150927e+00	 9.997453473658098e+00
0	 5.000000000000001e+01	 7.857266066626719e+00	 9.997700113271419e+00
0	 5.000000000000001e+01	 8.571521461152161e+00	 9.997948009535364e+00
0	 5.000000000000000e+01	 9.285776189055182e+00	 9.998190402443655e+00
0	 5.000000000000000e+01	 1.000003033366371e+01	 9.998420532007714e+00
0	 4.999999999999999e+01	 1.071428397830567e+01	 9.998631638256544e+00
0	 5.000000000000000e+01	 1.142853720630899e+01	 9.998816961236814e+00
0	 5.000000000000000e+01	 1.214279010100160e+01	 9.998969741012750e+00
0	 4.999999999999999e+01	 1.285704274571142e+01	 9.999083217666261e+00
0	 5.000000000000000e+01	 1.357129522376639e+01	 9.999150631296844e+00
0	 5.000000000000000e+01	 1.428554761849444e+01	 9.999165222021650e+00
0	 4.285699007784908e+01	 1.428554761849444e+01	 1.000065077491520e+01
0	 4.285699007784907e+01	 1.499984997172426e+01	 1.000039534706766e+01
0	 4.285699007784906e+01	 1.571415215828766e+01	 1.000018396233501e+01
0	 4.285699007784907e+01	 1.642845401151721e+01	 1.000001826275108e+01
0	 4.285699007784908e+01	 1.714275536474550e+01	 9.999899890422364e+00
0	 4.285699007784907e+01	 1.785705605130510e+01	 9.999830487528007e+00
0	 4.285699007784908e+01	 1.857135590452858e+01	 9.999811696319799e+00
0	 4.285699007784908e+01	 1.928565475774854e+01	 9.999845159122176e+00
0	 4.285699007784908e+01	 1.999995244429753e+01	 9.999932518332223e+00
0	 4.285699007784907e+01	 2.071424879750816e+01	 1.000007541641970e+01
0	 4.285699007784908e+01	 2.142854365071297e+01	 1.000027549592701e+01
0	 4.357129694500737e+01	 1.428554761849444e+01	 1.000038105599624e+01
0	 4.357129694500738e+01	 1.499984997172426e+01	 1.000014515586296e+01
0	 4.357129694500738e+01	 1.571415215828766e+01	 9.999961160675289e+00
0	 4.357129694500737e+01	 1.642845401151722e+01	 9.999828198038879e+00
0	 4.357129694500737e+01	 1.714275536474550e+01	 9.999745395626498e+00
0	 4.357129694500736e+01	 1.785705605130510e+01	 9.999711881178035e+00
0	 4.357129694500738e+01	 1.857135590452858e+01	 9.999726782500479e+00
0	 4.357129694500738e+01	 1.928565475774854e+01	 9.999789227467971e+00
0	 4.357129694500737e+01	 1.999995244429754e+01	 9.999898344021766e+00
0	 4.357129694500738e+01	 2.071424879750815e+01	 1.000005326017022e+01
0	 4.357129694500737e+01	 2.142854365071296e+01	 1.000025310398883e+01
0	 4.428560406221391e+01	 1.428554761849444e+01	 1.000009208349025e+01
0	 4.428560406221393e+01	 1.499984997172426e+01	 9.999919449891584e+00
0	 4.428560406221393e+01	 1.571415215828766e+01	 9.999795750184781e+00
0	 4.428560406221391e+01	 1.642845401151721e+01	 9.999718270607652e+00
0	 4.428560406221392e+01	 1.714275536474550e+01	 9.999684297448715e+00
0	 4.428560406221392e+01	 1.785705605130509e+01	 9.999691117047215e+00
0	 4.428560406221392e+01	 1.857135590452858e+01	 9.999736015793113e+00
0	 4.428560406221391e+01	 1.928565475774854e+01	 9.999816280127071e+00
0	 4.428560406221392e+01	 1.999995244429753e+01	 9.999929196540474e+00
0	 4.428560406221393e+01	 2.071424879750816e+01	 1.000007205157543e+01
0	 4.428560406221392e+01	 2.142854365071295e+01	 1.000024213182472e+01
0	 4.499991084612203e+01	 1.428554761849445e+01	 9.999801174188704e+00
0	 4.499991084612202e+01	 1.499984997172426e+01	 9.999719469206243e+00
0	 4.499991084612203e+01	 1.571415215828766e+01	 9.999675854758266e+00
0	 4.499991084612203e+01	 1.642845401151722e+01	 9.999666448764644e+00
0	 4.499991084612203e+01	 1.714275536474550e+01	 9.999687369172829e+00
0	 4.499991084612203e+01	 1.785705605130509e+01	 9.999734733957851e+00
0	 4.499991084612203e+01	 1.857135590452858e+01	 9.999804661122319e+00
0	 4.499991084612202e+01	 1.928565475774854e+01	 9.999893268696397e+00
0	 4.499991084612203e+01	 1.999995244429754e+01	 9.999996674737845e+00
0	 4.499991084612202e+01	 2.071424879750816e+01	 1.000011099733200e+01
0	 4.499991084612203e+01	 2.142854365071297e+01	 1.000023235459177e+01
0	 4.571421671338500e+01	 1.428554761849444e+01	 9.999525645038977e+00
0	 4.571421671338501e+01	 1.499984997172427e+01	 9.999546454015029e+00
0	 4.571421671338501e+01	 1.571415215828766e+01	 9.999589598430402e+00
0	 4.571421671338500e+01	 1.642845401151722e+01	 9.999650700929788e+00
0	 4.571421671338501e+01	 1.714275536474550e+01	 9.999725384159696e+00
0	 4.571421671338499e+01	 1.785705605130509e+01	 9.999809270768486e+00
0	 4.571421671338500e+01	 1.857135590452858e+01	 9.999897983406365e+00
0	 4.571421671338501e+01	 1.928565475774853e+01	 9.999987144725411e+00
0	 4.571421671338501e+01	 1.999995244429753e+01	 1.000007237737955e+01
0	 4.571421671338501e+01	 2.071424879750816e+01	 1.000014930402457e+01
0	 4.571421671338499e+01	 2.142854365071296e+01	 1.000021354731806e+01
0	 4.642852108065614e+01	 1.428554761849444e+01	 9.999282813144324e+00
0	 4.642852108065613e+01	 1.499984997172426e+01	 9.999401644681393e+00
0	 4.642852108065614e+01	 1.571415215828766e+01	 9.999525105375731e+00
0	 4.642852108065613e+01	 1.642845401151721e+01	 9.999648995635647e+00
0	 4.642852108065613e+01	 1.714275536474550e+01	 9.999769115847140e+00
0	 4.642852108065613e+01	 1.785705605130510e+01	 9.999881266373865e+00
0	 4.642852108065612e+01	 1.857135590452858e+01	 9.999981247557185e+00
0	 4.642852108065613e+01	 1.928565475774854e+01	 1.000006485971615e+01
0	 4.642852108065614e+01	 1.999995244429753e+01	 1.000012790314750e+01
0	 4.642852108065613e+01	 2.071424879750815e+01	 1.000016617812565e+01
0	 4.642852108065614e+01	 2.142854365071297e+01	 1.000017548490270e+01
0	 4.714282336458874e+01	 1.428554761849444e+01	 9.999089995763841e+00
0	 4.714282336458874e+01	 1.499984997172426e+01	 9.999286281724203e+00
0	 4.714282336458875e+01	 1.571415215828767e+01	 9.999470499908663e+00
0	 4.714282336458874e+01	 1.642845401151722e+01	 9.999639301527454e+00
0	 4.714282336458874e+01	 1.714275536474550e+01	 9.999789337750009e+00
0	 4.714282336458875e+01	 1.785705605130510e+01	 9.999917259705013e+00
0	 4.714282336458874e+01	 1.857135590452858e+01	 1.000001971848036e+01
0	 4.714282336458874e+01	 1.928565475774854e+01	 1.000009336512316e+01
0	 4.714282336458876e+01	 1.999995244429754e+01	 1.000013485063974e+01
0	 4.714282336458875e+01	 2.071424879750815e+01	 1.000014082599571e+01
0	 4.714282336458875e+01	 2.142854365071297e+01	 1.000010794211581e+01
0	 4.785712298183613e+01	 1.428554761849445e+01	 9.998964510312510e+00
0	 4.785712298183613e+01	 1.499984997172426e+01	 9.999201605817685e+00
0	 4.785712298183613e+01	 1.571415215828766e+01	 9.999413906483481e+00
0	 4.785712298183613e+01	 1.642845401151721e+01	 9.999599587363056e+00
0	 4.785712298183612e+01	 1.714275536474550e+01	 9.999756823460183e+00
0	 4.785712298183613e+01	 1.785705605130510e+01	 9.999883789729212e+00
0	 4.785712298183612e+01	 1.857135590452858e+01	 9.999978661075112e+00
0	 4.785712298183613e+01	 1.928565475774854e+01	 1.000003961235350e+01
0	 4.785712298183613e+01	 1.999995244429753e+01	 1.000006481837056e+01
0	 4.785712298183613e+01	 2.071424879750816e+01	 1.000005245388310e+01
0	 4.785712298183611e+01	 2.142854365071296e+01	 1.000000069359852e+01
0	 4.857141934905161e+01	 1.428554761849444e+01	 9.998923674361215e+00
0	 4.857141934905160e+01	 1.499984997172426e+01	 9.999148857791473e+00
0	 4.857141934905160e+01	 1.571415215828766e+01	 9.999343449694372e+00
0	 4.857141934905160e+01	 1.642845401151722e+01	 9.999507822013019e+00
0	 4.857141934905161e+01	 1.714275536474550e+01	 9.999642346646507e+00
0	 4.857141934905160e+01	 1.785705605130510e+01	 9.999747395449921e+00
0	 4.857141934905161e+01	 1.857135590452859e+01	 9.999823340234347e+00
0	 4.857141934905159e+01	 1.928565475774854e+01	 9.999870552766813e+00
0	 4.857141934905160e+01	 1.999995244429754e+01	 9.999889404770402e+00
0	 4.857141934905160e+01	 2.071424879750816e+01	 9.999880267924118e+00
0	 4.857141934905160e+01	 2.142854365071296e+01	 9.999843513862984e+00
0	 4.928571188288846e+01	 1.428554761849444e+01	 9.998984805636709e+00
0	 4.928571188288846e+01	 1.499984997172426e+01	 9.999129278630580e+00
0	 4.928571188288846e+01	 1.571415215828766e+01	 9.999247254275385e+00
0	 4.928571188288846e+01	 1.642845401151722e+01	 9.999341974460513e+00
0	 4.928571188288846e+01	 1.714275536474550e+01	 9.999416681054891e+00
0	 4.928571188288846e+01	 1.785705605130510e+01	 9.999474615906944e+00
0	 4.928571188288846e+01	 1.857135590452858e+01	 9.999519020844584e+00
0	 4.928571188288846e+01	 1.928565475774854e+01	 9.999553137675262e+00
0	 4.928571188288846e+01	 1.999995244429753e+01	 9.999580208185900e+00
0	 4.928571188288846e+01	 2.071424879750816e+01	 9.999603474142937e+00
0	 4.928571188288846e+01	 2.142854365071296e+01	 9.999626177292319e+00
0	 5.000000000000000e+01	 1.428554761849444e+01	 9.999165222021650e+00
0	 5.000000000000000e+01	 1.499984997172426e+01	 9.999144109475482e+00
0	 5.000000000000001e+01	 1.571415215828766e+01	 9.999113445100509e+00
0	 5.000000000000000e+01	 1.642845401151722e+01	 9.999080013801427e+00
0	 4.999999999999999e+01	 1.714275536474550e+01	 9.999050600508246e+00
0	 5.000000000000000e+01	 1.785705605130510e+01	 9.999031990176249e+00
0	 5.000000000000000e+01	 1.857135590452858e+01	 9.999030967786037e+00
0	 5.000000000000000e+01	 1.928565475774854e+01	 9.999054318343518e+00
0	 5.000000000000000e+01	 1.999995244429753e+01	 9.999108826879901e+00
0	 5.000000000000000e+01	 2.071424879750816e+01	 9.999201278451689e+00
0	 5.000000000000001e+01	 2.142854365071296e+01	 9.999338458140702e+00
0	 4.285699007784908e+01	 2.142854365071297e+01	 1.000027549592701e+01
0	 4.285699007784907e+01	 2.214283692057824e+01	 1.000048725124721e+01
0	 4.285699007784908e+01	 2.285712885710493e+01	 1.000066351844104e+01
0	 4.285699007784908e+01	 2.357141979362770e+01	 1.000080345269415e+01
0	 4.285699007784908e+01	 2.428571006348117e+01	 1.000090620930863e+01
0	 4.285699007784908e+01	 2.500000000000001e+01	 1.000097094370297e+01
0	 4.285699007784907e+01	 2.571428993651883e+01	 1.000099681141201e+01
0	 4.285699007784907e+01	 2.642858020637231e+01	 1.000098296808706e+01
0	 4.285699007784906e+01	 2.714287114289507e+01	 1.000092856949580e+01
0	 4.285699007784908e+01	 2.785716307942178e+01	 1.000083277152232e+01
0	 4.285699007784907e+01	 2.857145634928704e+01	 1.000069473016709e+01
0	 4.357129694500737e+01	 2.142854365071296e+01	 1.000025310398883e+01
0	 4.357129694500738e+01	 2.214283692057823e+01	 1.000045447132530e+01
0	 4.357129694500736e+01	 2.285712885710494e+01	 1.000061520634661e+01
0	 4.357129694500738e+01	 2.357141979362770e+01	 1.000073630973673e+01
0	 4.357129694500736e+01	 2.428571006348117e+01	 1.000081878228533e+01
0	 4.357129694500736e+01	 2.500000000000000e+01	 1.000086362488778e+01
0	 4.357129694500737e+01	 2.571428993651884e+01	 1.000087183854511e+01
0	 4.357129694500738e+01	 2.642858020637232e+01	 1.000084442436403e+01
0	 4.357129694500738e+01	 2.714287114289508e+01	 1.000078238355697e+01
0	 4.357129694500737e+01	 2.785716307942177e+01	 1.000068671744203e+01
0	 4.357129694500737e+01	 2.857145634928704e+01	 1.000055842744297e+01
0	 4.428560406221392e+01	 2.142854365071295e+01	 1.000024213182472e+01
0	 4.428560406221392e+01	 2.214283692057824e+01	 1.000040495836565e+01
0	 4.428560406221392e+01	 2.285712885710494e+01	 1.000052940943986e+01
0	 4.428560406221391e+01	 2.357141979362770e+01	 1.000061780748571e+01
0	 4.428560406221393e+01	 2.428571006348117e+01	 1.000067247502272e+01
0	 4.428560406221393e+01	 2.500000000000000e+01	 1.000069573465155e+01
0	 4.428560406221393e+01	 2.571428993651883e+01	 1.000068990905405e+01
0	 4.428560406221391e+01	 2.642858020637231e+01	 1.000065732099318e+01
0	 4.428560406221393e+01	 2.714287114289509e+01	 1.000060029331309e+01
0	 4.428560406221392e+01	 2.785716307942177e+01	 1.000052114893907e+01
0	 4.428560406221392e+01	 2.857145634928704e+01	 1.000042221087758e+01
0	 4.499991084612203e+01	 2.142854365071297e+01	 1.000023235459177e+01
0	 4.499991084612205e+01	 2.214283692057824e+01	 1.000033951693984e+01
0	 4.499991084612203e+01	 2.285712885710494e+01	 1.000041592297180e+01
0	 4.499991084612202e+01	 2.357141979362770e+01	 1.000046469311698e+01
0	 4.499991084612203e+01	 2.428571006348118e+01	 1.000048894785327e+01
0	 4.499991084612203e+01	 2.500000000000001e+01	 1.000049180770708e+01
0	 4.499991084612203e+01	 2.571428993651883e+01	 1.000047639325332e+01
0	 4.499991084612202e+01	 2.642858020637232e+01	 1.000044582511546e+01
0	 4.499991084612203e+01	 2.714287114289507e+01	 1.000040322396549e+01
0	 4.499991084612203e+01	 2.785716307942177e+01	 1.000035171052395e+01
0	 4.499991084612203e+01	 2.857145634928704e+01	 1.000029440555986e+01
0	 4.571421671338499e+01	 2.142854365071296e+01	 1.000021354731806e+01
0	 4.571421671338499e+01	 2.214283692057824e+01	 1.000025895148732e+01
0	 4.571421671338501e+01	 2.285712885710495e+01	 1.000028454207016e+01
0	 4.571421671338499e+01	 2.357141979362770e+01	 1.000029371370154e+01
0	 4.571421671338500e+01	 2.428571006348117e+01	 1.000028986102993e+01
0	 4.571421671338499e+01	 2.500000000000000e+01	 1.000027637871730e+01
0	 4.571421671338499e+01	 2.571428993651883e+01	 1.000025666143917e+01
0	 4.571421671338498e+01	 2.642858020637231e+01	 1.000023410388452e+01
0	 4.571421671338500e+01	 2.714287114289507e+01	 1.000021210075585e+01
0	 4.571421671338499e+01	 2.785716307942177e+01	 1.000019404676918e+01
0	 4.571421671338499e+01	 2.857145634928703e+01	 1.000018333665404e+01
0	 4.642852108065614e+01	 2.142854365071297e+01	 1.000017548490270e+01
0	 4.642852108065613e+01	 2.214283692057824e+01	 1.000016406631529e+01
0	 4.642852108065615e+01	 2.285712885710494e+01	 1.000014506173932e+01
0	 4.642852108065614e+01	 2.357141979362770e+01	 1.000012161620543e+01
0	 4.642852108065613e+01	 2.428571006348117e+01	 1.000009687472609e+01
0	 4.642852108065612e+01	 2.500000000000001e+01	 1.000007398229552e+01
0	 4.642852108065613e+01	 2.571428993651884e+01	 1.000005608388981e+01
0	 4.642852108065613e+01	 2.642858020637231e+01	 1.000004632446679e+01
0	 4.642852108065613e+01	 2.714287114289507e+01	 1.000004784896615e+01
0	 4.642852108065613e+01	 2.785716307942177e+01	 1.000006380230933e+01
0	 4.642852108065615e+01	 2.857145634928704e+01	 1.000009732939963e+01
0	 4.714282336458875e+01	 2.142854365071297e+01	 1.000010794211581e+01
0	 4.714282336458875e+01	 2.214283692057824e+01	 1.000005566559875e+01
0	 4.714282336458875e+01	 2.285712885710494e+01	 1.000000727686035e+01
0	 4.714282336458875e+01	 2.357141979362770e+01	 9.999965147489849e+00
0	 4.714282336458876e+01	 2.428571006348117e+01	 9.999931649035638e+00
0	 4.714282336458874e+01	 2.500000000000000e+01	 9.999909153005223e+00
0	 4.714282336458874e+01	 2.571428993651883e+01	 9.999900030865232e+00
0	 4.714282336458874e+01	 2.642858020637231e+01	 9.999906654041411e+00
0	 4.714282336458874e+01	 2.714287114289508e+01	 9.999931393918652e+00
0	 4.714282336458874e+01	 2.785716307942177e+01	 9.999976621840954e+00
0	 4.714282336458875e+01	 2.857145634928704e+01	 1.000004470911147e+01
0	 4.785712298183611e+01	 2.142854365071296e+01	 1.000000069359852e+01
0	 4.785712298183613e+01	 2.214283692057824e+01	 9.999934553380530e+00
0	 4.785712298183612e+01	 2.285712885710493e+01	 9.999880982190991e+00
0	 4.785712298183613e+01	 2.357141979362770e+01	 9.999841054311036e+00
0	 4.785712298183613e+01	 2.428571006348118e+01	 9.999815843972936e+00
0	 4.785712298183613e+01	 2.500000000000000e+01	 9.999806425360147e+00
0	 4.785712298183613e+01	 2.571428993651884e+01	 9.999813872607318e+00
0	 4.785712298183613e+01	 2.642858020637231e+01	 9.999839259800261e+00
0	 4.785712298183613e+01	 2.714287114289508e+01	 9.999883660975989e+00
0	 4.785712298183613e+01	 2.785716307942177e+01	 9.999948150122652e+00
0	 4.785712298183612e+01	 2.857145634928704e+01	 1.000003380117962e+01
0	 4.857141934905160e+01	 2.142854365071296e+01	 9.999843513862984e+00
0	 4.857141934905160e+01	 2.214283692057824e+01	 9.999801533571189e+00
0	 4.857141934905160e+01	 2.285712885710494e+01	 9.999775972365651e+00
0	 4.857141934905161e+01	 2.357141979362770e+01	 9.999766083320315e+00
0	 4.857141934905159e+01	 2.428571006348117e+01	 9.999771119472772e+00
0	 4.857141934905160e+01	 2.500000000000001e+01	 9.999790333824278e+00
0	 4.857141934905160e+01	 2.571428993651883e+01	 9.999822979339818e+00
0	 4.857141934905160e+01	 2.642858020637231e+01	 9.999868308947967e+00
0	 4.857141934905160e+01	 2.714287114289507e+01	 9.999925575541051e+00
0	 4.857141934905159e+01	 2.785716307942177e+01	 9.999994031975024e+00
0	 4.857141934905160e+01	 2.857145634928703e+01	 1.000007293106953e+01
0	 4.928571188288846e+01	 2.142854365071296e+01	 9.999626177292319e+00
0	 4.928571188288846e+01	 2.214283692057824e+01	 9.999657409949121e+00
0	 4.928571188288846e+01	 2.285712885710494e+01	 9.999702041895425e+00
0	 4.928571188288846e+01	 2.357141979362770e+01	 9.999756981064118e+00
0	 4.928571188288846e+01	 2.428571006348118e+01	 9.999819135390435e+00
0	 4.928571188288845e+01	 2.500000000000000e+01	 9.999885412811880e+00
0	 4.928571188288846e+01	 2.571428993651884e+01	 9.999952721268306e+00
0	 4.928571188288845e+01	 2.642858020637231e+01	 1.000001796870189e+01
0	 4.928571188288846e+01	 2.714287114289507e+01	 1.000007806305708e+01
0	 4.928571188288845e+01	 2.785716307942177e+01	 1.000012991228073e+01
0	 4.928571188288845e+01	 2.857145634928704e+01	 1.000017042432191e+01
0	 5.000000000000001e+01	 2.142854365071296e+01	 9.999338458140702e+00
0	 5.000000000000000e+01	 2.214283692057824e+01	 9.999502986160472e+00
0	 5.000000000000000e+01	 2.285712885710494e+01	 9.999668985168022e+00
0	 5.000000000000000e+01	 2.357141979362770e+01	 9.999830493983946e+00
0	 5.000000000000000e+01	 2.428571006348117e+01	 9.999981551501650e+00
0	 5.000000000000001e+01	 2.500000000000001e+01	 1.000011619668740e+01
0	 5.000000000000001e+01	 2.571428993651884e+01	 1.000022846858026e+01
0	 4.999999999999999e+01	 2.642858020637231e+01	 1.000031240629210e+01
0	 5.000000000000000e+01	 2.714287114289507e+01	 1.000036204900765e+01
0	 4.999999999999999e+01	 2.785716307942177e+01	 1.000037143598443e+01
0	 5.000000000000000e+01	 2.857145634928704e+01	 1.000033460655278e+01
0	 4.285699007784907e+01	 2.857145634928704e+01	 1.000069473016709e+01
0	 4.285699007784908e+01	 2.928575120249185e+01	 1.000054631186052e+01
0	 4.285699007784908e+01	 3.000004755570248e+01	 1.000042011927521e+01
0	 4.285699007784908e+01	 3.071434524225148e+01	 1.000031641288691e+01
0	 4.285699007784907e+01	 3.142864409547143e+01	 1.000023545320425e+01
0	 4.285699007784908e+01	 3.214294394869492e+01	 1.000017750076874e+01
0	 4.285699007784908e+01	 3.285724463525452e+01	 1.000014281615476e+01
0	 4.285699007784908e+01	 3.357154598848280e+01	 1.000013165996956e+01
0	 4.285699007784908e+01	 3.428584784171235e+01	 1.000014429285325e+01
0	 4.285699007784908e+01	 3.500015002827575e+01	 1.000018097547884e+01
0	 4.285699007784907e+01	 3.571445238150555e+01	 1.000024196855218e+01
0	 4.357129694500737e+01	 2.857145634928704e+01	 1.000055842744297e+01
0	 4.357129694500737e+01	 2.928575120249186e+01	 1.000042715619831e+01
0	 4.357129694500736e+01	 3.000004755570248e+01	 1.000032115827998e+01
0	 4.357129694500738e+01	 3.071434524225148e+01	 1.000023935311244e+01
0	 4.357129694500738e+01	 3.142864409547142e+01	 1.000018066014843e+01
0	 4.357129694500737e+01	 3.214294394869492e+01	 1.000014399886907e+01
0	 4.357129694500736e+01	 3.285724463525452e+01	 1.000012828878380e+01
0	 4.357129694500738e+01	 3.357154598848280e+01	 1.000013244943031e+01
0	 4.357129694500738e+01	 3.428584784171235e+01	 1.000015540037470e+01
0	 4.357129694500737e+01	 3.500015002827575e+01	 1.000019606121134e+01
0	 4.357129694500737e+01	 3.571445238150555e+01	 1.000025335156297e+01
0	 4.428560406221392e+01	 2.857145634928704e+01	 1.000042221087758e+01
0	 4.428560406221392e+01	 2.928575120249186e+01	 1.000032641925198e+01
0	 4.428560406221392e+01	 3.000004755570248e+01	 1.000025381947296e+01
0	 4.428560406221393e+01	 3.071434524225148e+01	 1.000020239255328e+01
0	 4.428560406221393e+01	 3.142864409547143e+01	 1.000017011952484e+01
0	 4.428560406221393e+01	 3.214294394869492e+01	 1.000015498143876e+01
0	 4.428560406221393e+01	 3.285724463525452e+01	 1.000015495936531e+01
0	 4.428560406221391e+01	 3.357154598848280e+01	 1.000016803439394e+01
0	 4.428560406221391e+01	 3.428584784171233e+01	 1.000019218763326e+01
0	 4.428560406221391e+01	 3.500015002827573e+01	 1.000022540021106e+01
0	 4.428560406221392e+01	 3.571445238150557e+01	 1.000026565327433e+01
0	 4.499991084612203e+01	 2.857145634928704e+01	 1.000029440555986e+01
0	 4.499991084612202e+01	 2.928575120249186e+01	 1.000024479294487e+01
0	 4.499991084612203e+01	 3.000004755570247e+01	 1.000021257282705e+01
0	 4.499991084612202e+01	 3.071434524225147e+01	 1.000019519043206e+01
0	 4.499991084612203e+01	 3.142864409547143e+01	 1.000019009099302e+01
0	 4.499991084612203e+01	 3.214294394869492e+01	 1.000019471975040e+01
0	 4.499991084612202e+01	 3.285724463525451e+01	 1.000020652195207e+01
0	 4.499991084612203e+01	 3.357154598848279e+01	 1.000022294285335e+01
0	 4.499991084612203e+01	 3.428584784171236e+01	 1.000024142771690e+01
0	 4.499991084612203e+01	 3.500015002827575e+01	 1.000025942181282e+01
0	 4.499991084612202e+01	 3.571445238150555e+01	 1.000027437041858e+01
0	 4.571421671338499e+01	 2.857145634928703e+01	 1.000018333665404e+01
0	 4.571421671338500e+01	 2.928575120249186e+01	 1.000018296927864e+01
0	 4.571421671338499e+01	 3.000004755570248e+01	 1.000019188838745e+01
0	 4.571421671338501e+01	 3.071434524225148e+01	 1.000020740603070e+01
0	 4.571421671338500e+01	 3.142864409547143e+01	 1.000022683425364e+01
0	 4.571421671338500e+01	 3.214294394869492e+01	 1.000024748509645e+01
0	 4.571421671338500e+01	 3.285724463525451e+01	 1.000026667059433e+01
0	 4.571421671338500e+01	 3.357154598848280e+01	 1.000028170277742e+01
0	 4.571421671338501e+01	 3.428584784171235e+01	 1.000028989367086e+01
0	 4.571421671338499e+01	 3.500015002827575e+01	 1.000028855529476e+01
0	 4.571421671338501e+01	 3.571445238150556e+01	 1.000027499966418e+01
0	 4.642852108065615e+01	 2.857145634928704e+01	 1.000009732939963e+01
0	 4.642852108065613e+01	 2.928575120249186e+01	 1.000014164033327e+01
0	 4.642852108065615e+01	 3.000004755570247e+01	 1.000018623627170e+01
0	 4.642852108065613e+01	 3.071434524225148e+01	 1.000022869869036e+01
0	 4.642852108065613e+01	 3.142864409547142e+01	 1.000026660904851e+01
0	 4.642852108065613e+01	 3.214294394869492e+01	 1.000029754878932e+01
0	 4.642852108065615e+01	 3.285724463525451e+01	 1.000031909933986e+01
0	 4.642852108065613e+01	 3.357154598848279e+01	 1.000032884211102e+01
0	 4.642852108065613e+01	 3.428584784171234e+01	 1.000032435849760e+01
0	 4.642852108065613e+01	 3.500015002827575e+01	 1.000030322987828e+01
0	 4.642852108065613e+01	 3.571445238150556e+01	 1.000026303761561e+01
0	 4.714282336458875e+01	 2.857145634928704e+01	 1.000004470911147e+01
0	 4.714282336458874e+01	 2.928575120249186e+01	 1.000012149826705e+01
0	 4.714282336458875e+01	 3.000004755570247e+01	 1.000019008666969e+01
0	 4.714282336458874e+01	 3.071434524225147e+01	 1.000024872781147e+01
0	 4.714282336458874e+01	 3.142864409547143e+01	 1.000029567516059e+01
0	 4.714282336458875e+01	 3.214294394869491e+01	 1.000032918216131e+01
0	 4.714282336458875e+01	 3.285724463525452e+01	 1.000034750223395e+01
0	 4.714282336458874e+01	 3.357154598848280e+01	 1.000034888877494e+01
0	 4.714282336458875e+01	 3.428584784171235e+01	 1.000033159515679e+01
0	 4.714282336458875e+01	 3.500015002827575e+01	 1.000029387472808e+01
0	 4.714282336458874e+01	 3.571445238150555e+01	 1.000023398081345e+01
0	 4.785712298183612e+01	 2.857145634928704e+01	 1.000003380117962e+01
0	 4.785712298183613e+01	 2.928575120249186e+01	 1.000012323531661e+01
0	 4.785712298183612e+01	 3.000004755570247e+01	 1.000019790984358e+01
0	 4.785712298183613e+01	 3.071434524225147e+01	 1.000025715285378e+01
0	 4.785712298183613e+01	 3.142864409547143e+01	 1.000030029241398e+01
0	 4.785712298183613e+01	 3.214294394869492e+01	 1.000032665656454e+01
0	 4.785712298183613e+01	 3.285724463525451e+01	 1.000033557331940e+01
0	 4.785712298183613e+01	 3.357154598848280e+01	 1.000032637066600e+01
0	 4.785712298183613e+01	 3.428584784171235e+01	 1.000029837656538e+01
0	 4.785712298183613e+01	 3.500015002827575e+01	 1.000025091895212e+01
0	 4.785712298183613e+01	 3.571445238150555e+01	 1.000018332573438e+01
0	 4.857141934905160e+01	 2.857145634928703e+01	 1.000007293106953e+01
0	 4.857141934905160e+01	 2.928575120249186e+01	 1.000014754379692e+01
0	 4.857141934905160e+01	 3.000004755570247e+01	 1.000020417612793e+01
0	 4.857141934905160e+01	 3.071434524225148e+01	 1.000024363333628e+01
0	 4.857141934905161e+01	 3.142864409547143e+01	 1.000026672067389e+01
0	 4.857141934905160e+01	 3.214294394869491e+01	 1.000027424337114e+01
0	 4.857141934905160e+01	 3.285724463525450e+01	 1.000026700663652e+01
0	 4.857141934905161e+01	 3.357154598848280e+01	 1.000024581565693e+01
0	 4.857141934905160e+01	 3.428584784171235e+01	 1.000021147559749e+01
0	 4.857141934905160e+01	 3.500015002827575e+01	 1.000016479160164e+01
0	 4.857141934905160e+01	 3.571445238150555e+01	 1.000010656879114e+01
0	 4.928571188288845e+01	 2.857145634928704e+01	 1.000017042432191e+01
0	 4.928571188288846e+01	 2.928575120249186e+01	 1.000019511610126e+01
0	 4.928571188288846e+01	 3.000004755570248e+01	 1.000020335592959e+01
0	 4.928571188288846e+01	 3.071434524225147e+01	 1.000019782883724e+01
0	 4.928571188288846e+01	 3.142864409547142e+01	 1.000018121984677e+01
0	 4.928571188288846e+01	 3.214294394869491e+01	 1.000015621397306e+01
0	 4.928571188288845e+01	 3.285724463525451e+01	 1.000012549622318e+01
0	 4.928571188288846e+01	 3.357154598848280e+01	 1.000009175159647e+01
0	 4.928571188288846e+01	 3.428584784171235e+01	 1.000005766508454e+01
0	 4.928571188288846e+01	 3.500015002827575e+01	 1.000002592167118e+01
0	 4.928571188288846e+01	 3.571445238150555e+01	 9.999999206332522e+00
0	 5.000000000000000e+01	 2.857145634928704e+01	 1.000033460655278e+01
0	 5.000000000000000e+01	 2.928575120249186e+01	 1.000026664470126e+01
0	 4.999999999999999e+01	 3.000004755570248e+01	 1.000018991972777e+01
0	 5.000000000000000e+01	 3.071434524225148e+01	 1.000010939899425e+01
0	 4.999999999999999e+01	 3.142864409547142e+01	 1.000003004988010e+01
0	 5.000000000000000e+01	 3.214294394869492e+01	 9.999956839782175e+00
0	 4.999999999999999e+01	 3.285724463525451e+01	 9.999894736114689e+00
0	 5.000000000000000e+01	 3.357154598848280e+01	 9.999848706309317e+00
0	 4.999999999999999e+01	 3.428584784171235e+01	 9.999823717815099e+00
0	 5.000000000000001e+01	 3.500015002827575e+01	 9.999824738098498e+00
0	 5.000000000000000e+01	 3.571445238150555e+01	 9.999856734643428e+00
0	 4.285699007784907e+01	 3.571445238150555e+01	 1.000024196855218e+01
0	 4.285699007784907e+01	 3.642870477623359e+01	 1.000030712029425e+01
0	 4.285699007784907e+01	 3.714295725428857e+01	 1.000035595100495e+01
0	 4.285699007784908e+01	 3.785720989899839e+01	 1.000038821416310e+01
0	 4.285699007784907e+01	 3.857146279369100e+01	 1.000040366325954e+01
0	 4.285699007784906e+01	 3.928571602169431e+01	 1.000040205179714e+01
0	 4.285699007784908e+01	 3.999996966633628e+01	 1.000038313329076e+01
0	 4.285699007784908e+01	 4.071422381094481e+01	 1.000034666126730e+01
0	 4.285699007784908e+01	 4.142847853884783e+01	 1.000029238926566e+01
0	 4.285699007784908e+01	 4.214273393337328e+01	 1.000022007083678e+01
0	 4.285699007784907e+01	 4.285699007784908e+01	 1.000012945954355e+01
0	 4.357129694500737e+01	 3.571445238150555e+01	 1.000025335156297e+01
0	 4.357129694500738e+01	 3.642870477623360e+01	 1.000030913690160e+01
0	 4.357129694500738e+01	 3.714295725428858e+01	 1.000034660314982e+01
0	 4.357129694500737e+01	 3.785720989899841e+01	 1.000036663693380e+01
0	 4.357129694500735e+01	 3.857146279369100e+01	 1.000037012488990e+01
0	 4.357129694500737e+01	 3.928571602169432e+01	 1.000035795366468e+01
0	 4.357129694500738e+01	 3.999996966633629e+01	 1.000033100991481e+01
0	 4.357129694500738e+01	 4.071422381094482e+01	 1.000029018030718e+01
0	 4.357129694500736e+01	 4.142847853884783e+01	 1.000023635151881e+01
0	 4.357129694500737e+01	 4.214273393337327e+01	 1.000017041023689e+01
0	 4.357129694500737e+01	 4.285699007784908e+01	 1.000009324315879e+01
0	 4.428560406221392e+01	 3.571445238150557e+01	 1.000026565327432e+01
0	 4.428560406221392e+01	 3.642870477623360e+01	 1.000029992872785e+01
0	 4.428560406221393e+01	 3.714295725428858e+01	 1.000031766893388e+01
0	 4.428560406221393e+01	 3.785720989899841e+01	 1.000032053669405e+01
0	 4.428560406221391e+01	 3.857146279369100e+01	 1.000031019481665e+01
0	 4.428560406221392e+01	 3.928571602169433e+01	 1.000028830611669e+01
0	 4.428560406221393e+01	 3.999996966633628e+01	 1.000025653341577e+01
0	 4.428560406221392e+01	 4.071422381094482e+01	 1.000021653954222e+01
0	 4.428560406221393e+01	 4.142847853884784e+01	 1.000016998733101e+01
0	 4.428560406221391e+01	 4.214273393337326e+01	 1.000011853962377e+01
0	 4.428560406221392e+01	 4.285699007784908e+01	 1.000006385926881e+01
0	 4.499991084612202e+01	 3.571445238150555e+01	 1.000027437041858e+01
0	 4.499991084612204e+01	 3.642870477623361e+01	 1.000028023139352e+01
0	 4.499991084612202e+01	 3.714295725428855e+01	 1.000027405550488e+01
0	 4.499991084612204e+01	 3.785720989899841e+01	 1.000025792475873e+01
0	 4.499991084612203e+01	 3.857146279369100e+01	 1.000023392116344e+01
0	 4.499991084612202e+01	 3.928571602169433e+01	 1.000020412672962e+01
0	 4.499991084612203e+01	 3.999996966633629e+01	 1.000017062347013e+01
0	 4.499991084612203e+01	 4.071422381094482e+01	 1.000013549340015e+01
0	 4.499991084612203e+01	 4.142847853884783e+01	 1.000010081853707e+01
0	 4.499991084612203e+01	 4.214273393337327e+01	 1.000006868090054e+01
0	 4.499991084612203e+01	 4.285699007784908e+01	 1.000004116251251e+01
0	 4.571421671338501e+01	 3.571445238150556e+01	 1.000027499966418e+01
0	 4.571421671338500e+01	 3.642870477623360e+01	 1.000025078045615e+01
0	 4.571421671338499e+01	 3.714295725428857e+01	 1.000022066995541e+01
0	 4.571421671338501e+01	 3.785720989899840e+01	 1.000018681240069e+01
0	 4.571421671338499e+01	 3.857146279369100e+01	 1.000015135202843e+01
0	 4.571421671338500e+01	 3.928571602169433e+01	 1.000011643307278e+01
0	 4.571421671338499e+01	 3.999996966633628e+01	 1.000008419976560e+01
0	 4.571421671338499e+01	 4.071422381094482e+01	 1.000005679633641e+01
0	 4.571421671338499e+01	 4.142847853884783e+01	 1.000003636701248e+01
0	 4.571421671338499e+01	 4.214273393337327e+01	 1.000002505601881e+01
0	 4.571421671338501e+01	 4.285699007784908e+01	 1.000002500757800e+01
0	 4.642852108065613e+01	 3.571445238150556e+01	 1.000026303761561e+01
0	 4.642852108065615e+01	 3.642870477623359e+01	 1.000021231141025e+01
0	 4.642852108065614e+01	 3.714295725428858e+01	 1.000016241932295e+01
0	 4.642852108065614e+01	 3.785720989899841e+01	 1.000011521085076e+01
0	 4.642852108065615e+01	 3.857146279369100e+01	 1.000007253548441e+01
0	 4.642852108065613e+01	 3.928571602169432e+01	 1.000003624270842e+01
0	 4.642852108065615e+01	 3.999996966633629e+01	 1.000000818200100e+01
0	 4.642852108065613e+01	 4.071422381094482e+01	 9.999990202834141e+00
0	 4.642852108065613e+01	 4.142847853884783e+01	 9.999984154673532e+00
0	 4.642852108065613e+01	 4.214273393337327e+01	 9.999991886978622e+00
0	 4.642852108065613e+01	 4.285699007784907e+01	 1.000001524920258e+01
0	 4.714282336458874e+01	 3.571445238150555e+01	 1.000023398081345e+01
0	 4.714282336458876e+01	 3.642870477623361e+01	 1.000016555968731e+01
0	 4.714282336458874e+01	 3.714295725428858e+01	 1.000010421058986e+01
0	 4.714282336458875e+01	 3.785720989899841e+01	 1.000005113129775e+01
0	 4.714282336458874e+01	 3.857146279369099e+01	 1.000000751957872e+01
0	 4.714282336458874e+01	 3.928571602169432e+01	 9.999974573191631e+00
0	 4.714282336458874e+01	 3.999996966633628e+01	 9.999953489886465e+00
0	 4.714282336458876e+01	 4.071422381094482e+01	 9.999945467404252e+00
0	 4.714282336458874e+01	 4.142847853884784e+01	 9.999951703477199e+00
0	 4.714282336458874e+01	 4.214273393337327e+01	 9.999973395828556e+00
0	 4.714282336458875e+01	 4.285699007784908e+01	 1.000001174217273e+01
0	 4.785712298183613e+01	 3.571445238150555e+01	 1.000018332573438e+01
0	 4.785712298183611e+01	 3.642870477623359e+01	 1.000011126065583e+01
0	 4.785712298183613e+01	 3.714295725428857e+01	 1.000005095068335e+01
0	 4.785712298183612e+01	 3.785720989899840e+01	 1.000000258488846e+01
0	 4.785712298183613e+01	 3.857146279369100e+01	 9.999966352333260e+00
0	 4.785712298183613e+01	 3.928571602169433e+01	 9.999942442070447e+00
0	 4.785712298183613e+01	 3.999996966633628e+01	 9.999931043143210e+00
0	 4.785712298183613e+01	 4.071422381094481e+01	 9.999932344585357e+00
0	 4.785712298183612e+01	 4.142847853884783e+01	 9.999946535421213e+00
0	 4.785712298183613e+01	 4.214273393337328e+01	 9.999973804665661e+00
0	 4.785712298183613e+01	 4.285699007784907e+01	 1.000001434132420e+01
0	 4.857141934905160e+01	 3.571445238150555e+01	 1.000010656879114e+01
0	 4.857141934905159e+01	 3.642870477623359e+01	 1.000005014962128e+01
0	 4.857141934905160e+01	 3.714295725428857e+01	 1.000000754647547e+01
0	 4.857141934905160e+01	 3.785720989899839e+01	 9.999977582727638e+00
0	 4.857141934905159e+01	 3.857146279369100e+01	 9.999959081744532e+00
0	 4.857141934905158e+01	 3.928571602169432e+01	 9.999950866885738e+00
0	 4.857141934905160e+01	 3.999996966633628e+01	 9.999951761503731e+00
0	 4.857141934905160e+01	 4.071422381094482e+01	 9.999960588943773e+00
0	 4.857141934905160e+01	 4.142847853884783e+01	 9.999976172544010e+00
0	 4.857141934905161e+01	 4.214273393337328e+01	 9.999997335635452e+00
0	 4.857141934905160e+01	 4.285699007784908e+01	 1.000002290154192e+01
0	 4.928571188288846e+01	 3.571445238150555e+01	 9.999999206332522e+00
0	 4.928571188288846e+01	 3.642870477623359e+01	 9.999982961826095e+00
0	 4.928571188288846e+01	 3.714295725428857e+01	 9.999978904783209e+00
0	 4.928571188288846e+01	 3.785720989899840e+01	 9.999984135878087e+00
0	 4.928571188288846e+01	 3.857146279369100e+01	 9.999995755783576e+00
0	 4.928571188288846e+01	 3.928571602169433e+01	 1.000001086517132e+01
0	 4.928571188288846e+01	 3.999996966633628e+01	 1.000002656471164e+01
0	 4.928571188288846e+01	 4.071422381094481e+01	 1.000003995507357e+01
0	 4.928571188288846e+01	 4.142847853884783e+01	 1.000004813692485e+01
0	 4.928571188288846e+01	 4.214273393337328e+01	 1.000004821093194e+01
0	 4.928571188288846e+01	 4.285699007784908e+01	 1.000003727776005e+01
0	 5.000000000000000e+01	 3.571445238150555e+01	 9.999856734643428e+00
0	 4.999999999999998e+01	 3.642870477623359e+01	 9.999910432449724e+00
0	 5.000000000000000e+01	 3.714295725428858e+01	 9.999969932368376e+00
0	 5.000000000000001e+01	 3.785720989899839e+01	 1.000003025536050e+01
0	 5.000000000000001e+01	 3.857146279369101e+01	 1.000008642239602e+01
0	 5.000000000000000e+01	 3.928571602169433e+01	 1.000013345445387e+01
0	 5.000000000000000e+01	 3.999996966633629e+01	 1.000016637252179e+01
0	 5.000000000000001e+01	 4.071422381094481e+01	 1.000018019759653e+01
0	 4.999999999999999e+01	 4.142847853884783e+01	 1.000016995068364e+01
0	 5.000000000000000e+01	 4.214273393337328e+01	 1.000013065279763e+01
0	 5.000000000000001e+01	 4.285699007784908e+01	 1.000005732496193e+01
0	 4.285699007784907e+01	 4.285699007784908e+01	 1.000012945954355e+01
0	 4.285699007784908e+01	 4.357129694500737e+01	 1.000004133774611e+01
0	 4.285699007784906e+01	 4.428560406221393e+01	 9.999976337621399e+00
0	 4.285699007784908e+01	 4.499991084612203e+01	 9.999933966591145e+00
0	 4.285699007784908e+01	 4.571421671338501e+01	 9.999913732199452e+00
0	 4.285699007784907e+01	 4.642852108065613e+01	 9.999915142112890e+00
0	 4.285699007784908e+01	 4.714282336458876e+01	 9.999937704120487e+00
0	 4.285699007784908e+01	 4.785712298183613e+01	 9.999980926133709e+00
0	 4.285699007784908e+01	 4.857141934905160e+01	 1.000004431618645e+01
0	 4.285699007784908e+01	 4.928571188288846e+01	 1.000012738243508e+01
0	 4.285699007784908e+01	 5.000000000000001e+01	 1.000022963315846e+01
0	 4.357129694500737e+01	 4.285699007784908e+01	 1.000009324315879e+01
0	 4.357129694500738e+01	 4.357129694500737e+01	 1.000002266534794e+01
0	 4.357129694500736e+01	 4.428560406221393e+01	 9.999974508391514e+00
0	 4.357129694500738e+01	 4.499991084612203e+01	 9.999946666532212e+00
0	 4.357129694500736e+01	 4.571421671338500e+01	 9.999937034112465e+00
0	 4.357129694500736e+01	 4.642852108065613e+01	 9.999943505574343e+00
0	 4.357129694500738e+01	 4.714282336458875e+01	 9.999963975459554e+00
0	 4.357129694500737e+01	 4.785712298183613e+01	 9.999996338409550e+00
0	 4.357129694500737e+01	 4.857141934905162e+01	 1.000003848916543e+01
0	 4.357129694500738e+01	 4.928571188288846e+01	 1.000008832256790e+01
0	 4.357129694500737e+01	 4.999999999999999e+01	 1.000014373355756e+01
0	 4.428560406221392e+01	 4.285699007784908e+01	 1.000006385926881e+01
0	 4.428560406221392e+01	 4.357129694500737e+01	 1.000001810955421e+01
0	 4.428560406221393e+01	 4.428560406221393e+01	 9.999990256926628e+00
0	 4.428560406221391e+01	 4.499991084612203e+01	 9.999977157318886e+00
0	 4.428560406221392e+01	 4.571421671338499e+01	 9.999975666727941e+00
0	 4.428560406221393e+01	 4.642852108065613e+01	 9.999982641214832e+00
0	 4.428560406221392e+01	 4.714282336458875e+01	 9.999994936904704e+00
0	 4.428560406221393e+01	 4.785712298183614e+01	 1.000000940998688e+01
0	 4.428560406221393e+01	 4.857141934905160e+01	 1.000002291671476e+01
0	 4.428560406221391e+01	 4.928571188288846e+01	 1.000003231340584e+01
0	 4.428560406221392e+01	 5.000000000000001e+01	 1.000003445644183e+01
0	 4.499991084612203e+01	 4.285699007784908e+01	 1.000004116251251e+01
0	 4.499991084612203e+01	 4.357129694500738e+01	 1.000002330641978e+01
0	 4.499991084612203e+01	 4.428560406221393e+01	 1.000001636606283e+01
0	 4.499991084612203e+01	 4.499991084612203e+01	 1.000001673392441e+01
0	 4.499991084612203e+01	 4.571421671338501e+01	 1.000002080250977e+01
0	 4.499991084612203e+01	 4.642852108065615e+01	 1.000002496434662e+01
0	 4.499991084612203e+01	 4.714282336458874e+01	 1.000002561198508e+01
0	 4.499991084612203e+01	 4.785712298183613e+01	 1.000001913799786e+01
0	 4.499991084612203e+01	 4.857141934905160e+01	 1.000000193498002e+01
0	 4.499991084612202e+01	 4.928571188288844e+01	 9.999970395549180e+00
0	 4.499991084612202e+01	 5.000000000000000e+01	 9.999920912345384e+00
0	 4.571421671338501e+01	 4.285699007784908e+01	 1.000002500757801e+01
0	 4.571421671338499e+01	 4.357129694500737e+01	 1.000003389204145e+01
0	 4.571421671338499e+01	 4.428560406221391e+01	 1.000004561866484e+01
0	 4.571421671338499e+01	 4.499991084612203e+01	 1.000005669133432e+01
0	 4.571421671338499e+01	 4.571421671338497e+01	 1.000006361391753e+01
0	 4.571421671338500e+01	 4.642852108065614e+01	 1.000006289026344e+01
0	 4.571421671338501e+01	 4.714282336458874e+01	 1.000005102420253e+01
0	 4.571421671338499e+01	 4.785712298183611e+01	 1.000002451954662e+01
0	 4.571421671338501e+01	 4.857141934905160e+01	 9.999979880089004e+00
0	 4.571421671338501e+01	 4.928571188288847e+01	 9.999913609604450e+00
0	 4.571421671338500e+01	 4.999999999999999e+01	 9.999822211848990e+00
0	 4.642852108065613e+01	 4.285699007784907e+01	 1.000001524920259e+01
0	 4.642852108065613e+01	 4.357129694500737e+01	 1.000004550255795e+01
0	 4.642852108065613e+01	 4.428560406221392e+01	 1.000007079762612e+01
0	 4.642852108065614e+01	 4.499991084612203e+01	 1.000008832454657e+01
0	 4.642852108065614e+01	 4.571421671338501e+01	 1.000009527340643e+01
0	 4.642852108065614e+01	 4.642852108065614e+01	 1.000008883424056e+01
0	 4.642852108065613e+01	 4.714282336458874e+01	 1.000006619703140e+01
0	 4.642852108065613e+01	 4.785712298183613e+01	 1.000002455170915e+01
0	 4.642852108065614e+01	 4.857141934905159e+01	 9.999961088151565e+00
0	 4.642852108065613e+01	 4.928571188288846e+01	 9.999872996184132e+00
0	 4.642852108065614e+01	 5.000000000000001e+01	 9.999757465579995e+00
0	 4.714282336458875e+01	 4.285699007784908e+01	 1.000001174217273e+01
0	 4.714282336458875e+01	 4.357129694500738e+01	 1.000005377414994e+01
0	 4.714282336458875e+01	 4.428560406221391e+01	 1.000008468586882e+01
0	 4.714282336458875e+01	 4.499991084612203e+01	 1.000010292857137e+01
0	 4.714282336458874e+01	 4.571421671338501e+01	 1.000010695342738e+01
0	 4.714282336458875e+01	 4.642852108065614e+01	 1.000009521153466e+01
0	 4.714282336458874e+01	 4.714282336458875e+01	 1.000006615391880e+01
0	 4.714282336458874e+01	 4.785712298183613e+01	 1.000001823153335e+01
0	 4.714282336458874e+01	 4.857141934905159e+01	 9.999949895259665e+00
0	 4.714282336458875e+01	 4.928571188288847e+01	 9.999859595907051e+00
0	 4.714282336458874e+01	 4.999999999999999e+01	 9.999745784212607e+00
0	 4.785712298183613e+01	 4.285699007784907e+01	 1.000001434132420e+01
0	 4.785712298183613e+01	 4.357129694500738e+01	 1.000005434304003e+01
0	 4.785712298183613e+01	 4.428560406221392e+01	 1.000008006634383e+01
0	 4.785712298183613e+01	 4.499991084612203e+01	 1.000009179843133e+01
0	 4.785712298183613e+01	 4.571421671338499e+01	 1.000008982642694e+01
0	 4.785712298183612e+01	 4.642852108065613e+01	 1.000007443738397e+01
0	 4.785712298183613e+01	 4.714282336458874e+01	 1.000004591828439e+01
0	 4.785712298183613e+01	 4.785712298183613e+01	 1.000000455603905e+01
0	 4.785712298183613e+01	 4.857141934905160e+01	 9.999950637487458e+00
0	 4.785712298183613e+01	 4.928571188288846e+01	 9.999884449397985e+00
0	 4.785712298183613e+01	 5.000000000000000e+01	 9.999806278467684e+00
0	 4.857141934905160e+01	 4.285699007784908e+01	 1.000002290154192e+01
0	 4.857141934905160e+01	 4.357129694500738e+01	 1.000004284549273e+01
0	 4.857141934905159e+01	 4.428560406221392e+01	 1.000004972203069e+01
0	 4.857141934905160e+01	 4.499991084612203e+01	 1.000004622916138e+01
0	 4.857141934905160e+01	 4.571421671338500e+01	 1.000003506484734e+01
0	 4.857141934905160e+01	 4.642852108065614e+01	 1.000001892700818e+01
0	 4.857141934905160e+01	 4.714282336458874e+01	 1.000000051352050e+01
0	 4.857141934905160e+01	 4.785712298183613e+01	 9.999982522217953e+00
0	 4.857141934905160e+01	 4.857141934905160e+01	 9.999967650891223e+00
0	 4.857141934905161e+01	 4.928571188288846e+01	 9.999958597287920e+00
0	 4.857141934905160e+01	 5.000000000000000e+01	 9.999958059112791e+00
0	 4.928571188288846e+01	 4.285699007784908e+01	 1.000003727776005e+01
0	 4.928571188288846e+01	 4.357129694500737e+01	 1.000001491781452e+01
0	 4.928571188288845e+01	 4.428560406221392e+01	 9.999986435937721e+00
0	 4.928571188288846e+01	 4.499991084612203e+01	 9.999957515808855e+00
0	 4.928571188288845e+01	 4.571421671338499e+01	 9.999933841126497e+00
0	 4.928571188288846e+01	 4.642852108065613e+01	 9.999921095608498e+00
0	 4.928571188288846e+01	 4.714282336458875e+01	 9.999924962992079e+00
0	 4.928571188288846e+01	 4.785712298183613e+01	 9.999951127033707e+00
0	 4.928571188288846e+01	 4.857141934905161e+01	 1.000000527150929e+01
0	 4.928571188288846e+01	 4.928571188288846e+01	 1.000009308021395e+01
0	 4.928571188288846e+01	 5.000000000000000e+01	 1.000022023696218e+01
0	 5.000000000000001e+01	 4.285699007784908e+01	 1.000005732496193e+01
0	 4.999999999999999e+01	 4.357129694500737e+01	 9.999966196353817e+00
0	 5.000000000000001e+01	 4.428560406221392e+01	 9.999882991101884e+00
0	 5.000000000000000e+01	 4.499991084612202e+01	 9.999816953433360e+00
0	 4.999999999999999e+01	 4.571421671338500e+01	 9.999777327697963e+00
0	 5.000000000000001e+01	 4.642852108065614e+01	 9.999773358367591e+00
0	 4.999999999999999e+01	 4.714282336458874e+01	 9.999814290036669e+00
0	 5.000000000000000e+01	 4.785712298183613e+01	 9.999909367421862e+00
0	 5.000000000000000e+01	 4.857141934905160e+01	 1.000006783536226e+01
0	 5.000000000000000e+01	 4.928571188288846e+01	 1.000029893881931e+01
0	 5.000000000000000e+01	 5.000000000000000e+01	 1.000061192287694e+01
1	 1.000000000000000e+00	 0.000000000000000e+00	 7.443433232400060e+00
1	 9.998338218507750e-01	 2.301879740688203e-02	 7.481360651407902e+00
1	 9.993275599243348e-01	 4.608215271279779e-02	 7.502345669823105e+00
1	 9.984697124756583e-01	 6.917769523648053e-02	 7.505068058329243e+00
1	 9.972489236794969e-01	 9.229260277661558e-02	 7.488127994825008e+00
1	 9.956540178012001e-01	 1.154136152499791e-01	 7.450046168068449e+00
1	 9.936740343365396e-01	 1.385270506335803e-01	 7.389264560669206e+00
1	 9.912982639881663e-01	 1.616188232546628e-01	 7.304147988232172e+00
1	 9.885162853320295e-01	 1.846744644584668e-01	 7.192986470206575e+00
1	 9.853180020131134e-01	 2.076791456684508e-01	 7.053998505065820e+00
1	 9.816936802964240e-01	 2.306177038372821e-01	 6.885335317633800e+00
1	 1.014285762337685e+00	 0.000000000000000e+00	 7.114424919820644e+00
1	 1.014117210207158e+00	 2.334763847636930e-02	 7.139716977072582e+00
1	 1.013603715943827e+00	 4.674047139590417e-02	 7.148523872405260e+00
1	 1.012733613491393e+00	 7.016595135258462e-02	 7.139555010227111e+00
1	 1.011495384797893e+00	 9.361107297002941e-02	 7.111449222256193e+00
1	 1.009877694474696e+00	 1.170623867344661e-01	 7.062775422219517e+00
1	 1.007869425438318e+00	 1.405060151646194e-01	 6.992033916966133e+00
1	 1.005459715400836e+00	 1.639276713629985e-01	 6.897658441111430e+00
1	 1.002637994060108e+00	 1.873126799789160e-01	 6.778018980310919e+00
1	 9.993940208268849e-01	 2.106460005981402e-01	 6.631425444659182e+00
1	 9.957179229122425e-01	 2.339122535574748e-01	 6.456132248357282e+00
1	 1.028571613012482e+00	 0.000000000000000e+00	 6.791184555169535e+00
1	 1.028400686885902e+00	 2.367648157850007e-02	 6.806382502159114e+00
1	 1.027879960240766e+00	 4.739879414830282e-02	 6.805555686114579e+00
1	 1.026997602708497e+00	 7.115421357755074e-02	 6.787438560293552e+00
1	 1.025741934009444e+00	 9.492955131367199e-02	 6.750703528940986e+00
1	 1.024101459100028e+00	 1.187111684111830e-01	 6.693962172815976e+00
1	 1.022064904316570e+00	 1.424849919293243e-01	 6.615767113310635e+00
1	 1.019621254379648e+00	 1.662365337446359e-01	 6.514614572832231e+00
1	 1.016759790108138e+00	 1.899509118092326e-01	 6.388947686278681e+00
1	 1.013470126677695e+00	 2.136128738698931e-01	 6.237160614098689e+00
1	 1.009742252244628e+00	 2.372068236462269e-01	 6.057603501458018e+00
1	 1.042857540357000e+00	 0.000000000000000e+00	 6.474520898191818e+00
1	 1.042684240221567e+00	 2.400532644483651e-02	 6.481807897010302e+00
1	 1.042156281155643e+00	 4.805712043257811e-02	 6.473537229217289e+00
1	 1.041261668477513e+00	 7.214248110459021e-02	 6.448463844116223e+00
1	 1.039988559678984e+00	 9.624803673113663e-02	 6.405288676387036e+00
1	 1.038325300060698e+00	 1.203599589340155e-01	 6.342660461764375e+00
1	 1.036260459377960e+00	 1.444639793119433e-01	 6.259178178517666e+00
1	 1.033782869359052e+00	 1.685454085144208e-01	 6.153394163194573e+00
1	 1.030881661943093e+00	 1.925891577952661e-01	 6.023817945374086e+00
1	 1.027546308069888e+00	 2.165797630611406e-01	 5.868920841039626e+00
1	 1.023766656840262e+00	 2.405014114133076e-01	 5.687141337522565e+00
1	 1.057143532703853e+00	 0.000000000000000e+00	 6.165198960320140e+00
1	 1.056967858548713e+00	 2.433417280694075e-02	 6.166419437698915e+00
1	 1.056432667028950e+00	 4.871544971131429e-02	 6.152559388569422e+00
1	 1.055525799148979e+00	 7.313075312691440e-02	 6.122389735790380e+00
1	 1.054235250171347e+00	 9.756652814601664e-02	 6.074634939439983e+00
1	 1.052549205740208e+00	 1.220087569568488e-01	 6.007975421545609e+00
1	 1.050456079029154e+00	 1.464429756967244e-01	 5.921050608779963e+00
1	 1.047944548773499e+00	 1.708542937871996e-01	 5.812462632608693e+00
1	 1.045003598031943e+00	 1.952274157828657e-01	 5.680780721734253e+00
1	 1.041622553507811e+00	 2.195466657493138e-01	 5.524546315686515e+00
1	 1.037791125245829e+00	 2.437960141684862e-01	 5.342278920990291e+00
1	 1.071429578385649e+00	 0.000000000000000e+00	 5.863942920119108e+00
1	 1.071251530201898e+00	 2.466302039637492e-02	 5.860620631571480e+00
1	 1.070709106201178e+00	 4.937378144709573e-02	 5.842708168002230e+00
1	 1.069789983073436e+00	 7.411902883773466e-02	 5.808987932003254e+00
1	 1.068481993851369e+00	 9.888502448190539e-02	 5.758202939065197e+00
1	 1.066773164522058e+00	 1.236575611335686e-01	 5.689059869857195e+00
1	 1.064651751676819e+00	 1.484219794679160e-01	 5.600232737520609e+00
1	 1.062106281057439e+00	 1.731631876778187e-01	 5.490367200714457e+00
1	 1.059125586841663e+00	 1.978656836178809e-01	 5.358085547535839e+00
1	 1.055698851495811e+00	 2.225135795118439e-01	 5.201992368525765e+00
1	 1.051815646008011e+00	 2.470906292215318e-01	 5.020680928720231e+00
1	 1.085715665735001e+00	 0.000000000000000e+00	 5.571438808756116e+00
1	 1.085535243515682e+00	 2.499186894470118e-02	 5.564793714567124e+00
1	 1.084985587012820e+00	 5.003211510250672e-02	 5.544065009226146e+00
1	 1.084054208601425e+00	 7.510730743026230e-02	 5.508042108366609e+00
1	 1.082728779083882e+00	 1.002035246623961e-01	 5.455481646081711e+00
1	 1.080997164789749e+00	 1.253063701180604e-01	 5.385111172873300e+00
1	 1.078847465727619e+00	 1.504009890097661e-01	 5.295633470476046e+00
1	 1.076268054645321e+00	 1.754720883011241e-01	 5.185731505774433e+00
1	 1.073247616839224e+00	 2.005039591461607e-01	 5.054074039391598e+00
1	 1.069775190538234e+00	 2.254805019261618e-01	 4.899321896638673e+00
1	 1.065840207673492e+00	 2.503852538822138e-01	 4.720134899363634e+00
1	 1.100001783084519e+00	 0.000000000000000e+00	 5.288336986387876e+00
1	 1.099818986824623e+00	 2.532071818348164e-02	 5.279301031958719e+00
1	 1.099262097804366e+00	 5.069045014013161e-02	 5.256707087749833e+00
1	 1.098318464083486e+00	 7.609558809770867e-02	 5.219347141434651e+00
1	 1.096975594233721e+00	 1.015220276110822e-01	 5.165986540319982e+00
1	 1.095221194926784e+00	 1.269551825642097e-01	 5.095368352723030e+00
1	 1.093043209588223e+00	 1.523800027065229e-01	 5.006218352834264e+00
1	 1.090429857971597e+00	 1.777809937719623e-01	 4.897250642986963e+00
1	 1.087369676491597e+00	 2.031422402135547e-01	 4.767173919543437e+00
1	 1.083851559139426e+00	 2.284474305696987e-01	 4.614698379682006e+00
1	 1.079864798788953e+00	 2.536798854603011e-01	 4.438543256251656e+00
1	 1.114287918766816e+00	 0.000000000000000e+00	 5.015254428211226e+00
1	 1.114102748463282e+00	 2.564956784427844e-02	 5.004486312969688e+00
1	 1.113538626916308e+00	 5.134878602255466e-02	 4.980707586054383e+00
1	 1.112582737870157e+00	 7.708387003328505e-02	 4.942708390517494e+00
1	 1.111222427665721e+00	 1.028405322515569e-01	 4.889257911266627e+00
1	 1.109445243316661e+00	 1.286039971259019e-01	 4.819109417287896e+00
1	 1.107238971665293e+00	 1.543590189424345e-01	 4.731005938652874e+00
1	 1.104591679470715e+00	 1.800899022051795e-01	 4.623686584154607e+00
1	 1.101491754265754e+00	 2.057805246659122e-01	 4.495893496586690e+00
1	 1.097927945803734e+00	 2.314143630198855e-01	 4.346379432660514e+00
1	 1.093889407901079e+00	 2.569745212655634e-01	 4.173915943404083e+00
1	 1.128574061114501e+00	 0.000000000000000e+00	 4.752776837029741e+00
1	 1.128386516766216e+00	 2.597841765865374e-02	 4.740675848662372e+00
1	 1.127815162689139e+00	 5.200712221236022e-02	 4.716135946036554e+00
1	 1.126847018311981e+00	 7.807215243020288e-02	 4.677941033995909e+00
1	 1.125469267744715e+00	 1.041590375074135e-01	 4.624859287669471e+00
1	 1.123669298342884e+00	 1.302528124570227e-01	 4.555648892635157e+00
1	 1.121434740365498e+00	 1.563380361017492e-01	 4.469064435794169e+00
1	 1.118753507577126e+00	 1.823988117156219e-01	 4.363863944944205e+00
1	 1.115613838628670e+00	 2.084188103490824e-01	 4.238816565040612e+00
1	 1.112004339035504e+00	 2.343812968541535e-01	 4.092710847965908e+00
1	 1.107914023556551e+00	 2.602691586077694e-01	 3.924363620376036e+00
1	 1.142860198460186e+00	 0.000000000000000e+00	 4.501460597503904e+00
1	 1.142670280067985e+00	 2.630726735816965e-02	 4.488179581554868e+00
1	 1.142091693463350e+00	 5.266545817213261e-02	 4.463058102533505e+00
1	 1.141111293759497e+00	 7.906043448167339e-02	 4.424869455372400e+00
1	 1.139716102835537e+00	 1.054775423022454e-01	 4.372375984827777e+00
1	 1.137893348388953e+00	 1.319016272114574e-01	 4.304335540370563e+00
1	 1.135630504095502e+00	 1.583170525687151e-01	 4.219508602288917e+00
1	 1.132915330725281e+00	 1.847077204181359e-01	 4.116666069348664e+00
1	 1.129735918047314e+00	 2.110570951089146e-01	 3.994597687145216e+00
1	 1.126080727339082e+00	 2.373482296499335e-01	 3.852121083905817e+00
1	 1.121938634302054e+00	 2.635637947966888e-01	 3.688091367083093e+00
1	 9.816936802964240e-01	 2.306177038372821e-01	 6.885335317633803e+00
1	 9.776342863994824e-01	 2.534730768946625e-01	 6.682653371188812e+00
1	 9.731306880439857e-01	 2.762311524069800e-01	 6.441719554562511e+00
1	 9.681744667976357e-01	 2.988759714563225e-01	 6.161124858546377e+00
1	 9.627577163271480e-01	 3.213913671440238e-01	 5.839870394070362e+00
1	 9.568730786461752e-01	 3.437610012650069e-01	 5.477407490824388e+00
1	 9.505137794457967e-01	 3.659684029576715e-01	 5.073675867818963e+00
1	 9.436736622717954e-01	 3.879970091915093e-01	 4.629139177737183e+00
1	 9.363472213109787e-01	 4.098302069345519e-01	 4.144817207334356e+00
1	 9.285296325490471e-01	 4.314513768232032e-01	 3.622314010468924e+00
1	 9.202167830650884e-01	 4.528439381382666e-01	 3.063841260358468e+00
1	 9.957179229122425e-01	 2.339122535574748e-01	 6.456132248357282e+00
1	 9.916005374791480e-01	 2.570941330418181e-01	 6.249327609961147e+00
1	 9.870326017877620e-01	 2.801773250107799e-01	 6.008295217044827e+00
1	 9.820055771421120e-01	 3.031456425612922e-01	 5.731691612240647e+00
1	 9.765114442609665e-01	 3.259826878383744e-01	 5.418546881439910e+00
1	 9.705427400435855e-01	 3.486718892333964e-01	 5.068301627681906e+00
1	 9.640925934049355e-01	 3.711965405861092e-01	 4.680842221875793e+00
1	 9.571547599412131e-01	 3.935398422506569e-01	 4.256533689673136e+00
1	 9.497236551845439e-01	 4.156849438654169e-01	 3.796249574979157e+00
1	 9.417943862059640e-01	 4.376149886466908e-01	 3.301398114476163e+00
1	 9.333627813284100e-01	 4.593131590072458e-01	 2.773944065758745e+00
1	 1.009742252244628e+00	 2.372068236462269e-01	 6.057603501458018e+00
1	 1.005566874916577e+00	 2.607152115768242e-01	 5.848833977413463e+00
1	 1.000934601491359e+00	 2.841235220132460e-01	 5.609495826060793e+00
1	 9.958367730085770e-01	 3.074153400658279e-01	 5.338312987126990e+00
1	 9.902652572383444e-01	 3.305740369218140e-01	 5.034348513782661e+00
1	 9.842124859648721e-01	 3.535828075675452e-01	 4.697038556958002e+00
1	 9.776714913264066e-01	 3.764247105426353e-01	 4.326224816714790e+00
1	 9.706359409690050e-01	 3.990827095843819e-01	 3.922184874669798e+00
1	 9.631001717696162e-01	 4.215397170000070e-01	 3.485659803449698e+00
1	 9.550592218841777e-01	 4.437786385842048e-01	 3.017878442710351e+00
1	 9.465088608791017e-01	 4.657824198802068e-01	 2.520577737875449e+00
1	 1.023766656840262e+00	 2.405014114133076e-01	 5.687141337522565e+00
1	 1.019533287305854e+00	 2.643363095427448e-01	 5.478252516810983e+00
1	 1.014836675801436e+00	 2.880697401918617e-01	 5.242109735453480e+00
1	 1.009668043101530e+00	 3.116850604831455e-01	 4.977505936216343e+00
1	 1.004019144026986e+00	 3.351654106447972e-01	 4.683540801668583e+00
1	 9.978823052463919e-01	 3.584937522568460e-01	 4.359651878999133e+00
1	 9.912504621207464e-01	 3.816529085574751e-01	 4.005644348004474e+00
1	 9.841171943454884e-01	 4.046256066658365e-01	 3.621718898238828e+00
1	 9.764767601419596e-01	 4.273945215566902e-01	 3.208497164163437e+00
1	 9.683241287506194e-01	 4.499423216018177e-01	 2.767044160455551e+00
1	 9.596550109810312e-01	 4.722517154736102e-01	 2.298887164832529e+00
1	 1.037791125245829e+00	 2.437960141684862e-01	 5.342278920990291e+00
1	 1.033499763241064e+00	 2.679574239826441e-01	 5.134821048936407e+00
1	 1.028738813364647e+00	 2.920159763241097e-01	 4.903098840671671e+00
1	 1.023499376125471e+00	 3.159548003264606e-01	 4.645975621591816e+00
1	 1.017773093394594e+00	 3.397568052577776e-01	 4.362591053452458e+00
1	 1.011552186724500e+00	 3.634047192906907e-01	 4.052389524950122e+00
1	 1.004829494698492e+00	 3.868811303608553e-01	 3.715147348012466e+00
1	 9.975985090609817e-01	 4.101685289681731e-01	 3.350998275205586e+00
1	 9.898534093773371e-01	 4.332493527538351e-01	 2.960456837411986e+00
1	 9.815890959722187e-01	 4.561060326656014e-01	 2.544438994134008e+00
1	 9.728012208980669e-01	 4.787210405039170e-01	 2.104279592709927e+00
1	 1.051815646008011e+00	 2.470906292215318e-01	 5.020680928720232e+00
1	 1.047466291316291e+00	 2.715785519395860e-01	 4.815924655954817e+00
1	 1.042641002827651e+00	 2.959622271874738e-01	 4.589587011838029e+00
1	 1.037330760784896e+00	 3.202245561089889e-01	 4.340602869723308e+00
1	 1.031527094108872e+00	 3.443482170112095e-01	 4.068154924688021e+00
1	 1.025222119235553e+00	 3.683157046584718e-01	 3.771699470586016e+00
1	 1.018408577970180e+00	 3.921093716830016e-01	 3.450991132277291e+00
1	 1.011079874105802e+00	 4.157114719645439e-01	 3.106106115370376e+00
1	 1.003230108551512e+00	 4.391042058098098e-01	 2.737463520503442e+00
1	 9.948541127159070e-01	 4.622697667416280e-01	 2.345844262368092e+00
1	 9.859474798940767e-01	 4.851903896875877e-01	 1.932407136511399e+00
1	 1.065840207673492e+00	 2.503852538822138e-01	 4.720134899363634e+00
1	 1.061432860125619e+00	 2.751996904566348e-01	 4.519085994801487e+00
1	 1.056543232837103e+00	 2.999084895594362e-01	 4.298849439228162e+00
1	 1.051162185784308e+00	 3.244943243439465e-01	 4.058432616318971e+00
1	 1.045281134937524e+00	 3.489396421555472e-01	 3.797064028537148e+00
1	 1.038892091615907e+00	 3.732267043495812e-01	 3.514216577050882e+00
1	 1.031987700846347e+00	 3.973376282541403e-01	 3.209629933701189e+00
1	 1.024561278470266e+00	 4.212544311281006e-01	 2.883331611887247e+00
1	 1.016606846740247e+00	 4.449590759429827e-01	 2.535656328910254e+00
1	 1.008119168148615e+00	 4.684335187959696e-01	 2.167263245568356e+00
1	 9.990937772329286e-01	 4.916597577410830e-01	 1.779150670684470e+00
1	 1.079864798788953e+00	 2.536798854603011e-01	 4.438543256251656e+00
1	 1.075399458263132e+00	 2.788208365768544e-01	 4.241956364744073e+00
1	 1.070445492039662e+00	 3.038547602174804e-01	 4.028302808282828e+00
1	 1.064993639828203e+00	 3.287641015445487e-01	 3.796663250830284e+00
1	 1.059035204648252e+00	 3.535310769412446e-01	 3.546314510800525e+00
1	 1.052562092701919e+00	 3.781377143534121e-01	 3.276750456142352e+00
1	 1.045566852237530e+00	 4.025658958044971e-01	 2.987702116206290e+00
1	 1.038042711144692e+00	 4.267974019319960e-01	 2.679156659480025e+00
1	 1.029983613019307e+00	 4.508139583717223e-01	 2.351374872974750e+00
1	 1.021384251437273e+00	 4.745972837946980e-01	 2.004906772465218e+00
1	 1.012240102178491e+00	 4.981291393808635e-01	 1.640604973883041e+00
1	 1.093889407901079e+00	 2.569745212655634e-01	 4.173915943404082e+00
1	 1.089366074322916e+00	 2.824419873433087e-01	 3.982307461492184e+00
1	 1.084347769081984e+00	 3.078010359390896e-01	 3.775496229769058e+00
1	 1.078825111621082e+00	 3.330338842240116e-01	 3.552636779939009e+00
1	 1.072789292008760e+00	 3.581225176187560e-01	 3.313056503071662e+00
1	 1.066232111329943e+00	 3.830487306593562e-01	 3.056274268270799e+00
1	 1.059146021054265e+00	 4.077941700642983e-01	 2.782018371149870e+00
1	 1.051524161119399e+00	 4.323403798493822e-01	 2.490243501182602e+00
1	 1.043360396464453e+00	 4.566688483143967e-01	 2.181146404759597e+00
1	 1.034649351748811e+00	 4.807610567038857e-01	 1.855179914460586e+00
1	 1.025386443994631e+00	 5.045985293233902e-01	 1.513065015504296e+00
1	 1.107914023556551e+00	 2.602691586077694e-01	 3.924363620376036e+00
1	 1.103332696899054e+00	 2.860631397990621e-01	 3.738023757070379e+00
1	 1.098250052610725e+00	 3.117473135017465e-01	 3.538102858232272e+00
1	 1.092656589867442e+00	 3.373036688955506e-01	 3.323829737516376e+00
1	 1.086543385786751e+00	 3.627139604385353e-01	 3.094584376268979e+00
1	 1.079902136336337e+00	 3.879597492568057e-01	 2.849914370517984e+00
1	 1.072725196207091e+00	 4.130224467637699e-01	 2.589550809488776e+00
1	 1.065005617384702e+00	 4.378833603534111e-01	 2.313423312542489e+00
1	 1.056737186151450e+00	 4.625237409893744e-01	 2.021673940296972e+00
1	 1.047914458250161e+00	 4.869248324896046e-01	 1.714669689717168e+00
1	 1.038532791945218e+00	 5.110679222851237e-01	 1.393013282911678e+00
1	 1.121938634302054e+00	 2.635637947966888e-01	 3.688091367083091e+00
1	 1.117299314585631e+00	 2.896842909871785e-01	 3.507095450743771e+00
1	 1.112152331272543e+00	 3.156935896829344e-01	 3.313912138562095e+00
1	 1.106488063271783e+00	 3.415734520723818e-01	 3.107844775790412e+00
1	 1.100297474749929e+00	 3.673054016510370e-01	 2.888327724568825e+00
1	 1.093572156557455e+00	 3.928707661351533e-01	 2.654940740470723e+00
1	 1.086304366606542e+00	 4.182507216331378e-01	 2.407422871377729e+00
1	 1.078487068930921e+00	 4.434263389172351e-01	 2.145685641324687e+00
1	 1.070113971156061e+00	 4.683786316150235e-01	 1.869825271957156e+00
1	 1.061179560108253e+00	 4.930886061179267e-01	 1.580133688704377e+00
1	 1.051679135294118e+00	 5.175373129825247e-01	 1.277108058356886e+00
1	 9.202167830650884e-01	 4.528439381382666e-01	 3.063841260358469e+00
1	 9.114046648473878e-01	 4.739928653376373e-01	 2.472178221158418e+00
1	 9.020912353519670e-01	 4.948802800036434e-01	 1.849324688432401e+00
1	 8.922746742864819e-01	 5.154899876712747e-01	 1.197306679684899e+00
1	 8.819539668184718e-01	 5.358060209788083e-01	 5.190213186413729e-01
1	 8.711289202812919e-01	 5.558126876982258e-01	-1.817441734011509e-01
1	 8.598001777972277e-01	 5.754946185800570e-01	-9.003032606798547e-01
1	 8.479692286694867e-01	 5.948368147295444e-01	-1.631071307897412e+00
1	 8.356384154163032e-01	 6.138246942277596e-01	-2.367577720625273e+00
1	 8.228109373437806e-01	 6.324441377108051e-01	-3.102489319611064e+00
1	 8.094908505790605e-01	 6.506815326226161e-01	-3.827645054753781e+00
1	 9.333627813284100e-01	 4.593131590072458e-01	 2.773944065758746e+00
1	 9.244247752827184e-01	 4.807642147537833e-01	 2.217011047129570e+00
1	 9.149782963456433e-01	 5.019500220617313e-01	 1.633110288771675e+00
1	 9.050214982206021e-01	 5.228541551156739e-01	 1.024145601136715e+00
1	 8.945533515775020e-01	 5.434604184478213e-01	 3.927625963379144e-01
1	 8.835736609973344e-01	 5.637528956545838e-01	-2.576365951300346e-01
1	 8.720830787899015e-01	 5.837159979249101e-01	-9.228869632929768e-01
1	 8.600831155342660e-01	 6.033345120932596e-01	-1.598063153711503e+00
1	 8.475761472133474e-01	 6.225936479267381e-01	-2.277491298532596e+00
1	 8.345654188377984e-01	 6.414790843554314e-01	-2.954770385033329e+00
1	 8.210550444796545e-01	 6.599770143573945e-01	-3.622803230247528e+00
1	 9.465088608791017e-01	 4.657824198802068e-01	 2.520577737875449e+00
1	 9.374449662274109e-01	 4.875356060421673e-01	 1.997030047094610e+00
1	 9.278654370263987e-01	 5.090198078370565e-01	 1.450045754288802e+00
1	 9.177684009750668e-01	 5.302183680976542e-01	 8.814119203661901e-01
1	 9.071528142455878e-01	 5.511148632487299e-01	 2.935413002666156e-01
1	 8.960184786665549e-01	 5.716931527097678e-01	-3.105167331475223e-01
1	 8.843660557353290e-01	 5.919374281068149e-01	-9.270723426544454e-01
1	 8.721970773069457e-01	 6.118322620022576e-01	-1.551798893601732e+00
1	 8.595139528291983e-01	 6.313626558479829e-01	-2.179744450443005e+00
1	 8.463199730175579e-01	 6.505140868668495e-01	-2.805351284775226e+00
1	 8.326193098892952e-01	 6.692725535698656e-01	-3.422483430758492e+00
1	 9.596550109810312e-01	 4.722517154736102e-01	 2.298887164832528e+00
1	 9.504652270480891e-01	 4.943070336725015e-01	 1.807283330633688e+00
1	 9.407526468694558e-01	 5.160896315556505e-01	 1.295162836672123e+00
1	 9.305153721395666e-01	 5.375826206028219e-01	 7.642019113437982e-01
1	 9.197523445327681e-01	 5.587693491301476e-01	 2.165990834756302e-01
1	 9.084633631252294e-01	 5.796334523790161e-01	-3.449172251767632e-01
1	 8.966490986019068e-01	 6.001589024114224e-01	-9.170870430189457e-01
1	 8.843111040939087e-01	 6.203300575165623e-01	-1.496123470487994e+00
1	 8.714518225140709e-01	 6.401317108300180e-01	-2.077723822927264e+00
1	 8.580745902829160e-01	 6.595491378663692e-01	-2.657087423912634e+00
1	 8.441836373632470e-01	 6.785681426685646e-01	-3.228940056457065e+00
1	 9.728012208980669e-01	 4.787210405039170e-01	 2.104279592709928e+00
1	 9.634855471113760e-01	 5.010784921144978e-01	 1.643086594860056e+00
1	 9.536399153500362e-01	 5.231594874435458e-01	 1.163761757986176e+00
1	 9.432624013037896e-01	 5.449469066167819e-01	 6.678768297083385e-01
1	 9.323519321490816e-01	 5.664238698406905e-01	 1.574347217296203e-01
1	 9.209083042096341e-01	 5.875737881775672e-01	-3.651257868878037e-01
1	 9.089321973580297e-01	 6.083804141243842e-01	-8.969302723392933e-01
1	 8.964251860015402e-01	 6.288278916961995e-01	-1.434674076507038e+00
1	 8.833897465181827e-01	 6.489008057113672e-01	-1.974633082717411e+00
1	 8.698292610337306e-01	 6.685842299752990e-01	-2.512679940660902e+00
1	 8.557480174567735e-01	 6.878637740620275e-01	-3.044305723503098e+00
1	 9.859474798940767e-01	 4.851903896875877e-01	 1.932407136511399e+00
1	 9.765059157838942e-01	 5.078499758378683e-01	 1.500005286368199e+00
1	 9.665272319433628e-01	 5.302293697267743e-01	 1.051393313270954e+00
1	 9.560094780574259e-01	 5.523112201251403e-01	 5.880452473450501e-01
1	 9.449515668045673e-01	 5.740784191289722e-01	 1.117869713131685e-01
1	 9.333532917560440e-01	 5.955141536206587e-01	-3.752015415139023e-01
1	 9.212153419720944e-01	 6.166019565313522e-01	-8.703880337090699e-01
1	 9.085393131362222e-01	 6.373257576011928e-01	-1.370894006358987e+00
1	 8.953277150917490e-01	 6.576699333305543e-01	-1.873505119636443e+00
1	 8.815839756698585e-01	 6.776193558149491e-01	-2.374685996101519e+00
1	 8.673124407251396e-01	 6.971594401587902e-01	-2.870599389229997e+00
1	 9.990937772329286e-01	 4.916597577410830e-01	 1.779150670684471e+00
1	 9.895263224322676e-01	 5.146214793123250e-01	 1.373838170265019e+00
1	 9.794145861246581e-01	 5.372992726313681e-01	 9.538423849056713e-01
1	 9.687565919901648e-01	 5.596755551135029e-01	 5.205467804295834e-01
1	 9.575512382092630e-01	 5.817329907436078e-01	 7.561877902853364e-02
1	 9.457983156007349e-01	 6.034545422235297e-01	-3.789900613708026e-01
1	 9.334985224124954e-01	 6.248235229179774e-01	-8.410471553339594e-01
1	 9.206534756043400e-01	 6.458236482915676e-01	-1.308045417888710e+00
1	 9.072657184849856e-01	 6.664390865261035e-01	-1.777213286949411e+00
1	 8.933387245911578e-01	 6.866545080066284e-01	-2.245528252244552e+00
1	 8.788768977236079e-01	 7.064551333673871e-01	-2.709733836407157e+00
1	 1.012240102178491e+00	 4.981291393808635e-01	 1.640604973883041e+00
1	 1.002546756423119e+00	 5.213929970075802e-01	 1.260602178474015e+00
1	 9.923019673691437e-01	 5.443691903833595e-01	 8.671127405019798e-01
1	 9.815037326916951e-01	 5.670399055674747e-01	 4.614370843650428e-01
1	 9.701509360732091e-01	 5.893875784332123e-01	 4.510272156179806e-02
1	 9.582433655799834e-01	 6.113949475014185e-01	-3.801372382826060e-01
1	 9.457817286476292e-01	 6.330451065699113e-01	-8.123082281657232e-01
1	 9.327676635122770e-01	 6.543215568273484e-01	-1.249221099161034e+00
1	 9.192037469481085e-01	 6.752082581365386e-01	-1.688481766569496e+00
1	 9.050934981974861e-01	 6.956896791716466e-01	-2.127503612154061e+00
1	 8.904413790074432e-01	 7.157508460963548e-01	-2.563522574796993e+00
1	 1.025386443994631e+00	 5.045985293233902e-01	 1.513065015504296e+00
1	 1.015567207123072e+00	 5.281645233933461e-01	 1.156518422599617e+00
1	 1.005189365152042e+00	 5.514391172087801e-01	 7.874129992318598e-01
1	 9.942508897517067e-01	 5.744042654726615e-01	 4.069740020087488e-01
1	 9.827506501064427e-01	 5.970421759463997e-01	 1.660756398047236e-02
1	 9.706884315300646e-01	 6.193353629695629e-01	-3.821020879255312e-01
1	 9.580649506458910e-01	 6.412667007728053e-01	-7.873975491490695e-01
1	 9.448818669664171e-01	 6.628194762685597e-01	-1.197355331118285e+00
1	 9.311417907313339e-01	 6.839774410003836e-01	-1.609895137594644e+00
1	 9.168482868887002e-01	 7.047248619313129e-01	-2.022791288307702e+00
1	 9.020058751319096e-01	 7.250465707542284e-01	-2.433686212258937e+00
1	 1.038532791945218e+00	 5.110679222851237e-01	 1.393013282911678e+00
1	 1.028587663898750e+00	 5.349360529393342e-01	 1.057999268246276e+00
1	 1.018076768948577e+00	 5.585090473336626e-01	 7.111436631418870e-01
1	 1.006998052759889e+00	 5.817686288146692e-01	 3.536047630813598e-01
1	 9.953503700190041e-01	 6.046967770317856e-01	-1.331416172134414e-02
1	 9.831335032872549e-01	 6.272757821432017e-01	-3.881685824768835e-01
1	 9.703481783756770e-01	 6.494882988123111e-01	-7.693781581204260e-01
1	 9.569960760731446e-01	 6.713173996752270e-01	-1.155233925893504e+00
1	 9.430798400848772e-01	 6.927466279561625e-01	-1.543907218707824e+00
1	 9.286030810646587e-01	 7.137600489069369e-01	-1.933460258665620e+00
1	 9.135703766522705e-01	 7.343422997495432e-01	-2.321858342364030e+00
1	 1.051679135294118e+00	 5.175373129825247e-01	 1.277108058356886e+00
1	 1.041608116116776e+00	 5.417075801152571e-01	 9.616363779889783e-01
1	 1.030964168233969e+00	 5.655789749840386e-01	 6.348851203416931e-01
1	 1.019745211305930e+00	 5.891329895791028e-01	 2.979541428534765e-01
1	 1.007950085520931e+00	 6.123513754379840e-01	-4.793764721290816e-02
1	 9.955785706878293e-01	 6.352161985375726e-01	-4.014565965246306e-01
1	 9.826314018053823e-01	 6.577098939740801e-01	-7.611600476010222e-01
1	 9.691102809388425e-01	 6.798153201073742e-01	-1.125503512852364e+00
1	 9.550178852589553e-01	 7.015158118423989e-01	-1.492849247928010e+00
1	 9.403578711252181e-01	 7.227952327198277e-01	-1.861476163981799e+00
1	 9.251348741237903e-01	 7.436380254908352e-01	-2.229590990792221e+00
1	 8.094908505790605e-01	 6.506815326226161e-01	-3.827645054753781e+00
1	 7.956830624271515e-01	 6.685238174230594e-01	-4.533670352453269e+00
1	 7.813933179443889e-01	 6.859585270306811e-01	-5.214852757599867e+00
1	 7.666281954255775e-01	 7.029738267457829e-01	-5.868085331526300e+00
1	 7.513950941565928e-01	 7.195585469175594e-01	-6.490488345411126e+00
1	 7.357022165618519e-01	 7.357022165618521e-01	-7.079432198342738e+00
1	 7.195585469175590e-01	 7.513950941565929e-01	-7.632557492146747e+00
1	 7.029738267457828e-01	 7.666281954255776e-01	-8.147791985404904e+00
1	 6.859585270306806e-01	 7.813933179443893e-01	-8.623364207578931e+00
1	 6.685238174230592e-01	 7.956830624271517e-01	-9.057813577652148e+00
1	 6.506815326226163e-01	 8.094908505790606e-01	-9.449996938396650e+00
1	 8.210550444796545e-01	 6.599770143573945e-01	-3.622803230247528e+00
1	 8.070500015485216e-01	 6.780741897983326e-01	-4.275485147018061e+00
1	 7.925561171731763e-01	 6.957579675236486e-01	-4.909575885306237e+00
1	 7.775800636242920e-01	 7.130163437660235e-01	-5.521891272656325e+00
1	 7.621293458920958e-01	 7.298379893077620e-01	-6.109420854012845e+00
1	 7.462122835788024e-01	 7.462122835788025e-01	-6.669351541380257e+00
1	 7.298379893077620e-01	 7.621293458920964e-01	-7.199089048594466e+00
1	 7.130163437660234e-01	 7.775800636242922e-01	-7.696276813356651e+00
1	 6.957579675236482e-01	 7.925561171731764e-01	-8.158812155423604e+00
1	 6.780741897983322e-01	 8.070500015485218e-01	-8.584859472393017e+00
1	 6.599770143573943e-01	 8.210550444796544e-01	-8.972860331313536e+00
1	 8.326193098892952e-01	 6.692725535698656e-01	-3.422483430758492e+00
1	 8.184170109590402e-01	 6.876246212274461e-01	-4.027779993882228e+00
1	 8.037189854285399e-01	 7.055574686107333e-01	-4.620038582489320e+00
1	 7.885319995449450e-01	 7.230589228837120e-01	-5.196027144347882e+00
1	 7.728636640035178e-01	 7.401174952607817e-01	-5.752639618163429e+00
1	 7.567224155850235e-01	 7.567224155850236e-01	-6.286920083133051e+00
1	 7.401174952607816e-01	 7.728636640035181e-01	-6.796085255597148e+00
1	 7.230589228837118e-01	 7.885319995449455e-01	-7.277545018958257e+00
1	 7.055574686107329e-01	 8.037189854285400e-01	-7.728920709266864e+00
1	 6.876246212274458e-01	 8.184170109590403e-01	-8.148060921517787e+00
1	 6.692725535698655e-01	 8.326193098892952e-01	-8.533054649515815e+00
1	 8.441836373632470e-01	 6.785681426685646e-01	-3.228940056457065e+00
1	 8.297840813750883e-01	 6.971751039107528e-01	-3.792193471298380e+00
1	 8.148819135936146e-01	 7.153570222888413e-01	-4.347300239370618e+00
1	 7.994839942429858e-01	 7.331015558971893e-01	-4.891007957637105e+00
1	 7.835980397240893e-01	 7.503970563814085e-01	-5.420148052190866e+00
1	 7.672326039968961e-01	 7.672326039968963e-01	-5.931660206926749e+00
1	 7.503970563814082e-01	 7.835980397240895e-01	-6.422615637023595e+00
1	 7.331015558971890e-01	 7.994839942429861e-01	-6.890238881562523e+00
1	 7.153570222888415e-01	 8.148819135936152e-01	-7.331927816488417e+00
1	 6.971751039107525e-01	 8.297840813750883e-01	-7.745271622914052e+00
1	 6.785681426685646e-01	 8.441836373632471e-01	-8.128066485491029e+00
1	 8.557480174567735e-01	 6.878637740620275e-01	-3.044305723503098e+00
1	 8.411512035130448e-01	 7.067256300486032e-01	-3.570275656206839e+00
1	 8.260448925515365e-01	 7.251566205548785e-01	-4.092363046494597e+00
1	 8.104360387738634e-01	 7.431442346047952e-01	-4.607320943166685e+00
1	 7.943324642870420e-01	 7.606766642744333e-01	-5.111949436565970e+00
1	 7.777428402308016e-01	 7.777428402308020e-01	-5.603120155923784e+00
1	 7.606766642744328e-01	 7.943324642870419e-01	-6.077800046935590e+00
1	 7.431442346047951e-01	 8.104360387738637e-01	-6.533074096024589e+00
1	 7.251566205548781e-01	 8.260448925515365e-01	-6.966166686412680e+00
1	 7.067256300486029e-01	 8.411512035130450e-01	-7.374461297076733e+00
1	 6.878637740620274e-01	 8.557480174567736e-01	-7.755518288163252e+00
1	 8.673124407251396e-01	 6.971594401587902e-01	-2.870599389229997e+00
1	 8.525183680892905e-01	 7.162761918413502e-01	-3.363494031447075e+00
1	 8.372079131854400e-01	 7.349562554057512e-01	-3.856175815860574e+00
1	 8.213881241930269e-01	 7.531869508048717e-01	-4.345427411558120e+00
1	 8.050669289256061e-01	 7.709563105446461e-01	-4.828046935538211e+00
1	 7.882531157031213e-01	 7.882531157031215e-01	-5.300872318063378e+00
1	 7.709563105446458e-01	 8.050669289256063e-01	-5.760805323249951e+00
1	 7.531869508048714e-01	 8.213881241930272e-01	-6.204834887299177e+00
1	 7.349562554057508e-01	 8.372079131854402e-01	-6.630059448324630e+00
1	 7.162761918413497e-01	 8.525183680892905e-01	-7.033707960834970e+00
1	 6.971594401587901e-01	 8.673124407251396e-01	-7.413159314045282e+00
1	 8.788768977236079e-01	 7.064551333673871e-01	-2.709733836407157e+00
1	 8.638855658202043e-01	 7.258267814893441e-01	-3.173238927002699e+00
1	 8.483709663784602e-01	 7.447559188383650e-01	-3.639637500639755e+00
1	 8.323402415559250e-01	 7.632296962957591e-01	-4.105764467036855e+00
1	 8.158014248730130e-01	 7.812359867968365e-01	-4.568443613380802e+00
1	 7.987634218302354e-01	 7.987634218302355e-01	-5.024511646286943e+00
1	 7.812359867968363e-01	 8.158014248730134e-01	-5.470842205363023e+00
1	 7.632296962957585e-01	 8.323402415559253e-01	-5.904369510403967e+00
1	 7.447559188383648e-01	 8.483709663784607e-01	-6.322111309747550e+00
1	 7.258267814893438e-01	 8.638855658202044e-01	-6.721190810535377e+00
1	 7.064551333673871e-01	 8.788768977236078e-01	-7.098857292173280e+00
1	 8.904413790074432e-01	 7.157508460963548e-01	-2.563522574796993e+00
1	 8.752527874221663e-01	 7.353773911929373e-01	-3.000828537605625e+00
1	 8.595340430137332e-01	 7.545556028496262e-01	-3.443600440857403e+00
1	 8.432923819180074e-01	 7.732724628757974e-01	-3.888746587638912e+00
1	 8.265359433624941e-01	 7.915156846357957e-01	-4.333142449371843e+00
1	 8.092737500285259e-01	 8.092737500285260e-01	-4.773654201761188e+00
1	 7.915156846357952e-01	 8.265359433624941e-01	-5.207162491761764e+00
1	 7.732724628757972e-01	 8.432923819180078e-01	-5.630586100744299e+00
1	 7.545556028496260e-01	 8.595340430137337e-01	-6.040905169543159e+00
1	 7.353773911929372e-01	 8.752527874221667e-01	-6.435183659323166e+00
1	 7.157508460963549e-01	 8.904413790074435e-01	-6.810590737987988e+00
1	 9.020058751319096e-01	 7.250465707542284e-01	-2.433686212258937e+00
1	 8.866200236115567e-01	 7.449280131524817e-01	-2.847513554687686e+00
1	 8.706971339743936e-01	 7.643552994364409e-01	-3.268873359611928e+00
1	 8.542445363347229e-01	 7.833152423433283e-01	-3.694767083964002e+00
1	 8.372704756272800e-01	 8.017953956663135e-01	-4.122146351624375e+00
1	 8.197840917143736e-01	 8.197840917143742e-01	-4.547935809070220e+00
1	 8.017953956663133e-01	 8.372704756272804e-01	-4.969056416101416e+00
1	 7.833152423433281e-01	 8.542445363347232e-01	-5.382448843382694e+00
1	 7.643552994364405e-01	 8.706971339743941e-01	-5.785096645049097e+00
1	 7.449280131524816e-01	 8.866200236115570e-01	-6.174048878833979e+00
1	 7.250465707542285e-01	 9.020058751319096e-01	-6.546441857972519e+00
1	 9.135703766522705e-01	 7.343422997495432e-01	-2.321858342364030e+00
1	 8.979872651047554e-01	 7.544786395683292e-01	-2.714481446823984e+00
1	 8.818602301435767e-01	 7.741550005957150e-01	-3.116224131918334e+00
1	 8.651966958615209e-01	 7.933580264966917e-01	-3.524199447227511e+00
1	 8.480050129006019e-01	 8.120751114931807e-01	-3.935458169868099e+00
1	 8.302944383041598e-01	 8.302944383041599e-01	-4.347010813462706e+00
1	 8.120751114931802e-01	 8.480050129006023e-01	-4.755850222408331e+00
1	 7.933580264966916e-01	 8.651966958615213e-01	-5.158974433015619e+00
1	 7.741550005957150e-01	 8.818602301435772e-01	-5.553409476597688e+00
1	 7.544786395683287e-01	 8.979872651047555e-01	-5.936231800639230e+00
1	 7.343422997495435e-01	 9.135703766522707e-01	-6.304589992742614e+00
1	 9.251348741237903e-01	 7.436380254908352e-01	-2.229590990792221e+00
1	 9.093545026181421e-01	 7.640292626408308e-01	-2.602860419400239e+00
1	 8.930233224044176e-01	 7.839546983243546e-01	-2.986382346055156e+00
1	 8.761488515538501e-01	 8.034008071342293e-01	-3.377398596290427e+00
1	 8.587395464156911e-01	 8.223548237211875e-01	-3.773080707273896e+00
1	 8.408047812142654e-01	 8.408047812142655e-01	-4.170550931232312e+00
1	 8.223548237211870e-01	 8.587395464156912e-01	-4.566903921997613e+00
1	 8.034008071342290e-01	 8.761488515538506e-01	-4.959228799240297e+00
1	 7.839546983243543e-01	 8.930233224044180e-01	-5.344631276420976e+00
1	 7.640292626408302e-01	 9.093545026181423e-01	-5.720255537248280e+00
1	 7.436380254908355e-01	 9.251348741237905e-01	-6.083305551513069e+00
1	 6.506815326226163e-01	 8.094908505790606e-01	-9.449996938396650e+00
1	 6.324441377108048e-01	 8.228109373437807e-01	-9.797889014221258e+00
1	 6.138246942277593e-01	 8.356384154163033e-01	-1.010015767043248e+01
1	 5.948368147295442e-01	 8.479692286694869e-01	-1.035760611264554e+01
1	 5.754946185800568e-01	 8.598001777972279e-01	-1.057189985892339e+01
1	 5.558126876982253e-01	 8.711289202812919e-01	-1.074552612185850e+01
1	 5.358060209788079e-01	 8.819539668184722e-01	-1.088174472944635e+01
1	 5.154899876712745e-01	 8.922746742864820e-01	-1.098453163741920e+01
1	 4.948802800036430e-01	 9.020912353519670e-01	-1.105851617790167e+01
1	 4.739928653376368e-01	 9.114046648473878e-01	-1.110891325072358e+01
1	 4.528439381382665e-01	 9.202167830650881e-01	-1.114145169454072e+01
1	 6.599770143573943e-01	 8.210550444796544e-01	-8.972860331313536e+00
1	 6.414790843554309e-01	 8.345654188377986e-01	-9.321954724767005e+00
1	 6.225936479267378e-01	 8.475761472133476e-01	-9.632018113494524e+00
1	 6.033345120932594e-01	 8.600831155342663e-01	-9.903378184894279e+00
1	 5.837159979249100e-01	 8.720830787899015e-01	-1.013710287220202e+01
1	 5.637528956545833e-01	 8.835736609973346e-01	-1.033496801423368e+01
1	 5.434604184478211e-01	 8.945533515775020e-01	-1.049941766200999e+01
1	 5.228541551156736e-01	 9.050214982206022e-01	-1.063351790627278e+01
1	 5.019500220617310e-01	 9.149782963456434e-01	-1.074090518230658e+01
1	 4.807642147537830e-01	 9.244247752827184e-01	-1.082573006490890e+01
1	 4.593131590072458e-01	 9.333627813284101e-01	-1.089259759678040e+01
1	 6.692725535698655e-01	 8.326193098892952e-01	-8.533054649515815e+00
1	 6.505140868668492e-01	 8.463199730175580e-01	-8.883999490681330e+00
1	 6.313626558479827e-01	 8.595139528291983e-01	-9.201755037442732e+00
1	 6.118322620022574e-01	 8.721970773069458e-01	-9.486223810499368e+00
1	 5.919374281068147e-01	 8.843660557353294e-01	-9.737938026057858e+00
1	 5.716931527097676e-01	 8.960184786665553e-01	-9.958034732088292e+00
1	 5.511148632487294e-01	 9.071528142455881e-01	-1.014822459738036e+01
1	 5.302183680976538e-01	 9.177684009750672e-01	-1.031075506561815e+01
1	 5.090198078370561e-01	 9.278654370263989e-01	-1.044836866016943e+01
1	 4.875356060421670e-01	 9.374449662274114e-01	-1.056425727711813e+01
1	 4.657824198802068e-01	 9.465088608791018e-01	-1.066201333409547e+01
1	 6.785681426685646e-01	 8.441836373632471e-01	-8.128066485491029e+00
1	 6.595491378663686e-01	 8.580745902829160e-01	-8.481187116596450e+00
1	 6.401317108300179e-01	 8.714518225140712e-01	-8.806281494503708e+00
1	 6.203300575165623e-01	 8.843111040939093e-01	-9.102874803682358e+00
1	 6.001589024114220e-01	 8.966490986019068e-01	-9.371022471205674e+00
1	 5.796334523790159e-01	 9.084633631252296e-01	-9.611292008112754e+00
1	 5.587693491301475e-01	 9.197523445327686e-01	-9.824739410478989e+00
1	 5.375826206028216e-01	 9.305153721395665e-01	-1.001288068692137e+01
1	 5.160896315556502e-01	 9.407526468694557e-01	-1.017765914467362e+01
1	 4.943070336725011e-01	 9.504652270480891e-01	-1.032140911401736e+01
1	 4.722517154736102e-01	 9.596550109810310e-01	-1.044681682049417e+01
1	 6.878637740620274e-01	 8.557480174567736e-01	-7.755518288163252e+00
1	 6.685842299752985e-01	 8.698292610337308e-01	-8.110834701984722e+00
1	 6.489008057113668e-01	 8.833897465181827e-01	-8.442677376646092e+00
1	 6.288278916961991e-01	 8.964251860015403e-01	-8.750239606130719e+00
1	 6.083804141243839e-01	 9.089321973580301e-01	-9.033156175354215e+00
1	 5.875737881775670e-01	 9.209083042096341e-01	-9.291491163355447e+00
1	 5.664238698406903e-01	 9.323519321490821e-01	-9.525721117083695e+00
1	 5.449469066167815e-01	 9.432624013037897e-01	-9.736714032787376e+00
1	 5.231594874435456e-01	 9.536399153500364e-01	-9.925704640174493e+00
1	 5.010784921144974e-01	 9.634855471113758e-01	-1.009426652840964e+01
1	 4.787210405039172e-01	 9.728012208980670e-01	-1.024428168226245e+01
1	 6.971594401587901e-01	 8.673124407251396e-01	-7.413159314045282e+00
1	 6.776193558149488e-01	 8.815839756698589e-01	-7.770402429330095e+00
1	 6.576699333305539e-01	 8.953277150917490e-01	-8.108178300206596e+00
1	 6.373257576011925e-01	 9.085393131362224e-01	-8.425391518438735e+00
1	 6.166019565313520e-01	 9.212153419720943e-01	-8.721309741239061e+00
1	 5.955141536206586e-01	 9.333532917560440e-01	-8.995556739638923e+00
1	 5.740784191289717e-01	 9.449515668045674e-01	-9.248101535156428e+00
1	 5.523112201251401e-01	 9.560094780574260e-01	-9.479243947305278e+00
1	 5.302293697267740e-01	 9.665272319433633e-01	-9.689596926231664e+00
1	 5.078499758378680e-01	 9.765059157838943e-01	-9.880066085304783e+00
1	 4.851903896875877e-01	 9.859474798940765e-01	-1.005182687736517e+01
1	 7.064551333673871e-01	 8.788768977236078e-01	-7.098857292173280e+00
1	 6.866545080066282e-01	 8.933387245911584e-01	-7.457484157819648e+00
1	 6.664390865261031e-01	 9.072657184849857e-01	-7.800165367308903e+00
1	 6.458236482915671e-01	 9.206534756043400e-01	-8.125557859865472e+00
1	 6.248235229179774e-01	 9.334985224124955e-01	-8.432613185581179e+00
1	 6.034545422235295e-01	 9.457983156007354e-01	-8.720575107544590e+00
1	 5.817329907436075e-01	 9.575512382092632e-01	-8.988973919458143e+00
1	 5.596755551135026e-01	 9.687565919901651e-01	-9.237617701616701e+00
1	 5.372992726313677e-01	 9.794145861246583e-01	-9.466580784231200e+00
1	 5.146214793123248e-01	 9.895263224322677e-01	-9.676189724664965e+00
1	 4.916597577410830e-01	 9.990937772329286e-01	-9.867007133678836e+00
1	 7.157508460963549e-01	 8.904413790074435e-01	-6.810590737987988e+00
1	 6.956896791716466e-01	 9.050934981974866e-01	-7.169798749385414e+00
1	 6.752082581365383e-01	 9.192037469481085e-01	-7.516155724432510e+00
1	 6.543215568273478e-01	 9.327676635122771e-01	-7.848109972085251e+00
1	 6.330451065699109e-01	 9.457817286476290e-01	-8.164345591687239e+00
1	 6.113949475014181e-01	 9.582433655799836e-01	-8.463783961349510e+00
1	 5.893875784332121e-01	 9.701509360732092e-01	-8.745582481042501e+00
1	 5.670399055674743e-01	 9.815037326916953e-01	-9.009130707938033e+00
1	 5.443691903833591e-01	 9.923019673691438e-01	-9.254044062794167e+00
1	 5.213929970075799e-01	 1.002546756423119e+00	-9.480155321197859e+00
1	 4.981291393808635e-01	 1.012240102178491e+00	-9.687504131678553e+00
1	 7.250465707542285e-01	 9.020058751319096e-01	-6.546441857972519e+00
1	 7.047248619313127e-01	 9.168482868887010e-01	-6.905182061428559e+00
1	 6.839774410003833e-01	 9.311417907313339e-01	-7.253793846650195e+00
1	 6.628194762685597e-01	 9.448818669664175e-01	-7.590553991251624e+00
1	 6.412667007728051e-01	 9.580649506458917e-01	-7.913925557351917e+00
1	 6.193353629695627e-01	 9.706884315300651e-01	-8.222562621383917e+00
1	 5.970421759463996e-01	 9.827506501064432e-01	-8.515312712282752e+00
1	 5.744042654726613e-01	 9.942508897517068e-01	-8.791217024164094e+00
1	 5.514391172087798e-01	 1.005189365152043e+00	-9.049508506759276e+00
1	 5.281645233933456e-01	 1.015567207123073e+00	-9.289607969723045e+00
1	 5.045985293233903e-01	 1.025386443994631e+00	-9.511118364823616e+00
1	 7.343422997495435e-01	 9.135703766522707e-01	-6.304589992742614e+00
1	 7.137600489069367e-01	 9.286030810646588e-01	-6.661579547198739e+00
1	 6.927466279561619e-01	 9.430798400848776e-01	-7.010843483287833e+00
1	 6.713173996752266e-01	 9.569960760731446e-01	-7.350522320350386e+00
1	 6.494882988123111e-01	 9.703481783756774e-01	-7.678902367649354e+00
1	 6.272757821432012e-01	 9.831335032872551e-01	-7.994423072322478e+00
1	 6.046967770317851e-01	 9.953503700190042e-01	-8.295682446112258e+00
1	 5.817686288146687e-01	 1.006998052759889e+00	-8.581440579057933e+00
1	 5.585090473336621e-01	 1.018076768948577e+00	-8.850621282134112e+00
1	 5.349360529393340e-01	 1.028587663898750e+00	-9.102311931874612e+00
1	 5.110679222851237e-01	 1.038532791945217e+00	-9.335761617641293e+00
1	 7.436380254908355e-01	 9.251348741237905e-01	-6.083305551513069e+00
1	 7.227952327198275e-01	 9.403578711252182e-01	-6.437039410702889e+00
1	 7.015158118423985e-01	 9.550178852589556e-01	-6.785180207177458e+00
1	 6.798153201073739e-01	 9.691102809388428e-01	-7.125765740615435e+00
1	 6.577098939740799e-01	 9.826314018053828e-01	-7.456947829236809e+00
1	 6.352161985375724e-01	 9.955785706878293e-01	-7.777001673067338e+00
1	 6.123513754379838e-01	 1.007950085520931e+00	-8.084333585286011e+00
1	 5.891329895791025e-01	 1.019745211305930e+00	-8.377487055025133e+00
1	 5.655789749840383e-01	 1.030964168233969e+00	-8.655147136167574e+00
1	 5.417075801152568e-01	 1.041608116116776e+00	-8.916143186317553e+00
1	 5.175373129825247e-01	 1.051679135294118e+00	-9.159450007502917e+00
1	 4.528439381382665e-01	 9.202167830650881e-01	-1.114145169454073e+01
1	 4.314513768232033e-01	 9.285296325490469e-01	-1.116127785563716e+01
1	 4.098302069345520e-01	 9.363472213109786e-01	-1.117001499082995e+01
1	 3.879970091915094e-01	 9.436736622717951e-01	-1.116860823323225e+01
1	 3.659684029576717e-01	 9.505137794457966e-01	-1.115820647814667e+01
1	 3.437610012650071e-01	 9.568730786461752e-01	-1.114014090770678e+01
1	 3.213913671440240e-01	 9.627577163271481e-01	-1.111590283796884e+01
1	 2.988759714563226e-01	 9.681744667976357e-01	-1.108712123577216e+01
1	 2.762311524069802e-01	 9.731306880439857e-01	-1.105554023052964e+01
1	 2.534730768946626e-01	 9.776342863994822e-01	-1.102299691930991e+01
1	 2.306177038372821e-01	 9.816936802964242e-01	-1.099139973326448e+01
1	 4.593131590072458e-01	 9.333627813284101e-01	-1.089259759678040e+01
1	 4.376149886466910e-01	 9.417943862059641e-01	-1.094509278032480e+01
1	 4.156849438654171e-01	 9.497236551845435e-01	-1.098412585106387e+01
1	 3.935398422506571e-01	 9.571547599412135e-01	-1.101075026070357e+01
1	 3.711965405861093e-01	 9.640925934049352e-01	-1.102622767202684e+01
1	 3.486718892333965e-01	 9.705427400435856e-01	-1.103200527964895e+01
1	 3.259826878383746e-01	 9.765114442609666e-01	-1.102969251064654e+01
1	 3.031456425612923e-01	 9.820055771421120e-01	-1.102103746427059e+01
1	 2.801773250107800e-01	 9.870326017877615e-01	-1.100790342557216e+01
1	 2.570941330418183e-01	 9.916005374791478e-01	-1.099224575875819e+01
1	 2.339122535574748e-01	 9.957179229122425e-01	-1.097608945363760e+01
1	 4.657824198802068e-01	 9.465088608791018e-01	-1.066201333409547e+01
1	 4.437786385842050e-01	 9.550592218841775e-01	-1.074394242011655e+01
1	 4.215397170000070e-01	 9.631001717696162e-01	-1.081042356363491e+01
1	 3.990827095843820e-01	 9.706359409690051e-01	-1.086258228188665e+01
1	 3.764247105426354e-01	 9.776714913264067e-01	-1.090175515999364e+01
1	 3.535828075675455e-01	 9.842124859648724e-01	-1.092946634728246e+01
1	 3.305740369218143e-01	 9.902652572383446e-01	-1.094740347951313e+01
1	 3.074153400658280e-01	 9.958367730085771e-01	-1.095739339394505e+01
1	 2.841235220132461e-01	 1.000934601491359e+00	-1.096137797816439e+01
1	 2.607152115768244e-01	 1.005566874916577e+00	-1.096139046298614e+01
1	 2.372068236462269e-01	 1.009742252244628e+00	-1.095953243575774e+01
1	 4.722517154736102e-01	 9.596550109810310e-01	-1.044681682049417e+01
1	 4.499423216018179e-01	 9.683241287506192e-01	-1.055515929691969e+01
1	 4.273945215566904e-01	 9.764767601419596e-01	-1.064643963221646e+01
1	 4.046256066658366e-01	 9.841171943454887e-01	-1.072182104990464e+01
1	 3.816529085574754e-01	 9.912504621207464e-01	-1.078267912008767e+01
1	 3.584937522568462e-01	 9.978823052463918e-01	-1.083057779878605e+01
1	 3.351654106447973e-01	 1.004019144026986e+00	-1.086724492853020e+01
1	 3.116850604831456e-01	 1.009668043101530e+00	-1.089454757078083e+01
1	 2.880697401918619e-01	 1.014836675801436e+00	-1.091446751369052e+01
1	 2.643363095427450e-01	 1.019533287305854e+00	-1.092907726711301e+01
1	 2.405014114133076e-01	 1.023766656840262e+00	-1.094051682184469e+01
1	 4.787210405039172e-01	 9.728012208980670e-01	-1.024428168226246e+01
1	 4.561060326656015e-01	 9.815890959722186e-01	-1.037622004190942e+01
1	 4.332493527538352e-01	 9.898534093773371e-01	-1.048983891242803e+01
1	 4.101685289681732e-01	 9.975985090609815e-01	-1.058630665572750e+01
1	 3.868811303608555e-01	 1.004829494698492e+00	-1.066700369409571e+01
1	 3.634047192906908e-01	 1.011552186724500e+00	-1.073349844864515e+01
1	 3.397568052577777e-01	 1.017773093394594e+00	-1.078752276435222e+01
1	 3.159548003264608e-01	 1.023499376125470e+00	-1.083094719189965e+01
1	 2.920159763241100e-01	 1.028738813364647e+00	-1.086575646899634e+01
1	 2.679574239826443e-01	 1.033499763241064e+00	-1.089402551181319e+01
1	 2.437960141684862e-01	 1.037791125245829e+00	-1.091789619190341e+01
1	 4.851903896875877e-01	 9.859474798940765e-01	-1.005182687736517e+01
1	 4.622697667416281e-01	 9.948541127159070e-01	-1.020473578763578e+01
1	 4.391042058098099e-01	 1.003230108551511e+00	-1.033841072039268e+01
1	 4.157114719645438e-01	 1.011079874105801e+00	-1.045399430374704e+01
1	 3.921093716830018e-01	 1.018408577970179e+00	-1.055283938757815e+01
1	 3.683157046584720e-01	 1.025222119235553e+00	-1.063648522644621e+01
1	 3.443482170112096e-01	 1.031527094108872e+00	-1.070663316504362e+01
1	 3.202245561089890e-01	 1.037330760784897e+00	-1.076512219212989e+01
1	 2.959622271874740e-01	 1.042641002827651e+00	-1.081390470140751e+01
1	 2.715785519395862e-01	 1.047466291316291e+00	-1.085502276590513e+01
1	 2.470906292215318e-01	 1.051815646008011e+00	-1.089058519737118e+01
1	 4.916597577410830e-01	 9.990937772329286e-01	-9.867007133678836e+00
1	 4.684335187959697e-01	 1.008119168148615e+00	-1.003844331800999e+01
1	 4.449590759429830e-01	 1.016606846740247e+00	-1.019006064265973e+01
1	 4.212544311281008e-01	 1.024561278470266e+00	-1.032294673610088e+01
1	 3.973376282541404e-01	 1.031987700846347e+00	-1.043839606938954e+01
1	 3.732267043495814e-01	 1.038892091615907e+00	-1.053788671872053e+01
1	 3.489396421555473e-01	 1.045281134937523e+00	-1.062305663767966e+01
1	 3.244943243439466e-01	 1.051162185784308e+00	-1.069567979703345e+01
1	 2.999084895594364e-01	 1.056543232837103e+00	-1.075764252299290e+01
1	 2.751996904566350e-01	 1.061432860125619e+00	-1.081092033367518e+01
1	 2.503852538822138e-01	 1.065840207673492e+00	-1.085755553918665e+01
1	 4.981291393808635e-01	 1.012240102178491e+00	-9.687504131678550e+00
1	 4.745972837946981e-01	 1.021384251437272e+00	-9.875196907329030e+00
1	 4.508139583717224e-01	 1.029983613019306e+00	-1.004280298378543e+01
1	 4.267974019319963e-01	 1.038042711144692e+00	-1.019132724681954e+01
1	 4.025658958044973e-01	 1.045566852237530e+00	-1.032197651623688e+01
1	 3.781377143534123e-01	 1.052562092701918e+00	-1.043613721360356e+01
1	 3.535310769412447e-01	 1.059035204648252e+00	-1.053535253860592e+01
1	 3.287641015445488e-01	 1.064993639828203e+00	-1.062129950001897e+01
1	 3.038547602174806e-01	 1.070445492039662e+00	-1.069576612144633e+01
1	 2.788208365768544e-01	 1.075399458263132e+00	-1.076062911198866e+01
1	 2.536798854603012e-01	 1.079864798788953e+00	-1.081783225899510e+01
1	 5.045985293233903e-01	 1.025386443994631e+00	-9.511118364823616e+00
1	 4.807610567038857e-01	 1.034649351748811e+00	-9.712960786553094e+00
1	 4.566688483143969e-01	 1.043360396464453e+00	-9.894753794391825e+00
1	 4.323403798493825e-01	 1.051524161119399e+00	-1.005739323290514e+01
1	 4.077941700642985e-01	 1.059146021054265e+00	-1.020197045340378e+01
1	 3.830487306593562e-01	 1.066232111329943e+00	-1.032975120322057e+01
1	 3.581225176187561e-01	 1.072789292008759e+00	-1.044215401486998e+01
1	 3.330338842240117e-01	 1.078825111621081e+00	-1.054072842551377e+01
1	 3.078010359390897e-01	 1.084347769081983e+00	-1.062713333291959e+01
1	 2.824419873433090e-01	 1.089366074322916e+00	-1.070311576582333e+01
1	 2.569745212655634e-01	 1.093889407901079e+00	-1.077049031541128e+01
1	 5.110679222851237e-01	 1.038532791945217e+00	-9.335761617641293e+00
1	 4.869248324896047e-01	 1.047914458250161e+00	-9.549802181301256e+00
1	 4.625237409893745e-01	 1.056737186151450e+00	-9.744124428312059e+00
1	 4.378833603534112e-01	 1.065005617384702e+00	-9.919490234805137e+00
1	 4.130224467637700e-01	 1.072725196207091e+00	-1.007684904771036e+01
1	 3.879597492568058e-01	 1.079902136336336e+00	-1.021731830327428e+01
1	 3.627139604385357e-01	 1.086543385786751e+00	-1.034216332953721e+01
1	 3.373036688955508e-01	 1.092656589867441e+00	-1.045277704401414e+01
1	 3.117473135017467e-01	 1.098250052610725e+00	-1.055065973564515e+01
1	 2.860631397990623e-01	 1.103332696899054e+00	-1.063739919403225e+01
1	 2.602691586077694e-01	 1.107914023556551e+00	-1.071465142010195e+01
1	 5.175373129825247e-01	 1.051679135294118e+00	-9.159450007502917e+00
1	 4.930886061179270e-01	 1.061179560108253e+00	-9.383884871579207e+00
1	 4.683786316150236e-01	 1.070113971156061e+00	-9.589215582561918e+00
1	 4.434263389172353e-01	 1.078487068930921e+00	-9.776046423491996e+00
1	 4.182507216331380e-01	 1.086304366606542e+00	-9.945159813170234e+00
1	 3.928707661351534e-01	 1.093572156557455e+00	-1.009749855335828e+01
1	 3.673054016510371e-01	 1.100297474749929e+00	-1.023414753732637e+01
1	 3.415734520723819e-01	 1.106488063271783e+00	-1.035631520824950e+01
1	 3.156935896829346e-01	 1.112152331272543e+00	-1.046531503630200e+01
1	 2.896842909871788e-01	 1.117299314585631e+00	-1.056254725996232e+01
1	 2.635637947966888e-01	 1.121938634302054e+00	-1.064948111097150e+01
1	 2.306177038372821e-01	 9.816936802964242e-01	-1.099139973326448e+01
1	 2.076791456684508e-01	 9.853180020131134e-01	-1.096296960498811e+01
1	 1.846744644584667e-01	 9.885162853320296e-01	-1.093860357448291e+01
1	 1.616188232546627e-01	 9.912982639881665e-01	-1.091820264702582e+01
1	 1.385270506335802e-01	 9.936740343365396e-01	-1.090159913841515e+01
1	 1.154136152499789e-01	 9.956540178012000e-01	-1.088856428795391e+01
1	 9.229260277661536e-02	 9.972489236794971e-01	-1.087881577825600e+01
1	 6.917769523648026e-02	 9.984697124756582e-01	-1.087202507742770e+01
1	 4.608215271279750e-02	 9.993275599243346e-01	-1.086782453118455e+01
1	 2.301879740688172e-02	 9.998338218507749e-01	-1.086581414430873e+01
1	 0.000000000000000e+00	 1.000000000000000e+00	-1.086556800230871e+01
1	 2.339122535574748e-01	 9.957179229122425e-01	-1.097608945363760e+01
1	 2.106460005981401e-01	 9.993940208268849e-01	-1.096117394892824e+01
1	 1.873126799789159e-01	 1.002637994060108e+00	-1.094797943181753e+01
1	 1.639276713629985e-01	 1.005459715400836e+00	-1.093663422585577e+01
1	 1.405060151646193e-01	 1.007869425438318e+00	-1.092721207500244e+01
1	 1.170623867344659e-01	 1.009877694474696e+00	-1.091973679419391e+01
1	 9.361107297002917e-02	 1.011495384797892e+00	-1.091418697713241e+01
1	 7.016595135258435e-02	 1.012733613491392e+00	-1.091050069634049e+01
1	 4.674047139590386e-02	 1.013603715943827e+00	-1.090858013793310e+01
1	 2.334763847636898e-02	 1.014117210207157e+00	-1.090829612110516e+01
1	 0.000000000000000e+00	 1.014285762337685e+00	-1.090949245982127e+01
1	 2.372068236462269e-01	 1.009742252244628e+00	-1.095953243575774e+01
1	 2.136128738698931e-01	 1.013470126677695e+00	-1.095712198940898e+01
1	 1.899509118092326e-01	 1.016759790108138e+00	-1.095429188406645e+01
1	 1.662365337446358e-01	 1.019621254379648e+00	-1.095137114755356e+01
1	 1.424849919293242e-01	 1.022064904316569e+00	-1.094864745959170e+01
1	 1.187111684111829e-01	 1.024101459100028e+00	-1.094636910126417e+01
1	 9.492955131367173e-02	 1.025741934009444e+00	-1.094474709581930e+01
1	 7.115421357755045e-02	 1.026997602708497e+00	-1.094395749396878e+01
1	 4.739879414830253e-02	 1.027879960240767e+00	-1.094414376005764e+01
1	 2.367648157849975e-02	 1.028400686885902e+00	-1.094541921909113e+01
1	 0.000000000000000e+00	 1.028571613012482e+00	-1.094786952846839e+01
1	 2.405014114133076e-01	 1.023766656840262e+00	-1.094051682184469e+01
1	 2.165797630611406e-01	 1.027546308069888e+00	-1.094973611020642e+01
1	 1.925891577952661e-01	 1.030881661943092e+00	-1.095658265144730e+01
1	 1.685454085144206e-01	 1.033782869359052e+00	-1.096156092113294e+01
1	 1.444639793119431e-01	 1.036260459377960e+00	-1.096514641162669e+01
1	 1.203599589340152e-01	 1.038325300060698e+00	-1.096778513337766e+01
1	 9.624803673113642e-02	 1.039988559678984e+00	-1.096989342603836e+01
1	 7.214248110458996e-02	 1.041261668477513e+00	-1.097185804933014e+01
1	 4.805712043257780e-02	 1.042156281155644e+00	-1.097403652299506e+01
1	 2.400532644483619e-02	 1.042684240221567e+00	-1.097675768520905e+01
1	 0.000000000000000e+00	 1.042857540357000e+00	-1.098032243939444e+01
1	 2.437960141684862e-01	 1.037791125245829e+00	-1.091789619190341e+01
1	 2.195466657493138e-01	 1.041622553507811e+00	-1.093799687946916e+01
1	 1.952274157828656e-01	 1.045003598031943e+00	-1.095394519072908e+01
1	 1.708542937871995e-01	 1.047944548773499e+00	-1.096639707652393e+01
1	 1.464429756967243e-01	 1.050456079029154e+00	-1.097599101397609e+01
1	 1.220087569568486e-01	 1.052549205740208e+00	-1.098334530459538e+01
1	 9.756652814601643e-02	 1.054235250171347e+00	-1.098905578570045e+01
1	 7.313075312691415e-02	 1.055525799148979e+00	-1.099369394050627e+01
1	 4.871544971131398e-02	 1.056432667028950e+00	-1.099780538822936e+01
1	 2.433417280694042e-02	 1.056967858548713e+00	-1.100190873237649e+01
1	 0.000000000000000e+00	 1.057143532703853e+00	-1.100649474296353e+01
1	 2.470906292215318e-01	 1.051815646008011e+00	-1.089058519737118e+01
1	 2.225135795118439e-01	 1.055698851495811e+00	-1.092093916683199e+01
1	 1.978656836178807e-01	 1.059125586841663e+00	-1.094552124214334e+01
1	 1.731631876778185e-01	 1.062106281057438e+00	-1.096511609250343e+01
1	 1.484219794679158e-01	 1.064651751676819e+00	-1.098050157803315e+01
1	 1.236575611335684e-01	 1.066773164522058e+00	-1.099244408218631e+01
1	 9.888502448190516e-02	 1.068481993851369e+00	-1.100169434654268e+01
1	 7.411902883773439e-02	 1.069789983073437e+00	-1.100898380745986e+01
1	 4.937378144709543e-02	 1.070709106201178e+00	-1.101502142701167e+01
1	 2.466302039637459e-02	 1.071251530201898e+00	-1.102049100457033e+01
1	 0.000000000000000e+00	 1.071429578385649e+00	-1.102604895030290e+01
1	 2.503852538822138e-01	 1.065840207673492e+00	-1.085755553918665e+01
1	 2.254805019261618e-01	 1.069775190538234e+00	-1.089764856681429e+01
1	 2.005039591461607e-01	 1.073247616839224e+00	-1.093049764867987e+01
1	 1.754720883011241e-01	 1.076268054645321e+00	-1.095699456695464e+01
1	 1.504009890097659e-01	 1.078847465727620e+00	-1.097803412454741e+01
1	 1.253063701180602e-01	 1.080997164789749e+00	-1.099450774219210e+01
1	 1.002035246623959e-01	 1.082728779083882e+00	-1.100729763312348e+01
1	 7.510730743026205e-02	 1.084054208601425e+00	-1.101727156765765e+01
1	 5.003211510250640e-02	 1.084985587012820e+00	-1.102527823024977e+01
1	 2.499186894470083e-02	 1.085535243515682e+00	-1.103214316298533e+01
1	 0.000000000000000e+00	 1.085715665735001e+00	-1.103866528200208e+01
1	 2.536798854603012e-01	 1.079864798788953e+00	-1.081783225899510e+01
1	 2.284474305696987e-01	 1.083851559139426e+00	-1.086725810068309e+01
1	 2.031422402135546e-01	 1.087369676491597e+00	-1.090810342302204e+01
1	 1.777809937719622e-01	 1.090429857971597e+00	-1.094134660744161e+01
1	 1.523800027065227e-01	 1.093043209588223e+00	-1.096797806059147e+01
1	 1.269551825642095e-01	 1.095221194926783e+00	-1.098899229973628e+01
1	 1.015220276110820e-01	 1.096975594233721e+00	-1.100538067761008e+01
1	 7.609558809770840e-02	 1.098318464083486e+00	-1.101812477062017e+01
1	 5.069045014013127e-02	 1.099262097804365e+00	-1.102819044220022e+01
1	 2.532071818348128e-02	 1.099818986824623e+00	-1.103652258227111e+01
1	 0.000000000000000e+00	 1.100001783084519e+00	-1.104404051423477e+01
1	 2.569745212655634e-01	 1.093889407901079e+00	-1.077049031541128e+01
1	 2.314143630198855e-01	 1.097927945803735e+00	-1.082894517181066e+01
1	 2.057805246659121e-01	 1.101491754265755e+00	-1.087760703991757e+01
1	 1.800899022051794e-01	 1.104591679470715e+00	-1.091752142234370e+01
1	 1.543590189424344e-01	 1.107238971665294e+00	-1.094975403507559e+01
1	 1.286039971259017e-01	 1.109445243316661e+00	-1.097538159841022e+01
1	 1.028405322515567e-01	 1.111222427665721e+00	-1.099548331638860e+01
1	 7.708387003328478e-02	 1.112582737870157e+00	-1.101113307894055e+01
1	 5.134878602255434e-02	 1.113538626916308e+00	-1.102339240685965e+01
1	 2.564956784427809e-02	 1.114102748463282e+00	-1.103330414697520e+01
1	 0.000000000000000e+00	 1.114287918766816e+00	-1.104188691356732e+01
1	 2.602691586077694e-01	 1.107914023556551e+00	-1.071465142010195e+01
1	 2.343812968541535e-01	 1.112004339035504e+00	-1.078192875208231e+01
1	 2.084188103490823e-01	 1.115613838628670e+00	-1.083831393402474e+01
1	 1.823988117156219e-01	 1.118753507577126e+00	-1.088490109479345e+01
1	 1.563380361017490e-01	 1.121434740365498e+00	-1.092281195700212e+01
1	 1.302528124570224e-01	 1.123669298342884e+00	-1.095318554465051e+01
1	 1.041590375074133e-01	 1.125469267744714e+00	-1.097716861594030e+01
1	 7.807215243020260e-02	 1.126847018311981e+00	-1.099590686457457e+01
1	 5.200712221235990e-02	 1.127815162689139e+00	-1.101053691707815e+01
1	 2.597841765865338e-02	 1.128386516766216e+00	-1.102217913932136e+01
1	 0.000000000000000e+00	 1.128574061114501e+00	-1.103193125260182e+01
1	 2.635637947966888e-01	 1.121938634302054e+00	-1.064948111097150e+01
1	 2.373482296499335e-01	 1.126080727339082e+00	-1.072546677915511e+01
1	 2.110570951089145e-01	 1.129735918047314e+00	-1.078956418526931e+01
1	 1.847077204181358e-01	 1.132915330725281e+00	-1.084289852343468e+01
1	 1.583170525687149e-01	 1.135630504095502e+00	-1.088662916223177e+01
1	 1.319016272114572e-01	 1.137893348388953e+00	-1.092193847443180e+01
1	 1.054775423022452e-01	 1.139716102835537e+00	-1.095002141668207e+01
1	 7.906043448167313e-02	 1.141111293759497e+00	-1.097207591032469e+01
1	 5.266545817213228e-02	 1.142091693463350e+00	-1.098929405741399e+01
1	 2.630726735816929e-02	 1.142670280067985e+00	-1.100285421033751e+01
1	 0.000000000000000e+00	 1.142860198460186e+00	-1.101391389938639e+01
1	 1.142860198460186e+00	 0.000000000000000e+00	 4.501460597503905e+00
1	 1.142670280067985e+00	 2.630726735816965e-02	 4.488179581554868e+00
1	 1.142091693463350e+00	 5.266545817213261e-02	 4.463058102533505e+00
1	 1.141111293759497e+00	 7.906043448167339e-02	 4.424869455372401e+00
1	 1.139716102835537e+00	 1.054775423022454e-01	 4.372375984827777e+00
1	 1.137893348388953e+00	 1.319016272114574e-01	 4.304335540370565e+00
1	 1.135630504095502e+00	 1.583170525687151e-01	 4.219508602288917e+00
1	 1.132915330725281e+00	 1.847077204181359e-01	 4.116666069348664e+00
1	 1.129735918047314e+00	 2.110570951089146e-01	 3.994597687145214e+00
1	 1.126080727339082e+00	 2.373482296499335e-01	 3.852121083905817e+00
1	 1.121938634302054e+00	 2.635637947966888e-01	 3.688091367083093e+00
1	 1.157145321350848e+00	 0.000000000000000e+00	 4.262210173935724e+00
1	 1.156953029083323e+00	 2.663609370653390e-02	 4.247869899506560e+00
1	 1.156367210464742e+00	 5.332374738429320e-02	 4.222299712247652e+00
1	 1.155374556304495e+00	 8.004864635632550e-02	 4.184264075487098e+00
1	 1.153961926262349e+00	 1.067959534713262e-01	 4.132520814863056e+00
1	 1.152116388389058e+00	 1.335503248849476e-01	 4.065828237547461e+00
1	 1.149825259788246e+00	 1.602959285071759e-01	 3.982952942500705e+00
1	 1.147076148246399e+00	 1.870164651665215e-01	 3.882678305038757e+00
1	 1.143856994661234e+00	 2.136951925256247e-01	 3.763813606643284e+00
1	 1.140156116082579e+00	 2.403149517652857e-01	 3.625203767439173e+00
1	 1.135962249164317e+00	 2.668581970349608e-01	 3.465739624249839e+00
1	 1.171430429241259e+00	 0.000000000000000e+00	 4.035038398585737e+00
1	 1.171235763100916e+00	 2.696491970997891e-02	 4.019874169559438e+00
1	 1.170642712476017e+00	 5.398203590584637e-02	 3.994082536572936e+00
1	 1.169637803872298e+00	 8.103685719410998e-02	 3.956426734069478e+00
1	 1.168207734730349e+00	 1.081143632569114e-01	 3.905667187786931e+00
1	 1.166339413454362e+00	 1.351990208281577e-01	 3.840569183220572e+00
1	 1.164020000575990e+00	 1.622748023686339e-01	 3.759911239194532e+00
1	 1.161236950898263e+00	 1.893252074914670e-01	 3.662494163685428e+00
1	 1.157978056447746e+00	 2.163332871729747e-01	 3.547150755748419e+00
1	 1.154231490046761e+00	 2.432816707661114e-01	 3.412756102958054e+00
1	 1.149985849301752e+00	 2.701525958145355e-01	 3.258238408367218e+00
1	 1.185715523798227e+00	 0.000000000000000e+00	 3.819222009190843e+00
1	 1.185518483787291e+00	 2.729374540682903e-02	 3.803452709043645e+00
1	 1.184918201162855e+00	 5.464032381352620e-02	 3.777644675772445e+00
1	 1.183901038127150e+00	 8.202506711023397e-02	 3.740567069776203e+00
1	 1.182453529901738e+00	 1.094327718127217e-01	 3.690989594326527e+00
1	 1.180562425244395e+00	 1.368477152333390e-01	 3.627690601335415e+00
1	 1.178214728114948e+00	 1.642536743838632e-01	 3.549465910791472e+00
1	 1.175397740333110e+00	 1.916339476622378e-01	 3.455138315782562e+00
1	 1.172099105054432e+00	 2.189713793586628e-01	 3.343567730977253e+00
1	 1.168306850873861e+00	 2.462483869984567e-01	 3.213661927262836e+00
1	 1.164009436350526e+00	 2.734469915196950e-01	 3.064387779128637e+00
1	 1.200000606688556e+00	 0.000000000000000e+00	 3.614072187255781e+00
1	 1.199801192808974e+00	 2.762257083540859e-02	 3.597901060927972e+00
1	 1.199193678190934e+00	 5.529861118406665e-02	 3.572260513654474e+00
1	 1.198164260733292e+00	 8.301327621990451e-02	 3.535932360075469e+00
1	 1.196699313438714e+00	 1.107511792924778e-01	 3.487701837680675e+00
1	 1.194785425418687e+00	 1.384964082927426e-01	 3.426366040956800e+00
1	 1.192409444061335e+00	 1.662325447836382e-01	 3.350743072458972e+00
1	 1.189558518203180e+00	 1.939426859480992e-01	 3.259681878396482e+00
1	 1.186220142128876e+00	 2.216094693903864e-01	 3.152072721710840e+00
1	 1.182382200206109e+00	 2.492151008083671e-01	 3.026858229902739e+00
1	 1.178033011946810e+00	 2.767413845347217e-01	 2.883044938245187e+00
1	 1.214285679579051e+00	 0.000000000000000e+00	 3.418932531960533e+00
1	 1.214083891832494e+00	 2.795139603404196e-02	 3.402547921730347e+00
1	 1.213469145225935e+00	 5.595689809420178e-02	 3.377238583250092e+00
1	 1.212427473354969e+00	 8.400148463832864e-02	 3.341805307201239e+00
1	 1.210945087003475e+00	 1.120695858499002e-01	 3.295054721022820e+00
1	 1.209008415636766e+00	 1.401451001986199e-01	 3.235807945380836e+00
1	 1.206604150071366e+00	 1.682114137987335e-01	 3.162909965716200e+00
1	 1.203719286160712e+00	 1.962514226183162e-01	 3.075239683018219e+00
1	 1.200341169318661e+00	 2.242475575758435e-01	 2.971720592972829e+00
1	 1.196457539685740e+00	 2.521818125418887e-01	 2.851332026551404e+00
1	 1.192056577726769e+00	 2.800357752438980e-01	 2.713120868161103e+00
1	 1.228570744136519e+00	 0.000000000000000e+00	 3.233177175439822e+00
1	 1.228366582524378e+00	 2.828022104105345e-02	 3.216753214009788e+00
1	 1.227744603933536e+00	 5.661518462066559e-02	 3.191919581414634e+00
1	 1.226690677656422e+00	 8.498969248071346e-02	 3.157501978594141e+00
1	 1.225190852258222e+00	 1.133879916387098e-01	 3.112333896360067e+00
1	 1.223231397558160e+00	 1.417937911432220e-01	 3.055265390863886e+00
1	 1.220798847801256e+00	 1.701902816599234e-01	 2.985172567390550e+00
1	 1.217880045857944e+00	 1.985601579421542e-01	 2.900967734053408e+00
1	 1.214462188271370e+00	 2.268856442227320e-01	 2.801610171758942e+00
1	 1.210532870954982e+00	 2.551485225450670e-01	 2.686117450544905e+00
1	 1.206080135326573e+00	 2.833301640315056e-01	 2.553577205305242e+00
1	 1.242855802027764e+00	 0.000000000000000e+00	 3.056209028058509e+00
1	 1.242649266551153e+00	 2.860904589476743e-02	 3.039906291805576e+00
1	 1.242020055979417e+00	 5.727347084019214e-02	 3.015674520369257e+00
1	 1.240953875301895e+00	 8.597789986226598e-02	 2.982369889397555e+00
1	 1.239436610865154e+00	 1.147063968126271e-01	 2.938857861764194e+00
1	 1.237454372842400e+00	 1.434424813188002e-01	 2.884021981319554e+00
1	 1.234993538907220e+00	 1.721691485979826e-01	 2.816773363493045e+00
1	 1.232040798947115e+00	 2.008688921888784e-01	 2.736060842609283e+00
1	 1.228583200634588e+00	 2.295237296387498e-01	 2.640881720538046e+00
1	 1.224608195656070e+00	 2.581152311639481e-01	 2.530293045026932e+00
1	 1.220103686382390e+00	 2.866245512818271e-01	 2.403423329005725e+00
1	 1.257140854919592e+00	 0.000000000000000e+00	 2.887458143341187e+00
1	 1.256931945579345e+00	 2.893787063350823e-02	 2.871424268446970e+00
1	 1.256295503029258e+00	 5.793175682951539e-02	 2.847903005288340e+00
1	 1.255217067955632e+00	 8.696610689819327e-02	 2.815786215707764e+00
1	 1.253682364486469e+00	 1.160248015253727e-01	 2.773976095170916e+00
1	 1.251677343149015e+00	 1.450911709176057e-01	 2.721393886575708e+00
1	 1.249188225045472e+00	 1.741480148436853e-01	 2.656989274892548e+00
1	 1.246201547080464e+00	 2.031776256277540e-01	 2.579750421633103e+00
1	 1.242704208055896e+00	 2.321618141315945e-01	 2.488714583034571e+00
1	 1.238683515431234e+00	 2.610819387445777e-01	 2.382979239741809e+00
1	 1.234127232530387e+00	 2.899189373791445e-01	 2.261713648910693e+00
1	 1.271425904478810e+00	 0.000000000000000e+00	 2.726380193143836e+00
1	 1.271214621275483e+00	 2.926669529560020e-02	 2.710750457107811e+00
1	 1.270570946748737e+00	 5.859004266536945e-02	 2.688031628017927e+00
1	 1.269480257281874e+00	 8.795431370370244e-02	 2.657156128292947e+00
1	 1.267928114784366e+00	 1.173432059306674e-01	 2.617067314004867e+00
1	 1.265900310137534e+00	 1.467398601318897e-01	 2.566728012898980e+00
1	 1.263382907872229e+00	 1.761268806278061e-01	 2.505129722848226e+00
1	 1.260362291910229e+00	 2.054863585280462e-01	 2.431302429709971e+00
1	 1.256825212182878e+00	 2.347998980089641e-01	 2.344324988740381e+00
1	 1.252758831922707e+00	 2.640486456330018e-01	 2.243335997950937e+00
1	 1.248150775406733e+00	 2.932133227077401e-01	 2.127545075300535e+00
1	 1.285710952372222e+00	 0.000000000000000e+00	 2.572455044492221e+00
1	 1.285497295306093e+00	 2.959551991936768e-02	 2.557352915335873e+00
1	 1.284846388803535e+00	 5.924832842448829e-02	 2.535512467891697e+00
1	 1.283743444944865e+00	 8.894252039400048e-02	 2.505911237410181e+00
1	 1.282173863421045e+00	 1.186616101822318e-01	 2.467537850842712e+00
1	 1.280123275467486e+00	 1.483885491539035e-01	 2.419400295498146e+00
1	 1.277577589043704e+00	 1.781057461811192e-01	 2.360534823521125e+00
1	 1.274523035088650e+00	 2.077950911590204e-01	 2.290015451956367e+00
1	 1.270946214663118e+00	 2.374379815785564e-01	 2.206964003809152e+00
1	 1.266834146772720e+00	 2.670153521752661e-01	 2.110560620239193e+00
1	 1.262174316647597e+00	 2.965077076518963e-01	 2.000054658065142e+00
1	 1.121938634302054e+00	 2.635637947966888e-01	 3.688091367083093e+00
1	 1.117299314585631e+00	 2.896842909871785e-01	 3.507095450743772e+00
1	 1.112152331272543e+00	 3.156935896829344e-01	 3.313912138562096e+00
1	 1.106488063271783e+00	 3.415734520723818e-01	 3.107844775790411e+00
1	 1.100297474749929e+00	 3.673054016510370e-01	 2.888327724568826e+00
1	 1.093572156557455e+00	 3.928707661351533e-01	 2.654940740470723e+00
1	 1.086304366606542e+00	 4.182507216331378e-01	 2.407422871377728e+00
1	 1.078487068930921e+00	 4.434263389172351e-01	 2.145685641324686e+00
1	 1.070113971156061e+00	 4.683786316150235e-01	 1.869825271957157e+00
1	 1.061179560108253e+00	 4.930886061179267e-01	 1.580133688704376e+00
1	 1.051679135294118e+00	 5.175373129825247e-01	 1.277108058356886e+00
1	 1.135962249164317e+00	 2.668581970349608e-01	 3.465739624249839e+00
1	 1.131264940507173e+00	 2.933051850388362e-01	 3.290248962913585e+00
1	 1.126053622738153e+00	 3.196395856405782e-01	 3.103780168222152e+00
1	 1.120318554507902e+00	 3.458429320534967e-01	 2.905708316537603e+00
1	 1.114050587040045e+00	 3.718965168269621e-01	 2.695520911525108e+00
1	 1.107241206075309e+00	 3.977814342839482e-01	 2.472830321955249e+00
1	 1.099882572754026e+00	 4.234786252445681e-01	 2.237385823668002e+00
1	 1.091967563164214e+00	 4.489689238761272e-01	 1.989085041655569e+00
1	 1.083489806280113e+00	 4.742331064869885e-01	 1.727984579335889e+00
1	 1.074443720016364e+00	 4.992519420589114e-01	 1.454309617008989e+00
1	 1.064824545126001e+00	 5.240062442908520e-01	 1.168462260793062e+00
1	 1.149985849301752e+00	 2.701525958145355e-01	 3.258238408367217e+00
1	 1.145230551764896e+00	 2.969260752888895e-01	 3.088581955957655e+00
1	 1.139954899607613e+00	 3.235855774551876e-01	 2.909015547432102e+00
1	 1.134149031222319e+00	 3.501124075518628e-01	 2.718980439581088e+00
1	 1.127803684889805e+00	 3.764876271823806e-01	 2.518013312030829e+00
1	 1.120910241241152e+00	 4.026920972766797e-01	 2.305756926936459e+00
1	 1.113460764644947e+00	 4.287065233668244e-01	 2.081970467509143e+00
1	 1.105448043243582e+00	 4.545115030154289e-01	 1.846539381892288e+00
1	 1.096865627360146e+00	 4.800875752118876e-01	 1.599484551043057e+00
1	 1.087707865997702e+00	 5.054152715285448e-01	 1.340970594624544e+00
1	 1.077969941155748e+00	 5.304751688069794e-01	 1.071313127968197e+00
1	 1.164009436350526e+00	 2.734469915196950e-01	 3.064387779128637e+00
1	 1.159196149988179e+00	 3.005469621597157e-01	 2.900812136801257e+00
1	 1.153856163502768e+00	 3.275315655870698e-01	 2.728265889158436e+00
1	 1.147979495028594e+00	 3.543818790655260e-01	 2.546251188641395e+00
1	 1.141556769903712e+00	 3.810787332528600e-01	 2.354350142214078e+00
1	 1.134579263649660e+00	 4.076027556861920e-01	 2.152233848524328e+00
1	 1.127038943863363e+00	 4.339344166097565e-01	 1.939671181562312e+00
1	 1.118928510741666e+00	 4.600540769816966e-01	 1.716537175206222e+00
1	 1.110241435956580e+00	 4.859420384726595e-01	 1.482820856131406e+00
1	 1.100971999599649e+00	 5.115785952457937e-01	 1.238632368307606e+00
1	 1.091115324916893e+00	 5.369440872855219e-01	 9.842092311431486e-01
1	 1.178033011946810e+00	 2.767413845347217e-01	 2.883044938245187e+00
1	 1.173161736806400e+00	 3.041678460736917e-01	 2.725718275831986e+00
1	 1.167757416045464e+00	 3.314775504965320e-01	 2.560243207540876e+00
1	 1.161809947540286e+00	 3.586513470925324e-01	 2.386177749928293e+00
1	 1.155309843686275e+00	 3.856698355739673e-01	 2.203145895283088e+00
1	 1.148248274895508e+00	 4.125134100853290e-01	 2.010845177016761e+00
1	 1.140617111993330e+00	 4.391623055832140e-01	 1.809054042348450e+00
1	 1.132408967231106e+00	 4.655966464214871e-01	 1.597638911939917e+00
1	 1.123617233629833e+00	 4.917964969522419e-01	 1.376560800087889e+00
1	 1.114236122369594e+00	 5.177419139296247e-01	 1.145881365201616e+00
1	 1.104260697942969e+00	 5.434130004810946e-01	 9.057682589394518e-01
1	 1.192056577726769e+00	 2.800357752438980e-01	 2.713120868161103e+00
1	 1.187127313848934e+00	 3.077887274531949e-01	 2.562136614945884e+00
1	 1.181658658857547e+00	 3.354235326438813e-01	 2.403720129608482e+00
1	 1.175640390370952e+00	 3.629208121309280e-01	 2.237480502611040e+00
1	 1.169062907841999e+00	 3.902609346812700e-01	 2.063080266442671e+00
1	 1.161917276573373e+00	 4.174240610469351e-01	 1.880241635410342e+00
1	 1.154195270618903e+00	 4.443901908970469e-01	 1.688752606792911e+00
1	 1.145889414284543e+00	 4.711392119813576e-01	 1.488472825738443e+00
1	 1.136993021940326e+00	 4.976509513335730e-01	 1.279339111027009e+00
1	 1.127500235854920e+00	 5.239052282990043e-01	 1.061370535288748e+00
1	 1.117406061767513e+00	 5.498819091483128e-01	 8.346729517556303e-01
1	 1.206080135326573e+00	 2.833301640315056e-01	 2.553577205305242e+00
1	 1.201092882745161e+00	 3.114096067206020e-01	 2.408957526224766e+00
1	 1.195559893560861e+00	 3.393695124894245e-01	 2.257526371326028e+00
1	 1.189470825134154e+00	 3.671902746787588e-01	 2.098939344869926e+00
1	 1.182815963975389e+00	 3.948520311103353e-01	 1.932894362152371e+00
1	 1.175586270277928e+00	 4.223347091438544e-01	 1.759136705491206e+00
1	 1.167773421324141e+00	 4.496180731611049e-01	 1.577463989046117e+00
1	 1.159369853474618e+00	 4.766817743078645e-01	 1.387730955101925e+00
1	 1.150368802448477e+00	 5.035054022995908e-01	 1.189854019905584e+00
1	 1.140764341603015e+00	 5.300685390728993e-01	 9.838154839375814e-01
1	 1.130551417924058e+00	 5.563508140417918e-01	 7.696673198625192e-01
1	 1.220103686382390e+00	 2.866245512818271e-01	 2.403423329005725e+00
1	 1.215058445124458e+00	 3.150304842982906e-01	 2.265122401076624e+00
1	 1.209461121777253e+00	 3.433154904934693e-01	 2.120545456700146e+00
1	 1.203301253443449e+00	 3.714597352340707e-01	 1.969390273353354e+00
1	 1.196569013690954e+00	 3.994431253967306e-01	 1.811387170845878e+00
1	 1.189255257603850e+00	 4.272453549489311e-01	 1.646303021123513e+00
1	 1.181351565693099e+00	 4.548459529852373e-01	 1.473945207900023e+00
1	 1.172850286373970e+00	 4.822243340475645e-01	 1.294165476587064e+00
1	 1.163744576714707e+00	 5.093598505332340e-01	 1.106863611099230e+00
1	 1.154028441161263e+00	 5.362318469702763e-01	 9.119908712030351e-01
1	 1.143696767946139e+00	 5.628197159161465e-01	 7.095531223501570e-01
1	 1.234127232530387e+00	 2.899189373791445e-01	 2.261713648910693e+00
1	 1.229024002616201e+00	 3.186513606086377e-01	 2.129620751504704e+00
1	 1.223362345128567e+00	 3.472614671163222e-01	 1.991711660608772e+00
1	 1.217131676912398e+00	 3.757291942949100e-01	 1.847722195880737e+00
1	 1.210322058593197e+00	 4.040342180760229e-01	 1.697412274311072e+00
1	 1.202924240145814e+00	 4.321559990350092e-01	 1.540569007478513e+00
1	 1.194929705309834e+00	 4.600738309792942e-01	 1.377009783273267e+00
1	 1.186330714555242e+00	 4.877668918470147e-01	 1.206585288046578e+00
1	 1.177120346299433e+00	 5.152142967174402e-01	 1.029182421831999e+00
1	 1.167292536077051e+00	 5.423951527101019e-01	 8.447270566568892e-01
1	 1.156842113367289e+00	 5.692886155259922e-01	 6.531865861743684e-01
1	 1.248150775406733e+00	 2.932133227077401e-01	 2.127545075300536e+00
1	 1.242989556849769e+00	 3.222722360740202e-01	 2.001487506819073e+00
1	 1.237263565236651e+00	 3.512074428182910e-01	 1.870007157755581e+00
1	 1.230962097154558e+00	 3.799986523593224e-01	 1.732873959044048e+00
1	 1.224075100286626e+00	 4.086253096837797e-01	 1.589874780800236e+00
1	 1.216593219498494e+00	 4.370666419749334e-01	 1.440815746858467e+00
1	 1.208507841758404e+00	 4.653017077531252e-01	 1.285524562173070e+00
1	 1.199811139591073e+00	 4.933094483527717e-01	 1.123852822238530e+00
1	 1.190496112763076e+00	 5.210687415351478e-01	 9.556782708843148e-01
1	 1.180556627897764e+00	 5.485584570113426e-01	 7.809069704356167e-01
1	 1.169987455721043e+00	 5.757575136259440e-01	 5.994753464165099e-01
1	 1.262174316647597e+00	 2.965077076518963e-01	 2.000054658065142e+00
1	 1.256955109454539e+00	 3.258931111168156e-01	 1.879800490587836e+00
1	 1.251164783723348e+00	 3.551534180596824e-01	 1.754459361715707e+00
1	 1.244792515783490e+00	 3.842681099253539e-01	 1.623831573991742e+00
1	 1.237828140375747e+00	 4.132164007555682e-01	 1.487728462622718e+00
1	 1.230262197256569e+00	 4.419772843415474e-01	 1.345974053489325e+00
1	 1.222085976622863e+00	 4.705295839165800e-01	 1.198406756283680e+00
1	 1.213291563054103e+00	 4.988520042113921e-01	 1.044881072885738e+00
1	 1.203871877666055e+00	 5.269231856692950e-01	 8.852692987442534e-01
1	 1.193820718170790e+00	 5.547217605929656e-01	 7.194631929085359e-01
1	 1.183132796540936e+00	 5.822264109706171e-01	 5.473755905491305e-01
1	 1.051679135294118e+00	 5.175373129825247e-01	 1.277108058356885e+00
1	 1.041608116116776e+00	 5.417075801152571e-01	 9.616363779889793e-01
1	 1.030964168233969e+00	 5.655789749840386e-01	 6.348851203416936e-01
1	 1.019745211305930e+00	 5.891329895791028e-01	 2.979541428534765e-01
1	 1.007950085520931e+00	 6.123513754379840e-01	-4.793764721290872e-02
1	 9.955785706878293e-01	 6.352161985375726e-01	-4.014565965246309e-01
1	 9.826314018053823e-01	 6.577098939740801e-01	-7.611600476010231e-01
1	 9.691102809388425e-01	 6.798153201073742e-01	-1.125503512852365e+00
1	 9.550178852589553e-01	 7.015158118423989e-01	-1.492849247928010e+00
1	 9.403578711252181e-01	 7.227952327198277e-01	-1.861476163981798e+00
1	 9.251348741237903e-01	 7.436380254908352e-01	-2.229590990792219e+00
1	 1.064824545126001e+00	 5.240062442908520e-01	 1.168462260793063e+00
1	 1.054627643757190e+00	 5.484786264475274e-01	 8.709556390132359e-01
1	 1.043850652389678e+00	 5.726484006014743e-01	 5.626308588104892e-01
1	 1.032491464680596e+00	 5.964968274030253e-01	 2.445341413160396e-01
1	 1.020548906321208e+00	 6.200054302940132e-01	-8.218932594049544e-02
1	 1.008022754368101e+00	 6.431560510859452e-01	-4.163000772946279e-01
1	 9.949137530071114e-01	 6.659309053234386e-01	-7.564702684086425e-01
1	 9.812236255783677e-01	 6.883126371053294e-01	-1.101290766179422e+00
1	 9.669550827157742e-01	 7.102843730320811e-01	-1.449279385404149e+00
1	 9.521118264813074e-01	 7.318297749475440e-01	-1.798890205239664e+00
1	 9.366985504033987e-01	 7.529330911458786e-01	-2.148523875521843e+00
1	 1.077969941155748e+00	 5.304751688069794e-01	 1.071313127968198e+00
1	 1.067647157727559e+00	 5.552496656704091e-01	 7.906828214150440e-01
1	 1.056737123014926e+00	 5.797178187962588e-01	 4.996207594476306e-01
1	 1.045237704671911e+00	 6.038606574951999e-01	 1.991204687850444e-01
1	 1.033147713892791e+00	 6.276594771135987e-01	-1.097437643123557e-01
1	 1.020466924981896e+00	 6.510958952978120e-01	-4.258218995243067e-01
1	 1.007196091312141e+00	 6.741519080410896e-01	-7.478941521726812e-01
1	 9.933369574985162e-01	 6.968099451814584e-01	-1.074677973453185e+00
1	 9.788922676380573e-01	 7.190529250151160e-01	-1.404835948069530e+00
1	 9.638657694951804e-01	 7.408643076892963e-01	-1.736984536801617e+00
1	 9.482622145405371e-01	 7.622281470413493e-01	-2.069703572853030e+00
1	 1.091115324916893e+00	 5.369440872855219e-01	 9.842092311431487e-01
1	 1.080666659546745e+00	 5.620206985737621e-01	 7.194101891137424e-01
1	 1.069623581613069e+00	 5.867872303930618e-01	 4.445000155449194e-01
1	 1.057983932766892e+00	 6.112244807146443e-01	 1.604205889136535e-01
1	 1.045746509705525e+00	 6.353135167896200e-01	-1.318218405150541e-01
1	 1.032911083981049e+00	 6.590357320994003e-01	-4.311619087344982e-01
1	 1.019478418153453e+00	 6.823729030860695e-01	-7.364812127660153e-01
1	 1.005450278112578e+00	 7.053072453270419e-01	-1.046615157229313e+00
1	 9.908294414185685e-01	 7.278214688144412e-01	-1.360360511540957e+00
1	 9.756197015382420e-01	 7.498988319990696e-01	-1.676483600798095e+00
1	 9.598258678844229e-01	 7.715231942616434e-01	-1.993729038592681e+00
1	 1.104260697942969e+00	 5.434130004810946e-01	 9.057682589394518e-01
1	 1.093686150733604e+00	 5.687917259474445e-01	 6.557970428402652e-01
1	 1.082510029687462e+00	 5.938566362165515e-01	 3.959783368205506e-01
1	 1.070730150452557e+00	 6.185882979203762e-01	 1.272035165950672e-01
1	 1.058345295229253e+00	 6.429675502149553e-01	-1.495862937122057e-01
1	 1.045355232817389e+00	 6.669755624169363e-01	-4.334056700386922e-01
1	 1.031760734964027e+00	 6.905938914174142e-01	-7.232309850735900e-01
1	 1.017563588833845e+00	 7.138045385333613e-01	-1.018007098666987e+00
1	 1.002766605450071e+00	 7.365900054529947e-01	-1.316654574088435e+00
1	 9.873736239818964e-01	 7.589333489308475e-01	-1.618077339711090e+00
1	 9.713895117842751e-01	 7.808182338911576e-01	-1.921170704359306e+00
1	 1.117406061767513e+00	 5.498819091483128e-01	 8.346729517556297e-01
1	 1.106705632806998e+00	 5.755627485813165e-01	 5.985657769611500e-01
1	 1.095396468741459e+00	 6.009260370913970e-01	 3.528261545241986e-01
1	 1.083476359215923e+00	 6.259521099714127e-01	 9.829619751369345e-02
1	 1.070944071933819e+00	 6.506215782824841e-01	-1.641451437508655e-01
1	 1.057799372942749e+00	 6.749153871766472e-01	-4.335876608482077e-01
1	 1.044043043176842e+00	 6.988148739941590e-01	-7.090959646492674e-01
1	 1.029676891075605e+00	 7.223018257916974e-01	-9.897159984804961e-01
1	 1.014703761125330e+00	 7.453585359537156e-01	-1.274481913796763e+00
1	 9.991275381975498e-01	 7.679678595386151e-01	-1.562423225414560e+00
1	 9.829531475893118e-01	 7.901132670142886e-01	-1.852572155106396e+00
1	 1.130551417924058e+00	 5.563508140417918e-01	 7.696673198625192e-01
1	 1.119725107285783e+00	 5.823337672652362e-01	 5.464982114406288e-01
1	 1.108282900278415e+00	 6.079954338422673e-01	 3.138710913336319e-01
1	 1.096222560544009e+00	 6.333159177267716e-01	 7.258014031583621e-02
1	 1.083542841289068e+00	 6.582756018850847e-01	-1.765548722554303e-01
1	 1.070243505808959e+00	 6.828552073047597e-01	-4.326942408041151e-01
1	 1.056325344224879e+00	 7.070358517753396e-01	-6.949843422558282e-01
1	 1.041790186251149e+00	 7.307991080933313e-01	-9.625639522212728e-01
1	 1.026640909837109e+00	 7.541270613395418e-01	-1.234570781254440e+00
1	 1.010881445556606e+00	 7.770023648763554e-01	-1.510148146637219e+00
1	 9.945167766487508e-01	 7.994082947154326e-01	-1.788451689595324e+00
1	 1.143696767946139e+00	 5.628197159161465e-01	 7.095531223501570e-01
1	 1.132744575688819e+00	 5.891047827890633e-01	 4.984321768004509e-01
1	 1.121169325801685e+00	 6.150648272938309e-01	 2.779946747352159e-01
1	 1.108968755923832e+00	 6.406797220454709e-01	 4.898828107169478e-02
1	 1.096141604764842e+00	 6.659296219156364e-01	-1.878233843100724e-01
1	 1.082687632867852e+00	 6.907950237275002e-01	-4.316664168620670e-01
1	 1.068607639541119e+00	 7.152568257199923e-01	-6.817625497941640e-01
1	 1.053903475773768e+00	 7.392963864295434e-01	-9.373352548304201e-01
1	 1.038578052978170e+00	 7.628955826334110e-01	-1.197615941004969e+00
1	 1.022635347430469e+00	 7.860368659980541e-01	-1.461850166240063e+00
1	 1.006080400311810e+00	 8.087033180789859e-01	-1.729303773236912e+00
1	 1.156842113367289e+00	 5.692886155259922e-01	 6.531865861743674e-01
1	 1.145764039534964e+00	 5.958757959426564e-01	 4.532583319503207e-01
1	 1.134055746814624e+00	 6.221342182707570e-01	 2.441292745181627e-01
1	 1.121714946842410e+00	 6.480435237865279e-01	 2.650206154876095e-02
1	 1.108740363830987e+00	 6.735836392670183e-01	-1.989127681848181e-01
1	 1.095131755571259e+00	 6.987348373710959e-01	-4.314024198270426e-01
1	 1.080889930558540e+00	 7.234777967871520e-01	-6.702576326259329e-01
1	 1.066016761056750e+00	 7.477936617916149e-01	-9.147785480447610e-01
1	 1.050515191941278e+00	 7.716641008582622e-01	-1.164280573792075e+00
1	 1.034389245190546e+00	 7.950713639576943e-01	-1.418100158665747e+00
1	 1.017644019927708e+00	 8.179983381893458e-01	-1.675600391864019e+00
1	 1.169987455721043e+00	 5.757575136259440e-01	 5.994753464165105e-01
1	 1.158783500343078e+00	 6.026468075158748e-01	 4.099171965712919e-01
1	 1.146942164820587e+00	 6.292036075977139e-01	 2.112552467534747e-01
1	 1.134461134786759e+00	 6.554073238089599e-01	 4.148704478194154e-03
1	 1.121339119957345e+00	 6.812376548321089e-01	-2.107418689913873e-01
1	 1.107575875371013e+00	 7.066746491617736e-01	-4.327601071689162e-01
1	 1.093172218710124e+00	 7.316987659358548e-01	-6.612594619463237e-01
1	 1.078130043513388e+00	 7.562909351708273e-01	-8.956088230172172e-01
1	 1.062452328119198e+00	 7.804326170370328e-01	-1.135198050549125e+00
1	 1.046143140208240e+00	 8.041058598092611e-01	-1.379443336985405e+00
1	 1.029207636845662e+00	 8.272933561309074e-01	-1.627792314228165e+00
1	 1.183132796540936e+00	 5.822264109706171e-01	 5.473755905491307e-01
1	 1.171802959632020e+00	 6.094178182985777e-01	 3.673963813626097e-01
1	 1.159828581322929e+00	 6.362729960993709e-01	 1.783982681958520e-01
1	 1.147207321243899e+00	 6.627711229717850e-01	-1.900132950931183e-02
1	 1.133937874613762e+00	 6.888916695037870e-01	-2.241886907425250e-01
1	 1.120019993718943e+00	 7.146144600257595e-01	-4.365592056323943e-01
1	 1.105454505428850e+00	 7.399197341251366e-01	-6.555227996483992e-01
1	 1.090243324556970e+00	 7.647882075584607e-01	-8.805092894140217e-01
1	 1.074389462904693e+00	 7.892011321926621e-01	-1.110973588109026e+00
1	 1.057897033854956e+00	 8.131403546067386e-01	-1.346400678130767e+00
1	 1.040771252414892e+00	 8.365883729880681e-01	-1.586310270320210e+00
1	 9.251348741237903e-01	 7.436380254908352e-01	-2.229590990792219e+00
1	 9.093545026181421e-01	 7.640292626408308e-01	-2.602860419400239e+00
1	 8.930233224044176e-01	 7.839546983243546e-01	-2.986382346055158e+00
1	 8.761488515538501e-01	 8.034008071342293e-01	-3.377398596290428e+00
1	 8.587395464156911e-01	 8.223548237211875e-01	-3.773080707273893e+00
1	 8.408047812142654e-01	 8.408047812142655e-01	-4.170550931232313e+00
1	 8.223548237211870e-01	 8.587395464156912e-01	-4.566903921997615e+00
1	 8.034008071342290e-01	 8.761488515538506e-01	-4.959228799240295e+00
1	 7.839546983243543e-01	 8.930233224044180e-01	-5.344631276420976e+00
1	 7.640292626408302e-01	 9.093545026181423e-01	-5.720255537248278e+00
1	 7.436380254908355e-01	 9.251348741237905e-01	-6.083305551513071e+00
1	 9.366985504033987e-01	 7.529330911458786e-01	-2.148523875521843e+00
1	 9.207209329469740e-01	 7.735792075268062e-01	-2.504033565428553e+00
1	 9.041856219770256e-01	 7.937537001796383e-01	-2.870657436139917e+00
1	 8.871002295365527e-01	 8.134428746370428e-01	-3.245771875097002e+00
1	 8.694733176745297e-01	 8.326338059899012e-01	-3.626677482815879e+00
1	 8.513143777879396e-01	 8.513143777879398e-01	-4.010619013595131e+00
1	 8.326338059899007e-01	 8.694733176745300e-01	-4.394806067350078e+00
1	 8.134428746370425e-01	 8.871002295365529e-01	-4.776434241440309e+00
1	 7.937537001796382e-01	 9.041856219770259e-01	-5.152706441339601e+00
1	 7.735792075268058e-01	 9.207209329469740e-01	-5.520854045967791e+00
1	 7.529330911458786e-01	 9.366985504033989e-01	-5.878157627551709e+00
1	 9.482622145405371e-01	 7.622281470413493e-01	-2.069703572853030e+00
1	 9.320873513404406e-01	 7.831291423855008e-01	-2.408971931898582e+00
1	 9.153479098286428e-01	 8.035526917460267e-01	-2.760114536110259e+00
1	 8.980515960197999e-01	 8.234849315956234e-01	-3.120637564658104e+00
1	 8.802070776624943e-01	 8.429127774654996e-01	-3.487966596985268e+00
1	 8.618239633262329e-01	 8.618239633262332e-01	-3.859465530020844e+00
1	 8.429127774654992e-01	 8.802070776624945e-01	-4.232456306508437e+00
1	 8.234849315956231e-01	 8.980515960198002e-01	-4.604239177165123e+00
1	 8.035526917460263e-01	 9.153479098286429e-01	-4.972113208039404e+00
1	 7.831291423855004e-01	 9.320873513404410e-01	-5.333396739786082e+00
1	 7.622281470413493e-01	 9.482622145405372e-01	-5.685447507757606e+00
1	 9.598258678844229e-01	 7.715231942616434e-01	-1.993729038592681e+00
1	 9.434537591247535e-01	 7.926790683310672e-01	-2.318146873453517e+00
1	 9.265101872616607e-01	 8.133516741667508e-01	-2.655101293538668e+00
1	 9.090029522813683e-01	 8.335269791815854e-01	-3.002223523395289e+00
1	 8.909408276319577e-01	 8.531917393472582e-01	-3.357060041374187e+00
1	 8.723335390553479e-01	 8.723335390553483e-01	-3.717090512089049e+00
1	 8.531917393472578e-01	 8.909408276319581e-01	-4.079746582171792e+00
1	 8.335269791815850e-01	 9.090029522813686e-01	-4.442431275435599e+00
1	 8.133516741667507e-01	 9.265101872616610e-01	-4.802538711037460e+00
1	 7.926790683310669e-01	 9.434537591247538e-01	-5.157473862121672e+00
1	 7.715231942616434e-01	 9.598258678844229e-01	-5.504672072903554e+00
1	 9.713895117842751e-01	 7.808182338911576e-01	-1.921170704359306e+00
1	 9.548201576261218e-01	 8.022289864776585e-01	-2.232007296736389e+00
1	 9.376724555784728e-01	 8.231506485850438e-01	-2.555948798785123e+00
1	 9.199542995990326e-01	 8.435690185665407e-01	-2.890746756770123e+00
1	 9.016745688352942e-01	 8.634706928344529e-01	-3.234064472121779e+00
1	 8.828431062014854e-01	 8.828431062014855e-01	-3.583493987426034e+00
1	 8.634706928344525e-01	 9.016745688352944e-01	-3.936573980276696e+00
1	 8.435690185665403e-01	 9.199542995990332e-01	-4.290808314054003e+00
1	 8.231506485850433e-01	 9.376724555784728e-01	-4.643684981148579e+00
1	 8.022289864776583e-01	 9.548201576261224e-01	-4.992695166738201e+00
1	 7.808182338911576e-01	 9.713895117842752e-01	-5.335352160158346e+00
1	 9.829531475893118e-01	 7.901132670142886e-01	-1.852572155106396e+00
1	 9.661865481707581e-01	 8.117788979394280e-01	-2.150980980473734e+00
1	 9.488347160814705e-01	 8.329496161441370e-01	-2.462972558550145e+00
1	 9.309056392505691e-01	 8.536110509221023e-01	-2.786414055282495e+00
1	 9.124083025248777e-01	 8.737496391263593e-01	-3.119081523346784e+00
1	 8.933526659908472e-01	 8.933526659908475e-01	-3.458675979516523e+00
1	 8.737496391263588e-01	 9.124083025248780e-01	-3.802840427033304e+00
1	 8.536110509221021e-01	 9.309056392505696e-01	-4.149177584553402e+00
1	 8.329496161441363e-01	 9.488347160814706e-01	-4.495268068823755e+00
1	 8.117788979394276e-01	 9.661865481707583e-01	-4.838688769680143e+00
1	 7.901132670142885e-01	 9.829531475893116e-01	-5.177031153505483e+00
1	 9.945167766487508e-01	 7.994082947154326e-01	-1.788451689595324e+00
1	 9.775529320848717e-01	 8.213288038305283e-01	-2.075475803449419e+00
1	 9.599969700730466e-01	 8.427485779872628e-01	-2.376473401497515e+00
1	 9.418569725137537e-01	 8.636530774198836e-01	-2.689422587952374e+00
1	 9.231420299530818e-01	 8.840285794222529e-01	-3.012208098709765e+00
1	 9.038622196496362e-01	 9.038622196496365e-01	-3.342636507528229e+00
1	 8.840285794222525e-01	 9.231420299530823e-01	-3.678452407100895e+00
1	 8.636530774198832e-01	 9.418569725137540e-01	-4.017355338667133e+00
1	 8.427485779872623e-01	 9.599969700730470e-01	-4.357017228658767e+00
1	 8.213288038305280e-01	 9.775529320848719e-01	-4.695100081315591e+00
1	 7.994082947154325e-01	 9.945167766487507e-01	-5.029273672516402e+00
1	 1.006080400311810e+00	 8.087033180789859e-01	-1.729303773236912e+00
1	 9.889193106946728e-01	 8.308787052651121e-01	-2.005880887780725e+00
1	 9.711592188555936e-01	 8.525475352576530e-01	-2.296738321412923e+00
1	 9.528083006663611e-01	 8.736950992314974e-01	-2.599960454866968e+00
1	 9.338757523722805e-01	 8.943075149214100e-01	-2.913536642865739e+00
1	 9.143717684040532e-01	 9.143717684040537e-01	-3.235375586148863e+00
1	 8.943075149214097e-01	 9.338757523722809e-01	-3.563320701201927e+00
1	 8.736950992314970e-01	 9.528083006663611e-01	-3.895166272977288e+00
1	 8.525475352576527e-01	 9.711592188555939e-01	-4.228674160149753e+00
1	 8.308787052651120e-01	 9.889193106946730e-01	-4.561590812039904e+00
1	 8.087033180789860e-01	 1.006080400311810e+00	-4.891664351563787e+00
1	 1.017644019927708e+00	 8.179983381893458e-01	-1.675600391864019e+00
1	 1.000285685326373e+00	 8.404286033573330e-01	-1.942567664234751e+00
1	 9.823214637315038e-01	 8.623464890985402e-01	-2.224041262867796e+00
1	 9.637596249861673e-01	 8.837371175285563e-01	-2.518207202049753e+00
1	 9.446094710348477e-01	 9.045864468231064e-01	-2.823155394406086e+00
1	 9.248813134803007e-01	 9.248813134803011e-01	-3.136893225433875e+00
1	 9.045864468231058e-01	 9.446094710348479e-01	-3.457360141628174e+00
1	 8.837371175285563e-01	 9.637596249861677e-01	-3.782443048704931e+00
1	 8.623464890985397e-01	 9.823214637315040e-01	-4.109992300221785e+00
1	 8.404286033573327e-01	 1.000285685326373e+00	-4.437838045780056e+00
1	 8.179983381893455e-01	 1.017644019927708e+00	-4.763806702279865e+00
1	 1.029207636845662e+00	 8.272933561309074e-01	-1.627792314228165e+00
1	 1.011652057306182e+00	 8.499784992213438e-01	-1.885890865717473e+00
1	 9.934837060031694e-01	 8.721454406531562e-01	-2.158643853911087e+00
1	 9.747109467509483e-01	 8.937791334826740e-01	-2.444334301615312e+00
1	 9.553431871931574e-01	 9.148653763266172e-01	-2.741148621746372e+00
1	 9.353908561045803e-01	 9.353908561045807e-01	-3.047189430664720e+00
1	 9.148653763266166e-01	 9.553431871931575e-01	-3.360489384231357e+00
1	 8.937791334826736e-01	 9.747109467509487e-01	-3.679025843877641e+00
1	 8.721454406531558e-01	 9.934837060031696e-01	-4.000736163457347e+00
1	 8.499784992213435e-01	 1.011652057306182e+00	-4.323533375966766e+00
1	 8.272933561309074e-01	 1.029207636845662e+00	-4.645322052711848e+00
1	 1.040771252414892e+00	 8.365883729880681e-01	-1.586310270320210e+00
1	 1.023018427960310e+00	 8.595283939712974e-01	-1.836189454522724e+00
1	 1.004645946972983e+00	 8.819443910647330e-01	-2.100796089909200e+00
1	 9.856622672384795e-01	 9.038211482654626e-01	-2.378505599910255e+00
1	 9.660769020995830e-01	 9.251443046312183e-01	-2.667596843286721e+00
1	 9.459003975030937e-01	 9.459003975030944e-01	-2.966264202216554e+00
1	 9.251443046312178e-01	 9.660769020995831e-01	-3.272630695616336e+00
1	 9.038211482654623e-01	 9.856622672384796e-01	-3.584761935355974e+00
1	 8.819443910647331e-01	 1.004645946972983e+00	-3.900680726314832e+00
1	 8.595283939712971e-01	 1.023018427960311e+00	-4.218382099114748e+00
1	 8.365883729880681e-01	 1.040771252414892e+00	-4.535848557208387e+00
1	 7.436380254908355e-01	 9.251348741237905e-01	-6.083305551513071e+00
1	 7.227952327198275e-01	 9.403578711252182e-01	-6.437039410702889e+00
1	 7.015158118423985e-01	 9.550178852589556e-01	-6.785180207177458e+00
1	 6.798153201073739e-01	 9.691102809388428e-01	-7.125765740615432e+00
1	 6.577098939740799e-01	 9.826314018053828e-01	-7.456947829236809e+00
1	 6.352161985375724e-01	 9.955785706878293e-01	-7.777001673067338e+00
1	 6.123513754379838e-01	 1.007950085520931e+00	-8.084333585286011e+00
1	 5.891329895791025e-01	 1.019745211305930e+00	-8.377487055025135e+00
1	 5.655789749840383e-01	 1.030964168233969e+00	-8.655147136167574e+00
1	 5.417075801152568e-01	 1.041608116116776e+00	-8.916143186317553e+00
1	 5.175373129825247e-01	 1.051679135294118e+00	-9.159450007502915e+00
1	 7.529330911458786e-01	 9.366985504033989e-01	-5.878157627551709e+00
1	 7.318297749475436e-01	 9.521118264813079e-01	-6.228008911107851e+00
1	 7.102843730320807e-01	 9.669550827157742e-01	-6.574179470363509e+00
1	 6.883126371053290e-01	 9.812236255783680e-01	-6.914627163245307e+00
1	 6.659309053234379e-01	 9.949137530071112e-01	-7.247397556688736e+00
1	 6.431560510859449e-01	 1.008022754368101e+00	-7.570634917351336e+00
1	 6.200054302940129e-01	 1.020548906321208e+00	-7.882591809879195e+00
1	 5.964968274030251e-01	 1.032491464680596e+00	-8.181637229579417e+00
1	 5.726484006014738e-01	 1.043850652389678e+00	-8.466263225327140e+00
1	 5.484786264475269e-01	 1.054627643757190e+00	-8.735089996957880e+00
1	 5.240062442908519e-01	 1.064824545126001e+00	-8.986869478534189e+00
1	 7.622281470413493e-01	 9.482622145405372e-01	-5.685447507757606e+00
1	 7.408643076892962e-01	 9.638657694951810e-01	-6.031750665577442e+00
1	 7.190529250151156e-01	 9.788922676380574e-01	-6.376092553539398e+00
1	 6.968099451814580e-01	 9.933369574985162e-01	-6.716363820488827e+00
1	 6.741519080410894e-01	 1.007196091312142e+00	-7.050518848094088e+00
1	 6.510958952978116e-01	 1.020466924981897e+00	-7.376588187215242e+00
1	 6.276594771135983e-01	 1.033147713892791e+00	-7.692689821702754e+00
1	 6.038606574951996e-01	 1.045237704671911e+00	-7.997039153611183e+00
1	 5.797178187962586e-01	 1.056737123014926e+00	-8.287957630729483e+00
1	 5.552496656704088e-01	 1.067647157727559e+00	-8.563879964593330e+00
1	 5.304751688069793e-01	 1.077969941155748e+00	-8.823359913996351e+00
1	 7.715231942616434e-01	 9.598258678844229e-01	-5.504672072903554e+00
1	 7.498988319990690e-01	 9.756197015382422e-01	-5.847676466974852e+00
1	 7.278214688144408e-01	 9.908294414185691e-01	-6.190258934152400e+00
1	 7.053072453270417e-01	 1.005450278112579e+00	-6.530255089794046e+00
1	 6.823729030860691e-01	 1.019478418153453e+00	-6.865542569629214e+00
1	 6.590357320993998e-01	 1.032911083981049e+00	-7.194054735757053e+00
1	 6.353135167896196e-01	 1.045746509705525e+00	-7.513793410848206e+00
1	 6.112244807146440e-01	 1.057983932766892e+00	-7.822840505213395e+00
1	 5.867872303930614e-01	 1.069623581613069e+00	-8.119368426399278e+00
1	 5.620206985737617e-01	 1.080666659546745e+00	-8.401649187122983e+00
1	 5.369440872855219e-01	 1.091115324916893e+00	-8.668062153888261e+00
1	 7.808182338911576e-01	 9.713895117842752e-01	-5.335352160158346e+00
1	 7.589333489308472e-01	 9.873736239818964e-01	-5.675226116605625e+00
1	 7.365900054529944e-01	 1.002766605450072e+00	-6.016049541959476e+00
1	 7.138045385333609e-01	 1.017563588833845e+00	-6.355614663129834e+00
1	 6.905938914174139e-01	 1.031760734964027e+00	-6.691736212383970e+00
1	 6.669755624169360e-01	 1.045355232817389e+00	-7.022266232439610e+00
1	 6.429675502149550e-01	 1.058345295229253e+00	-7.345108091900530e+00
1	 6.185882979203756e-01	 1.070730150452557e+00	-7.658229549822922e+00
1	 5.938566362165510e-01	 1.082510029687462e+00	-7.959674731416464e+00
1	 5.687917259474442e-01	 1.093686150733605e+00	-8.247574901971207e+00
1	 5.434130004810946e-01	 1.104260697942969e+00	-8.520157952274239e+00
1	 7.901132670142885e-01	 9.829531475893116e-01	-5.177031153505483e+00
1	 7.679678595386146e-01	 9.991275381975497e-01	-5.513865776300151e+00
1	 7.453585359537155e-01	 1.014703761125330e+00	-5.852864908552380e+00
1	 7.223018257916970e-01	 1.029676891075605e+00	-6.191788528172815e+00
1	 6.988148739941589e-01	 1.044043043176842e+00	-6.528401737673488e+00
1	 6.749153871766467e-01	 1.057799372942749e+00	-6.860490503056002e+00
1	 6.506215782824836e-01	 1.070944071933819e+00	-7.185876766990330e+00
1	 6.259521099714122e-01	 1.083476359215924e+00	-7.502432752553288e+00
1	 6.009260370913967e-01	 1.095396468741459e+00	-7.808094295362696e+00
1	 5.755627485813160e-01	 1.106705632806998e+00	-8.100873066014199e+00
1	 5.498819091483128e-01	 1.117406061767513e+00	-8.378867570510021e+00
1	 7.994082947154325e-01	 9.945167766487507e-01	-5.029273672516402e+00
1	 7.770023648763551e-01	 1.010881445556606e+00	-5.363086435480400e+00
1	 7.541270613395413e-01	 1.026640909837109e+00	-5.700133446001250e+00
1	 7.307991080933308e-01	 1.041790186251149e+00	-6.038153090358541e+00
1	 7.070358517753395e-01	 1.056325344224880e+00	-6.374873572695309e+00
1	 6.828552073047591e-01	 1.070243505808959e+00	-6.708029427390803e+00
1	 6.582756018850845e-01	 1.083542841289068e+00	-7.035377551907914e+00
1	 6.333159177267713e-01	 1.096222560544010e+00	-7.354712557128686e+00
1	 6.079954338422668e-01	 1.108282900278415e+00	-7.663881252244556e+00
1	 5.823337672652358e-01	 1.119725107285783e+00	-7.960796104369283e+00
1	 5.563508140417918e-01	 1.130551417924058e+00	-8.243447538403656e+00
1	 8.087033180789860e-01	 1.006080400311810e+00	-4.891664351563787e+00
1	 7.860368659980534e-01	 1.022635347430469e+00	-5.222402483958991e+00
1	 7.628955826334107e-01	 1.038578052978170e+00	-5.557309844226182e+00
1	 7.392963864295431e-01	 1.053903475773768e+00	-5.894113424461676e+00
1	 7.152568257199916e-01	 1.068607639541119e+00	-6.230516744432656e+00
1	 6.907950237274999e-01	 1.082687632867853e+00	-6.564216981886777e+00
1	 6.659296219156362e-01	 1.096141604764842e+00	-6.892921752158324e+00
1	 6.406797220454709e-01	 1.108968755923833e+00	-7.214365318013103e+00
1	 6.150648272938307e-01	 1.121169325801685e+00	-7.526324029337102e+00
1	 5.891047827890625e-01	 1.132744575688819e+00	-7.826630814458237e+00
1	 5.628197159161465e-01	 1.143696767946138e+00	-8.113188569796478e+00
1	 8.179983381893455e-01	 1.017644019927708e+00	-4.763806702279865e+00
1	 7.950713639576940e-01	 1.034389245190546e+00	-5.091350382058431e+00
1	 7.716641008582614e-01	 1.050515191941279e+00	-5.423873577651777e+00
1	 7.477936617916146e-01	 1.066016761056751e+00	-5.759101645399985e+00
1	 7.234777967871515e-01	 1.080889930558541e+00	-6.094725140806891e+00
1	 6.987348373710952e-01	 1.095131755571259e+00	-6.428417415781905e+00
1	 6.735836392670180e-01	 1.108740363830987e+00	-6.757851977028443e+00
1	 6.480435237865273e-01	 1.121714946842410e+00	-7.080719373546552e+00
1	 6.221342182707568e-01	 1.134055746814624e+00	-7.394743398622724e+00
1	 5.958757959426559e-01	 1.145764039534964e+00	-7.697696412991834e+00
1	 5.692886155259922e-01	 1.156842113367289e+00	-7.987413620280953e+00
1	 8.272933561309074e-01	 1.029207636845662e+00	-4.645322052711848e+00
1	 8.041058598092605e-01	 1.046143140208240e+00	-4.969487420395670e+00
1	 7.804326170370325e-01	 1.062452328119198e+00	-5.299327512548082e+00
1	 7.562909351708267e-01	 1.078130043513388e+00	-5.632575388885076e+00
1	 7.316987659358543e-01	 1.093172218710124e+00	-5.966919889068609e+00
1	 7.066746491617730e-01	 1.107575875371013e+00	-6.300023550217499e+00
1	 6.812376548321085e-01	 1.121339119957345e+00	-6.629540380810461e+00
1	 6.554073238089596e-01	 1.134461134786760e+00	-6.953133248997591e+00
1	 6.292036075977134e-01	 1.146942164820587e+00	-7.268490659608438e+00
1	 6.026468075158744e-01	 1.158783500343079e+00	-7.573342714633635e+00
1	 5.757575136259440e-01	 1.169987455721043e+00	-7.865476075873008e+00
1	 8.365883729880681e-01	 1.040771252414892e+00	-4.535848557208387e+00
1	 8.131403546067379e-01	 1.057897033854957e+00	-4.856390562356924e+00
1	 7.892011321926615e-01	 1.074389462904693e+00	-5.183196607225970e+00
1	 7.647882075584603e-01	 1.090243324556970e+00	-5.514016393373953e+00
1	 7.399197341251362e-01	 1.105454505428851e+00	-5.846547842308699e+00
1	 7.146144600257591e-01	 1.120019993718943e+00	-6.178455190751904e+00
1	 6.888916695037869e-01	 1.133937874613762e+00	-6.507387021290106e+00
1	 6.627711229717848e-01	 1.147207321243900e+00	-6.830993979425616e+00
1	 6.362729960993706e-01	 1.159828581322929e+00	-7.146945943302990e+00
1	 6.094178182985774e-01	 1.171802959632020e+00	-7.452948432099899e+00
1	 5.822264109706172e-01	 1.183132796540936e+00	-7.746758062453742e+00
1	 5.175373129825247e-01	 1.051679135294118e+00	-9.159450007502917e+00
1	 4.930886061179270e-01	 1.061179560108253e+00	-9.383884871579209e+00
1	 4.683786316150236e-01	 1.070113971156061e+00	-9.589215582561920e+00
1	 4.434263389172353e-01	 1.078487068930921e+00	-9.776046423491998e+00
1	 4.182507216331380e-01	 1.086304366606542e+00	-9.945159813170232e+00
1	 3.928707661351534e-01	 1.093572156557455e+00	-1.009749855335828e+01
1	 3.673054016510371e-01	 1.100297474749929e+00	-1.023414753732637e+01
1	 3.415734520723819e-01	 1.106488063271783e+00	-1.035631520824950e+01
1	 3.156935896829346e-01	 1.112152331272543e+00	-1.046531503630200e+01
1	 2.896842909871788e-01	 1.117299314585631e+00	-1.056254725996232e+01
1	 2.635637947966888e-01	 1.121938634302054e+00	-1.064948111097151e+01
1	 5.240062442908519e-01	 1.064824545126001e+00	-8.986869478534189e+00
1	 4.992519420589116e-01	 1.074443720016364e+00	-9.220441971025028e+00
1	 4.742331064869885e-01	 1.083489806280113e+00	-9.435649627570401e+00
1	 4.489689238761274e-01	 1.091967563164214e+00	-9.632931630277728e+00
1	 4.234786252445683e-01	 1.099882572754026e+00	-9.812895388553702e+00
1	 3.977814342839484e-01	 1.107241206075309e+00	-9.976300715513725e+00
1	 3.718965168269625e-01	 1.114050587040045e+00	-1.012404344008577e+01
1	 3.458429320534969e-01	 1.120318554507902e+00	-1.025713871941316e+01
1	 3.196395856405784e-01	 1.126053622738153e+00	-1.037670429920700e+01
1	 2.933051850388365e-01	 1.131264940507173e+00	-1.048394394924410e+01
1	 2.668581970349608e-01	 1.135962249164317e+00	-1.058013127812217e+01
1	 5.304751688069793e-01	 1.077969941155748e+00	-8.823359913996349e+00
1	 5.054152715285452e-01	 1.087707865997702e+00	-9.065274201407535e+00
1	 4.800875752118880e-01	 1.096865627360146e+00	-9.289540480852892e+00
1	 4.545115030154290e-01	 1.105448043243582e+00	-9.496440402785943e+00
1	 4.287065233668245e-01	 1.113460764644947e+00	-9.686414466938006e+00
1	 4.026920972766799e-01	 1.120910241241152e+00	-9.860048037162173e+00
1	 3.764876271823808e-01	 1.127803684889804e+00	-1.001805676660885e+01
1	 3.501124075518630e-01	 1.134149031222319e+00	-1.016127167512708e+01
1	 3.235855774551878e-01	 1.139954899607613e+00	-1.029062410641432e+01
1	 2.969260752888898e-01	 1.145230551764896e+00	-1.040713077473780e+01
1	 2.701525958145354e-01	 1.149985849301752e+00	-1.051187909081867e+01
1	 5.369440872855219e-01	 1.091115324916893e+00	-8.668062153888265e+00
1	 5.115785952457940e-01	 1.100971999599649e+00	-8.917532639426950e+00
1	 4.859420384726598e-01	 1.110241435956580e+00	-9.150054184056822e+00
1	 4.600540769816969e-01	 1.118928510741666e+00	-9.365758215195807e+00
1	 4.339344166097567e-01	 1.127038943863363e+00	-9.564926141354663e+00
1	 4.076027556861921e-01	 1.134579263649660e+00	-9.747977117602611e+00
1	 3.810787332528601e-01	 1.141556769903712e+00	-9.915455196282704e+00
1	 3.543818790655262e-01	 1.147979495028594e+00	-1.006801608331489e+01
1	 3.275315655870700e-01	 1.153856163502768e+00	-1.020641370851672e+01
1	 3.005469621597160e-01	 1.159196149988180e+00	-1.033148680330925e+01
1	 2.734469915196949e-01	 1.164009436350527e+00	-1.044414566166148e+01
1	 5.434130004810946e-01	 1.104260697942969e+00	-8.520157952274239e+00
1	 5.177419139296249e-01	 1.114236122369594e+00	-8.776408788718312e+00
1	 4.917964969522420e-01	 1.123617233629833e+00	-9.016396493453120e+00
1	 4.655966464214873e-01	 1.132408967231106e+00	-9.240109331230185e+00
1	 4.391623055832144e-01	 1.140617111993330e+00	-9.447677169925718e+00
1	 4.125134100853292e-01	 1.148248274895508e+00	-9.639360911631609e+00
1	 3.856698355739675e-01	 1.155309843686275e+00	-9.815541284193108e+00
1	 3.586513470925326e-01	 1.161809947540285e+00	-9.976707193087869e+00
1	 3.314775504965322e-01	 1.167757416045464e+00	-1.012344382399221e+01
1	 3.041678460736920e-01	 1.173161736806400e+00	-1.025642067383158e+01
1	 2.767413845347217e-01	 1.178033011946810e+00	-1.037637967319278e+01
1	 5.498819091483128e-01	 1.117406061767513e+00	-8.378867570510023e+00
1	 5.239052282990043e-01	 1.127500235854920e+00	-8.641132201768370e+00
1	 4.976509513335732e-01	 1.136993021940326e+00	-8.887810543788024e+00
1	 4.711392119813578e-01	 1.145889414284543e+00	-9.118754522457554e+00
1	 4.443901908970471e-01	 1.154195270618903e+00	-9.333949760341307e+00
1	 4.174240610469353e-01	 1.161917276573373e+00	-9.533506591085457e+00
1	 3.902609346812702e-01	 1.169062907841999e+00	-9.717650409740960e+00
1	 3.629208121309281e-01	 1.175640390370952e+00	-9.886711539535005e+00
1	 3.354235326438815e-01	 1.181658658857547e+00	-1.004111478832924e+01
1	 3.077887274531950e-01	 1.187127313848934e+00	-1.018136885785333e+01
1	 2.800357752438979e-01	 1.192056577726769e+00	-1.030805575635126e+01
1	 5.563508140417918e-01	 1.130551417924058e+00	-8.243447538403656e+00
1	 5.300685390728995e-01	 1.140764341603014e+00	-8.510968267764776e+00
1	 5.035054022995912e-01	 1.150368802448477e+00	-8.763574675141649e+00
1	 4.766817743078647e-01	 1.159369853474618e+00	-9.000988945800769e+00
1	 4.496180731611050e-01	 1.167773421324142e+00	-9.223059508926680e+00
1	 4.223347091438546e-01	 1.175586270277928e+00	-9.429753555594647e+00
1	 3.948520311103356e-01	 1.182815963975389e+00	-9.621148868396356e+00
1	 3.671902746787591e-01	 1.189470825134154e+00	-9.797425124939467e+00
1	 3.393695124894248e-01	 1.195559893560861e+00	-9.958854832298426e+00
1	 3.114096067206023e-01	 1.201092882745161e+00	-1.010579404163002e+01
1	 2.833301640315056e-01	 1.206080135326573e+00	-1.023867298207151e+01
1	 5.628197159161465e-01	 1.143696767946138e+00	-8.113188569796478e+00
1	 5.362318469702764e-01	 1.154028441161263e+00	-8.385216153025480e+00
1	 5.093598505332343e-01	 1.163744576714707e+00	-8.643000409675798e+00
1	 4.822243340475648e-01	 1.172850286373970e+00	-8.886140167441489e+00
1	 4.548459529852376e-01	 1.181351565693099e+00	-9.114353481859526e+00
1	 4.272453549489312e-01	 1.189255257603850e+00	-9.327471580543875e+00
1	 3.994431253967307e-01	 1.196569013690954e+00	-9.525432095070499e+00
1	 3.714597352340709e-01	 1.203301253443449e+00	-9.708271725443373e+00
1	 3.433154904934695e-01	 1.209461121777253e+00	-9.876118478977689e+00
1	 3.150304842982908e-01	 1.215058445124458e+00	-1.002918361975275e+01
1	 2.866245512818271e-01	 1.220103686382390e+00	-1.016775345692288e+01
1	 5.692886155259922e-01	 1.156842113367289e+00	-7.987413620280948e+00
1	 5.423951527101020e-01	 1.167292536077051e+00	-8.263206881869360e+00
1	 5.152142967174405e-01	 1.177120346299433e+00	-8.525430566346863e+00
1	 4.877668918470149e-01	 1.186330714555242e+00	-8.773566321474355e+00
1	 4.600738309792945e-01	 1.194929705309834e+00	-9.007208427228209e+00
1	 4.321559990350095e-01	 1.202924240145813e+00	-9.226059091322227e+00
1	 4.040342180760231e-01	 1.210322058593197e+00	-9.429923008636129e+00
1	 3.757291942949101e-01	 1.217131676912397e+00	-9.618701313179779e+00
1	 3.472614671163226e-01	 1.223362345128568e+00	-9.792385050084185e+00
1	 3.186513606086379e-01	 1.229024002616201e+00	-9.951048291495654e+00
1	 2.899189373791444e-01	 1.234127232530387e+00	-1.009484101451171e+01
1	 5.757575136259440e-01	 1.169987455721043e+00	-7.865476075873009e+00
1	 5.485584570113428e-01	 1.180556627897764e+00	-8.144301546881550e+00
1	 5.210687415351480e-01	 1.190496112763076e+00	-8.410237502731320e+00
1	 4.933094483527719e-01	 1.199811139591073e+00	-8.662654392711042e+00
1	 4.653017077531255e-01	 1.208507841758404e+00	-8.901029107639530e+00
1	 4.370666419749336e-01	 1.216593219498495e+00	-9.124941553929286e+00
1	 4.086253096837799e-01	 1.224075100286626e+00	-9.334070468065402e+00
1	 3.799986523593226e-01	 1.230962097154558e+00	-9.528188584791039e+00
1	 3.512074428182912e-01	 1.237263565236650e+00	-9.707157273014122e+00
1	 3.222722360740204e-01	 1.242989556849769e+00	-9.870920751802643e+00
1	 2.932133227077402e-01	 1.248150775406734e+00	-1.001949999511363e+01
1	 5.822264109706172e-01	 1.183132796540936e+00	-7.746758062453742e+00
1	 5.547217605929659e-01	 1.193820718170789e+00	-8.027889638507682e+00
1	 5.269231856692952e-01	 1.203871877666055e+00	-8.296821474075925e+00
1	 4.988520042113924e-01	 1.213291563054103e+00	-8.552818613976683e+00
1	 4.705295839165803e-01	 1.222085976622864e+00	-8.795246743998224e+00
1	 4.419772843415477e-01	 1.230262197256569e+00	-9.023569972886193e+00
1	 4.132164007555683e-01	 1.237828140375747e+00	-9.237347831504042e+00
1	 3.842681099253542e-01	 1.244792515783489e+00	-9.436231588056241e+00
1	 3.551534180596826e-01	 1.251164783723347e+00	-9.619959980757354e+00
1	 3.258931111168158e-01	 1.256955109454539e+00	-9.788354469551749e+00
1	 2.965077076518963e-01	 1.262174316647596e+00	-9.941314106672744e+00
1	 2.635637947966888e-01	 1.121938634302054e+00	-1.064948111097150e+01
1	 2.373482296499335e-01	 1.126080727339082e+00	-1.072546677915511e+01
1	 2.110570951089145e-01	 1.129735918047314e+00	-1.078956418526932e+01
1	 1.847077204181358e-01	 1.132915330725281e+00	-1.084289852343468e+01
1	 1.583170525687149e-01	 1.135630504095502e+00	-1.088662916223176e+01
1	 1.319016272114572e-01	 1.137893348388953e+00	-1.092193847443180e+01
1	 1.054775423022452e-01	 1.139716102835537e+00	-1.095002141668207e+01
1	 7.906043448167313e-02	 1.141111293759497e+00	-1.097207591032469e+01
1	 5.266545817213228e-02	 1.142091693463350e+00	-1.098929405741399e+01
1	 2.630726735816929e-02	 1.142670280067985e+00	-1.100285421033751e+01
1	 0.000000000000000e+00	 1.142860198460186e+00	-1.101391389938639e+01
1	 2.668581970349608e-01	 1.135962249164317e+00	-1.058013127812217e+01
1	 2.403149517652857e-01	 1.140156116082579e+00	-1.066447883786253e+01
1	 2.136951925256246e-01	 1.143856994661234e+00	-1.073604443534901e+01
1	 1.870164651665213e-01	 1.147076148246399e+00	-1.079596920951332e+01
1	 1.602959285071758e-01	 1.149825259788246e+00	-1.084543443665018e+01
1	 1.335503248849474e-01	 1.152116388389058e+00	-1.088564965178491e+01
1	 1.067959534713259e-01	 1.153961926262349e+00	-1.091784153452024e+01
1	 8.004864635632519e-02	 1.155374556304495e+00	-1.094324361746575e+01
1	 5.332374738429285e-02	 1.156367210464742e+00	-1.096308685715599e+01
1	 2.663609370653354e-02	 1.156953029083323e+00	-1.097859109064788e+01
1	 0.000000000000000e+00	 1.157145321350848e+00	-1.099095738591955e+01
1	 2.701525958145354e-01	 1.149985849301752e+00	-1.051187909081867e+01
1	 2.432816707661115e-01	 1.154231490046761e+00	-1.060397924981896e+01
1	 2.163332871729747e-01	 1.157978056447746e+00	-1.068250775288533e+01
1	 1.893252074914669e-01	 1.161236950898263e+00	-1.074860881024840e+01
1	 1.622748023686338e-01	 1.164020000575990e+00	-1.080347229349007e+01
1	 1.351990208281575e-01	 1.166339413454362e+00	-1.084832128351251e+01
1	 1.081143632569111e-01	 1.168207734730349e+00	-1.088440038882491e+01
1	 8.103685719410969e-02	 1.169637803872298e+00	-1.091296489848650e+01
1	 5.398203590584604e-02	 1.170642712476017e+00	-1.093527081497070e+01
1	 2.696491970997855e-02	 1.171235763100916e+00	-1.095256579464190e+01
1	 0.000000000000000e+00	 1.171430429241259e+00	-1.096608100763225e+01
1	 2.734469915196949e-01	 1.164009436350527e+00	-1.044414566166148e+01
1	 2.462483869984567e-01	 1.168306850873860e+00	-1.054342893507648e+01
1	 2.189713793586627e-01	 1.172099105054432e+00	-1.062844876906176e+01
1	 1.916339476622377e-01	 1.175397740333110e+00	-1.070034015351196e+01
1	 1.642536743838629e-01	 1.178214728114948e+00	-1.076028882674108e+01
1	 1.368477152333388e-01	 1.180562425244396e+00	-1.080951838165946e+01
1	 1.094327718127214e-01	 1.182453529901738e+00	-1.084927813970920e+01
1	 8.202506711023368e-02	 1.183901038127150e+00	-1.088083186244420e+01
1	 5.464032381352585e-02	 1.184918201162855e+00	-1.090544735090207e+01
1	 2.729374540682866e-02	 1.185518483787291e+00	-1.092438696467046e+01
1	 0.000000000000000e+00	 1.185715523798227e+00	-1.093889907598687e+01
1	 2.767413845347217e-01	 1.178033011946810e+00	-1.037637967319278e+01
1	 2.492151008083671e-01	 1.182382200206109e+00	-1.048231448811974e+01
1	 2.216094693903863e-01	 1.186220142128876e+00	-1.057338618425459e+01
1	 1.939426859480990e-01	 1.189558518203180e+00	-1.065070879369799e+01
1	 1.662325447836380e-01	 1.192409444061334e+00	-1.071545174901511e+01
1	 1.384964082927424e-01	 1.194785425418687e+00	-1.076882667603281e+01
1	 1.107511792924775e-01	 1.196699313438713e+00	-1.081207494370753e+01
1	 8.301327621990420e-02	 1.198164260733292e+00	-1.084645604581889e+01
1	 5.529861118406629e-02	 1.199193678190934e+00	-1.087323686904462e+01
1	 2.762257083540821e-02	 1.199801192808975e+00	-1.089368188323974e+01
1	 0.000000000000000e+00	 1.200000606688556e+00	-1.090904427268979e+01
1	 2.800357752438979e-01	 1.192056577726769e+00	-1.030805575635126e+01
1	 2.521818125418886e-01	 1.196457539685740e+00	-1.042014666783574e+01
1	 2.242475575758435e-01	 1.200341169318661e+00	-1.051686135244098e+01
1	 1.962514226183161e-01	 1.203719286160712e+00	-1.059928167511992e+01
1	 1.682114137987333e-01	 1.206604150071365e+00	-1.066854912012151e+01
1	 1.401451001986197e-01	 1.209008415636766e+00	-1.072585139577477e+01
1	 1.120695858499000e-01	 1.210945087003475e+00	-1.077240977778494e+01
1	 8.400148463832836e-02	 1.212427473354968e+00	-1.080946726999674e+01
1	 5.595689809420142e-02	 1.213469145225935e+00	-1.083827764111122e+01
1	 2.795139603404157e-02	 1.214083891832495e+00	-1.086009537681218e+01
1	 0.000000000000000e+00	 1.214285679579051e+00	-1.087616656937435e+01
1	 2.833301640315056e-01	 1.206080135326573e+00	-1.023867298207151e+01
1	 2.551485225450670e-01	 1.210532870954983e+00	-1.035645899284765e+01
1	 2.268856442227319e-01	 1.214462188271370e+00	-1.045843696438074e+01
1	 1.985601579421541e-01	 1.217880045857944e+00	-1.054564588867085e+01
1	 1.701902816599233e-01	 1.220798847801255e+00	-1.061918816435731e+01
1	 1.417937911432218e-01	 1.223231397558161e+00	-1.068021613595174e+01
1	 1.133879916387095e-01	 1.225190852258222e+00	-1.072991934540183e+01
1	 8.498969248071314e-02	 1.226690677656422e+00	-1.076951257847348e+01
1	 5.661518462066523e-02	 1.227744603933536e+00	-1.080022476790077e+01
1	 2.828022104105307e-02	 1.228366582524378e+00	-1.082328879609543e+01
1	 0.000000000000000e+00	 1.228570744136519e+00	-1.083993222266350e+01
1	 2.866245512818271e-01	 1.220103686382390e+00	-1.016775345692288e+01
1	 2.581152311639481e-01	 1.224608195656070e+00	-1.029080643373302e+01
1	 2.295237296387498e-01	 1.228583200634588e+00	-1.039769582162351e+01
1	 2.008688921888782e-01	 1.232040798947115e+00	-1.048940751424121e+01
1	 1.721691485979824e-01	 1.234993538907219e+00	-1.056699416937297e+01
1	 1.434424813188000e-01	 1.237454372842401e+00	-1.063156180231973e+01
1	 1.147063968126268e-01	 1.239436610865154e+00	-1.068425705803108e+01
1	 8.597789986226567e-02	 1.240953875301895e+00	-1.072625524736278e+01
1	 5.727347084019176e-02	 1.242020055979417e+00	-1.075874921239735e+01
1	 2.860904589476704e-02	 1.242649266551153e+00	-1.078293906666452e+01
1	 0.000000000000000e+00	 1.242855802027764e+00	-1.080002283854684e+01
1	 2.899189373791444e-01	 1.234127232530387e+00	-1.009484101451171e+01
1	 2.610819387445777e-01	 1.238683515431234e+00	-1.022276419441975e+01
1	 2.321618141315945e-01	 1.242704208055896e+00	-1.033423969411655e+01
1	 2.031776256277538e-01	 1.246201547080464e+00	-1.043019054207170e+01
1	 1.741480148436851e-01	 1.249188225045472e+00	-1.051160946012414e+01
1	 1.450911709176055e-01	 1.251677343149015e+00	-1.057954562804494e+01
1	 1.160248015253724e-01	 1.253682364486469e+00	-1.063509208612586e+01
1	 8.696610689819298e-02	 1.255217067955632e+00	-1.067937386337758e+01
1	 5.793175682951503e-02	 1.256295503029258e+00	-1.071353689880172e+01
1	 2.893787063350784e-02	 1.256931945579345e+00	-1.073873780432202e+01
1	 0.000000000000000e+00	 1.257140854919592e+00	-1.075613450055728e+01
1	 2.932133227077402e-01	 1.248150775406734e+00	-1.001949999511363e+01
1	 2.640486456330018e-01	 1.252758831922707e+00	-1.015192657574405e+01
1	 2.347998980089640e-01	 1.256825212182878e+00	-1.026768825483632e+01
1	 2.054863585280461e-01	 1.260362291910229e+00	-1.036763586683244e+01
1	 1.761268806278058e-01	 1.263382907872229e+00	-1.045269244200332e+01
1	 1.467398601318895e-01	 1.265900310137534e+00	-1.052384025672119e+01
1	 1.173432059306671e-01	 1.267928114784366e+00	-1.058210847407364e+01
1	 8.795431370370210e-02	 1.269480257281874e+00	-1.062856146397692e+01
1	 5.859004266536907e-02	 1.270570946748737e+00	-1.066428787230943e+01
1	 2.926669529559979e-02	 1.271214621275483e+00	-1.069039049010309e+01
1	 0.000000000000000e+00	 1.271425904478810e+00	-1.070797695672919e+01
1	 2.965077076518963e-01	 1.262174316647596e+00	-9.941314106672746e+00
1	 2.670153521752661e-01	 1.266834146772720e+00	-1.007790591478032e+01
1	 2.374379815785563e-01	 1.270946214663118e+00	-1.019767808545248e+01
1	 2.077950911590201e-01	 1.274523035088650e+00	-1.030140034877088e+01
1	 1.781057461811192e-01	 1.277577589043705e+00	-1.038991670776985e+01
1	 1.483885491539033e-01	 1.280123275467486e+00	-1.046413288652589e+01
1	 1.186616101822315e-01	 1.282173863421045e+00	-1.052500431416067e+01
1	 8.894252039400018e-02	 1.283743444944866e+00	-1.057352473484347e+01
1	 5.924832842448790e-02	 1.284846388803535e+00	-1.061071551491020e+01
1	 2.959551991936728e-02	 1.285497295306093e+00	-1.063761570028714e+01
1	 0.000000000000000e+00	 1.285710952372222e+00	-1.065527286076541e+01
1	 1.285710952372222e+00	 0.000000000000000e+00	 2.572455044492221e+00
1	 1.285497295306093e+00	 2.959551991936768e-02	 2.557352915335873e+00
1	 1.284846388803535e+00	 5.924832842448829e-02	 2.535512467891697e+00
1	 1.283743444944865e+00	 8.894252039400048e-02	 2.505911237410181e+00
1	 1.282173863421045e+00	 1.186616101822318e-01	 2.467537850842712e+00
1	 1.280123275467486e+00	 1.483885491539035e-01	 2.419400295498146e+00
1	 1.277577589043704e+00	 1.781057461811192e-01	 2.360534823521125e+00
1	 1.274523035088650e+00	 2.077950911590204e-01	 2.290015451956367e+00
1	 1.270946214663118e+00	 2.374379815785564e-01	 2.206964003809152e+00
1	 1.266834146772720e+00	 2.670153521752661e-01	 2.110560620239193e+00
1	 1.262174316647597e+00	 2.965077076518963e-01	 2.000054658065143e+00
1	 1.299996999436575e+00	 0.000000000000000e+00	 2.426339289365873e+00
1	 1.299780968341605e+00	 2.992436754283352e-02	 2.411834487239209e+00
1	 1.299122829357391e+00	 5.990666022752204e-02	 2.390913225225481e+00
1	 1.298007630249775e+00	 8.993079620458713e-02	 2.362599328971754e+00
1	 1.296420608479857e+00	 1.199801066498033e-01	 2.325927604458938e+00
1	 1.294347235625972e+00	 1.500373534937382e-01	 2.279951793491799e+00
1	 1.291773263065350e+00	 1.800847501464908e-01	 2.223753138999759e+00
1	 1.288684768743407e+00	 2.101039852746392e-01	 2.156449521157759e+00
1	 1.285068204839977e+00	 2.400762496692715e-01	 2.077205111514733e+00
1	 1.280910446123659e+00	 2.699822662242060e-01	 1.985240477615801e+00
1	 1.276198838767993e+00	 2.998023230222043e-01	 1.879843055246733e+00
1	 1.314283043168385e+00	 0.000000000000000e+00	 2.288699293634667e+00
1	 1.314064638045126e+00	 3.025321508956966e-02	 2.274808850103364e+00
1	 1.313399266580941e+00	 6.056499187694717e-02	 2.254816145818209e+00
1	 1.312271812227235e+00	 9.091907178457748e-02	 2.227789328795736e+00
1	 1.310667350215281e+00	 1.212986028097242e-01	 2.192807317547958e+00
1	 1.308571192466371e+00	 1.516861574488443e-01	 2.148967447872821e+00
1	 1.305968933775486e+00	 1.820637536500776e-01	 2.095393704746174e+00
1	 1.302846499094542e+00	 2.124128788514846e-01	 2.031245501647625e+00
1	 1.299190191722443e+00	 2.427145171443396e-01	 1.955726956352137e+00
1	 1.294986742190813e+00	 2.729491795807888e-01	 1.868096598074863e+00
1	 1.290223357616614e+00	 3.030969376236583e-01	 1.767677426084497e+00
1	 1.328569080234105e+00	 0.000000000000000e+00	 2.159032078073966e+00
1	 1.328348301083665e+00	 3.058206248284655e-02	 2.145763633750862e+00
1	 1.327675697142885e+00	 6.122332321915620e-02	 2.126699486116369e+00
1	 1.326535987548803e+00	 9.190734690337923e-02	 2.100950178354121e+00
1	 1.324914085302944e+00	 1.226170983543531e-01	 2.067636717565581e+00
1	 1.322795142669631e+00	 1.533349606345124e-01	 2.025897917210419e+00
1	 1.320164597861666e+00	 1.840427562301277e-01	 1.974898301215862e+00
1	 1.317008222837535e+00	 2.147217713508359e-01	 1.913836533487542e+00
1	 1.313312172015283e+00	 2.453527833881926e-01	 1.841954323763976e+00
1	 1.309063031689621e+00	 2.759160915527708e-01	 1.758545747155823e+00
1	 1.304247869921001e+00	 3.063915506875612e-01	 1.662966900507183e+00
1	 1.342855107300192e+00	 0.000000000000000e+00	 2.036856063041723e+00
1	 1.342631954124233e+00	 3.091090964593466e-02	 2.024208267199785e+00
1	 1.341952117711919e+00	 6.188165410054168e-02	 2.006063700635927e+00
1	 1.340800152886037e+00	 9.289562133040007e-02	 1.981573413585334e+00
1	 1.339160810418477e+00	 1.239355929760491e-01	 1.949898518542256e+00
1	 1.337019082916703e+00	 1.549837626660329e-01	 1.910217232587262e+00
1	 1.334360252011446e+00	 1.860217574248894e-01	 1.861732459203800e+00
1	 1.331169936667871e+00	 2.170306622339723e-01	 1.803679874792642e+00
1	 1.327434142423264e+00	 2.479910477852630e-01	 1.735336472802095e+00
1	 1.323139311335525e+00	 2.788830014479088e-01	 1.656029505320326e+00
1	 1.318272372408692e+00	 3.096861614452167e-01	 1.565145748324402e+00
1	 1.357141121033102e+00	 0.000000000000000e+00	 1.921709942173322e+00
1	 1.356915593833839e+00	 3.123975650210440e-02	 1.909672831324678e+00
1	 1.356228524956741e+00	 6.253998436749619e-02	 1.892430273628143e+00
1	 1.355064304910496e+00	 9.388389483504776e-02	 1.869171975695208e+00
1	 1.353407522237509e+00	 1.252540863671710e-01	 1.839097211244690e+00
1	 1.351243009888537e+00	 1.566325631586963e-01	 1.801421567446128e+00
1	 1.348555892912382e+00	 1.880007567726111e-01	 1.755384209802599e+00
1	 1.345331637281031e+00	 2.193395509621733e-01	 1.700255632332927e+00
1	 1.341556099651152e+00	 2.506293097199832e-01	 1.635345848011266e+00
1	 1.337215577843965e+00	 2.818499085739595e-01	 1.560012961867068e+00
1	 1.332296861807227e+00	 3.129807691279275e-01	 1.473672056032447e+00
1	 1.371427118099289e+00	 0.000000000000000e+00	 1.813151626451397e+00
1	 1.371199216879492e+00	 3.156860297462624e-02	 1.801706983206715e+00
1	 1.370504915546047e+00	 6.319831386641224e-02	 1.785340623746501e+00
1	 1.369328440293738e+00	 9.487216718673007e-02	 1.763279096262742e+00
1	 1.367654217435671e+00	 1.265725782200777e-01	 1.734757928931862e+00
1	 1.365466920266081e+00	 1.582813617277929e-01	 1.699028084300227e+00
1	 1.362751517252028e+00	 1.899797538115409e-01	 1.655362912467077e+00
1	 1.359493321372499e+00	 2.216484369967183e-01	 1.603065571450484e+00
1	 1.355678040403714e+00	 2.532675685767853e-01	 1.541476871798322e+00
1	 1.351291827930385e+00	 2.848168122386797e-01	 1.469983490454846e+00
1	 1.346321334844147e+00	 3.162753729669972e-01	 1.388026486297274e+00
1	 1.385713095165209e+00	 0.000000000000000e+00	 1.710757253573392e+00
1	 1.385482819928202e+00	 3.189744898677063e-02	 1.699878947001013e+00
1	 1.384781286148537e+00	 6.385664244368242e-02	 1.684355076447983e+00
1	 1.383592555707320e+00	 9.586043815485464e-02	 1.663447251289880e+00
1	 1.381900892688592e+00	 1.278910682271282e-01	 1.636425383251609e+00
1	 1.379690810730285e+00	 1.599301579886133e-01	 1.602573852761919e+00
1	 1.376947121717941e+00	 1.919587480799270e-01	 1.561198155550229e+00
1	 1.373654985637756e+00	 2.239573197988867e-01	 1.511631999570295e+00
1	 1.369799961385716e+00	 2.559058237401017e-01	 1.453244811480042e+00
1	 1.365368058310225e+00	 2.877837117498259e-01	 1.385449600346101e+00
1	 1.360345788246990e+00	 3.195699721937289e-01	 1.307711114149959e+00
1	 1.399999048897318e+00	 0.000000000000000e+00	 1.614120257953954e+00
1	 1.399766399646979e+00	 3.222629446180800e-02	 1.603774566571204e+00
1	 1.399057633432906e+00	 6.451496994569926e-02	 1.589051899291852e+00
1	 1.397856647822801e+00	 9.684870750882919e-02	 1.569247179272044e+00
1	 1.396147544671901e+00	 1.292095560806813e-01	 1.543662865269108e+00
1	 1.393914677962101e+00	 1.615789515564481e-01	 1.511614833796954e+00
1	 1.391142702997676e+00	 1.939377391160178e-01	 1.472438724135422e+00
1	 1.387816626772285e+00	 2.262661988299577e-01	 1.425496718049396e+00
1	 1.383921859301924e+00	 2.585440745943648e-01	 1.370184715677042e+00
1	 1.379444265698925e+00	 2.907506064151547e-01	 1.305939857963826e+00
1	 1.374370218743297e+00	 3.228645660394258e-01	 1.232248334416515e+00
1	 1.414284975962072e+00	 0.000000000000000e+00	 1.522850497076007e+00
1	 1.414049952702832e+00	 3.255513932300882e-02	 1.512996415524952e+00
1	 1.413333954067853e+00	 6.517329621885529e-02	 1.499026395689776e+00
1	 1.412120713311740e+00	 9.783697501806153e-02	 1.480266958763896e+00
1	 1.410394170061229e+00	 1.305280414730958e-01	 1.456051307023139e+00
1	 1.408138518642477e+00	 1.632277420465876e-01	 1.425724925522864e+00
1	 1.405338257778788e+00	 1.959167264580614e-01	 1.388651630407781e+00
1	 1.401978241471570e+00	 2.285750735512108e-01	 1.344220037533586e+00
1	 1.398043730857107e+00	 2.611823205240068e-01	 1.291850415151672e+00
1	 1.393520446811928e+00	 2.937174955424229e-01	 1.231001873791447e+00
1	 1.388394623060607e+00	 3.261591537353912e-01	 1.161179835346699e+00
1	 1.428570873025926e+00	 0.000000000000000e+00	 1.436573430247085e+00
1	 1.428333475762771e+00	 3.288398349364353e-02	 1.427162960633453e+00
1	 1.427610244722076e+00	 6.583162110954309e-02	 1.413890053016813e+00
1	 1.426384748845693e+00	 9.882524045195930e-02	 1.396111141276701e+00
1	 1.424640765532204e+00	 1.318465240967308e-01	 1.373188399374331e+00
1	 1.422362329452363e+00	 1.648765290743223e-01	 1.344495066244551e+00
1	 1.419533782748831e+00	 1.978957096443060e-01	 1.309421202188116e+00
1	 1.416139826431091e+00	 2.308839434239253e-01	 1.267379852377373e+00
1	 1.412165572756028e+00	 2.638205609134598e-01	 1.217813583580021e+00
1	 1.407596598364675e+00	 2.966843784393872e-01	 1.160201350042893e+00
1	 1.402418997926461e+00	 3.294537345129283e-01	 1.094065633809042e+00
1	 1.262174316647597e+00	 2.965077076518963e-01	 2.000054658065142e+00
1	 1.256955109454539e+00	 3.258931111168156e-01	 1.879800490587836e+00
1	 1.251164783723348e+00	 3.551534180596824e-01	 1.754459361715707e+00
1	 1.244792515783490e+00	 3.842681099253539e-01	 1.623831573991741e+00
1	 1.237828140375747e+00	 4.132164007555682e-01	 1.487728462622718e+00
1	 1.230262197256569e+00	 4.419772843415474e-01	 1.345974053489325e+00
1	 1.222085976622863e+00	 4.705295839165800e-01	 1.198406756283680e+00
1	 1.213291563054103e+00	 4.988520042113921e-01	 1.044881072885738e+00
1	 1.203871877666055e+00	 5.269231856692950e-01	 8.852692987442532e-01
1	 1.193820718170790e+00	 5.547217605929656e-01	 7.194631929085356e-01
1	 1.183132796540936e+00	 5.822264109706171e-01	 5.473755905491307e-01
1	 1.276198838767993e+00	 2.998023230222043e-01	 1.879843055246733e+00
1	 1.270921638882720e+00	 3.295142394221146e-01	 1.765179134099108e+00
1	 1.265066974533483e+00	 3.590996693027053e-01	 1.645719334611155e+00
1	 1.258623901783632e+00	 3.885378661189792e-01	 1.521291601484241e+00
1	 1.251582142423700e+00	 4.178078129515949e-01	 1.391729836091165e+00
1	 1.243932131093599e+00	 4.468882701834049e-01	 1.256874982200792e+00
1	 1.235665061212145e+00	 4.757578257441907e-01	 1.116576165132493e+00
1	 1.226772929407417e+00	 5.043949477444406e-01	 9.706918739290531e-01
1	 1.217248578138877e+00	 5.327780392929062e-01	 8.190911742005331e-01
1	 1.207085736202502e+00	 5.608854952672500e-01	 6.616549374035753e-01
1	 1.196279056813543e+00	 5.886957607827461e-01	 4.982770705391979e-01
1	 1.290223357616614e+00	 3.030969376236583e-01	 1.767677426084497e+00
1	 1.284888165052574e+00	 3.331353668823323e-01	 1.658442545532297e+00
1	 1.278969162100207e+00	 3.630459196247387e-01	 1.544667138681746e+00
1	 1.272455284556780e+00	 3.928076213160798e-01	 1.426204998235844e+00
1	 1.265336141262610e+00	 4.223992240759926e-01	 1.302911222924218e+00
1	 1.257602061741100e+00	 4.517992548790162e-01	 1.174642774832556e+00
1	 1.249244142632999e+00	 4.809860663514812e-01	 1.041259106624511e+00
1	 1.240254292615020e+00	 5.099378899836977e-01	 9.026228569753465e-01
1	 1.230625275490343e+00	 5.386328915499143e-01	 7.586006109853299e-01
1	 1.220350751138874e+00	 5.670492285028369e-01	 6.090637206739086e-01
1	 1.209425314018505e+00	 5.951651090848595e-01	 4.538891789076057e-01
1	 1.304247869921001e+00	 3.063915506875612e-01	 1.662966900507183e+00
1	 1.298854684705190e+00	 3.367564926525975e-01	 1.558993759818047e+00
1	 1.292871343179647e+00	 3.669921681050627e-01	 1.450702432087806e+00
1	 1.286286660875609e+00	 3.970773745204665e-01	 1.337970839811260e+00
1	 1.279090133683234e+00	 4.269906330575335e-01	 1.220673975315521e+00
1	 1.271271986009470e+00	 4.567102372825999e-01	 1.098683972383980e+00
1	 1.262823217717048e+00	 4.862143045186584e-01	 9.718702624236029e-01
1	 1.253735649531359e+00	 5.154808296359515e-01	 8.400998214969477e-01
1	 1.244001966599343e+00	 5.444877410743382e-01	 7.032375133493201e-01
1	 1.233615759884871e+00	 5.732129588616810e-01	 5.611465321065660e-01
1	 1.222571565088504e+00	 6.016344543676050e-01	 4.136889466097753e-01
1	 1.318272372408692e+00	 3.096861614452167e-01	 1.565145748324402e+00
1	 1.312821194581664e+00	 3.403776158880397e-01	 1.466261211161815e+00
1	 1.306773514527932e+00	 3.709384138229578e-01	 1.363250415978078e+00
1	 1.300118027512793e+00	 4.013471247359494e-01	 1.256013769564619e+00
1	 1.292844116476331e+00	 4.315820388249894e-01	 1.144444916368439e+00
1	 1.284941900709110e+00	 4.616212162483760e-01	 1.028430365950686e+00
1	 1.276402283295917e+00	 4.914425390259288e-01	 9.078492178548305e-01
1	 1.267216997010882e+00	 5.210237654079906e-01	 7.825729974958332e-01
1	 1.257378648344766e+00	 5.503425865001975e-01	 6.524656158283919e-01
1	 1.246880759345454e+00	 5.793766849057361e-01	 5.173834642996842e-01
1	 1.235717806956221e+00	 6.081037951216303e-01	 3.771756549292964e-01
1	 1.332296861807227e+00	 3.129807691279275e-01	 1.473672056032447e+00
1	 1.326787691423086e+00	 3.439987357437876e-01	 1.379697396190398e+00
1	 1.320675672901189e+00	 3.748846558577046e-01	 1.281760490064381e+00
1	 1.313949381241011e+00	 4.056168709663394e-01	 1.179782652899779e+00
1	 1.306598086432660e+00	 4.361734403071328e-01	 1.073674999445101e+00
1	 1.298611802650422e+00	 4.665321906305634e-01	 9.633376676841098e-01
1	 1.289981336201229e+00	 4.966707686534989e-01	 8.486591510850281e-01
1	 1.280698331908039e+00	 5.265666960066030e-01	 7.295157595724757e-01
1	 1.270755317605502e+00	 5.561974264615115e-01	 6.057712288897558e-01
1	 1.260145746425587e+00	 5.855404051969570e-01	 4.772764969604581e-01
1	 1.248864036554340e+00	 6.145731298375837e-01	 3.438696642484431e-01
1	 1.346321334844147e+00	 3.162753729669972e-01	 1.388026486297274e+00
1	 1.340754171970549e+00	 3.476198513749700e-01	 1.298777620629119e+00
1	 1.334577815055549e+00	 3.788308932885835e-01	 1.205704992200067e+00
1	 1.327780718832936e+00	 4.098866122154465e-01	 1.108749315616560e+00
1	 1.320352040342977e+00	 4.407648364327352e-01	 1.007838051283468e+00
1	 1.312281688643806e+00	 4.714431592833817e-01	 9.028842647935538e-01
1	 1.303560373264609e+00	 5.018989921815753e-01	 7.937856042073979e-01
1	 1.294179651077275e+00	 5.321096201385769e-01	 6.804234213434928e-01
1	 1.284131971260440e+00	 5.620522595922992e-01	 5.626620629540127e-01
1	 1.273410718030233e+00	 5.917041182972974e-01	 4.403483567888295e-01
1	 1.262010250815542e+00	 6.210424570061129e-01	 3.133113160006909e-01
1	 1.360345788246990e+00	 3.195699721937289e-01	 1.307711114149959e+00
1	 1.354720632965146e+00	 3.512409619367159e-01	 1.222998823483364e+00
1	 1.348479937747139e+00	 3.827771251948748e-01	 1.134578015901799e+00
1	 1.341612037061243e+00	 4.141563474870811e-01	 1.042407360276456e+00
1	 1.334105974998042e+00	 4.453562261305693e-01	 9.464295928388415e-01
1	 1.325951555499662e+00	 4.763541210610502e-01	 8.465700505996205e-01
1	 1.317139391317681e+00	 5.071272083903644e-01	 7.427353303210792e-01
1	 1.307660951373040e+00	 5.376525365107007e-01	 6.348121044114714e-01
1	 1.297508606188468e+00	 5.679070845265797e-01	 5.226661251385538e-01
1	 1.286675671064355e+00	 5.978678227687122e-01	 4.061414478649235e-01
1	 1.275156446672509e+00	 6.275117751178659e-01	 2.850599025253836e-01
1	 1.374370218743297e+00	 3.228645660394258e-01	 1.232248334416515e+00
1	 1.368687071147968e+00	 3.548620665841546e-01	 1.151878473189837e+00
1	 1.362382037732088e+00	 3.867233506558594e-01	 1.067894300248674e+00
1	 1.355443332698608e+00	 4.184260757850536e-01	 9.802710550165171e-01
1	 1.347859887188615e+00	 4.499476083294069e-01	 8.889657322995599e-01
1	 1.339621400028392e+00	 4.812650748177886e-01	 7.939153271367423e-01
1	 1.330718387192070e+00	 5.123554160600730e-01	 6.950352111789292e-01
1	 1.321142229649782e+00	 5.431954438297626e-01	 5.922176765630722e-01
1	 1.310885219268478e+00	 5.737618998983726e-01	 4.853306835293424e-01
1	 1.299940602432917e+00	 6.040315171731547e-01	 3.742168475055430e-01
1	 1.288302621057924e+00	 6.339810826634908e-01	 2.586926999758568e-01
1	 1.388394623060607e+00	 3.261591537353912e-01	 1.161179835346699e+00
1	 1.382653483260108e+00	 3.584831644724148e-01	 1.084953530650179e+00
1	 1.376284111766524e+00	 3.906695687508174e-01	 1.005188187042545e+00
1	 1.369274602517707e+00	 4.226957961131750e-01	 9.218742896901129e-01
1	 1.361613773705451e+00	 4.545389819580201e-01	 8.349821251750251e-01
1	 1.353291219040396e+00	 4.861760194078157e-01	 7.444597742471912e-01
1	 1.344297357719400e+00	 5.175836139709075e-01	 6.502312404151419e-01
1	 1.334623482761948e+00	 5.487383408025508e-01	 5.521947543018781e-01
1	 1.324261807379358e+00	 5.796167043416971e-01	 4.502212942075741e-01
1	 1.313205509040881e+00	 6.101952000725799e-01	 3.441533629618581e-01
1	 1.301448770904468e+00	 6.404503781336350e-01	 2.338040598237225e-01
1	 1.402418997926461e+00	 3.294537345129283e-01	 1.094065633809042e+00
1	 1.396619866042658e+00	 3.621042547566253e-01	 1.021779474466341e+00
1	 1.390186156606576e+00	 3.946157785590295e-01	 9.460126405223909e-01
1	 1.383105843291214e+00	 4.269655074752547e-01	 8.667695946229612e-01
1	 1.375367631339310e+00	 4.591303459451807e-01	 7.840329967622018e-01
1	 1.366961009346076e+00	 4.910869536853510e-01	 6.977614805133296e-01
1	 1.357876299731293e+00	 5.228118009030744e-01	 6.078875677633431e-01
1	 1.348104707563986e+00	 5.542812261358537e-01	 5.143157652136576e-01
1	 1.337638367399997e+00	 5.854714964905721e-01	 4.169208866395663e-01
1	 1.326470387793212e+00	 6.163588700289419e-01	 3.155466447004637e-01
1	 1.314594893144823e+00	 6.469196600189466e-01	 2.100045548586570e-01
1	 1.183132796540936e+00	 5.822264109706171e-01	 5.473755905491312e-01
1	 1.171802959632020e+00	 6.094178182985777e-01	 3.673963813626093e-01
1	 1.159828581322929e+00	 6.362729960993709e-01	 1.783982681958525e-01
1	 1.147207321243899e+00	 6.627711229717850e-01	-1.900132950931194e-02
1	 1.133937874613762e+00	 6.888916695037870e-01	-2.241886907425267e-01
1	 1.120019993718943e+00	 7.146144600257595e-01	-4.365592056323945e-01
1	 1.105454505428850e+00	 7.399197341251366e-01	-6.555227996483992e-01
1	 1.090243324556970e+00	 7.647882075584607e-01	-8.805092894140218e-01
1	 1.074389462904693e+00	 7.892011321926621e-01	-1.110973588109026e+00
1	 1.057897033854956e+00	 8.131403546067386e-01	-1.346400678130766e+00
1	 1.040771252414892e+00	 8.365883729880681e-01	-1.586310270320210e+00
1	 1.196279056813543e+00	 5.886957607827461e-01	 4.982770705391971e-01
1	 1.184823329568884e+00	 6.161893026801177e-01	 3.272194558074907e-01
1	 1.172715899167537e+00	 6.433428790699680e-01	 1.472175928983782e-01
1	 1.159954399234961e+00	 6.701354371961921e-01	-4.115132547636480e-02
1	 1.146537510492046e+00	 6.965462195362728e-01	-2.373178976682870e-01
1	 1.132464982472780e+00	 7.225548262406800e-01	-4.407257625924023e-01
1	 1.117737651234249e+00	 7.481412773310235e-01	-6.508368078922377e-01
1	 1.102357452866200e+00	 7.732860742889249e-01	-8.671362570912255e-01
1	 1.086327432635354e+00	 7.979702606633312e-01	-1.089137554914153e+00
1	 1.069651749630091e+00	 8.221754813233386e-01	-1.316386970689147e+00
1	 1.052335676803569e+00	 8.458840399867048e-01	-1.548467842415014e+00
1	 1.209425314018505e+00	 5.951651090848595e-01	 4.538891789076058e-01
1	 1.197843696467493e+00	 6.229607854811509e-01	 2.912235100621610e-01
1	 1.185603214004979e+00	 6.504127603904537e-01	 1.196767871478039e-01
1	 1.172701474251644e+00	 6.774997497018224e-01	-6.021259806117324e-02
1	 1.159137143430437e+00	 7.042007677823064e-01	-2.479176842608241e-01
1	 1.144909968322899e+00	 7.304951906025160e-01	-4.429280204808413e-01
1	 1.130020794173789e+00	 7.563628186182840e-01	-6.447546569523059e-01
1	 1.114471578349102e+00	 7.817839390363610e-01	-8.529349678047164e-01
1	 1.098265399580877e+00	 8.067393870877569e-01	-1.067037226192731e+00
1	 1.081406462662920e+00	 8.312106059317127e-01	-1.286664854116149e+00
1	 1.063900098494396e+00	 8.551797048164093e-01	-1.511460272803208e+00
1	 1.222571565088504e+00	 6.016344543676050e-01	 4.136889466097751e-01
1	 1.210864057289905e+00	 6.297322651218270e-01	 2.589079558534146e-01
1	 1.198490522828354e+00	 6.574826384113476e-01	 9.529939077368790e-02
1	 1.185448543319761e+00	 6.848640587704881e-01	-7.663573521549721e-02
1	 1.171736770489137e+00	 7.118553124559704e-01	-2.564110368739819e-01
1	 1.157354948365572e+00	 7.384355512586466e-01	-4.435596612650387e-01
1	 1.142303931381488e+00	 7.645843560686765e-01	-6.376390602895077e-01
1	 1.126585698179115e+00	 7.902817998180376e-01	-8.382355532423872e-01
1	 1.110203360955788e+00	 8.155085094198991e-01	-1.044968601613764e+00
1	 1.093161170210711e+00	 8.402457263237395e-01	-1.257494720857485e+00
1	 1.075464514789027e+00	 8.644753653082524e-01	-1.475510958287019e+00
1	 1.235717806956221e+00	 6.081037951216303e-01	 3.771756549292964e-01
1	 1.223884408998180e+00	 6.365037400222964e-01	 2.297935028119703e-01
1	 1.211377822630763e+00	 6.645525114831703e-01	 7.362921473065401e-02
1	 1.198195603465128e+00	 6.922283626840025e-01	-9.085215476206132e-02
1	 1.184336388728350e+00	 7.195098517713456e-01	-2.632029463176483e-01
1	 1.169799919697071e+00	 7.463759063564521e-01	-4.429976184096283e-01
1	 1.154587059991365e+00	 7.728058877639603e-01	-6.298373007119806e-01
1	 1.138699809529677e+00	 7.987796546512245e-01	-8.233541009316736e-01
1	 1.122141313974611e+00	 8.242776256137182e-01	-1.023215089135737e+00
1	 1.104915869530733e+00	 8.492808403912976e-01	-1.229125886859560e+00
1	 1.087028922989120e+00	 8.737710192933065e-01	-1.440833793445021e+00
1	 1.248864036554340e+00	 6.145731298375837e-01	 3.438696642484435e-01
1	 1.236904748554374e+00	 6.432752086027080e-01	 2.034210373541823e-01
1	 1.224265110405305e+00	 6.716223779564416e-01	 5.422927400460401e-02
1	 1.210942651713557e+00	 6.995926597241778e-01	-1.032751135577324e-01
1	 1.196935995208283e+00	 7.271643839425148e-01	-2.686813552171776e-01
1	 1.182244879413671e+00	 7.543162540433125e-01	-4.416029586183687e-01
1	 1.166870177137439e+00	 7.810274117858940e-01	-6.216820427721649e-01
1	 1.150813909574226e+00	 8.072775015531899e-01	-8.085933936784377e-01
1	 1.134079255851869e+00	 8.330467336231737e-01	-1.002048168015284e+00
1	 1.116670557880252e+00	 8.583159460262669e-01	-1.201797174843351e+00
1	 1.098593320396328e+00	 8.830666646026432e-01	-1.407633671061256e+00
1	 1.262010250815542e+00	 6.210424570061129e-01	 3.133113160006914e-01
1	 1.249925072920549e+00	 6.500466692832125e-01	 1.793505716146556e-01
1	 1.237152383145082e+00	 6.786922361816812e-01	 3.668078719421142e-02
1	 1.223689685090863e+00	 7.069569481728269e-01	-1.143006536010276e-01
1	 1.209535586989136e+00	 7.348189071835588e-01	-2.732180461787418e-01
1	 1.194689824611643e+00	 7.622565924666073e-01	-4.397217084819479e-01
1	 1.179153279953728e+00	 7.892489262162363e-01	-6.134920944028337e-01
1	 1.162927995486199e+00	 8.157753385412044e-01	-7.942436028036021e-01
1	 1.146017183802085e+00	 8.418158314022254e-01	-9.817280103888706e-01
1	 1.128425232516537e+00	 8.673510411205255e-01	-1.175737461133611e+00
1	 1.110157704312310e+00	 8.923622990673346e-01	-1.376106951286155e+00
1	 1.275156446672509e+00	 6.275117751178659e-01	 2.850599025253839e-01
1	 1.262945379058761e+00	 6.568181204839599e-01	 1.571602573758239e-01
1	 1.250039637843193e+00	 6.857620845094093e-01	 2.058223795730973e-02
1	 1.236436700622858e+00	 7.143212263117624e-01	-1.243084896334066e-01
1	 1.222135161131115e+00	 7.424734197085595e-01	-2.771694750315319e-01
1	 1.207134752387260e+00	 7.701969197737164e-01	-4.376856300068498e-01
1	 1.191436365574252e+00	 7.974704291367465e-01	-6.055731214542462e-01
1	 1.175042064439034e+00	 8.242731636325358e-01	-7.805829385106789e-01
1	 1.157955095039786e+00	 8.505849169048342e-01	-9.625040644166790e-01
1	 1.140179890696855e+00	 8.763861235659529e-01	-1.151166188672557e+00
1	 1.121722072038720e+00	 9.016579205184524e-01	-1.346441901784803e+00
1	 1.288302621057924e+00	 6.339810826634908e-01	 2.586926999758569e-01
1	 1.275965663931068e+00	 6.635895606250993e-01	 1.364454603532428e-01
1	 1.262926871492737e+00	 6.928319212901460e-01	 5.548493904492829e-03
1	 1.249183695335358e+00	 7.216854924227970e-01	-1.336628424118513e-01
1	 1.234734714694425e+00	 7.501279197315989e-01	-2.808775530685625e-01
1	 1.219579659836794e+00	 7.781372341120201e-01	-4.358129486752876e-01
1	 1.203719431133027e+00	 8.056919186291830e-01	-5.982183184958557e-01
1	 1.187156113606170e+00	 8.327709748444542e-01	-7.678782604453851e-01
1	 1.169892986779494e+00	 8.593539880849598e-01	-9.446156017331663e-01
1	 1.151934529678472e+00	 8.854211912544275e-01	-1.128293848633126e+00
1	 1.133286420877215e+00	 9.109535267870686e-01	-1.318819110944695e+00
1	 1.301448770904468e+00	 6.404503781336350e-01	 2.338040598237229e-01
1	 1.288985924499531e+00	 6.703609881267809e-01	 1.168178905698939e-01
1	 1.275814081086816e+00	 6.999017448744109e-01	-8.790021120889946e-03
1	 1.261930666254174e+00	 7.290497447877435e-01	-1.427132214935390e-01
1	 1.247334244739268e+00	 7.577824054667585e-01	-2.846703818915114e-01
1	 1.232024544056519e+00	 7.860775336288979e-01	-4.344090373920573e-01
1	 1.216002473764073e+00	 8.139133927753053e-01	-5.917090389739200e-01
1	 1.199270140161044e+00	 8.412687701942285e-01	-7.563856512614363e-01
1	 1.181830856235734e+00	 8.681230428965618e-01	-9.282922317275836e-01
1	 1.163689146718658e+00	 8.944562420778287e-01	-1.107322432851004e+00
1	 1.144850748129450e+00	 9.202491157042549e-01	-1.293411876047121e+00
1	 1.314594893144823e+00	 6.469196600189466e-01	 2.100045548586564e-01
1	 1.302006157726207e+00	 6.771324014091545e-01	 9.790478489462365e-02
1	 1.288701263618528e+00	 7.069715536127238e-01	-2.278810511260115e-02
1	 1.274677610405123e+00	 7.364139816884141e-01	-1.517951610655877e-01
1	 1.259933748325849e+00	 7.654368751281202e-01	-2.888629441763169e-01
1	 1.244469402142706e+00	 7.940178164717294e-01	-4.337670594052115e-01
1	 1.228285490601410e+00	 8.221348496568718e-01	-5.863153875696351e-01
1	 1.211384141277094e+00	 8.497665476991278e-01	-7.463509557814222e-01
1	 1.193768700623030e+00	 8.768920792936009e-01	-9.137543849756502e-01
1	 1.175443739074679e+00	 9.034912739280352e-01	-1.088445859118023e+00
1	 1.156415051097081e+00	 9.295446851010828e-01	-1.270386568154340e+00
1	 1.040771252414892e+00	 8.365883729880681e-01	-1.586310270320210e+00
1	 1.023018427960310e+00	 8.595283939712974e-01	-1.836189454522724e+00
1	 1.004645946972983e+00	 8.819443910647330e-01	-2.100796089909200e+00
1	 9.856622672384795e-01	 9.038211482654626e-01	-2.378505599910255e+00
1	 9.660769020995830e-01	 9.251443046312183e-01	-2.667596843286721e+00
1	 9.459003975030937e-01	 9.459003975030944e-01	-2.966264202216554e+00
1	 9.251443046312178e-01	 9.660769020995831e-01	-3.272630695616336e+00
1	 9.038211482654623e-01	 9.856622672384796e-01	-3.584761935355973e+00
1	 8.819443910647331e-01	 1.004645946972983e+00	-3.900680726314830e+00
1	 8.595283939712971e-01	 1.023018427960311e+00	-4.218382099114748e+00
1	 8.365883729880681e-01	 1.040771252414892e+00	-4.535848557208388e+00
1	 1.052335676803569e+00	 8.458840399867048e-01	-1.548467842415014e+00
1	 1.034385593637595e+00	 8.690789566902977e-01	-1.790697628631966e+00
1	 1.015808968688077e+00	 8.917440268656871e-01	-2.047679676271792e+00
1	 9.966143537184107e-01	 9.138638654388909e-01	-2.317877904663460e+00
1	 9.768113677779181e-01	 9.354239518974904e-01	-2.599660059749091e+00
1	 9.564106739936137e-01	 9.564106739936139e-01	-2.891309107448950e+00
1	 9.354239518974901e-01	 9.768113677779182e-01	-3.191035650611057e+00
1	 9.138638654388903e-01	 9.966143537184112e-01	-3.496991197194051e+00
1	 8.917440268656868e-01	 1.015808968688077e+00	-3.807282090514294e+00
1	 8.690789566902973e-01	 1.034385593637595e+00	-4.119983899941850e+00
1	 8.458840399867049e-01	 1.052335676803569e+00	-4.433156062713377e+00
1	 1.063900098494396e+00	 8.551797048164093e-01	-1.511460272803208e+00
1	 1.045752756663082e+00	 8.786295171809760e-01	-1.746565780975348e+00
1	 1.026971987799014e+00	 9.015436603802878e-01	-1.996425721088454e+00
1	 1.007566437643386e+00	 9.239065802693275e-01	-2.259589320661281e+00
1	 9.875458309520403e-01	 9.457035967655604e-01	-2.534510170585531e+00
1	 9.669209480321814e-01	 9.669209480321818e-01	-2.819556948870449e+00
1	 9.457035967655600e-01	 9.875458309520405e-01	-3.113025164542627e+00
1	 9.239065802693268e-01	 1.007566437643387e+00	-3.413149759002815e+00
1	 9.015436603802873e-01	 1.026971987799014e+00	-3.718118385257534e+00
1	 8.786295171809756e-01	 1.045752756663083e+00	-4.026085172705182e+00
1	 8.551797048164094e-01	 1.063900098494396e+00	-4.335184776934391e+00
1	 1.075464514789027e+00	 8.644753653082524e-01	-1.475510958287019e+00
1	 1.057119914384448e+00	 8.881800732149159e-01	-1.703979981901503e+00
1	 1.038135001701094e+00	 9.113432893219885e-01	-1.947183669152194e+00
1	 1.018518516457923e+00	 9.339492904134958e-01	-2.203753422485641e+00
1	 9.982802891172464e-01	 9.559832368368600e-01	-2.472225686823802e+00
1	 9.774312171664081e-01	 9.774312171664084e-01	-2.751052028325498e+00
1	 9.559832368368598e-01	 9.982802891172471e-01	-3.038610228128565e+00
1	 9.339492904134957e-01	 1.018518516457923e+00	-3.333216237697282e+00
1	 9.113432893219882e-01	 1.038135001701094e+00	-3.633136825487693e+00
1	 8.881800732149152e-01	 1.057119914384449e+00	-3.936602731658403e+00
1	 8.644753653082524e-01	 1.075464514789027e+00	-4.241822138876409e+00
1	 1.087028922989120e+00	 8.737710192933065e-01	-1.440833793445021e+00
1	 1.068487064149366e+00	 8.977306225636994e-01	-1.663118387863892e+00
1	 1.049298007789620e+00	 9.211429114042431e-01	-1.900096609834910e+00
1	 1.029470587606540e+00	 9.439919935281210e-01	-2.150478955599784e+00
1	 1.009014739768834e+00	 9.662628697128208e-01	-2.412881782319635e+00
1	 9.879414789439063e-01	 9.879414789439066e-01	-2.685836766047079e+00
1	 9.662628697128207e-01	 1.009014739768835e+00	-2.967801367790753e+00
1	 9.439919935281209e-01	 1.029470587606540e+00	-3.257170163297089e+00
1	 9.211429114042424e-01	 1.049298007789620e+00	-3.552286875269537e+00
1	 8.977306225636988e-01	 1.068487064149366e+00	-3.851456933558077e+00
1	 8.737710192933065e-01	 1.087028922989120e+00	-4.152960379765762e+00
1	 1.098593320396328e+00	 8.830666646026432e-01	-1.407633671061256e+00
1	 1.079854203305508e+00	 9.072811629989098e-01	-1.624151658264058e+00
1	 1.060461003459893e+00	 9.309425243405042e-01	-1.855301611914543e+00
1	 1.040422648533754e+00	 9.540346872699265e-01	-2.099870090850497e+00
1	 1.019749180402101e+00	 9.765424929948752e-01	-2.356550469740683e+00
1	 9.984517309122878e-01	 9.984517309122882e-01	-2.623951800035399e+00
1	 9.765424929948747e-01	 1.019749180402101e+00	-2.900608670439391e+00
1	 9.540346872699262e-01	 1.040422648533754e+00	-3.184991931214278e+00
1	 9.309425243405040e-01	 1.060461003459894e+00	-3.475520129756816e+00
1	 9.072811629989095e-01	 1.079854203305509e+00	-3.770571491552062e+00
1	 8.830666646026430e-01	 1.098593320396329e+00	-4.068496271155307e+00
1	 1.110157704312310e+00	 8.923622990673346e-01	-1.376106951286155e+00
1	 1.091221329200549e+00	 9.168316922921298e-01	-1.587243346249265e+00
1	 1.071623986107216e+00	 9.407421258442269e-01	-1.812930037481025e+00
1	 1.051374696684083e+00	 9.640773692956361e-01	-2.052026663068441e+00
1	 1.030483608512344e+00	 9.868221042844536e-01	-2.303300765554419e+00
1	 1.008961970619164e+00	 1.008961970619164e+00	-2.565436079226859e+00
1	 9.868221042844530e-01	 1.030483608512344e+00	-2.837041806708124e+00
1	 9.640773692956357e-01	 1.051374696684084e+00	-3.116662757522199e+00
1	 9.407421258442266e-01	 1.071623986107216e+00	-3.402790204534653e+00
1	 9.168316922921292e-01	 1.091221329200549e+00	-3.693873300696994e+00
1	 8.923622990673349e-01	 1.110157704312310e+00	-3.988330888768945e+00
1	 1.121722072038720e+00	 9.016579205184524e-01	-1.346441901784803e+00
1	 1.102588439182163e+00	 9.263822082149419e-01	-1.552550265343601e+00
1	 1.082786953126889e+00	 9.505417136288637e-01	-1.773107836430758e+00
1	 1.062326729502046e+00	 9.741200372619742e-01	-2.007044394913638e+00
1	 1.041218021594859e+00	 9.971017011829885e-01	-2.253198844813360e+00
1	 1.019472195612146e+00	 1.019472195612146e+00	-2.510326950901608e+00
1	 9.971017011829884e-01	 1.041218021594859e+00	-2.777110052752676e+00
1	 9.741200372619737e-01	 1.062326729502046e+00	-3.052164636990705e+00
1	 9.505417136288635e-01	 1.082786953126890e+00	-3.334052631804914e+00
1	 9.263822082149412e-01	 1.102588439182163e+00	-3.621292274265420e+00
1	 9.016579205184526e-01	 1.121722072038720e+00	-3.912369390949617e+00
1	 1.133286420877215e+00	 9.109535267870686e-01	-1.318819110944695e+00
1	 1.113955530598024e+00	 9.359327085389288e-01	-1.520222833638235e+00
1	 1.093949901914216e+00	 9.603412854078683e-01	-1.735955822935539e+00
1	 1.073278744432160e+00	 9.841626888256640e-01	-1.965015107019715e+00
1	 1.051952417144943e+00	 1.007381281291911e+00	-2.206308186466167e+00
1	 1.029982403438847e+00	 1.029982403438848e+00	-2.458660242741141e+00
1	 1.007381281291911e+00	 1.051952417144943e+00	-2.720822310714925e+00
1	 9.841626888256638e-01	 1.073278744432160e+00	-2.991480303689777e+00
1	 9.603412854078678e-01	 1.093949901914216e+00	-3.269264762925885e+00
1	 9.359327085389286e-01	 1.113955530598024e+00	-3.552761190072364e+00
1	 9.109535267870685e-01	 1.133286420877215e+00	-3.840520810668258e+00
1	 1.144850748129450e+00	 9.202491157042549e-01	-1.293411876047121e+00
1	 1.125322600795804e+00	 9.454831910356732e-01	-1.490405397127151e+00
1	 1.105112829864497e+00	 9.701408388946942e-01	-1.701589935160186e+00
1	 1.084230738918943e+00	 9.942053216434308e-01	-1.926026915405620e+00
1	 1.062686792657895e+00	 1.017660842212654e+00	-2.162689709864415e+00
1	 1.040492591646879e+00	 1.040492591646879e+00	-2.410470339913984e+00
1	 1.017660842212653e+00	 1.062686792657896e+00	-2.668187127947302e+00
1	 9.942053216434305e-01	 1.084230738918943e+00	-2.934593193980277e+00
1	 9.701408388946938e-01	 1.105112829864497e+00	-3.208385676857196e+00
1	 9.454831910356730e-01	 1.125322600795804e+00	-3.488215546113035e+00
1	 9.202491157042547e-01	 1.144850748129450e+00	-3.772697860134884e+00
1	 1.156415051097081e+00	 9.295446851010828e-01	-1.270386568154340e+00
1	 1.136689647123178e+00	 9.550336534767583e-01	-1.463236533647895e+00
1	 1.116275734373034e+00	 9.799403718027949e-01	-1.670121479401357e+00
1	 1.095182710406913e+00	 1.004247933371997e+00	-1.890164417045613e+00
1	 1.073421145629011e+00	 1.027940381546648e+00	-2.122401903081012e+00
1	 1.051002757783851e+00	 1.051002757783852e+00	-2.365790257537331e+00
1	 1.027940381546647e+00	 1.073421145629011e+00	-2.619212715083936e+00
1	 1.004247933371997e+00	 1.095182710406913e+00	-2.881487411724768e+00
1	 9.799403718027947e-01	 1.116275734373035e+00	-3.151376094096483e+00
1	 9.550336534767578e-01	 1.136689647123179e+00	-3.427593424859951e+00
1	 9.295446851010828e-01	 1.156415051097081e+00	-3.708816747129942e+00
1	 8.365883729880681e-01	 1.040771252414892e+00	-4.535848557208388e+00
1	 8.131403546067379e-01	 1.057897033854957e+00	-4.856390562356925e+00
1	 7.892011321926615e-01	 1.074389462904693e+00	-5.183196607225969e+00
1	 7.647882075584603e-01	 1.090243324556970e+00	-5.514016393373953e+00
1	 7.399197341251362e-01	 1.105454505428851e+00	-5.846547842308699e+00
1	 7.146144600257591e-01	 1.120019993718943e+00	-6.178455190751903e+00
1	 6.888916695037869e-01	 1.133937874613762e+00	-6.507387021290105e+00
1	 6.627711229717848e-01	 1.147207321243900e+00	-6.830993979425616e+00
1	 6.362729960993706e-01	 1.159828581322929e+00	-7.146945943302988e+00
1	 6.094178182985774e-01	 1.171802959632020e+00	-7.452948432099897e+00
1	 5.822264109706172e-01	 1.183132796540936e+00	-7.746758062453742e+00
1	 8.458840399867049e-01	 1.052335676803569e+00	-4.433156062713377e+00
1	 8.221754813233382e-01	 1.069651749630091e+00	-4.750028162343553e+00
1	 7.979702606633309e-01	 1.086327432635354e+00	-5.073676453735760e+00
1	 7.732860742889248e-01	 1.102357452866200e+00	-5.401872715148665e+00
1	 7.481412773310232e-01	 1.117737651234249e+00	-5.732330603868651e+00
1	 7.225548262406796e-01	 1.132464982472780e+00	-6.062723839999031e+00
1	 6.965462195362724e-01	 1.146537510492047e+00	-6.390704393901587e+00
1	 6.701354371961920e-01	 1.159954399234961e+00	-6.713920423172627e+00
1	 6.433428790699675e-01	 1.172715899167537e+00	-7.030033719375249e+00
1	 6.161893026801172e-01	 1.184823329568884e+00	-7.336736443723371e+00
1	 5.886957607827459e-01	 1.196279056813543e+00	-7.631766953751609e+00
1	 8.551797048164094e-01	 1.063900098494396e+00	-4.335184776934391e+00
1	 8.312106059317125e-01	 1.081406462662920e+00	-4.648559986285322e+00
1	 8.067393870877567e-01	 1.098265399580878e+00	-4.969171008015775e+00
1	 7.817839390363607e-01	 1.114471578349103e+00	-5.294813817287041e+00
1	 7.563628186182836e-01	 1.130020794173789e+00	-5.623220529254070e+00
1	 7.304951906025154e-01	 1.144909968322899e+00	-5.952077633474498e+00
1	 7.042007677823060e-01	 1.159137143430437e+00	-6.279044294867726e+00
1	 6.774997497018219e-01	 1.172701474251644e+00	-6.601770462807640e+00
1	 6.504127603904530e-01	 1.185603214004979e+00	-6.917914543394230e+00
1	 6.229607854811502e-01	 1.197843696467493e+00	-7.225160408213204e+00
1	 5.951651090848594e-01	 1.209425314018505e+00	-7.521233535189564e+00
1	 8.644753653082524e-01	 1.075464514789027e+00	-4.241822138876409e+00
1	 8.402457263237391e-01	 1.093161170210712e+00	-4.551846022324989e+00
1	 8.155085094198986e-01	 1.110203360955788e+00	-4.869515560927415e+00
1	 7.902817998180374e-01	 1.126585698179116e+00	-5.192652950683002e+00
1	 7.645843560686761e-01	 1.142303931381488e+00	-5.519011375576980e+00
1	 7.384355512586462e-01	 1.157354948365572e+00	-5.846293255756351e+00
1	 7.118553124559701e-01	 1.171736770489137e+00	-6.172168619897691e+00
1	 6.848640587704878e-01	 1.185448543319762e+00	-6.494293339861555e+00
1	 6.574826384113471e-01	 1.198490522828354e+00	-6.810326978363518e+00
1	 6.297322651218268e-01	 1.210864057289906e+00	-7.117950017966818e+00
1	 6.016344543676049e-01	 1.222571565088503e+00	-7.414880261464395e+00
1	 8.737710192933065e-01	 1.087028922989120e+00	-4.152960379765762e+00
1	 8.492808403912974e-01	 1.104915869530733e+00	-4.459752218628030e+00
1	 8.242776256137179e-01	 1.122141313974611e+00	-4.774552413953955e+00
1	 7.987796546512239e-01	 1.138699809529677e+00	-5.095211314348703e+00
1	 7.728058877639600e-01	 1.154587059991365e+00	-5.419505677193269e+00
1	 7.463759063564516e-01	 1.169799919697072e+00	-5.745156894742127e+00
1	 7.195098517713455e-01	 1.184336388728351e+00	-6.069849396903974e+00
1	 6.922283626840020e-01	 1.198195603465128e+00	-6.391248966105350e+00
1	 6.645525114831701e-01	 1.211377822630763e+00	-6.707020711488927e+00
1	 6.365037400222959e-01	 1.223884408998181e+00	-7.014846466614043e+00
1	 6.081037951216300e-01	 1.235717806956221e+00	-7.312441396056480e+00
1	 8.830666646026430e-01	 1.098593320396329e+00	-4.068496271155307e+00
1	 8.583159460262664e-01	 1.116670557880253e+00	-4.372150170013692e+00
1	 8.330467336231733e-01	 1.134079255851869e+00	-4.684130510523517e+00
1	 8.072775015531897e-01	 1.150813909574226e+00	-5.002317637379672e+00
1	 7.810274117858935e-01	 1.166870177137439e+00	-5.324514284011845e+00
1	 7.543162540433123e-01	 1.182244879413672e+00	-5.648463741723368e+00
1	 7.271643839425146e-01	 1.196935995208283e+00	-5.971868252956718e+00
1	 6.995926597241775e-01	 1.210942651713558e+00	-6.292407362163658e+00
1	 6.716223779564410e-01	 1.224265110405306e+00	-6.607755968875190e+00
1	 6.432752086027077e-01	 1.236904748554375e+00	-6.915601843845202e+00
1	 6.145731298375836e-01	 1.248864036554340e+00	-7.213662389845716e+00
1	 8.923622990673349e-01	 1.110157704312310e+00	-3.988330888768945e+00
1	 8.673510411205249e-01	 1.128425232516537e+00	-4.288916824166075e+00
1	 8.418158314022248e-01	 1.146017183802086e+00	-4.598105090367673e+00
1	 8.157753385412038e-01	 1.162927995486199e+00	-4.913807787039921e+00
1	 7.892489262162360e-01	 1.179153279953729e+00	-5.233855928651378e+00
1	 7.622565924666068e-01	 1.194689824611644e+00	-5.556017522697228e+00
1	 7.348189071835585e-01	 1.209535586989136e+00	-5.878015914543813e+00
1	 7.069569481728264e-01	 1.223689685090863e+00	-6.197548131205294e+00
1	 6.786922361816808e-01	 1.237152383145082e+00	-6.512302966794236e+00
1	 6.500466692832122e-01	 1.249925072920549e+00	-6.819978568052327e+00
1	 6.210424570061129e-01	 1.262010250815542e+00	-7.118299298553314e+00
1	 9.016579205184526e-01	 1.121722072038720e+00	-3.912369390949617e+00
1	 8.763861235659521e-01	 1.140179890696855e+00	-4.209934206013016e+00
1	 8.505849169048336e-01	 1.157955095039786e+00	-4.516337365254504e+00
1	 8.242731636325352e-01	 1.175042064439034e+00	-4.829524401082833e+00
1	 7.974704291367462e-01	 1.191436365574252e+00	-5.147356820363780e+00
1	 7.701969197737161e-01	 1.207134752387260e+00	-5.467630058661356e+00
1	 7.424734197085591e-01	 1.222135161131116e+00	-5.788091738734964e+00
1	 7.143212263117621e-01	 1.236436700622859e+00	-6.106459965180491e+00
1	 6.857620845094089e-01	 1.250039637843193e+00	-6.420441396886347e+00
1	 6.568181204839595e-01	 1.262945379058760e+00	-6.727748854055227e+00
1	 6.275117751178659e-01	 1.275156446672509e+00	-7.026118236208593e+00
1	 9.109535267870685e-01	 1.133286420877215e+00	-3.840520810668258e+00
1	 8.854211912544271e-01	 1.151934529678473e+00	-4.135089158975246e+00
1	 8.593539880849593e-01	 1.169892986779494e+00	-4.438694214569460e+00
1	 8.327709748444536e-01	 1.187156113606170e+00	-4.749316542576830e+00
1	 8.056919186291830e-01	 1.203719431133028e+00	-5.064850263812925e+00
1	 7.781372341120194e-01	 1.219579659836794e+00	-5.383120852822188e+00
1	 7.501279197315985e-01	 1.234734714694425e+00	-5.701903273042165e+00
1	 7.216854924227964e-01	 1.249183695335357e+00	-6.018940181280168e+00
1	 6.928319212901455e-01	 1.262926871492738e+00	-6.331959942871770e+00
1	 6.635895606250989e-01	 1.275965663931068e+00	-6.638694213407098e+00
1	 6.339810826634908e-01	 1.288302621057924e+00	-6.936894862067928e+00
1	 9.202491157042547e-01	 1.144850748129450e+00	-3.772697860134884e+00
1	 8.944562420778284e-01	 1.163689146718658e+00	-4.064273101893176e+00
1	 8.681230428965616e-01	 1.181830856235735e+00	-4.365047899340777e+00
1	 8.412687701942280e-01	 1.199270140161045e+00	-4.673039375645525e+00
1	 8.139133927753052e-01	 1.216002473764074e+00	-4.986176300951659e+00
1	 7.860775336288973e-01	 1.232024544056519e+00	-5.302316702814548e+00
1	 7.577824054667582e-01	 1.247334244739269e+00	-5.619265841948183e+00
1	 7.290497447877430e-01	 1.261930666254174e+00	-5.934794286481588e+00
1	 6.999017448744103e-01	 1.275814081086816e+00	-6.246655826543999e+00
1	 6.703609881267807e-01	 1.288985924499531e+00	-6.552604984976765e+00
1	 6.404503781336349e-01	 1.301448770904468e+00	-6.850413898621580e+00
1	 9.295446851010828e-01	 1.156415051097081e+00	-3.708816747129942e+00
1	 9.034912739280351e-01	 1.175443739074679e+00	-3.997381800534515e+00
1	 8.768920792936006e-01	 1.193768700623031e+00	-4.295275793419244e+00
1	 8.497665476991274e-01	 1.211384141277095e+00	-4.600553860658134e+00
1	 8.221348496568712e-01	 1.228285490601410e+00	-4.911181374380541e+00
1	 7.940178164717289e-01	 1.244469402142706e+00	-5.225051336181970e+00
1	 7.654368751281195e-01	 1.259933748325849e+00	-5.540002158237126e+00
1	 7.364139816884138e-01	 1.274677610405123e+00	-5.853835568214102e+00
1	 7.069715536127235e-01	 1.288701263618529e+00	-6.164334380997124e+00
1	 6.771324014091542e-01	 1.302006157726207e+00	-6.469279893688488e+00
1	 6.469196600189466e-01	 1.314594893144823e+00	-6.766468678512320e+00
1	 5.822264109706172e-01	 1.183132796540936e+00	-7.746758062453742e+00
1	 5.547217605929659e-01	 1.193820718170789e+00	-8.027889638507684e+00
1	 5.269231856692952e-01	 1.203871877666055e+00	-8.296821474075921e+00
1	 4.988520042113924e-01	 1.213291563054103e+00	-8.552818613976683e+00
1	 4.705295839165803e-01	 1.222085976622864e+00	-8.795246743998224e+00
1	 4.419772843415477e-01	 1.230262197256569e+00	-9.023569972886193e+00
1	 4.132164007555683e-01	 1.237828140375747e+00	-9.237347831504044e+00
1	 3.842681099253542e-01	 1.244792515783489e+00	-9.436231588056241e+00
1	 3.551534180596826e-01	 1.251164783723347e+00	-9.619959980757352e+00
1	 3.258931111168158e-01	 1.256955109454539e+00	-9.788354469551749e+00
1	 2.965077076518963e-01	 1.262174316647596e+00	-9.941314106672740e+00
1	 5.886957607827459e-01	 1.196279056813543e+00	-7.631766953751607e+00
1	 5.608854952672502e-01	 1.207085736202502e+00	-7.914743201889013e+00
1	 5.327780392929063e-01	 1.217248578138877e+00	-8.186198030615017e+00
1	 5.043949477444409e-01	 1.226772929407417e+00	-8.445296738874557e+00
1	 4.757578257441908e-01	 1.235665061212146e+00	-8.691299773185428e+00
1	 4.468882701834050e-01	 1.243932131093599e+00	-8.923561655362793e+00
1	 4.178078129515951e-01	 1.251582142423700e+00	-9.141529104949475e+00
1	 3.885378661189793e-01	 1.258623901783632e+00	-9.344738441610213e+00
1	 3.590996693027055e-01	 1.265066974533483e+00	-9.532812356927124e+00
1	 3.295142394221147e-01	 1.270921638882720e+00	-9.705456147030548e+00
1	 2.998023230222043e-01	 1.276198838767993e+00	-9.862453497498581e+00
1	 5.951651090848594e-01	 1.209425314018505e+00	-7.521233535189566e+00
1	 5.670492285028373e-01	 1.220350751138875e+00	-7.805848967580622e+00
1	 5.386328915499144e-01	 1.230625275490343e+00	-8.079587828350210e+00
1	 5.099378899836980e-01	 1.240254292615020e+00	-8.341521207920358e+00
1	 4.809860663514815e-01	 1.249244142632999e+00	-8.590810080978894e+00
1	 4.517992548790164e-01	 1.257602061741100e+00	-8.826705325671352e+00
1	 4.223992240759929e-01	 1.265336141262610e+00	-9.048546916312565e+00
1	 3.928076213160800e-01	 1.272455284556779e+00	-9.255762361854575e+00
1	 3.630459196247389e-01	 1.278969162100207e+00	-9.447864468134560e+00
1	 3.331353668823325e-01	 1.284888165052573e+00	-9.624448505616250e+00
1	 3.030969376236582e-01	 1.290223357616614e+00	-9.785188866069209e+00
1	 6.016344543676049e-01	 1.222571565088503e+00	-7.414880261464394e+00
1	 5.732129588616812e-01	 1.233615759884870e+00	-7.700924007992413e+00
1	 5.444877410743385e-01	 1.244001966599343e+00	-7.976704640896297e+00
1	 5.154808296359519e-01	 1.253735649531359e+00	-8.241204403767242e+00
1	 4.862143045186587e-01	 1.262823217717048e+00	-8.493490384792063e+00
1	 4.567102372826002e-01	 1.271271986009470e+00	-8.732715574628923e+00
1	 4.269906330575337e-01	 1.279090133683234e+00	-8.958119077855104e+00
1	 3.970773745204668e-01	 1.286286660875608e+00	-9.169025537800383e+00
1	 3.669921681050630e-01	 1.292871343179647e+00	-9.364843841892535e+00
1	 3.367564926525978e-01	 1.298854684705190e+00	-9.545065179948939e+00
1	 3.063915506875612e-01	 1.304247869921001e+00	-9.709260531225326e+00
1	 6.081037951216300e-01	 1.235717806956221e+00	-7.312441396056478e+00
1	 5.793766849057363e-01	 1.246880759345453e+00	-7.599697432927013e+00
1	 5.503425865001976e-01	 1.257378648344766e+00	-7.877274419224829e+00
1	 5.210237654079908e-01	 1.267216997010882e+00	-8.144070945219102e+00
1	 4.914425390259290e-01	 1.276402283295917e+00	-8.399065623564493e+00
1	 4.616212162483762e-01	 1.284941900709110e+00	-8.641319134496586e+00
1	 4.315820388249896e-01	 1.292844116476330e+00	-8.869975405855699e+00
1	 4.013471247359497e-01	 1.300118027512793e+00	-9.084261975905360e+00
1	 3.709384138229581e-01	 1.306773514527931e+00	-9.283489595685342e+00
1	 3.403776158880399e-01	 1.312821194581663e+00	-9.467051134479052e+00
1	 3.096861614452166e-01	 1.318272372408692e+00	-9.634419856923236e+00
1	 6.145731298375836e-01	 1.248864036554340e+00	-7.213662389845716e+00
1	 5.855404051969570e-01	 1.260145746425586e+00	-7.501909756137959e+00
1	 5.561974264615117e-01	 1.270755317605502e+00	-7.781034650829178e+00
1	 5.265666960066031e-01	 1.280698331908039e+00	-8.049857043275530e+00
1	 4.966707686534990e-01	 1.289981336201229e+00	-8.307272314549754e+00
1	 4.665321906305637e-01	 1.298611802650422e+00	-8.552254239956339e+00
1	 4.361734403071331e-01	 1.306598086432659e+00	-8.783857088793789e+00
1	 4.056168709663396e-01	 1.313949381241011e+00	-9.001216878052867e+00
1	 3.748846558577049e-01	 1.320675672901190e+00	-9.203551826896469e+00
1	 3.439987357437878e-01	 1.326787691423086e+00	-9.390162067065205e+00
1	 3.129807691279275e-01	 1.332296861807227e+00	-9.560428670795693e+00
1	 6.210424570061129e-01	 1.262010250815542e+00	-7.118299298553314e+00
1	 5.917041182972975e-01	 1.273410718030232e+00	-7.407312301466972e+00
1	 5.620522595922993e-01	 1.284131971260440e+00	-7.687733758931373e+00
1	 5.321096201385771e-01	 1.294179651077275e+00	-7.958309897412102e+00
1	 5.018989921815754e-01	 1.303560373264609e+00	-8.217857950293125e+00
1	 4.714431592833819e-01	 1.312281688643805e+00	-8.465270029015729e+00
1	 4.407648364327355e-01	 1.320352040342977e+00	-8.699516095011678e+00
1	 4.098866122154466e-01	 1.327780718832936e+00	-8.919646058396680e+00
1	 3.788308932885837e-01	 1.334577815055549e+00	-9.124791040855129e+00
1	 3.476198513749703e-01	 1.340754171970550e+00	-9.314163849837255e+00
1	 3.162753729669972e-01	 1.346321334844147e+00	-9.487058719043397e+00
1	 6.275117751178659e-01	 1.275156446672509e+00	-7.026118236208590e+00
1	 5.978678227687122e-01	 1.286675671064355e+00	-7.315666645705438e+00
1	 5.679070845265799e-01	 1.297508606188468e+00	-7.597130538841113e+00
1	 5.376525365107008e-01	 1.307660951373040e+00	-7.869187129194962e+00
1	 5.071272083903645e-01	 1.317139391317681e+00	-8.130580432899743e+00
1	 4.763541210610505e-01	 1.325951555499662e+00	-8.380125980959937e+00
1	 4.453562261305695e-01	 1.334105974998043e+00	-8.616714617006201e+00
1	 4.141563474870814e-01	 1.341612037061243e+00	-8.839315396267194e+00
1	 3.827771251948752e-01	 1.348479937747140e+00	-9.046977614252365e+00
1	 3.512409619367163e-01	 1.354720632965146e+00	-9.238832004635661e+00
1	 3.195699721937289e-01	 1.360345788246990e+00	-9.414091155034852e+00
1	 6.339810826634908e-01	 1.288302621057924e+00	-6.936894862067928e+00
1	 6.040315171731551e-01	 1.299940602432917e+00	-7.226744095556993e+00
1	 5.737618998983728e-01	 1.310885219268478e+00	-7.508993628814440e+00
1	 5.431954438297628e-01	 1.321142229649781e+00	-7.782256250562364e+00
1	 5.123554160600733e-01	 1.330718387192070e+00	-8.045207542929992e+00
1	 4.812650748177888e-01	 1.339621400028392e+00	-8.296591388706512e+00
1	 4.499476083294071e-01	 1.347859887188614e+00	-8.535224549733815e+00
1	 4.184260757850540e-01	 1.355443332698608e+00	-8.760000322564764e+00
1	 3.867233506558597e-01	 1.362382037732089e+00	-8.969891291400014e+00
1	 3.548620665841549e-01	 1.368687071147968e+00	-9.163951210558499e+00
1	 3.228645660394259e-01	 1.374370218743297e+00	-9.341316059208559e+00
1	 6.404503781336349e-01	 1.301448770904468e+00	-6.850413898621580e+00
1	 6.101952000725803e-01	 1.313205509040881e+00	-7.140325196291522e+00
1	 5.796167043416972e-01	 1.324261807379358e+00	-7.423101012972988e+00
1	 5.487383408025510e-01	 1.334623482761947e+00	-7.697294164323309e+00
1	 5.175836139709077e-01	 1.344297357719399e+00	-7.961516440474754e+00
1	 4.861760194078159e-01	 1.353291219040396e+00	-8.214444863129179e+00
1	 4.545389819580204e-01	 1.361613773705451e+00	-8.454827000526270e+00
1	 4.226957961131751e-01	 1.369274602517706e+00	-8.681485337272127e+00
1	 3.906695687508178e-01	 1.376284111766524e+00	-8.893320711011853e+00
1	 3.584831644724150e-01	 1.382653483260108e+00	-9.089314841345967e+00
1	 3.261591537353913e-01	 1.388394623060607e+00	-9.268531988064190e+00
1	 6.469196600189466e-01	 1.314594893144823e+00	-6.766468678512319e+00
1	 6.163588700289421e-01	 1.326470387793212e+00	-7.056199269871663e+00
1	 5.854714964905722e-01	 1.337638367399996e+00	-7.339239554040353e+00
1	 5.542812261358540e-01	 1.348104707563986e+00	-7.614086694618314e+00
1	 5.228118009030747e-01	 1.357876299731294e+00	-7.879293196158314e+00
1	 4.910869536853514e-01	 1.366961009346076e+00	-8.133473867115113e+00
1	 4.591303459451811e-01	 1.375367631339310e+00	-8.375311828402303e+00
1	 4.269655074752550e-01	 1.383105843291213e+00	-8.603563555908647e+00
1	 3.946157785590299e-01	 1.390186156606576e+00	-8.817062961370054e+00
1	 3.621042547566256e-01	 1.396619866042657e+00	-9.014724530514881e+00
1	 3.294537345129284e-01	 1.402418997926461e+00	-9.195545550207282e+00
1	 2.965077076518963e-01	 1.262174316647596e+00	-9.941314106672744e+00
1	 2.670153521752661e-01	 1.266834146772720e+00	-1.007790591478032e+01
1	 2.374379815785563e-01	 1.270946214663118e+00	-1.019767808545248e+01
1	 2.077950911590201e-01	 1.274523035088650e+00	-1.030140034877088e+01
1	 1.781057461811192e-01	 1.277577589043705e+00	-1.038991670776985e+01
1	 1.483885491539033e-01	 1.280123275467486e+00	-1.046413288652589e+01
1	 1.186616101822315e-01	 1.282173863421045e+00	-1.052500431416067e+01
1	 8.894252039400018e-02	 1.283743444944866e+00	-1.057352473484347e+01
1	 5.924832842448790e-02	 1.284846388803535e+00	-1.061071551491019e+01
1	 2.959551991936728e-02	 1.285497295306093e+00	-1.063761570028714e+01
1	 0.000000000000000e+00	 1.285710952372222e+00	-1.065527286076541e+01
1	 2.998023230222043e-01	 1.276198838767993e+00	-9.862453497498581e+00
1	 2.699822662242061e-01	 1.280910446123660e+00	-1.000290980087583e+01
1	 2.400762496692715e-01	 1.285068204839977e+00	-1.012643074186846e+01
1	 2.101039852746391e-01	 1.288684768743407e+00	-1.023370233604834e+01
1	 1.800847501464906e-01	 1.291773263065350e+00	-1.032548665387848e+01
1	 1.500373534937380e-01	 1.294347235625973e+00	-1.040260971712220e+01
1	 1.199801066498031e-01	 1.296420608479858e+00	-1.046594987457898e+01
1	 8.993079620458681e-02	 1.298007630249775e+00	-1.051642674778066e+01
1	 5.990666022752165e-02	 1.299122829357391e+00	-1.055499081905726e+01
1	 2.992436754283312e-02	 1.299780968341605e+00	-1.058261371708681e+01
1	 0.000000000000000e+00	 1.299996999436575e+00	-1.060027923892626e+01
1	 3.030969376236582e-01	 1.290223357616614e+00	-9.785188866069209e+00
1	 2.729491795807888e-01	 1.294986742190813e+00	-9.929232117496777e+00
1	 2.427145171443394e-01	 1.299190191722442e+00	-1.005624260491171e+01
1	 2.124128788514845e-01	 1.302846499094541e+00	-1.016682599570558e+01
1	 1.820637536500774e-01	 1.305968933775486e+00	-1.026166563009150e+01
1	 1.516861574488442e-01	 1.308571192466371e+00	-1.034151085644185e+01
1	 1.212986028097239e-01	 1.310667350215280e+00	-1.040716579163169e+01
1	 9.091907178457713e-02	 1.312271812227235e+00	-1.045947859744656e+01
1	 6.056499187694677e-02	 1.313399266580941e+00	-1.049933134661763e+01
1	 3.025321508956925e-02	 1.314064638045126e+00	-1.052763053537194e+01
1	 0.000000000000000e+00	 1.314283043168385e+00	-1.054529828378391e+01
1	 3.063915506875612e-01	 1.304247869921001e+00	-9.709260531225326e+00
1	 2.759160915527708e-01	 1.309063031689621e+00	-9.856620085289885e+00
1	 2.453527833881924e-01	 1.313312172015283e+00	-9.986867715409051e+00
1	 2.147217713508357e-01	 1.317008222837535e+00	-1.010053201139067e+01
1	 1.840427562301275e-01	 1.320164597861665e+00	-1.019822069299859e+01
1	 1.533349606345122e-01	 1.322795142669631e+00	-1.028060937514570e+01
1	 1.226170983543528e-01	 1.324914085302944e+00	-1.034843070598147e+01
1	 9.190734690337890e-02	 1.326535987548803e+00	-1.040246396923975e+01
1	 6.122332321915580e-02	 1.327675697142885e+00	-1.044352522542366e+01
1	 3.058206248284614e-02	 1.328348301083665e+00	-1.047245805034149e+01
1	 0.000000000000000e+00	 1.328569080234105e+00	-1.049012491441069e+01
1	 3.096861614452166e-01	 1.318272372408692e+00	-9.634419856923238e+00
1	 2.788830014479088e-01	 1.323139311335524e+00	-9.784831676088269e+00
1	 2.479910477852629e-01	 1.327434142423264e+00	-9.918070574944910e+00
1	 2.170306622339722e-01	 1.331169936667870e+00	-1.003459124465525e+01
1	 1.860217574248893e-01	 1.334360252011446e+00	-1.013492880575090e+01
1	 1.549837626660326e-01	 1.337019082916703e+00	-1.021968799441204e+01
1	 1.239355929760488e-01	 1.339160810418477e+00	-1.028953267168874e+01
1	 9.289562133039975e-02	 1.340800152886037e+00	-1.034517574721548e+01
1	 6.188165410054127e-02	 1.341952117711918e+00	-1.038736959287955e+01
1	 3.091090964593424e-02	 1.342631954124233e+00	-1.041689700643408e+01
1	 0.000000000000000e+00	 1.342855107300192e+00	-1.043456277044986e+01
1	 3.129807691279275e-01	 1.332296861807227e+00	-9.560428670795694e+00
1	 2.818499085739596e-01	 1.337215577843965e+00	-9.713635046923137e+00
1	 2.506293097199830e-01	 1.341556099651152e+00	-9.849625595141504e+00
1	 2.193395509621732e-01	 1.345331637281030e+00	-9.968784199106516e+00
1	 1.880007567726109e-01	 1.348555892912382e+00	-1.007157631648045e+01
1	 1.566325631586960e-01	 1.351243009888536e+00	-1.015853857782143e+01
1	 1.252540863671707e-01	 1.353407522237509e+00	-1.023026866056682e+01
1	 9.388389483504743e-02	 1.355064304910496e+00	-1.028741552973587e+01
1	 6.253998436749579e-02	 1.356228524956741e+00	-1.033067012155915e+01
1	 3.123975650210397e-02	 1.356915593833839e+00	-1.036075653136208e+01
1	 0.000000000000000e+00	 1.357141121033102e+00	-1.037842375292211e+01
1	 3.162753729669972e-01	 1.346321334844147e+00	-9.487058719043395e+00
1	 2.848168122386797e-01	 1.351291827930385e+00	-9.642808009400273e+00
1	 2.532675685767853e-01	 1.355678040403714e+00	-9.781316581350032e+00
1	 2.216484369967182e-01	 1.359493321372498e+00	-9.902900518040319e+00
1	 1.899797538115407e-01	 1.362751517252028e+00	-1.000795846930976e+01
1	 1.582813617277927e-01	 1.365466920266081e+00	-1.009696165498865e+01
1	 1.265725782200774e-01	 1.367654217435671e+00	-1.017044409750618e+01
1	 9.487216718672974e-02	 1.369328440293738e+00	-1.022899317538395e+01
1	 6.319831386641184e-02	 1.370504915546047e+00	-1.027324057444546e+01
1	 3.156860297462580e-02	 1.371199216879492e+00	-1.030385369926067e+01
1	 0.000000000000000e+00	 1.371427118099289e+00	-1.032152759372396e+01
1	 3.195699721937289e-01	 1.360345788246990e+00	-9.414091155034852e+00
1	 2.877837117498259e-01	 1.365368058310224e+00	-9.572137531890389e+00
1	 2.559058237401016e-01	 1.369799961385716e+00	-9.712936248269472e+00
1	 2.239573197988864e-01	 1.373654985637755e+00	-9.836738513140636e+00
1	 1.919587480799268e-01	 1.376947121717941e+00	-9.943878945599852e+00
1	 1.599301579886132e-01	 1.379690810730285e+00	-1.003476597465425e+01
1	 1.278910682271278e-01	 1.381900892688592e+00	-1.010987242453397e+01
1	 9.586043815485427e-02	 1.383592555707320e+00	-1.016972637695788e+01
1	 6.385664244368201e-02	 1.384781286148536e+00	-1.021490238767429e+01
1	 3.189744898677018e-02	 1.385482819928203e+00	-1.024601312085137e+01
1	 0.000000000000000e+00	 1.385713095165209e+00	-1.026370145174800e+01
1	 3.228645660394259e-01	 1.374370218743297e+00	-9.341316059208559e+00
1	 2.907506064151547e-01	 1.379444265698925e+00	-9.501419272188302e+00
1	 2.585440745943647e-01	 1.383921859301924e+00	-9.644285765213677e+00
1	 2.262661988299575e-01	 1.387816626772285e+00	-9.770104722025826e+00
1	 1.939377391160176e-01	 1.391142702997676e+00	-9.879149433278119e+00
1	 1.615789515564478e-01	 1.393914677962101e+00	-9.971768085129574e+00
1	 1.292095560806810e-01	 1.396147544671901e+00	-1.004837469155667e+01
1	 9.684870750882889e-02	 1.397856647822801e+00	-1.010944026154003e+01
1	 6.451496994569883e-02	 1.399057633432906e+00	-1.015548427881656e+01
1	 3.222629446180756e-02	 1.399766399646979e+00	-1.018706655869076e+01
1	 0.000000000000000e+00	 1.399999048897318e+00	-1.020477953372366e+01
1	 3.261591537353913e-01	 1.388394623060607e+00	-9.268531988064190e+00
1	 2.937174955424229e-01	 1.393520446811928e+00	-9.430457138489597e+00
1	 2.611823205240066e-01	 1.398043730857107e+00	-9.575174328930757e+00
1	 2.285750735512107e-01	 1.401978241471570e+00	-9.702813492603916e+00
1	 1.959167264580612e-01	 1.405338257778787e+00	-9.813589222259978e+00
1	 1.632277420465874e-01	 1.408138518642477e+00	-9.907791940163275e+00
1	 1.305280414730955e-01	 1.410394170061229e+00	-9.985779171899779e+00
1	 9.783697501806117e-02	 1.412120713311740e+00	-1.004796701479802e+01
1	 6.517329621885488e-02	 1.413333954067853e+00	-1.009482187889564e+01
1	 3.255513932300839e-02	 1.414049952702832e+00	-1.012685256573162e+01
1	 0.000000000000000e+00	 1.414284975962072e+00	-1.014460273803158e+01
1	 3.294537345129284e-01	 1.402418997926461e+00	-9.195545550207282e+00
1	 2.966843784393872e-01	 1.407596598364675e+00	-9.359062876700966e+00
1	 2.638205609134598e-01	 1.412165572756028e+00	-9.505418762046759e+00
1	 2.308839434239252e-01	 1.416139826431092e+00	-9.634686592359387e+00
1	 1.978957096443058e-01	 1.419533782748832e+00	-9.747024824139629e+00
1	 1.648765290743220e-01	 1.422362329452364e+00	-9.842668528449030e+00
1	 1.318465240967305e-01	 1.424640765532204e+00	-9.921921000908682e+00
1	 9.882524045195897e-02	 1.426384748845694e+00	-9.985145527822077e+00
1	 6.583162110954265e-02	 1.427610244722075e+00	-1.003275738647747e+01
1	 3.288398349364309e-02	 1.428333475762771e+00	-1.006521614556432e+01
1	 0.000000000000000e+00	 1.428570873025926e+00	-1.008301831988317e+01
1	 1.428570873025926e+00	 0.000000000000000e+00	 1.436573430247085e+00
1	 1.428333475762771e+00	 3.288398349364353e-02	 1.427162960633453e+00
1	 1.427610244722076e+00	 6.583162110954309e-02	 1.413890053016813e+00
1	 1.426384748845693e+00	 9.882524045195930e-02	 1.396111141276701e+00
1	 1.424640765532204e+00	 1.318465240967308e-01	 1.373188399374331e+00
1	 1.422362329452363e+00	 1.648765290743223e-01	 1.344495066244551e+00
1	 1.419533782748831e+00	 1.978957096443060e-01	 1.309421202188116e+00
1	 1.416139826431091e+00	 2.308839434239253e-01	 1.267379852377373e+00
1	 1.412165572756028e+00	 2.638205609134598e-01	 1.217813583580021e+00
1	 1.407596598364675e+00	 2.966843784393872e-01	 1.160201350042893e+00
1	 1.402418997926461e+00	 3.294537345129283e-01	 1.094065633809042e+00
1	 1.442856738422074e+00	 0.000000000000000e+00	 1.355498720021189e+00
1	 1.442616967160266e+00	 3.321282693534739e-02	 1.346501221929597e+00
1	 1.441886503729889e+00	 6.648994454095894e-02	 1.333884566106409e+00
1	 1.440648752760408e+00	 9.981350369522651e-02	 1.317033632461623e+00
1	 1.438887329422610e+00	 1.331650037977660e-01	 1.295338097768585e+00
1	 1.436586108732203e+00	 1.665253124472980e-01	 1.268197494315746e+00
1	 1.433729276251555e+00	 1.998746884438770e-01	 1.235026685864308e+00
1	 1.430301379998563e+00	 2.331928081787428e-01	 1.195261738399914e+00
1	 1.426287383351045e+00	 2.664587954549431e-01	 1.148366154079197e+00
1	 1.421672718714860e+00	 2.996512547599297e-01	 1.093837427043274e+00
1	 1.416443341704605e+00	 3.327483079876941e-01	 1.031213869540314e+00
1	 1.457142577150667e+00	 0.000000000000000e+00	 1.279870775889429e+00
1	 1.456900431894637e+00	 3.354166976321469e-02	 1.271274104992504e+00
1	 1.456162736088080e+00	 6.714826674351429e-02	 1.259289290873208e+00
1	 1.454912730048382e+00	 1.008017650937523e-01	 1.243328419694005e+00
1	 1.453133866718838e+00	 1.344834810376646e-01	 1.222807511335407e+00
1	 1.450809861460411e+00	 1.681740927425823e-01	 1.197151329067802e+00
1	 1.447924743255468e+00	 2.018536635494074e-01	 1.165798593040377e+00
1	 1.444462907130610e+00	 2.355016686237530e-01	 1.128207576803901e+00
1	 1.440409167584866e+00	 2.690970250718210e-01	 1.083862057390701e+00
1	 1.435748812789194e+00	 3.026181255424343e-01	 1.032277580153280e+00
1	 1.430467659303615e+00	 3.360428753127599e-01	 9.730079897447124e-01
1	 1.471428395878593e+00	 0.000000000000000e+00	 1.209387479142449e+00
1	 1.471183876631666e+00	 3.387051213070462e-02	 1.201174563991575e+00
1	 1.470438948459055e+00	 6.780658802442420e-02	 1.189793194305858e+00
1	 1.469176687366300e+00	 1.017900251087220e-01	 1.174681463259379e+00
1	 1.467380384069432e+00	 1.358019564317108e-01	 1.155280613010825e+00
1	 1.465033594274894e+00	 1.698228707295979e-01	 1.131039612258048e+00
1	 1.462120190385275e+00	 2.038326358844076e-01	 1.101420124806718e+00
1	 1.458624414436090e+00	 2.378105258364077e-01	 1.065901849954452e+00
1	 1.454530932047793e+00	 2.717352509952452e-01	 1.023988207166078e+00
1	 1.449824887156638e+00	 3.055849921714104e-01	 9.752123285737353e-01
1	 1.444491957268275e+00	 3.393374380255506e-01	 9.191433134027150e-01
1	 1.485714201272741e+00	 0.000000000000000e+00	 1.143758337030596e+00
1	 1.485467308037133e+00	 3.419935419127627e-02	 1.135907368462835e+00
1	 1.484715147505218e+00	 6.846490869090381e-02	 1.125097212013032e+00
1	 1.483440631370847e+00	 1.027782842013209e-01	 1.110790807604787e+00
1	 1.481626888122938e+00	 1.371204305951887e-01	 1.092453536227328e+00
1	 1.479257313813562e+00	 1.714716471777679e-01	 1.069557581853148e+00
1	 1.476315624265676e+00	 2.058116063723873e-01	 1.041586672233324e+00
1	 1.472785908523857e+00	 2.401193808941586e-01	 1.008041180815246e+00
1	 1.468652683330120e+00	 2.743734744563666e-01	 9.684435640433857e-01
1	 1.463900948386158e+00	 3.085518560313680e-01	 9.223440997159156e-01
1	 1.458516242143368e+00	 3.426319976634912e-01	 8.693268829965703e-01
1	 1.500000000000000e+00	 0.000000000000000e+00	 1.082703929050420e+00
1	 1.499750732776819e+00	 3.452819609838880e-02	 1.075188540573361e+00
1	 1.498991339888977e+00	 6.912322905016832e-02	 1.064913678188218e+00
1	 1.497704568718708e+00	 1.037665428327345e-01	 1.051366005800714e+00
1	 1.495873385527899e+00	 1.384389041433825e-01	 1.034033995740995e+00
1	 1.493481026714322e+00	 1.731204228565149e-01	 1.012412091156937e+00
1	 1.490511051521376e+00	 2.077905759368570e-01	 9.860052357968672e-01
1	 1.486947396002769e+00	 2.424282348744578e-01	 9.543337547309629e-01
1	 1.482774428022150e+00	 2.770116966863368e-01	 9.169385618926114e-01
1	 1.477977003046713e+00	 3.115187185068158e-01	 8.733866620619429e-01
1	 1.472540520473678e+00	 3.459265557640069e-01	 8.232769061744103e-01
1	 1.514285798727260e+00	 0.000000000000000e+00	 1.025955384600225e+00
1	 1.514034157516504e+00	 3.485703800550132e-02	 1.018744824265846e+00
1	 1.513267532272734e+00	 6.978154940943283e-02	 1.008965787868195e+00
1	 1.511968506066570e+00	 1.047548014641481e-01	 9.961275766084431e-01
1	 1.510119882932860e+00	 1.397573776915763e-01	 9.797407412699619e-01
1	 1.507704739615082e+00	 1.747691985352620e-01	 9.593210608458882e-01
1	 1.504706478777075e+00	 2.097695455013266e-01	 9.343938776984575e-01
1	 1.501108883481681e+00	 2.447370888547570e-01	 9.044987739669910e-01
1	 1.496896172714179e+00	 2.796499189163070e-01	 8.691945665655133e-01
1	 1.492053057707269e+00	 3.144855809822638e-01	 8.280645901549089e-01
1	 1.486564798803988e+00	 3.492211138645225e-01	 7.807222290452418e-01
1	 1.528571604121408e+00	 0.000000000000000e+00	 9.732538899507289e-01
1	 1.528317588921971e+00	 3.518588006607298e-02	 9.663131841959613e-01
1	 1.527543731318899e+00	 7.043987007591246e-02	 9.569870893707486e-01
1	 1.526232450071117e+00	 1.057430605567471e-01	 9.448064920180044e-01
1	 1.524366386986366e+00	 1.410758518550542e-01	 9.293030417958763e-01
1	 1.521928459153750e+00	 1.764179749834320e-01	 9.100129617575722e-01
1	 1.518901912657477e+00	 2.117485159893064e-01	 8.864812049185330e-01
1	 1.515270377569448e+00	 2.470459439125080e-01	 8.582659428615654e-01
1	 1.511017923996508e+00	 2.822881423774285e-01	 8.249433650215877e-01
1	 1.506129118936787e+00	 3.174524448422210e-01	 7.861127596148774e-01
1	 1.500589083679082e+00	 3.525156735024633e-01	 7.414018390337906e-01
1	 1.542857422849333e+00	 0.000000000000000e+00	 9.243502226291826e-01
1	 1.542601033659000e+00	 3.551472243356290e-02	 9.176403325298192e-01
1	 1.541819943689873e+00	 7.109819135682234e-02	 9.087210049538988e-01
1	 1.540496407389035e+00	 1.067313205717167e-01	 8.971436932800341e-01
1	 1.538612904336961e+00	 1.423943272491004e-01	 8.824601985393129e-01
1	 1.536152191968234e+00	 1.780667529704477e-01	 8.642263264371209e-01
1	 1.533097359787283e+00	 2.137274883243064e-01	 8.420058810150013e-01
1	 1.529431884874928e+00	 2.493548011251626e-01	 8.153749816045158e-01
1	 1.525139688459433e+00	 2.849263683008526e-01	 7.839266828597241e-01
1	 1.520205193304232e+00	 3.204193114711973e-01	 7.472758702330857e-01
1	 1.514613381643741e+00	 3.558102362152540e-01	 7.050643953776750e-01
1	 1.557143261577926e+00	 0.000000000000000e+00	 8.790043114549873e-01
1	 1.556884498393372e+00	 3.584356526143021e-02	 8.724822818109168e-01
1	 1.556096176048064e+00	 7.175651355937768e-02	 8.639203778827725e-01
1	 1.554760384677008e+00	 1.077195819702425e-01	 8.528896336002872e-01
1	 1.552859441633188e+00	 1.437128044889990e-01	 8.389610847661162e-01
1	 1.550375944696441e+00	 1.797155332657319e-01	 8.217092875934088e-01
1	 1.547292826791196e+00	 2.157064634298368e-01	 8.007161648171544e-01
1	 1.543593412006975e+00	 2.516636615701728e-01	 7.755751668027214e-01
1	 1.539261472693255e+00	 2.875645979177306e-01	 7.458957284298033e-01
1	 1.534281287378566e+00	 3.233861822537020e-01	 7.113079953396144e-01
1	 1.528637699242752e+00	 3.591048035403198e-01	 6.714677854902080e-01
1	 1.571429126974074e+00	 0.000000000000000e+00	 8.369848205931070e-01
1	 1.571167989790867e+00	 3.617240870313405e-02	 8.306039222362043e-01
1	 1.570372435055877e+00	 7.241483699079355e-02	 8.223470442222366e-01
1	 1.569024388591724e+00	 1.087078452135097e-01	 8.118038457984926e-01
1	 1.567106005523594e+00	 1.450312841900342e-01	 7.985637107158482e-01
1	 1.564599723976281e+00	 1.813643166387076e-01	 7.822191417510342e-01
1	 1.561488320293920e+00	 2.176854422294079e-01	 7.623694743024596e-01
1	 1.557754965574446e+00	 2.539725263249902e-01	 7.386248971262198e-01
1	 1.553383283288272e+00	 2.902028324592137e-01	 7.106107618313496e-01
1	 1.548357407728751e+00	 3.263530585742443e-01	 6.779721557712423e-01
1	 1.542662043020896e+00	 3.623993770150854e-01	 6.403787055414998e-01
1	 1.402418997926461e+00	 3.294537345129283e-01	 1.094065633809042e+00
1	 1.396619866042658e+00	 3.621042547566253e-01	 1.021779474466341e+00
1	 1.390186156606576e+00	 3.946157785590295e-01	 9.460126405223909e-01
1	 1.383105843291214e+00	 4.269655074752547e-01	 8.667695946229612e-01
1	 1.375367631339310e+00	 4.591303459451807e-01	 7.840329967622018e-01
1	 1.366961009346076e+00	 4.910869536853510e-01	 6.977614805133296e-01
1	 1.357876299731293e+00	 5.228118009030744e-01	 6.078875677633431e-01
1	 1.348104707563986e+00	 5.542812261358537e-01	 5.143157652136576e-01
1	 1.337638367399997e+00	 5.854714964905721e-01	 4.169208866395663e-01
1	 1.326470387793212e+00	 6.163588700289419e-01	 3.155466447004637e-01
1	 1.314594893144823e+00	 6.469196600189466e-01	 2.100045548586570e-01
1	 1.416443341704605e+00	 3.327483079876941e-01	 1.031213869540314e+00
1	 1.410586217866144e+00	 3.657253370143579e-01	 9.626767777123686e-01
1	 1.404088170630291e+00	 3.985619796201447e-01	 8.907049281806820e-01
1	 1.396937053405456e+00	 4.312352093732099e-01	 8.153158156546623e-01
1	 1.389121458485565e+00	 4.637216997552888e-01	 7.365037502414421e-01
1	 1.380630769350629e+00	 4.959978770775202e-01	 6.542374401079880e-01
1	 1.371455211643566e+00	 5.280399762466951e-01	 5.684577143174382e-01
1	 1.361585902483125e+00	 5.598240991830850e-01	 4.790754320410464e-01
1	 1.351014897769846e+00	 5.913262756620284e-01	 3.859696252803403e-01
1	 1.339735237142398e+00	 6.225225263232392e-01	 2.889859221866086e-01
1	 1.327740986245340e+00	 6.533889275647720e-01	 1.879352969250550e-01
1	 1.430467659303615e+00	 3.360428753127599e-01	 9.730079897447126e-01
1	 1.424552543618833e+00	 3.693464125129539e-01	 9.080480208659257e-01
1	 1.417990158703402e+00	 4.025081733152876e-01	 8.396902386558214e-01
1	 1.410768237701365e+00	 4.355049033013803e-01	 7.679645265339877e-01
1	 1.402875259958045e+00	 4.683130449952526e-01	 6.928762996502436e-01
1	 1.394300503838440e+00	 5.009087913030714e-01	 6.144039047105299e-01
1	 1.385034098208786e+00	 5.332681418315466e-01	 5.324961612899191e-01
1	 1.375067072237715e+00	 5.653669618841587e-01	 4.470700935986922e-01
1	 1.364391403170606e+00	 5.971810439051404e-01	 3.580089027960670e-01
1	 1.353000061731035e+00	 6.286861711126494e-01	 2.651602300480950e-01
1	 1.340887054807036e+00	 6.598581830352498e-01	 1.683347594806756e-01
1	 1.444491957268275e+00	 3.393374380255506e-01	 9.191433134027150e-01
1	 1.438518849818423e+00	 3.729674829421977e-01	 8.575941517313157e-01
1	 1.431892127313559e+00	 4.064543614859512e-01	 7.926756183707255e-01
1	 1.424599402633524e+00	 4.397745912522124e-01	 7.244293650788459e-01
1	 1.416629042175190e+00	 4.729043838076080e-01	 6.528713880717767e-01
1	 1.407970219188693e+00	 5.058196986536592e-01	 5.779892554925260e-01
1	 1.398612965763713e+00	 5.384963000973219e-01	 4.997394773239530e-01
1	 1.388548223118887e+00	 5.709098168256141e-01	 4.180450693052774e-01
1	 1.377767889844539e+00	 6.030358039519947e-01	 3.327933637284146e-01
1	 1.366264867749247e+00	 6.348498072733942e-01	 2.438341202381637e-01
1	 1.354033104964594e+00	 6.663274294492167e-01	 1.509779888092453e-01
1	 1.458516242143368e+00	 3.426319976634912e-01	 8.693268829965705e-01
1	 1.452485142982614e+00	 3.765885499918734e-01	 8.110276250223720e-01
1	 1.445794082948414e+00	 4.104005459736285e-01	 7.493793860029245e-01
1	 1.438430554656515e+00	 4.440442752181522e-01	 6.844349877597953e-01
1	 1.430382811555445e+00	 4.774957183348914e-01	 6.162205038810219e-01
1	 1.421639921780571e+00	 5.107306014209381e-01	 5.447323250679333e-01
1	 1.412191820645105e+00	 5.437244534837126e-01	 4.699343675293305e-01
1	 1.402029361417770e+00	 5.764526665939903e-01	 3.917554784075619e-01
1	 1.391144364033907e+00	 6.088905585346770e-01	 3.100870937198234e-01
1	 1.379529661387155e+00	 6.410134376816954e-01	 2.247812046881170e-01
1	 1.367179142852703e+00	 6.727966698255098e-01	 1.356486874747966e-01
1	 1.472540520473678e+00	 3.459265557640069e-01	 8.232769061744104e-01
1	 1.466451429629105e+00	 3.802096153517646e-01	 7.680718543496078e-01
1	 1.459696032095616e+00	 4.143467286198128e-01	 7.095305956557690e-01
1	 1.452261700224921e+00	 4.483139571916458e-01	 6.477165449585242e-01
1	 1.444136574517253e+00	 4.820870507196391e-01	 5.826653690323391e-01
1	 1.435309617993256e+00	 5.156415018965624e-01	 5.143818997864128e-01
1	 1.425770669189721e+00	 5.489526044304112e-01	 4.428371907884989e-01
1	 1.415510493425496e+00	 5.819955137758276e-01	 3.679657733316487e-01
1	 1.404520831980972e+00	 6.147453103852731e-01	 2.896631699628824e-01
1	 1.392794448834883e+00	 6.471770652137749e-01	 2.077837239220511e-01
1	 1.380325174606045e+00	 6.792659071829659e-01	 1.221388021775934e-01
1	 1.486564798803988e+00	 3.492211138645225e-01	 7.807222290452416e-01
1	 1.480417716275596e+00	 3.838306807116561e-01	 7.284606952534330e-01
1	 1.473597981242819e+00	 4.182929112659970e-01	 6.728685304421090e-01
1	 1.466092845793325e+00	 4.525836391651394e-01	 6.140191859539941e-01
1	 1.457890337479054e+00	 4.866783831043864e-01	 5.519574563366237e-01
1	 1.448979314205931e+00	 5.205524023721870e-01	 4.866962502227580e-01
1	 1.439349517734319e+00	 5.541807553771096e-01	 4.182135044082367e-01
1	 1.428991625433194e+00	 5.875383609576647e-01	 3.464492994709612e-01
1	 1.417897299927996e+00	 6.206000622358694e-01	 2.713032371176569e-01
1	 1.406059236282551e+00	 6.533406927458544e-01	 1.926321401104588e-01
1	 1.393471206359307e+00	 6.857351445404221e-01	 1.102481349588924e-01
1	 1.500589083679082e+00	 3.525156735024633e-01	 7.414018390337906e-01
1	 1.494384009439786e+00	 3.874517477613316e-01	 6.919379572506971e-01
1	 1.487499936877670e+00	 4.222390957536742e-01	 6.391422244892125e-01
1	 1.479923997816310e+00	 4.568533231310791e-01	 5.830975916898928e-01
1	 1.471644106859294e+00	 4.912697176316699e-01	 5.238575338299306e-01
1	 1.462649016797778e+00	 5.254633051394657e-01	 4.614426880163102e-01
1	 1.452928372615660e+00	 5.594089087635005e-01	 3.958376343264779e-01
1	 1.442472763731995e+00	 5.930812107260414e-01	 3.269878796798102e-01
1	 1.431273774117241e+00	 6.264548168185513e-01	 2.547971070294731e-01
1	 1.419324029920284e+00	 6.595043231541553e-01	 1.791247529625721e-01
1	 1.406617244247173e+00	 6.922043849167152e-01	 9.978397622574142e-02
1	 1.514613381643741e+00	 3.558102362152540e-01	 7.050643953776750e-01
1	 1.508350315639376e+00	 3.910728181905754e-01	 6.582569430124633e-01
1	 1.501401905487825e+00	 4.261852839243379e-01	 6.081100115211616e-01
1	 1.493755162748458e+00	 4.611230110819112e-01	 5.547155335211874e-01
1	 1.485397889076415e+00	 4.958610564440254e-01	 4.981352344761475e-01
1	 1.476318732147982e+00	 5.303742124900537e-01	 4.383971473510119e-01
1	 1.466507240170501e+00	 5.646370670292757e-01	 3.754922692165377e-01
1	 1.455953914613030e+00	 5.986240656674965e-01	 3.093714218700671e-01
1	 1.444650260790970e+00	 6.323095768654057e-01	 2.399423807032627e-01
1	 1.432588835938203e+00	 6.656679593149002e-01	 1.670673369758986e-01
1	 1.419763294404329e+00	 6.986736313306823e-01	 9.056075818037730e-02
1	 1.528637699242752e+00	 3.591048035403198e-01	 6.714677854902080e-01
1	 1.522316641392064e+00	 3.946938936891715e-01	 6.271800129292130e-01
1	 1.515303893560931e+00	 4.301314776194807e-01	 5.795390983105990e-01
1	 1.507586347044352e+00	 4.653927050100816e-01	 5.286454562699902e-01
1	 1.499151690548858e+00	 5.004524016839892e-01	 4.745686495754492e-01
1	 1.489988466635725e+00	 5.352851267156048e-01	 4.173437894923970e-01
1	 1.480086126735601e+00	 5.698652326141274e-01	 3.569680769527598e-01
1	 1.469435084367429e+00	 6.041669283685701e-01	 2.933975482258788e-01
1	 1.458026766191443e+00	 6.381643451085179e-01	 2.265440911038862e-01
1	 1.445853660526431e+00	 6.718316041043105e-01	 1.562727986702228e-01
1	 1.432909362965459e+00	 7.051428868011598e-01	 8.239972734271313e-02
1	 1.542662043020896e+00	 3.623993770150854e-01	 6.403787055414997e-01
1	 1.536282993215550e+00	 3.983149759469040e-01	 5.984781734465565e-01
1	 1.529205907584642e+00	 4.340776786805960e-01	 5.532051614158505e-01
1	 1.521417557158576e+00	 4.696624069080367e-01	 5.046680840425996e-01
1	 1.512905517695068e+00	 5.050437554940970e-01	 4.529439443686927e-01
1	 1.503658226640188e+00	 5.401960501077737e-01	 3.980746289130198e-01
1	 1.493665038647719e+00	 5.750934079577475e-01	 3.400633420134449e-01
1	 1.482916279286322e+00	 6.097098014158012e-01	 2.788712446597285e-01
1	 1.471403296560924e+00	 6.440191242799742e-01	 2.144143654561245e-01
1	 1.459118509875090e+00	 6.779952603986078e-01	 1.465608525333384e-01
1	 1.446055456065250e+00	 7.116121543469853e-01	 7.512863494996179e-02
1	 1.314594893144823e+00	 6.469196600189466e-01	 2.100045548586564e-01
1	 1.302006157726207e+00	 6.771324014091545e-01	 9.790478489462365e-02
1	 1.288701263618528e+00	 7.069715536127238e-01	-2.278810511260115e-02
1	 1.274677610405123e+00	 7.364139816884141e-01	-1.517951610655877e-01
1	 1.259933748325849e+00	 7.654368751281202e-01	-2.888629441763169e-01
1	 1.244469402142706e+00	 7.940178164717294e-01	-4.337670594052115e-01
1	 1.228285490601410e+00	 8.221348496568718e-01	-5.863153875696351e-01
1	 1.211384141277094e+00	 8.497665476991278e-01	-7.463509557814222e-01
1	 1.193768700623030e+00	 8.768920792936009e-01	-9.137543849756502e-01
1	 1.175443739074679e+00	 9.034912739280352e-01	-1.088445859118023e+00
1	 1.156415051097081e+00	 9.295446851010828e-01	-1.270386568154340e+00
1	 1.327740986245340e+00	 6.533889275647720e-01	 1.879352969250549e-01
1	 1.315026362092133e+00	 6.839037996823172e-01	 8.040072401135021e-02
1	 1.301588417584430e+00	 7.140413466803667e-01	-3.569692313528688e-02
1	 1.287424526301110e+00	 7.437782022657358e-01	-1.601051887494915e-01
1	 1.272533223984267e+00	 7.730913278227418e-01	-2.925972950387103e-01
1	 1.256914232643484e+00	 8.019580817142202e-01	-4.329754590653387e-01
1	 1.240568480212031e+00	 8.303562883147737e-01	-5.810739061580312e-01
1	 1.223498115541023e+00	 8.582643063677963e-01	-7.367615172601953e-01
1	 1.205706518548623e+00	 8.856610962530627e-01	-8.999440519425707e-01
1	 1.187198305375145e+00	 9.125262857509887e-01	-1.070565894791697e+00
1	 1.167979328430909e+00	 9.388402338930860e-01	-1.248611280458071e+00
1	 1.340887054807036e+00	 6.598581830352498e-01	 1.683347594806756e-01
1	 1.328046542154254e+00	 6.906751853161535e-01	 6.509434519061305e-02
1	 1.314475547494891e+00	 7.211111265516637e-01	-4.667760633777940e-02
1	 1.300171418403419e+00	 7.511424090970864e-01	-1.667545392674774e-01
1	 1.285132676124198e+00	 7.807457662295900e-01	-2.949356521746398e-01
1	 1.269359039914403e+00	 8.098983321353761e-01	-4.310490046184035e-01
1	 1.252851446894847e+00	 8.385777116264355e-01	-5.749543141718527e-01
1	 1.235612067192585e+00	 8.667620491743747e-01	-7.265453840993987e-01
1	 1.217644314190617e+00	 8.944300968440329e-01	-8.857521063818699e-01
1	 1.198952849734027e+00	 9.215612807088772e-01	-1.052541990914898e+00
1	 1.179543584178313e+00	 9.481357653336441e-01	-1.226921179351057e+00
1	 1.354033104964594e+00	 6.663274294492167e-01	 1.509779888092453e-01
1	 1.341066703988496e+00	 6.974465614704949e-01	 5.177157475931327e-02
1	 1.327362659363738e+00	 7.281808965257016e-01	-5.593316819449376e-02
1	 1.312918292660426e+00	 7.585066056189583e-01	-1.719349890104988e-01
1	 1.297732110625212e+00	 7.884001939206060e-01	-2.960583826764872e-01
1	 1.281803829762870e+00	 8.178385714405283e-01	-4.281564877127094e-01
1	 1.265134396381741e+00	 8.467991234284111e-01	-5.681136691257551e-01
1	 1.247726001884798e+00	 8.752597800843780e-01	-7.158477298045249e-01
1	 1.229582093119834e+00	 9.031990851586249e-01	-8.713116980434297e-01
1	 1.210707377636641e+00	 9.305962630179525e-01	-1.034495145120735e+00
1	 1.191107823735815e+00	 9.574312837605971e-01	-1.205424994557057e+00
1	 1.367179142852703e+00	 6.727966698255098e-01	 1.356486874747966e-01
1	 1.354086853670782e+00	 7.042179313051731e-01	 4.022657679010982e-02
1	 1.340249759204795e+00	 7.352506599015664e-01	-6.365880989833116e-02
1	 1.325665155020511e+00	 7.658707952678440e-01	-1.758309343555650e-01
1	 1.310331533366881e+00	 7.960546144677322e-01	-2.961389125137949e-01
1	 1.294248607996289e+00	 8.257788033350082e-01	-4.244602041547662e-01
1	 1.277417334404598e+00	 8.550205275572582e-01	-5.607029840770404e-01
1	 1.259839925270682e+00	 8.837575030633226e-01	-7.048081405731257e-01
1	 1.241519860907095e+00	 9.119680652889500e-01	-8.567508518945964e-01
1	 1.222461894568301e+00	 9.396312368944653e-01	-1.016541697724435e+00
1	 1.202672052499939e+00	 9.667267935117863e-01	-1.184227270403637e+00
1	 1.380325174606045e+00	 6.792659071829659e-01	 1.221388021775935e-01
1	 1.367106997277037e+00	 7.109892979800194e-01	 3.026136090553783e-02
1	 1.353136853031889e+00	 7.423204199783444e-01	-7.004229227817882e-02
1	 1.338412011432047e+00	 7.732349814802353e-01	-1.786197429808675e-01
1	 1.322930950228776e+00	 8.037090314429114e-01	-2.953440569304318e-01
1	 1.306693380422067e+00	 8.337190315241463e-01	-4.201162630843143e-01
1	 1.289700266695305e+00	 8.632419278495311e-01	-5.528675152880997e-01
1	 1.271953843003254e+00	 8.922552220767233e-01	-6.935608811702422e-01
1	 1.253457623123223e+00	 9.207370413271208e-01	-8.421927119530375e-01
1	 1.234216406014319e+00	 9.486662065546664e-01	-9.987935532788121e-01
1	 1.214236275867208e+00	 9.760222989250513e-01	-1.163428564888734e+00
1	 1.393471206359307e+00	 6.857351445404221e-01	 1.102481349588926e-01
1	 1.380127140883184e+00	 7.177606646548657e-01	 2.168541230087578e-02
1	 1.366023946858845e+00	 7.493901800551216e-01	-7.526428664655360e-02
1	 1.351158867843413e+00	 7.805991676926244e-01	-1.804720852780964e-01
1	 1.335530367090467e+00	 8.113634484180853e-01	-2.938343321241330e-01
1	 1.319138152847608e+00	 8.416592597132743e-01	-4.152748786340111e-01
1	 1.301983198985745e+00	 8.714633281417865e-01	-5.447470335920750e-01
1	 1.284067760735535e+00	 9.007529410900955e-01	-6.822351457414271e-01
1	 1.265395385339038e+00	 9.295060173652493e-01	-8.277557713058785e-01
1	 1.245970917460011e+00	 9.577011762148074e-01	-9.813583895781647e-01
1	 1.225800499234146e+00	 9.853178043382338e-01	-1.143125637469550e+00
1	 1.406617244247173e+00	 6.922043849167152e-01	 9.978397622574123e-02
1	 1.393147290565148e+00	 7.245320344895437e-01	 1.431534253089208e-02
1	 1.378911046699490e+00	 7.564599434309848e-01	-7.949870595685721e-02
1	 1.363905730202986e+00	 7.879633573415036e-01	-1.815522471652390e-01
1	 1.348129789831525e+00	 8.190178689651958e-01	-2.917642494338680e-01
1	 1.331582931080320e+00	 8.495994916077230e-01	-4.100806452204777e-01
1	 1.314266137007805e+00	 8.796847322705800e-01	-5.364760805290185e-01
1	 1.296181684120543e+00	 9.092506640689551e-01	-6.709552945496149e-01
1	 1.277333153125360e+00	 9.382749974954472e-01	-8.135540892197832e-01
1	 1.257725434390691e+00	 9.667361500911392e-01	-9.643398549324178e-01
1	 1.237364727997274e+00	 9.946133140891735e-01	-1.123411626312428e+00
1	 1.419763294404329e+00	 6.986736313306823e-01	 9.056075818037712e-02
1	 1.406167452398852e+00	 7.313034106438844e-01	 7.974559713631382e-03
1	 1.391798158567646e+00	 7.635297134050192e-01	-8.291301754763836e-02
1	 1.376652604459141e+00	 7.953275538633646e-01	-1.820184255062971e-01
1	 1.360729224331522e+00	 8.266722966561857e-01	-2.892825931697788e-01
1	 1.344027720927606e+00	 8.575397309128240e-01	-4.046727975286288e-01
1	 1.326549086493368e+00	 8.879061440724667e-01	-5.281842102402425e-01
1	 1.308295618811295e+00	 9.177483949788170e-01	-6.598410775489796e-01
1	 1.289270932053014e+00	 9.470439858098275e-01	-7.996974961791141e-01
1	 1.269479962291672e+00	 9.757711323999124e-01	-9.478377544724325e-01
1	 1.248928967553118e+00	 1.003908832515712e+00	-1.104376215687248e+00
1	 1.432909362965459e+00	 7.051428868011598e-01	 8.239972734271313e-02
1	 1.419187632460221e+00	 7.380747962777202e-01	 2.492956903147034e-03
1	 1.404685288477143e+00	 7.705994932763116e-01	-8.566853865726859e-02
1	 1.389399496560257e+00	 8.026917606947001e-01	-1.820230072558991e-01
1	 1.373328676470027e+00	 8.343267350629970e-01	-2.865326831370726e-01
1	 1.356472528196873e+00	 8.654799813339080e-01	-3.991854561730709e-01
1	 1.338832053174321e+00	 8.961275673840037e-01	-5.199962180363910e-01
1	 1.320409570460812e+00	 9.262461377851972e-01	-6.490078456416699e-01
1	 1.301208727692818e+00	 9.558129864005016e-01	-7.862917876283950e-01
1	 1.281234506648269e+00	 9.848061273573786e-01	-9.319482261914399e-01
1	 1.260493223298199e+00	 1.013204363955689e+00	-1.086105794139785e+00
1	 1.446055456065250e+00	 7.116121543469853e-01	 7.512863494996179e-02
1	 1.432207836825179e+00	 7.448461945508820e-01	-2.293382525914336e-03
1	 1.417572442441803e+00	 7.776692863439487e-01	-8.792071580638011e-02
1	 1.402146412454711e+00	 8.100559812720015e-01	-1.817128333652878e-01
1	 1.385928152126612e+00	 8.419811877575717e-01	-2.836526228286192e-01
1	 1.368917358695528e+00	 8.734202465763066e-01	-3.937478599487382e-01
1	 1.351115042782549e+00	 9.043490060417461e-01	-5.120323564879290e-01
1	 1.332523544722111e+00	 9.347438964536106e-01	-6.385667504020841e-01
1	 1.313146545615595e+00	 9.645820033595822e-01	-7.734389071382055e-01
1	 1.292989072945795e+00	 9.938411391797882e-01	-9.167639073764022e-01
1	 1.272057500629041e+00	 1.022499912746946e+00	-1.068683604029472e+00
1	 1.156415051097081e+00	 9.295446851010828e-01	-1.270386568154340e+00
1	 1.136689647123178e+00	 9.550336534767583e-01	-1.463236533647895e+00
1	 1.116275734373034e+00	 9.799403718027949e-01	-1.670121479401357e+00
1	 1.095182710406913e+00	 1.004247933371997e+00	-1.890164417045613e+00
1	 1.073421145629011e+00	 1.027940381546648e+00	-2.122401903081012e+00
1	 1.051002757783851e+00	 1.051002757783852e+00	-2.365790257537331e+00
1	 1.027940381546647e+00	 1.073421145629011e+00	-2.619212715083936e+00
1	 1.004247933371997e+00	 1.095182710406913e+00	-2.881487411724768e+00
1	 9.799403718027947e-01	 1.116275734373035e+00	-3.151376094096483e+00
1	 9.550336534767578e-01	 1.136689647123179e+00	-3.427593424859951e+00
1	 9.295446851010828e-01	 1.156415051097081e+00	-3.708816747129942e+00
1	 1.167979328430909e+00	 9.388402338930860e-01	-1.248611280458071e+00
1	 1.148056668253955e+00	 9.645840947479684e-01	-1.437559087454270e+00
1	 1.127438614137450e+00	 9.897398829888864e-01	-1.640377448552278e+00
1	 1.106134657618302e+00	 1.014290522839711e+00	-1.856248251261966e+00
1	 1.084155474805915e+00	 1.038219898094590e+00	-2.084268568976638e+00
1	 1.061512900623551e+00	 1.061512900623551e+00	-2.323456416992040e+00
1	 1.038219898094590e+00	 1.084155474805915e+00	-2.572757423838641e+00
1	 1.014290522839711e+00	 1.106134657618302e+00	-2.831052327934080e+00
1	 9.897398829888857e-01	 1.127438614137450e+00	-3.097165193678181e+00
1	 9.645840947479679e-01	 1.148056668253955e+00	-3.369872227651147e+00
1	 9.388402338930860e-01	 1.167979328430909e+00	-3.647911064927282e+00
1	 1.179543584178313e+00	 9.481357653336441e-01	-1.226921179351057e+00
1	 1.159423668166479e+00	 9.741345181918949e-01	-1.412192418727772e+00
1	 1.138601473064650e+00	 9.995393758827325e-01	-1.611170342846992e+00
1	 1.117086584386196e+00	 1.024333093561410e+00	-1.823093117025288e+00
1	 1.094889783945534e+00	 1.048499395454237e+00	-2.047115697870115e+00
1	 1.072023023844444e+00	 1.072023023844445e+00	-2.282315147377620e+00
1	 1.048499395454236e+00	 1.094889783945534e+00	-2.527696845559990e+00
1	 1.024333093561409e+00	 1.117086584386196e+00	-2.782201518178150e+00
1	 9.995393758827319e-01	 1.138601473064650e+00	-3.044712980498662e+00
1	 9.741345181918943e-01	 1.159423668166480e+00	-3.314066484603476e+00
1	 9.481357653336442e-01	 1.179543584178313e+00	-3.589057547041788e+00
1	 1.191107823735815e+00	 9.574312837605971e-01	-1.205424994557057e+00
1	 1.170790652165233e+00	 9.836849282653308e-01	-1.387232834620884e+00
1	 1.149764316363858e+00	 1.009338855057359e+00	-1.582583880892510e+00
1	 1.128038495821394e+00	 1.034375650223553e+00	-1.790770034374927e+00
1	 1.105624078057122e+00	 1.058778878422611e+00	-2.011001558461630e+00
1	 1.082533132351175e+00	 1.082533132351175e+00	-2.242411971421157e+00
1	 1.058778878422611e+00	 1.105624078057122e+00	-2.484063820968868e+00
1	 1.034375650223553e+00	 1.128038495821395e+00	-2.734955263771189e+00
1	 1.009338855057359e+00	 1.149764316363859e+00	-2.994027357298112e+00
1	 9.836849282653305e-01	 1.170790652165234e+00	-3.260171958123004e+00
1	 9.574312837605973e-01	 1.191107823735815e+00	-3.532240109951673e+00
1	 1.202672052499939e+00	 9.667267935117863e-01	-1.184227270403637e+00
1	 1.182157625554698e+00	 9.932353294250700e-01	-1.362772934769373e+00
1	 1.160927149244302e+00	 1.019138325085792e+00	-1.554698558057030e+00
1	 1.138990397034699e+00	 1.044418197512602e+00	-1.759347288637420e+00
1	 1.116358362149933e+00	 1.069058351796734e+00	-1.975982175312025e+00
1	 1.093043231048384e+00	 1.093043231048384e+00	-2.203790658096909e+00
1	 1.069058351796734e+00	 1.116358362149933e+00	-2.441889924980104e+00
1	 1.044418197512602e+00	 1.138990397034699e+00	-2.689333063474775e+00
1	 1.019138325085792e+00	 1.160927149244302e+00	-2.945115920585399e+00
1	 9.932353294250695e-01	 1.182157625554698e+00	-3.208184571566759e+00
1	 9.667267935117863e-01	 1.202672052499939e+00	-3.477443286970183e+00
1	 1.214236275867208e+00	 9.760222989250513e-01	-1.163428564888734e+00
1	 1.193524593639354e+00	 1.002785726127905e+00	-1.338901787586581e+00
1	 1.172089976915204e+00	 1.028937790541059e+00	-1.527591799687853e+00
1	 1.149942293136908e+00	 1.054460740115017e+00	-1.728890560366308e+00
1	 1.127092641233221e+00	 1.079337820373628e+00	-1.942111435408133e+00
1	 1.103553324840712e+00	 1.103553324840712e+00	-2.166493305827141e+00
1	 1.079337820373628e+00	 1.127092641233221e+00	-2.401205526656667e+00
1	 1.054460740115017e+00	 1.149942293136908e+00	-2.645353670430431e+00
1	 1.028937790541058e+00	 1.172089976915205e+00	-2.897985974881319e+00
1	 1.002785726127905e+00	 1.193524593639354e+00	-3.158100401234176e+00
1	 9.760222989250517e-01	 1.214236275867209e+00	-3.424652198525574e+00
1	 1.225800499234146e+00	 9.853178043382338e-01	-1.143125637469550e+00
1	 1.204891561723683e+00	 1.012336122830632e+00	-1.315705096570295e+00
1	 1.183252804585793e+00	 1.038737255996183e+00	-1.501338105649071e+00
1	 1.160894189238823e+00	 1.064503282717258e+00	-1.699463047920627e+00
1	 1.137826920316240e+00	 1.089617288950315e+00	-1.909441188690916e+00
1	 1.114063418632800e+00	 1.114063418632800e+00	-2.130560420969505e+00
1	 1.089617288950315e+00	 1.137826920316241e+00	-2.362039845767285e+00
1	 1.064503282717258e+00	 1.160894189238823e+00	-2.603035127000107e+00
1	 1.038737255996183e+00	 1.183252804585794e+00	-2.852644546155112e+00
1	 1.012336122830631e+00	 1.204891561723683e+00	-3.109915668812220e+00
1	 9.853178043382338e-01	 1.225800499234146e+00	-3.373852524124680e+00
1	 1.237364727997274e+00	 9.946133140891735e-01	-1.123411626312428e+00
1	 1.216258535112166e+00	 1.021886523990040e+00	-1.293265357276085e+00
1	 1.194415637465293e+00	 1.048536726024194e+00	-1.476009186747606e+00
1	 1.171846090451243e+00	 1.074545830005786e+00	-1.671125583164049e+00
1	 1.148561204408244e+00	 1.099896762323818e+00	-1.878021342941816e+00
1	 1.124573517329290e+00	 1.124573517329291e+00	-2.096030991899664e+00
1	 1.099896762323817e+00	 1.148561204408244e+00	-2.324421006170012e+00
1	 1.074545830005786e+00	 1.171846090451244e+00	-2.562394797651282e+00
1	 1.048536726024194e+00	 1.194415637465293e+00	-2.809098394506688e+00
1	 1.021886523990040e+00	 1.216258535112166e+00	-3.063626734244342e+00
1	 9.946133140891735e-01	 1.237364727997274e+00	-3.325030475890079e+00
1	 1.248928967553118e+00	 1.003908832515712e+00	-1.104376215687248e+00
1	 1.227625519109282e+00	 1.031436934062925e+00	-1.271662005562697e+00
1	 1.205578480762928e+00	 1.058336205198116e+00	-1.451674093573629e+00
1	 1.182798001884969e+00	 1.084588386667060e+00	-1.643936740730858e+00
1	 1.159295498518487e+00	 1.110176245291156e+00	-1.847899953393185e+00
1	 1.135083625834824e+00	 1.135083625834825e+00	-2.062942558974602e+00
1	 1.110176245291155e+00	 1.159295498518488e+00	-2.288376086227479e+00
1	 1.084588386667060e+00	 1.182798001884970e+00	-2.523449400013506e+00
1	 1.058336205198115e+00	 1.205578480762929e+00	-2.767354026143889e+00
1	 1.031436934062925e+00	 1.227625519109283e+00	-3.019230088996208e+00
1	 1.003908832515712e+00	 1.248928967553118e+00	-3.278172773568548e+00
1	 1.260493223298199e+00	 1.013204363955689e+00	-1.086105794139785e+00
1	 1.238992519019514e+00	 1.040987357506080e+00	-1.250971557670264e+00
1	 1.216741339687926e+00	 1.068135698090975e+00	-1.428399338242999e+00
1	 1.193749928650801e+00	 1.094630957387542e+00	-1.617952941272458e+00
1	 1.170029807656223e+00	 1.120455742649354e+00	-1.819123307401923e+00
1	 1.145593749054043e+00	 1.145593749054043e+00	-2.031331280641719e+00
1	 1.120455742649353e+00	 1.170029807656223e+00	-2.253931166444789e+00
1	 1.094630957387542e+00	 1.193749928650801e+00	-2.486215034224124e+00
1	 1.068135698090974e+00	 1.216741339687926e+00	-2.727417704699877e+00
1	 1.040987357506080e+00	 1.238992519019515e+00	-2.976722349692302e+00
1	 1.013204363955689e+00	 1.260493223298199e+00	-3.233266620916486e+00
1	 1.272057500629041e+00	 1.022499912746946e+00	-1.068683604029472e+00
1	 1.250359540147344e+00	 1.050537798776298e+00	-1.231267742651753e+00
1	 1.227904219449511e+00	 1.077935209275797e+00	-1.406249009493746e+00
1	 1.204701875859538e+00	 1.104673546853691e+00	-1.593228549067459e+00
1	 1.180764136830705e+00	 1.130735259195432e+00	-1.791736004500938e+00
1	 1.156103891891588e+00	 1.156103891891588e+00	-2.001231995938935e+00
1	 1.130735259195432e+00	 1.180764136830706e+00	-2.221111374506833e+00
1	 1.104673546853691e+00	 1.204701875859538e+00	-2.450707210671993e+00
1	 1.077935209275797e+00	 1.227904219449511e+00	-2.689295461932708e+00
1	 1.050537798776297e+00	 1.250359540147344e+00	-2.936100252099975e+00
1	 1.022499912746946e+00	 1.272057500629041e+00	-3.190299683374389e+00
1	 9.295446851010828e-01	 1.156415051097081e+00	-3.708816747129942e+00
1	 9.034912739280351e-01	 1.175443739074679e+00	-3.997381800534515e+00
1	 8.768920792936006e-01	 1.193768700623031e+00	-4.295275793419244e+00
1	 8.497665476991274e-01	 1.211384141277095e+00	-4.600553860658134e+00
1	 8.221348496568712e-01	 1.228285490601410e+00	-4.911181374380541e+00
1	 7.940178164717289e-01	 1.244469402142706e+00	-5.225051336181970e+00
1	 7.654368751281195e-01	 1.259933748325849e+00	-5.540002158237126e+00
1	 7.364139816884138e-01	 1.274677610405123e+00	-5.853835568214102e+00
1	 7.069715536127235e-01	 1.288701263618529e+00	-6.164334380997124e+00
1	 6.771324014091542e-01	 1.302006157726207e+00	-6.469279893688488e+00
1	 6.469196600189466e-01	 1.314594893144823e+00	-6.766468678512320e+00
1	 9.388402338930860e-01	 1.167979328430909e+00	-3.647911064927282e+00
1	 9.125262857509882e-01	 1.187198305375145e+00	-3.933513082336559e+00
1	 8.856610962530621e-01	 1.205706518548624e+00	-4.228548026289057e+00
1	 8.582643063677960e-01	 1.223498115541023e+00	-4.531109811968808e+00
1	 8.303562883147731e-01	 1.240568480212031e+00	-4.839201528887092e+00
1	 8.019580817142199e-01	 1.256914232643485e+00	-5.150752595519265e+00
1	 7.730913278227416e-01	 1.272533223984267e+00	-5.463636323187753e+00
1	 7.437782022657355e-01	 1.287424526301110e+00	-5.775687626249171e+00
1	 7.140413466803662e-01	 1.301588417584430e+00	-6.084720623270091e+00
1	 6.839037996823167e-01	 1.315026362092133e+00	-6.388545886843954e+00
1	 6.533889275647721e-01	 1.327740986245340e+00	-6.684987117359405e+00
1	 9.481357653336442e-01	 1.179543584178313e+00	-3.589057547041788e+00
1	 9.215612807088770e-01	 1.198952849734028e+00	-3.871813364666567e+00
1	 8.944300968440325e-01	 1.217644314190618e+00	-4.164087937753862e+00
1	 8.667620491743738e-01	 1.235612067192585e+00	-4.464014081258632e+00
1	 8.385777116264349e-01	 1.252851446894847e+00	-4.769632920700868e+00
1	 8.098983321353757e-01	 1.269359039914404e+00	-5.078910800774790e+00
1	 7.807457662295895e-01	 1.285132676124198e+00	-5.389756621620580e+00
1	 7.511424090970859e-01	 1.300171418403419e+00	-5.700039342204237e+00
1	 7.211111265516633e-01	 1.314475547494891e+00	-6.007605397415831e+00
1	 6.906751853161528e-01	 1.328046542154255e+00	-6.310295787982493e+00
1	 6.598581830352498e-01	 1.340887054807035e+00	-6.605962619467470e+00
1	 9.574312837605973e-01	 1.191107823735815e+00	-3.532240109951673e+00
1	 9.305962630179522e-01	 1.210707377636642e+00	-3.812255249170269e+00
1	 9.031990851586242e-01	 1.229582093119834e+00	-4.101857537573452e+00
1	 8.752597800843774e-01	 1.247726001884798e+00	-4.399218794168921e+00
1	 8.467991234284110e-01	 1.265134396381741e+00	-4.702418480175396e+00
1	 8.178385714405275e-01	 1.281803829762870e+00	-5.009460353342464e+00
1	 7.884001939206055e-01	 1.297732110625213e+00	-5.318289566453503e+00
1	 7.585066056189579e-01	 1.312918292660427e+00	-5.626809952067820e+00
1	 7.281808965257009e-01	 1.327362659363738e+00	-5.932901242281618e+00
1	 6.974465614704943e-01	 1.341066703988496e+00	-6.234435984308945e+00
1	 6.663274294492167e-01	 1.354033104964595e+00	-6.529295929378237e+00
1	 9.667267935117863e-01	 1.202672052499939e+00	-3.477443286970183e+00
1	 9.396312368944647e-01	 1.222461894568301e+00	-3.754812389814042e+00
1	 9.119680652889495e-01	 1.241519860907096e+00	-4.041820295537690e+00
1	 8.837575030633220e-01	 1.259839925270682e+00	-4.336677916885557e+00
1	 8.550205275572574e-01	 1.277417334404598e+00	-4.637503332253413e+00
1	 8.257788033350074e-01	 1.294248607996289e+00	-4.942338177642450e+00
1	 7.960546144677318e-01	 1.310331533366881e+00	-5.249164497450432e+00
1	 7.658707952678434e-01	 1.325665155020511e+00	-5.555921798985349e+00
1	 7.352506599015661e-01	 1.340249759204795e+00	-5.860524061891676e+00
1	 7.042179313051726e-01	 1.354086853670782e+00	-6.160876465247852e+00
1	 6.727966698255098e-01	 1.367179142852703e+00	-6.454891611318895e+00
1	 9.760222989250517e-01	 1.214236275867209e+00	-3.424652198525574e+00
1	 9.486662065546658e-01	 1.234216406014319e+00	-3.699459442427307e+00
1	 9.207370413271203e-01	 1.253457623123224e+00	-3.983941071596513e+00
1	 8.922552220767228e-01	 1.271953843003255e+00	-4.276347168153960e+00
1	 8.632419278495306e-01	 1.289700266695305e+00	-4.574834691629785e+00
1	 8.337190315241457e-01	 1.306693380422067e+00	-4.877483600653635e+00
1	 8.037090314429112e-01	 1.322930950228776e+00	-5.182313446297380e+00
1	 7.732349814802350e-01	 1.338412011432048e+00	-5.487300185000886e+00
1	 7.423204199783441e-01	 1.353136853031890e+00	-5.790392964917031e+00
1	 7.109892979800190e-01	 1.367106997277037e+00	-6.089530650642391e+00
1	 6.792659071829658e-01	 1.380325174606045e+00	-6.382657867063618e+00
1	 9.853178043382338e-01	 1.225800499234146e+00	-3.373852524124680e+00
1	 9.577011762148071e-01	 1.245970917460012e+00	-3.646172017103473e+00
1	 9.295060173652488e-01	 1.265395385339038e+00	-3.928186049948298e+00
1	 9.007529410900951e-01	 1.284067760735536e+00	-4.218183936278759e+00
1	 8.714633281417857e-01	 1.301983198985745e+00	-4.514361763853667e+00
1	 8.416592597132739e-01	 1.319138152847608e+00	-4.814838238270687e+00
1	 8.113634484180847e-01	 1.335530367090467e+00	-5.117671009322490e+00
1	 7.805991676926241e-01	 1.351158867843414e+00	-5.420873231197726e+00
1	 7.493901800551211e-01	 1.366023946858846e+00	-5.722430113239948e+00
1	 7.177606646548652e-01	 1.380127140883184e+00	-6.020315228686287e+00
1	 6.857351445404221e-01	 1.393471206359307e+00	-6.312506364113709e+00
1	 9.946133140891735e-01	 1.237364727997274e+00	-3.325030475890079e+00
1	 9.667361500911388e-01	 1.257725434390691e+00	-3.594926633272177e+00
1	 9.382749974954470e-01	 1.277333153125361e+00	-3.874522676827193e+00
1	 9.092506640689543e-01	 1.296181684120542e+00	-4.162147200781512e+00
1	 8.796847322705793e-01	 1.314266137007804e+00	-4.456035651981137e+00
1	 8.495994916077225e-01	 1.331582931080320e+00	-4.754345888039253e+00
1	 8.190178689651954e-01	 1.348129789831525e+00	-5.055174227359381e+00
1	 7.879633573415030e-01	 1.363905730202985e+00	-5.356571745688182e+00
1	 7.564599434309841e-01	 1.378911046699490e+00	-5.656560579017204e+00
1	 7.245320344895431e-01	 1.393147290565148e+00	-5.953150002951172e+00
1	 6.922043849167152e-01	 1.406617244247173e+00	-6.244352073520270e+00
1	 1.003908832515712e+00	 1.248928967553118e+00	-3.278172773568548e+00
1	 9.757711323999120e-01	 1.269479962291672e+00	-3.545700677269703e+00
1	 9.470439858098268e-01	 1.289270932053014e+00	-3.822919601749760e+00
1	 9.177483949788166e-01	 1.308295618811296e+00	-4.108197458414507e+00
1	 8.879061440724666e-01	 1.326549086493368e+00	-4.399809268417908e+00
1	 8.575397309128235e-01	 1.344027720927606e+00	-4.695952427855048e+00
1	 8.266722966561850e-01	 1.360729224331522e+00	-4.994762472290046e+00
1	 7.953275538633642e-01	 1.376652604459141e+00	-5.294329098943690e+00
1	 7.635297134050186e-01	 1.391798158567647e+00	-5.592712209690831e+00
1	 7.313034106438838e-01	 1.406167452398852e+00	-5.887957747919675e+00
1	 6.986736313306823e-01	 1.419763294404329e+00	-6.178113116724764e+00
1	 1.013204363955689e+00	 1.260493223298199e+00	-3.233266620916486e+00
1	 9.848061273573779e-01	 1.281234506648269e+00	-3.498472362246911e+00
1	 9.558129864005016e-01	 1.301208727692819e+00	-3.773346621998403e+00
1	 9.262461377851967e-01	 1.320409570460812e+00	-4.056296653250623e+00
1	 8.961275673840033e-01	 1.338832053174322e+00	-4.345637251619072e+00
1	 8.654799813339078e-01	 1.356472528196874e+00	-4.639605720243995e+00
1	 8.343267350629964e-01	 1.373328676470027e+00	-4.936377339838558e+00
1	 8.026917606946993e-01	 1.389399496560258e+00	-5.234081105992750e+00
1	 7.705994932763115e-01	 1.404685288477143e+00	-5.530815500435807e+00
1	 7.380747962777198e-01	 1.419187632460222e+00	-5.824664072477448e+00
1	 7.051428868011599e-01	 1.432909362965459e+00	-6.113710620837054e+00
1	 1.022499912746946e+00	 1.272057500629041e+00	-3.190299683374389e+00
1	 9.938411391797880e-01	 1.292989072945795e+00	-3.453220690265806e+00
1	 9.645820033595817e-01	 1.313146545615596e+00	-3.725774630135425e+00
1	 9.347438964536103e-01	 1.332523544722111e+00	-4.006408110589502e+00
1	 9.043490060417456e-01	 1.351115042782550e+00	-4.293475887335981e+00
1	 8.734202465763062e-01	 1.368917358695529e+00	-4.585255521867669e+00
1	 8.419811877575710e-01	 1.385928152126612e+00	-4.879962548217138e+00
1	 8.100559812720007e-01	 1.402146412454711e+00	-5.175765915050242e+00
1	 7.776692863439484e-01	 1.417572442441804e+00	-5.470803473570782e+00
1	 7.448461945508813e-01	 1.432207836825180e+00	-5.763197290856976e+00
1	 7.116121543469851e-01	 1.446055456065250e+00	-6.051068581813876e+00
1	 6.469196600189466e-01	 1.314594893144823e+00	-6.766468678512319e+00
1	 6.163588700289421e-01	 1.326470387793212e+00	-7.056199269871663e+00
1	 5.854714964905722e-01	 1.337638367399996e+00	-7.339239554040353e+00
1	 5.542812261358540e-01	 1.348104707563986e+00	-7.614086694618314e+00
1	 5.228118009030747e-01	 1.357876299731294e+00	-7.879293196158314e+00
1	 4.910869536853514e-01	 1.366961009346076e+00	-8.133473867115113e+00
1	 4.591303459451811e-01	 1.375367631339310e+00	-8.375311828402303e+00
1	 4.269655074752550e-01	 1.383105843291213e+00	-8.603563555908647e+00
1	 3.946157785590299e-01	 1.390186156606576e+00	-8.817062961370054e+00
1	 3.621042547566256e-01	 1.396619866042657e+00	-9.014724530514881e+00
1	 3.294537345129284e-01	 1.402418997926461e+00	-9.195545550207282e+00
1	 6.533889275647721e-01	 1.327740986245340e+00	-6.684987117359405e+00
1	 6.225225263232393e-01	 1.339735237142397e+00	-6.974393195070130e+00
1	 5.913262756620284e-01	 1.351014897769846e+00	-7.257532816941826e+00
1	 5.598240991830853e-01	 1.361585902483125e+00	-7.532851399292046e+00
1	 5.280399762466951e-01	 1.371455211643566e+00	-7.798846209712567e+00
1	 4.959978770775202e-01	 1.380630769350628e+00	-8.054073998254310e+00
1	 4.637216997552890e-01	 1.389121458485566e+00	-8.297157663006463e+00
1	 4.312352093732100e-01	 1.396937053405456e+00	-8.526791930199785e+00
1	 3.985619796201450e-01	 1.404088170630291e+00	-8.741748045998058e+00
1	 3.657253370143581e-01	 1.410586217866145e+00	-8.940877492711913e+00
1	 3.327483079876942e-01	 1.416443341704605e+00	-9.123114756048183e+00
1	 6.598581830352498e-01	 1.340887054807035e+00	-6.605962619467470e+00
1	 6.286861711126497e-01	 1.353000061731036e+00	-6.894998577572228e+00
1	 5.971810439051409e-01	 1.364391403170606e+00	-7.178167989570099e+00
1	 5.653669618841588e-01	 1.375067072237715e+00	-7.453868029081777e+00
1	 5.332681418315468e-01	 1.385034098208786e+00	-7.720544335190960e+00
1	 5.009087913030716e-01	 1.394300503838440e+00	-7.976699280411238e+00
1	 4.683130449952527e-01	 1.402875259958044e+00	-8.220899262938472e+00
1	 4.355049033013806e-01	 1.410768237701365e+00	-8.451780995418551e+00
1	 4.025081733152879e-01	 1.417990158703402e+00	-8.668056780437059e+00
1	 3.693464125129542e-01	 1.424552543618833e+00	-8.868518779503137e+00
1	 3.360428753127599e-01	 1.430467659303615e+00	-9.052042297207361e+00
1	 6.663274294492167e-01	 1.354033104964595e+00	-6.529295929378237e+00
1	 6.348498072733945e-01	 1.366264867749247e+00	-6.817911275396331e+00
1	 6.030358039519952e-01	 1.377767889844539e+00	-7.101037006177092e+00
1	 5.709098168256141e-01	 1.388548223118886e+00	-7.377025457427843e+00
1	 5.384963000973219e-01	 1.398612965763712e+00	-7.644274146166628e+00
1	 5.058196986536593e-01	 1.407970219188693e+00	-7.901234644763376e+00
1	 4.729043838076082e-01	 1.416629042175190e+00	-8.146420470231831e+00
1	 4.397745912522127e-01	 1.424599402633524e+00	-8.378413953417860e+00
1	 4.064543614859514e-01	 1.431892127313559e+00	-8.595872071600198e+00
1	 3.729674829421980e-01	 1.438518849818423e+00	-8.797531245536220e+00
1	 3.393374380255505e-01	 1.444491957268275e+00	-8.982211117865745e+00
1	 6.727966698255098e-01	 1.367179142852703e+00	-6.454891611318896e+00
1	 6.410134376816959e-01	 1.379529661387156e+00	-6.743031154623548e+00
1	 6.088905585346771e-01	 1.391144364033907e+00	-7.026035960416237e+00
1	 5.764526665939905e-01	 1.402029361417770e+00	-7.302216835309820e+00
1	 5.437244534837128e-01	 1.412191820645104e+00	-7.569926582611016e+00
1	 5.107306014209383e-01	 1.421639921780570e+00	-7.827569452445617e+00
1	 4.774957183348917e-01	 1.430382811555445e+00	-8.073609599143918e+00
1	 4.440442752181524e-01	 1.438430554656515e+00	-8.306578503257683e+00
1	 4.104005459736288e-01	 1.445794082948413e+00	-8.525081335297253e+00
1	 3.765885499918736e-01	 1.452485142982614e+00	-8.727802256694202e+00
1	 3.426319976634912e-01	 1.458516242143368e+00	-8.913508670306873e+00
1	 6.792659071829658e-01	 1.380325174606045e+00	-6.382657867063618e+00
1	 6.471770652137750e-01	 1.392794448834883e+00	-6.670261898308322e+00
1	 6.147453103852734e-01	 1.404520831980973e+00	-6.953064907067720e+00
1	 5.819955137758277e-01	 1.415510493425495e+00	-7.229339387368624e+00
1	 5.489526044304115e-01	 1.425770669189720e+00	-7.497396742808078e+00
1	 5.156415018965628e-01	 1.435309617993255e+00	-7.755597283461701e+00
1	 4.820870507196393e-01	 1.444136574517252e+00	-8.002359223078651e+00
1	 4.483139571916460e-01	 1.452261700224921e+00	-8.236166626963133e+00
1	 4.143467286198130e-01	 1.459696032095616e+00	-8.455576281459290e+00
1	 3.802096153517648e-01	 1.466451429629105e+00	-8.659223475231967e+00
1	 3.459265557640069e-01	 1.472540520473678e+00	-8.845826700224814e+00
1	 6.857351445404221e-01	 1.393471206359307e+00	-6.312506364113709e+00
1	 6.533406927458544e-01	 1.406059236282552e+00	-6.599510826214787e+00
1	 6.206000622358696e-01	 1.417897299927996e+00	-6.882027674996428e+00
1	 5.875383609576650e-01	 1.428991625433194e+00	-7.158294219578784e+00
1	 5.541807553771099e-01	 1.439349517734319e+00	-7.426583687056887e+00
1	 5.205524023721871e-01	 1.448979314205930e+00	-7.685215737554381e+00
1	 4.866783831043868e-01	 1.457890337479054e+00	-7.932565973581394e+00
1	 4.525836391651395e-01	 1.466092845793325e+00	-8.167074387419094e+00
1	 4.182929112659973e-01	 1.473597981242819e+00	-8.387252711531271e+00
1	 3.838306807116564e-01	 1.480417716275596e+00	-8.591690657085604e+00
1	 3.492211138645225e-01	 1.486564798803988e+00	-8.779061044194773e+00
1	 6.922043849167152e-01	 1.406617244247173e+00	-6.244352073520271e+00
1	 6.595043231541556e-01	 1.419324029920284e+00	-6.530688724670080e+00
1	 6.264548168185518e-01	 1.431273774117241e+00	-6.812831690607141e+00
1	 5.930812107260417e-01	 1.442472763731995e+00	-7.088986137714579e+00
1	 5.594089087635007e-01	 1.452928372615660e+00	-7.357390252390779e+00
1	 5.254633051394662e-01	 1.462649016797779e+00	-7.616326246251226e+00
1	 4.912697176316702e-01	 1.471644106859294e+00	-7.864130350613770e+00
1	 4.568533231310793e-01	 1.479923997816310e+00	-8.099201737607959e+00
1	 4.222390957536747e-01	 1.487499936877671e+00	-8.320010327234982e+00
1	 3.874517477613319e-01	 1.494384009439787e+00	-8.525103460556725e+00
1	 3.525156735024633e-01	 1.500589083679082e+00	-8.713111438510154e+00
1	 6.986736313306823e-01	 1.419763294404329e+00	-6.178113116724763e+00
1	 6.656679593149004e-01	 1.432588835938203e+00	-6.463709685877618e+00
1	 6.323095768654061e-01	 1.444650260790970e+00	-6.745387811115824e+00
1	 5.986240656674968e-01	 1.455953914613030e+00	-7.021323475909481e+00
1	 5.646370670292757e-01	 1.466507240170500e+00	-7.289722877598898e+00
1	 5.303742124900538e-01	 1.476318732147982e+00	-7.548833895360768e+00
1	 4.958610564440256e-01	 1.485397889076415e+00	-7.796956543378192e+00
1	 4.611230110819116e-01	 1.493755162748458e+00	-8.032452340453744e+00
1	 4.261852839243382e-01	 1.501401905487825e+00	-8.253752549965254e+00
1	 3.910728181905756e-01	 1.508350315639376e+00	-8.459365265634595e+00
1	 3.558102362152539e-01	 1.514613381643741e+00	-8.647881338648546e+00
1	 7.051428868011599e-01	 1.432909362965459e+00	-6.113710620837055e+00
1	 6.718316041043106e-01	 1.445853660526430e+00	-6.398490956083530e+00
1	 6.381643451085180e-01	 1.458026766191443e+00	-6.679610167006508e+00
1	 6.041669283685706e-01	 1.469435084367429e+00	-6.955217934661119e+00
1	 5.698652326141274e-01	 1.480086126735601e+00	-7.223491437886835e+00
1	 5.352851267156051e-01	 1.489988466635725e+00	-7.482647257247952e+00
1	 5.004524016839894e-01	 1.499151690548859e+00	-7.730952261013127e+00
1	 4.653927050100819e-01	 1.507586347044352e+00	-7.966733398591586e+00
1	 4.301314776194810e-01	 1.515303893560932e+00	-8.188386350136188e+00
1	 3.946938936891718e-01	 1.522316641392064e+00	-8.394383003271995e+00
1	 3.591048035403197e-01	 1.528637699242752e+00	-8.583277748683660e+00
1	 7.116121543469851e-01	 1.446055456065250e+00	-6.051068581813876e+00
1	 6.779952603986081e-01	 1.459118509875090e+00	-6.334952792031205e+00
1	 6.440191242799743e-01	 1.471403296560924e+00	-6.615416013088319e+00
1	 6.097098014158014e-01	 1.482916279286323e+00	-6.890584427679111e+00
1	 5.750934079577478e-01	 1.493665038647719e+00	-7.158609088563782e+00
1	 5.401960501077742e-01	 1.503658226640188e+00	-7.417678232265434e+00
1	 5.050437554940973e-01	 1.512905517695068e+00	-7.666028572530913e+00
1	 4.696624069080371e-01	 1.521417557158576e+00	-7.901955493429721e+00
1	 4.340776786805963e-01	 1.529205907584642e+00	-8.123822085842800e+00
1	 3.983149759469042e-01	 1.536282993215550e+00	-8.330066993980898e+00
1	 3.623993770150853e-01	 1.542662043020896e+00	-8.519211060009608e+00
1	 3.294537345129284e-01	 1.402418997926461e+00	-9.195545550207282e+00
1	 2.966843784393872e-01	 1.407596598364675e+00	-9.359062876700966e+00
1	 2.638205609134598e-01	 1.412165572756028e+00	-9.505418762046759e+00
1	 2.308839434239252e-01	 1.416139826431092e+00	-9.634686592359387e+00
1	 1.978957096443058e-01	 1.419533782748832e+00	-9.747024824139629e+00
1	 1.648765290743220e-01	 1.422362329452364e+00	-9.842668528449030e+00
1	 1.318465240967305e-01	 1.424640765532204e+00	-9.921921000908682e+00
1	 9.882524045195897e-02	 1.426384748845694e+00	-9.985145527822077e+00
1	 6.583162110954265e-02	 1.427610244722075e+00	-1.003275738647747e+01
1	 3.288398349364309e-02	 1.428333475762771e+00	-1.006521614556432e+01
1	 0.000000000000000e+00	 1.428570873025926e+00	-1.008301831988317e+01
1	 3.327483079876942e-01	 1.416443341704605e+00	-9.123114756048182e+00
1	 2.996512547599297e-01	 1.421672718714860e+00	-9.288048218849797e+00
1	 2.664587954549430e-01	 1.426287383351045e+00	-9.435876762929606e+00
1	 2.331928081787427e-01	 1.430301379998563e+00	-9.566619383783994e+00
1	 1.998746884438768e-01	 1.433729276251555e+00	-9.680380481143700e+00
1	 1.665253124472977e-01	 1.436586108732203e+00	-9.777341768834948e+00
1	 1.331650037977657e-01	 1.438887329422610e+00	-9.857754213869237e+00
1	 9.981350369522612e-02	 1.440648752760408e+00	-9.921930094536178e+00
1	 6.648994454095852e-02	 1.441886503729888e+00	-9.970235255617281e+00
1	 3.321282693534693e-02	 1.442616967160266e+00	-1.000308162724006e+01
1	 0.000000000000000e+00	 1.442856738422074e+00	-1.002092006258116e+01
1	 3.360428753127599e-01	 1.430467659303615e+00	-9.052042297207361e+00
1	 3.026181255424344e-01	 1.435748812789194e+00	-9.218266479498748e+00
1	 2.690970250718209e-01	 1.440409167584866e+00	-9.367444803508272e+00
1	 2.355016686237529e-01	 1.444462907130611e+00	-9.499543497447748e+00
1	 2.018536635494072e-01	 1.447924743255469e+00	-9.614614513790336e+00
1	 1.681740927425821e-01	 1.450809861460411e+00	-9.712787795026257e+00
1	 1.344834810376643e-01	 1.453133866718838e+00	-9.794263533004186e+00
1	 1.008017650937519e-01	 1.454912730048382e+00	-9.859304511120822e+00
1	 6.714826674351385e-02	 1.456162736088079e+00	-9.908228607543133e+00
1	 3.354166976321423e-02	 1.456900431894637e+00	-9.941401526553435e+00
1	 0.000000000000000e+00	 1.457142577150667e+00	-9.959229814234028e+00
1	 3.393374380255505e-01	 1.444491957268275e+00	-8.982211117865747e+00
1	 3.055849921714104e-01	 1.449824887156639e+00	-9.149600928196119e+00
1	 2.717352509952450e-01	 1.454530932047792e+00	-9.300006843549980e+00
1	 2.378105258364076e-01	 1.458624414436090e+00	-9.433343901149774e+00
1	 2.038326358844074e-01	 1.462120190385275e+00	-9.549613168621551e+00
1	 1.698228707295977e-01	 1.465033594274894e+00	-9.648894356139614e+00
1	 1.358019564317105e-01	 1.467380384069432e+00	-9.731338387437566e+00
1	 1.017900251087216e-01	 1.469176687366300e+00	-9.797160018455852e+00
1	 6.780658802442376e-02	 1.470438948459054e+00	-9.846630581876269e+00
1	 3.387051213070415e-02	 1.471183876631666e+00	-9.880070925194907e+00
1	 0.000000000000000e+00	 1.471428395878593e+00	-9.897844599533109e+00
1	 3.426319976634912e-01	 1.458516242143368e+00	-8.913508670306873e+00
1	 3.085518560313680e-01	 1.463900948386158e+00	-9.081939330369057e+00
1	 2.743734744563665e-01	 1.468652683330121e+00	-9.233451312423385e+00
1	 2.401193808941584e-01	 1.472785908523857e+00	-9.367909993769457e+00
1	 2.058116063723871e-01	 1.476315624265677e+00	-9.485267074308936e+00
1	 1.714716471777676e-01	 1.479257313813562e+00	-9.585553525845008e+00
1	 1.371204305951884e-01	 1.481626888122938e+00	-9.668872466431626e+00
1	 1.027782842013206e-01	 1.483440631370847e+00	-9.735392048063339e+00
1	 6.846490869090337e-02	 1.484715147505218e+00	-9.785338436027171e+00
1	 3.419935419127582e-02	 1.485467308037133e+00	-9.818988948114239e+00
1	 0.000000000000000e+00	 1.485714201272741e+00	-9.836665411854407e+00
1	 3.459265557640069e-01	 1.472540520473678e+00	-8.845826700224816e+00
1	 3.115187185068158e-01	 1.477977003046713e+00	-9.015173733234766e+00
1	 2.770116966863367e-01	 1.482774428022150e+00	-9.167670896280510e+00
1	 2.424282348744576e-01	 1.486947396002769e+00	-9.303135394301624e+00
1	 2.077905759368567e-01	 1.490511051521376e+00	-9.421471033036742e+00
1	 1.731204228565147e-01	 1.493481026714322e+00	-9.522661496506821e+00
1	 1.384389041433821e-01	 1.495873385527899e+00	-9.606763516609467e+00
1	 1.037665428327341e-01	 1.497704568718708e+00	-9.673900022652967e+00
1	 6.912322905016788e-02	 1.498991339888976e+00	-9.724253349221138e+00
1	 3.452819609838832e-02	 1.499750732776819e+00	-9.758058571104765e+00
1	 0.000000000000000e+00	 1.500000000000000e+00	-9.775597024401721e+00
1	 3.492211138645225e-01	 1.486564798803988e+00	-8.779061044194773e+00
1	 3.144855809822637e-01	 1.492053057707269e+00	-8.949200263839799e+00
1	 2.796499189163069e-01	 1.496896172714180e+00	-9.102562337295300e+00
1	 2.447370888547568e-01	 1.501108883481681e+00	-9.238917742843096e+00
1	 2.097695455013264e-01	 1.504706478777075e+00	-9.358123823704110e+00
1	 1.747691985352618e-01	 1.507704739615082e+00	-9.460118384987123e+00
1	 1.397573776915759e-01	 1.510119882932860e+00	-9.544913150665895e+00
1	 1.047548014641477e-01	 1.511968506066570e+00	-9.612587167966472e+00
1	 6.978154940943238e-02	 1.513267532272735e+00	-9.663280237626358e+00
1	 3.485703800550086e-02	 1.514034157516504e+00	-9.697186439288345e+00
1	 0.000000000000000e+00	 1.514285798727260e+00	-9.714547812048870e+00
1	 3.525156735024633e-01	 1.500589083679082e+00	-8.713111438510154e+00
1	 3.174524448422210e-01	 1.506129118936787e+00	-8.883918938434098e+00
1	 2.822881423774284e-01	 1.511017923996508e+00	-9.038026244169407e+00
1	 2.470459439125078e-01	 1.515270377569448e+00	-9.175158512748306e+00
1	 2.117485159893061e-01	 1.518901912657477e+00	-9.295128016171500e+00
1	 1.764179749834317e-01	 1.521928459153749e+00	-9.397828049347783e+00
1	 1.410758518550538e-01	 1.524366386986366e+00	-9.483226666813515e+00
1	 1.057430605567467e-01	 1.526232450071117e+00	-9.551360335182142e+00
1	 7.043987007591201e-02	 1.527543731318899e+00	-9.602327579857151e+00
1	 3.518588006607250e-02	 1.528317588921971e+00	-9.636282695787354e+00
1	 0.000000000000000e+00	 1.528571604121408e+00	-9.653429583180602e+00
1	 3.558102362152539e-01	 1.514613381643741e+00	-8.647881338648546e+00
1	 3.204193114711973e-01	 1.520205193304232e+00	-8.819233482443904e+00
1	 2.849263683008524e-01	 1.525139688459433e+00	-8.973966913174255e+00
1	 2.493548011251625e-01	 1.529431884874928e+00	-9.111762833229387e+00
1	 2.137274883243062e-01	 1.533097359787283e+00	-9.232389795835513e+00
1	 1.780667529704474e-01	 1.536152191968234e+00	-9.335697915744190e+00
1	 1.423943272491001e-01	 1.538612904336961e+00	-9.421612878267990e+00
1	 1.067313205717163e-01	 1.540496407389035e+00	-9.490129833193727e+00
1	 7.109819135682192e-02	 1.541819943689873e+00	-9.541307252179790e+00
1	 3.551472243356241e-02	 1.542601033659000e+00	-9.575260819922679e+00
1	 0.000000000000000e+00	 1.542857422849333e+00	-9.592157420883360e+00
1	 3.591048035403197e-01	 1.528637699242752e+00	-8.583277748683660e+00
1	 3.233861822537019e-01	 1.534281287378566e+00	-8.755051160362882e+00
1	 2.875645979177304e-01	 1.539261472693255e+00	-8.910292159051856e+00
1	 2.516636615701727e-01	 1.543593412006975e+00	-9.048639321729636e+00
1	 2.157064634298367e-01	 1.547292826791197e+00	-9.169818797868199e+00
1	 1.797155332657316e-01	 1.550375944696441e+00	-9.273638814855738e+00
1	 1.437128044889987e-01	 1.552859441633188e+00	-9.359983952127459e+00
1	 1.077195819702421e-01	 1.554760384677008e+00	-9.428809270129412e+00
1	 7.175651355937723e-02	 1.556096176048064e+00	-9.480134372796844e+00
1	 3.584356526142972e-02	 1.556884498393372e+00	-9.514037474325923e+00
1	 0.000000000000000e+00	 1.557143261577926e+00	-9.530649532885043e+00
1	 3.623993770150853e-01	 1.542662043020896e+00	-8.519211060009608e+00
1	 3.263530585742443e-01	 1.548357407728751e+00	-8.691282614929492e+00
1	 2.902028324592135e-01	 1.553383283288272e+00	-8.846913155147213e+00
1	 2.539725263249901e-01	 1.557754965574446e+00	-8.985699925447459e+00
1	 2.176854422294076e-01	 1.561488320293919e+00	-9.107327950505132e+00
1	 1.813643166387074e-01	 1.564599723976281e+00	-9.211564827245478e+00
1	 1.450312841900338e-01	 1.567106005523594e+00	-9.298255257046932e+00
1	 1.087078452135093e-01	 1.569024388591723e+00	-9.367315403522175e+00
1	 7.241483699079308e-02	 1.570372435055877e+00	-9.418727154632194e+00
1	 3.617240870313355e-02	 1.571167989790866e+00	-9.452532360397285e+00
1	 0.000000000000000e+00	 1.571429126974074e+00	-9.468827109686623e+00
1	 1.571429126974074e+00	 0.000000000000000e+00	 8.369848205931070e-01
1	 1.571167989790867e+00	 3.617240870313405e-02	 8.306039222362043e-01
1	 1.570372435055877e+00	 7.241483699079355e-02	 8.223470442222366e-01
1	 1.569024388591724e+00	 1.087078452135097e-01	 8.118038457984926e-01
1	 1.567106005523594e+00	 1.450312841900342e-01	 7.985637107158482e-01
1	 1.564599723976281e+00	 1.813643166387076e-01	 7.822191417510342e-01
1	 1.561488320293920e+00	 2.176854422294079e-01	 7.623694743024596e-01
1	 1.557754965574446e+00	 2.539725263249902e-01	 7.386248971262198e-01
1	 1.553383283288272e+00	 2.902028324592137e-01	 7.106107618313496e-01
1	 1.548357407728751e+00	 3.263530585742443e-01	 6.779721557712423e-01
1	 1.542662043020896e+00	 3.623993770150854e-01	 6.403787055414998e-01
1	 1.585715024037928e+00	 0.000000000000000e+00	 7.983912878345378e-01
1	 1.585451512850806e+00	 3.650125287376479e-02	 7.921253754139451e-01
1	 1.584648725710099e+00	 7.307316188147503e-02	 7.841370444716214e-01
1	 1.583288424125677e+00	 1.096961106474002e-01	 7.740340773240602e-01
1	 1.581352600994570e+00	 1.463497668136621e-01	 7.614238565359878e-01
1	 1.578823534786167e+00	 1.830131036664365e-01	 7.459166548264644e-01
1	 1.575683845263964e+00	 2.196644254156486e-01	 7.271292356922582e-01
1	 1.571916550533969e+00	 2.562813961977032e-01	 7.046887532264029e-01
1	 1.567505125187193e+00	 2.928410728486677e-01	 6.782369333320480e-01
1	 1.562433559281498e+00	 3.293199414712119e-01	 6.474345117316673e-01
1	 1.556686417886749e+00	 3.656939577926278e-01	 6.119658969372626e-01
1	 1.600000951102682e+00	 0.000000000000000e+00	 7.633582370898979e-01
1	 1.599735065906658e+00	 3.683009773493779e-02	 7.571995842020403e-01
1	 1.598925046345046e+00	 7.373148815458680e-02	 7.494576649624362e-01
1	 1.597552489614615e+00	 1.106843781565817e-01	 7.397583298756110e-01
1	 1.595599226383898e+00	 1.476682522060276e-01	 7.277271411459630e-01
1	 1.593047375466544e+00	 1.846618941565351e-01	 7.129925821422681e-01
1	 1.589879400045076e+00	 2.216434127576645e-01	 6.951895689504405e-01
1	 1.586078165233253e+00	 2.585902709189449e-01	 6.739632525698882e-01
1	 1.581626996742376e+00	 2.954793187783158e-01	 6.489730941684791e-01
1	 1.576509740394501e+00	 3.322868305985031e-01	 6.198971891638703e-01
1	 1.570710822204060e+00	 3.689885454886305e-01	 5.864368088312748e-01
1	 1.614286904834791e+00	 0.000000000000000e+00	 7.317177042443309e-01
1	 1.614018645625435e+00	 3.715894320989962e-02	 7.256518498252289e-01
1	 1.613201393629416e+00	 7.438981565648350e-02	 7.181290145694641e-01
1	 1.611816581730097e+00	 1.116726475104183e-01	 7.087930834888295e-01
1	 1.609845878367207e+00	 1.489867400594473e-01	 6.972879961660811e-01
1	 1.607271242698359e+00	 1.863106877242590e-01	 6.832608994381456e-01
1	 1.604074981324810e+00	 2.236224037936801e-01	 6.663655932589890e-01
1	 1.600239806367783e+00	 2.608991499499849e-01	 6.462662580461332e-01
1	 1.595748894658584e+00	 2.981175696325953e-01	 6.226414457804995e-01
1	 1.590585947783202e+00	 3.352537252638942e-01	 5.951883106060559e-01
1	 1.584735252700366e+00	 3.722831393344285e-01	 5.636270477500405e-01
1	 1.628572881900711e+00	 0.000000000000000e+00	 7.033076166480219e-01
1	 1.628302248674145e+00	 3.748778922189691e-02	 6.973136013969083e-01
1	 1.627477764231905e+00	 7.504814423351969e-02	 6.899775123485701e-01
1	 1.626080697143679e+00	 1.126609184782742e-01	 6.809612557983313e-01
1	 1.624092553620127e+00	 1.503052300662380e-01	 6.699273627661901e-01
1	 1.621495133162564e+00	 1.879594839848635e-01	 6.565421080628805e-01
1	 1.618270585790724e+00	 2.256013980619200e-01	 6.404789133407129e-01
1	 1.614401470633040e+00	 2.632080327520929e-01	 6.214220218581094e-01
1	 1.609870815640586e+00	 3.007558247959439e-01	 5.990704267275598e-01
1	 1.604662178163042e+00	 3.382206247751619e-01	 5.731420279895352e-01
1	 1.598759706103210e+00	 3.755777385613570e-01	 5.433779870468620e-01
1	 1.642858878966899e+00	 0.000000000000000e+00	 6.779715370050293e-01
1	 1.642585871719799e+00	 3.781663569417622e-02	 6.720221295325427e-01
1	 1.641754154821212e+00	 7.570647373205003e-02	 6.648356132271589e-01
1	 1.640344832526921e+00	 1.136491908295135e-01	 6.560919221900330e-01
1	 1.638339248818290e+00	 1.516237219187165e-01	 6.454724086906283e-01
1	 1.635719043540108e+00	 1.896082825536043e-01	 6.326629513009880e-01
1	 1.632466210130369e+00	 2.275803951006085e-01	 6.173573375270542e-01
1	 1.628563154724508e+00	 2.655169187865385e-01	 5.992609077721558e-01
1	 1.623992756393148e+00	 3.033940836527993e-01	 5.780944415532445e-01
1	 1.618738428249461e+00	 3.411875284400820e-01	 5.535982605317536e-01
1	 1.612784179140129e+00	 3.788723424007510e-01	 5.255365162072729e-01
1	 1.657144892699808e+00	 0.000000000000000e+00	 6.555584205018654e-01
1	 1.656869511429405e+00	 3.814548254998415e-02	 6.496203337339517e-01
1	 1.656030562066033e+00	 7.636480399842913e-02	 6.425415478751588e-01
1	 1.654608984551380e+00	 1.146374643335004e-01	 6.340200504203595e-01
1	 1.652585960637322e+00	 1.529422153091996e-01	 6.237562599116906e-01
1	 1.649942970511941e+00	 1.912570830457367e-01	 6.114561453639644e-01
1	 1.646661851031305e+00	 2.295593944479705e-01	 5.968346104004689e-01
1	 1.642724855337668e+00	 2.678258075145912e-01	 5.796191277262198e-01
1	 1.638114713621036e+00	 3.060323455875986e-01	 5.595536036661932e-01
1	 1.632814694757902e+00	 3.441544355664312e-01	 5.364024461790455e-01
1	 1.626808668538664e+00	 3.821669500839458e-01	 5.099548031142364e-01
1	 1.671430919765895e+00	 0.000000000000000e+00	 6.359223843841217e-01
1	 1.671153164469973e+00	 3.847432971256731e-02	 6.299564827211240e-01
1	 1.670306982635067e+00	 7.702313487901155e-02	 6.229390759085367e-01
1	 1.668873149888615e+00	 1.156257387595990e-01	 6.145862488371781e-01
1	 1.666832685752855e+00	 1.542607099300041e-01	 6.046177460368201e-01
1	 1.664166910759013e+00	 1.929058850765161e-01	 5.927601241692190e-01
1	 1.660857505181086e+00	 2.315383956422302e-01	 5.787501591398869e-01
1	 1.656886569168004e+00	 2.701346983975205e-01	 5.623384919378807e-01
1	 1.652236684029017e+00	 3.086706099847796e-01	 5.432934913993677e-01
1	 1.646890974403806e+00	 3.471213454619858e-01	 5.214053057888410e-01
1	 1.640833171026356e+00	 3.854615608422766e-01	 4.964900684981004e-01
1	 1.685716956831615e+00	 0.000000000000000e+00	 6.189224892431227e-01
1	 1.685436827508512e+00	 3.880317710517230e-02	 6.128839869438361e-01
1	 1.684583413197011e+00	 7.768146622015194e-02	 6.058772516349507e-01
1	 1.683137325210183e+00	 1.166140138771735e-01	 5.976365273960530e-01
1	 1.681079420840518e+00	 1.555792054734467e-01	 5.879011586541194e-01
1	 1.678390860962274e+00	 1.945546882611981e-01	 5.764187970892412e-01
1	 1.675053169267265e+00	 2.335173982216121e-01	 5.629488527567612e-01
1	 1.671048292910997e+00	 2.724435908965961e-01	 5.472661717117943e-01
1	 1.666358664321857e+00	 3.113088762287799e-01	 5.291649164662549e-01
1	 1.660967263902613e+00	 3.500882574345220e-01	 5.084626192960456e-01
1	 1.654857683330742e+00	 3.887561739070783e-01	 4.850043718489238e-01
1	 1.700003000563425e+00	 0.000000000000000e+00	 6.044225313241216e-01
1	 1.699720497212033e+00	 3.913202465104567e-02	 5.982611825570601e-01
1	 1.698859850420562e+00	 7.833979786820486e-02	 5.912102016040938e-01
1	 1.697401507187642e+00	 1.176022894555880e-01	 5.830220707195466e-01
1	 1.695326162575941e+00	 1.568977016318442e-01	 5.734560218554698e-01
1	 1.692614817802672e+00	 1.962034922150380e-01	 5.622813189084361e-01
1	 1.689248839977401e+00	 2.354964017243409e-01	 5.492807734639107e-01
1	 1.685210023262131e+00	 2.747524844730876e-01	 5.342544741999198e-01
1	 1.680480651204323e+00	 3.139471437040368e-01	 5.170237040852217e-01
1	 1.675043559969767e+00	 3.530551707918165e-01	 4.974350131590152e-01
1	 1.668882202179363e+00	 3.920507885096862e-01	 4.753644081172800e-01
1	 1.714289047627778e+00	 0.000000000000000e+00	 5.922908452135081e-01
1	 1.714004170247544e+00	 3.946087227343405e-02	 5.859511261917704e-01
1	 1.713136290974417e+00	 7.899812966952499e-02	 5.787969132745396e-01
1	 1.711665692492551e+00	 1.185905652642067e-01	 5.705990224974152e-01
1	 1.709572907634753e+00	 1.582161980975134e-01	 5.611368742273560e-01
1	 1.706838777961159e+00	 1.978522965532914e-01	 5.502018712759549e-01
1	 1.703444513999047e+00	 2.374754056886410e-01	 5.376009994697397e-01
1	 1.699371756916888e+00	 2.770613785882647e-01	 5.231606284176737e-01
1	 1.694602641381181e+00	 3.165854117949879e-01	 5.067304840917147e-01
1	 1.689119859320706e+00	 3.560220848416451e-01	 4.881877584275124e-01
1	 1.682906724299760e+00	 3.953454038814352e-01	 4.674413145745254e-01
1	 1.542662043020896e+00	 3.623993770150854e-01	 6.403787055414997e-01
1	 1.536282993215550e+00	 3.983149759469040e-01	 5.984781734465565e-01
1	 1.529205907584642e+00	 4.340776786805960e-01	 5.532051614158505e-01
1	 1.521417557158576e+00	 4.696624069080367e-01	 5.046680840425996e-01
1	 1.512905517695068e+00	 5.050437554940970e-01	 4.529439443686927e-01
1	 1.503658226640188e+00	 5.401960501077737e-01	 3.980746289130198e-01
1	 1.493665038647719e+00	 5.750934079577475e-01	 3.400633420134449e-01
1	 1.482916279286322e+00	 6.097098014158012e-01	 2.788712446597285e-01
1	 1.471403296560924e+00	 6.440191242799742e-01	 2.144143654561245e-01
1	 1.459118509875090e+00	 6.779952603986078e-01	 1.465608525333384e-01
1	 1.446055456065250e+00	 7.116121543469853e-01	 7.512863494996179e-02
1	 1.556686417886749e+00	 3.656939577926278e-01	 6.119658969372626e-01
1	 1.550249375998099e+00	 4.019360662311212e-01	 5.723249634824277e-01
1	 1.543107952424686e+00	 4.380238884888155e-01	 5.292887540620688e-01
1	 1.535248797932060e+00	 4.739321182701246e-01	 4.829733784621476e-01
1	 1.526659375328873e+00	 5.096351194812659e-01	 4.334629649566362e-01
1	 1.517328016945761e+00	 5.451069843853168e-01	 3.808058500395075e-01
1	 1.507243980659426e+00	 5.803215948899214e-01	 3.250109061464528e-01
1	 1.496397504088063e+00	 6.152526867491098e-01	 2.660440740387631e-01
1	 1.484779856581116e+00	 6.498739164288541e-01	 2.038251691276063e-01
1	 1.472383388626781e+00	 6.841589303549737e-01	 1.382250323206144e-01
1	 1.459201578304726e+00	 7.180814362322998e-01	 6.906309578803808e-02
1	 1.570710822204060e+00	 3.689885454886305e-01	 5.864368088312748e-01
1	 1.564215788110238e+00	 4.055571641194287e-01	 5.489352934291629e-01
1	 1.557010026459114e+00	 4.419701065838270e-01	 5.080138374976502e-01
1	 1.549080067751132e+00	 4.782018385983015e-01	 4.637961039848338e-01
1	 1.540413261845648e+00	 5.142264931099342e-01	 4.163731013180102e-01
1	 1.530997835957645e+00	 5.500179289753961e-01	 3.657992592286299e-01
1	 1.520822951186545e+00	 5.855497928008031e-01	 3.120886419143509e-01
1	 1.509878757199894e+00	 6.207955837219393e-01	 2.552113668829933e-01
1	 1.498156444691492e+00	 6.557287208722125e-01	 1.950903005751684e-01
1	 1.485648295234026e+00	 6.903226132544257e-01	 1.315981032865728e-01
1	 1.472347728150277e+00	 7.245507317024646e-01	 6.455469581463809e-02
1	 1.584735252700366e+00	 3.722831393344285e-01	 5.636270477500404e-01
1	 1.578182226293059e+00	 4.091782687669958e-01	 5.281527407305926e-01
1	 1.570912126444055e+00	 4.459163320449563e-01	 4.892313850331697e-01
1	 1.562911363388469e+00	 4.824715668964256e-01	 4.469940501389773e-01
1	 1.554167174036154e+00	 5.188178753089214e-01	 4.015383772836834e-01
1	 1.544667680486245e+00	 5.549288827322758e-01	 3.529245329641911e-01
1	 1.534401947060710e+00	 5.907780004706400e-01	 3.011712997910732e-01
1	 1.523360035476277e+00	 6.263384910411125e-01	 2.462523748778937e-01
1	 1.511533057770965e+00	 6.615835362440975e-01	 1.880929488583657e-01
1	 1.498913226601820e+00	 6.964863076589417e-01	 1.265666401647581e-01
1	 1.485493902534635e+00	 7.310200392481445e-01	 6.149285918678905e-02
1	 1.598759706103210e+00	 3.755777385613570e-01	 5.433779870468620e-01
1	 1.592148687287654e+00	 4.127993793289919e-01	 5.098263700063582e-01
1	 1.584814249135637e+00	 4.498625639515296e-01	 4.727975976821625e-01
1	 1.576742681616749e+00	 4.867413021683550e-01	 4.324299950230071e-01
1	 1.567921108691154e+00	 5.234092650070474e-01	 3.888275865417267e-01
1	 1.558337547341971e+00	 5.598398445102201e-01	 3.420559192851362e-01
1	 1.547980965113555e+00	 5.960062166796786e-01	 2.921380238097449e-01
1	 1.536841335771679e+00	 6.318814074134527e-01	 2.390505853716969e-01
1	 1.524909692698449e+00	 6.674383611785578e-01	 1.827204005884898e-01
1	 1.512178179635163e+00	 7.026500121304985e-01	 1.230211964884283e-01
1	 1.498640098390529e+00	 7.374893573600056e-01	 5.977088892527718e-02
1	 1.612784179140129e+00	 3.788723424007510e-01	 5.255365162072729e-01
1	 1.606115167835117e+00	 4.164204949605868e-01	 4.938104945124033e-01
1	 1.598716391289989e+00	 4.538088013828732e-01	 4.585736768992826e-01
1	 1.590574019208646e+00	 4.910110434179482e-01	 4.199714884369278e-01
1	 1.581675062601407e+00	 5.280006611331310e-01	 3.781140852743122e-01
1	 1.572007433335227e+00	 5.647508131634927e-01	 3.330720390404380e-01
1	 1.561560002176714e+00	 6.012344402081660e-01	 2.848721605526223e-01
1	 1.550322654940563e+00	 6.374243315457835e-01	 2.334935372264100e-01
1	 1.538286346352859e+00	 6.732931943096417e-01	 1.788638617803555e-01
1	 1.525443151239054e+00	 7.088137252310736e-01	 1.208561316012329e-01
1	 1.511786312650691e+00	 7.439586845287128e-01	 5.928579826597661e-02
1	 1.626808668538664e+00	 3.821669500839458e-01	 5.099548031142362e-01
1	 1.620081664676538e+00	 4.200416148169498e-01	 4.799644499328086e-01
1	 1.612618549663240e+00	 4.577550434183133e-01	 4.464256090668166e-01
1	 1.604405372936839e+00	 4.952807896490632e-01	 4.094906462248504e-01
1	 1.595429032557675e+00	 5.325920626159918e-01	 3.692755955143256e-01
1	 1.585677335276421e+00	 5.696617875463581e-01	 3.258556974181733e-01
1	 1.575139055081823e+00	 6.064626698363499e-01	 2.792610780153748e-01
1	 1.563803989837394e+00	 6.429672621449282e-01	 2.294726461885013e-01
1	 1.551663015613107e+00	 6.791480342713972e-01	 1.764182889135032e-01
1	 1.538708138318490e+00	 7.149774455226444e-01	 1.199694466106496e-01
1	 1.524932542247848e+00	 7.504280192449314e-01	 5.993815072947804e-02
1	 1.640833171026356e+00	 3.854615608422766e-01	 4.964900684981004e-01
1	 1.634048174553012e+00	 4.236627380532504e-01	 4.681523797656433e-01
1	 1.626520721011518e+00	 4.617012891371760e-01	 4.362239610270742e-01
1	 1.618236739574002e+00	 4.995505398655581e-01	 4.008639551582399e-01
1	 1.609183015350721e+00	 5.371834683844493e-01	 3.621940185806575e-01
1	 1.599347249975960e+00	 5.745727665130803e-01	 3.202937051344365e-01
1	 1.588718120660515e+00	 6.116909043444767e-01	 2.751959937552089e-01
1	 1.577285337316637e+00	 6.485101979177099e-01	 2.268830392099642e-01
1	 1.565039697358108e+00	 6.850028796978732e-01	 1.752822286521498e-01
1	 1.551973137778469e+00	 7.211411715671885e-01	 1.202626287493914e-01
1	 1.538078784114736e+00	 7.568973599993275e-01	 6.163190838777050e-02
1	 1.654857683330742e+00	 3.887561739070783e-01	 4.850043718489238e-01
1	 1.648014694205628e+00	 4.272838638246583e-01	 4.582430316154199e-01
1	 1.640422902090953e+00	 4.656475376187876e-01	 4.278436860057245e-01
1	 1.632068115892814e+00	 5.038202930712914e-01	 3.939720877349040e-01
1	 1.622937007771303e+00	 5.417748773673225e-01	 3.567552579946467e-01
1	 1.613017174244250e+00	 5.794837489179233e-01	 3.162767087093381e-01
1	 1.602297195744425e+00	 6.169191425127935e-01	 2.725718117724670e-01
1	 1.590766694232754e+00	 6.540531375709525e-01	 2.256233971891177e-01
1	 1.578416388466777e+00	 6.908577292231182e-01	 1.753576657104988e-01
1	 1.565238146523991e+00	 7.273049019266826e-01	 1.216405036463087e-01
1	 1.551225035184080e+00	 7.633667052825658e-01	 6.427428784192918e-02
1	 1.668882202179363e+00	 3.920507885096862e-01	 4.753644081172800e-01
1	 1.661981220375480e+00	 4.309049912863429e-01	 4.501095637509183e-01
1	 1.654325089657674e+00	 4.695937879424743e-01	 4.211639393151990e-01
1	 1.645899498665951e+00	 5.080900482701213e-01	 3.886997263107927e-01
1	 1.636691006610186e+00	 5.463662884934315e-01	 3.528490513202576e-01
1	 1.626687104891698e+00	 5.843947336151508e-01	 3.136990292958881e-01
1	 1.615876277165188e+00	 6.221473831215475e-01	 2.712869676121851e-01
1	 1.604248057440212e+00	 6.595960798114789e-01	 2.255958056361412e-01
1	 1.591793085818026e+00	 6.967125814811796e-01	 1.765498783845335e-01
1	 1.578503161460054e+00	 7.334686351631050e-01	 1.240110950417710e-01
1	 1.564371292388615e+00	 7.698360535853119e-01	 6.777562345749451e-02
1	 1.682906724299760e+00	 3.953454038814352e-01	 4.674413145745255e-01
1	 1.675947749803660e+00	 4.345261195934738e-01	 4.436293613299308e-01
1	 1.668227280467807e+00	 4.735400391875617e-01	 4.160679032679609e-01
1	 1.659730884666089e+00	 5.123598044659057e-01	 3.849353960204369e-01
1	 1.650445008658129e+00	 5.509577006915951e-01	 3.503688104077022e-01
1	 1.640357038728711e+00	 5.893057194590274e-01	 3.124585095630766e-01
1	 1.629455361754438e+00	 6.273756249509855e-01	 2.712432812064092e-01
1	 1.617729423793474e+00	 6.651390233461127e-01	 2.267056128012929e-01
1	 1.605169786290770e+00	 7.025674351061066e-01	 1.787673013033324e-01
1	 1.591768179491655e+00	 7.396323698384317e-01	 1.272854915134890e-01
1	 1.577517552661069e+00	 7.763054033982315e-01	 7.204923743438281e-02
1	 1.446055456065250e+00	 7.116121543469853e-01	 7.512863494996179e-02
1	 1.432207836825179e+00	 7.448461945508820e-01	-2.293382525914336e-03
1	 1.417572442441803e+00	 7.776692863439487e-01	-8.792071580638011e-02
1	 1.402146412454711e+00	 8.100559812720015e-01	-1.817128333652878e-01
1	 1.385928152126612e+00	 8.419811877575717e-01	-2.836526228286192e-01
1	 1.368917358695528e+00	 8.734202465763066e-01	-3.937478599487382e-01
1	 1.351115042782549e+00	 9.043490060417461e-01	-5.120323564879290e-01
1	 1.332523544722111e+00	 9.347438964536106e-01	-6.385667504020841e-01
1	 1.313146545615595e+00	 9.645820033595822e-01	-7.734389071382055e-01
1	 1.292989072945795e+00	 9.938411391797882e-01	-9.167639073764022e-01
1	 1.272057500629041e+00	 1.022499912746946e+00	-1.068683604029472e+00
1	 1.459201578304726e+00	 7.180814362322998e-01	 6.906309578803828e-02
1	 1.445228070050683e+00	 7.516176078332568e-01	-6.046969429896645e-03
1	 1.430459624972012e+00	 7.847390950822563e-01	-8.931072009546027e-02
1	 1.414893356603801e+00	 8.174202181726493e-01	-1.807084220506975e-01
1	 1.398527655710973e+00	 8.496356574188768e-01	-2.802430952200572e-01
1	 1.381362216779143e+00	 8.813605294190271e-01	-3.879417813113175e-01
1	 1.363398059616986e+00	 9.125704629231188e-01	-5.038564936541781e-01
1	 1.344637545834977e+00	 9.432416739582017e-01	-6.280648156244197e-01
1	 1.325084389999482e+00	 9.733510397561601e-01	-7.606701195542506e-01
1	 1.304743665298257e+00	 1.002876171029337e+00	-9.018013845042669e-01
1	 1.283621803593056e+00	 1.031795482142871e+00	-1.051612598639198e+00
1	 1.472347728150277e+00	 7.245507317024646e-01	 6.455469581463816e-02
1	 1.458248330617824e+00	 7.583890353349527e-01	-8.397844027071444e-03
1	 1.443346834564395e+00	 7.918089186665238e-01	-8.945057950696553e-02
1	 1.427640327520521e+00	 8.247844705375758e-01	-1.786043009077337e-01
1	 1.411127185753312e+00	 8.572901431539766e-01	-2.758817689651515e-01
1	 1.393807100995965e+00	 8.893008289357811e-01	-3.813287782021663e-01
1	 1.375681102244761e+00	 9.207919370690237e-01	-4.950149070303588e-01
1	 1.356751572386259e+00	 9.517394693076289e-01	-6.170339242274454e-01
1	 1.337022259451874e+00	 9.821200945672420e-01	-7.475038268579330e-01
1	 1.316498282334426e+00	 1.011911221851995e+00	-8.865664911104307e-01
1	 1.295186130841210e+00	 1.041091071059036e+00	-1.034386924745644e+00
1	 1.485493902534635e+00	 7.310200392481445e-01	 6.149285918678886e-02
1	 1.471268615488724e+00	 7.651604754761316e-01	-9.453803777033268e-03
1	 1.456234068212133e+00	 7.988787554472803e-01	-8.844492984648322e-02
1	 1.440387322230788e+00	 8.321487366486009e-01	-1.755015602538584e-01
1	 1.423726739313953e+00	 8.649446431769593e-01	-2.706658067282056e-01
1	 1.406252008442408e+00	 8.972411432739574e-01	-3.740017074431226e-01
1	 1.387964167800051e+00	 9.290134265612310e-01	-4.855957757424073e-01
1	 1.368865621549567e+00	 9.602372805191779e-01	-6.055572145147359e-01
1	 1.348960151187484e+00	 9.908891657468134e-01	-7.340177745294675e-01
1	 1.328252921311766e+00	 1.020946289539680e+00	-8.711312413567409e-01
1	 1.306750479675358e+00	 1.050386677326566e+00	-1.017072542540739e+00
1	 1.498640098390529e+00	 7.374893573600056e-01	 5.977088892527726e-02
1	 1.484288921625506e+00	 7.719319266769569e-01	-9.318864720043556e-03
1	 1.469121322908410e+00	 8.059486037750556e-01	-8.639473639514417e-02
1	 1.453134337760516e+00	 8.395130147875444e-01	-1.714977442477119e-01
1	 1.436326313453225e+00	 8.725991557019142e-01	-2.646889627928477e-01
1	 1.418696936214885e+00	 9.051814705809439e-01	-3.660501685266510e-01
1	 1.400247253417037e+00	 9.372349294815117e-01	-4.756841856889503e-01
1	 1.380979690498518e+00	 9.687351056101363e-01	-5.937149084089465e-01
1	 1.360898062421025e+00	 9.996582512488599e-01	-7.202869808678881e-01
1	 1.340007579487740e+00	 1.029981371984304e+00	-8.555651233024588e-01
1	 1.318314847397356e+00	 1.059682298776580e+00	-9.997330985142288e-01
1	 1.511786312650691e+00	 7.439586845287128e-01	 5.928579826597673e-02
1	 1.497309245990293e+00	 7.787033873575906e-01	-8.093425893647890e-03
1	 1.482008595646407e+00	 8.130184620003784e-01	-8.339745350951538e-02
1	 1.465881371135623e+00	 8.468773032362267e-01	-1.666870050867058e-01
1	 1.448925905231452e+00	 8.802536789429295e-01	-2.580417312743316e-01
1	 1.431141881409813e+00	 9.131218090041288e-01	-3.575606452658939e-01
1	 1.412530356229895e+00	 9.454564439116367e-01	-4.653622640617874e-01
1	 1.393093776406722e+00	 9.772329425977901e-01	-5.815844382886144e-01
1	 1.372835990367206e+00	 1.008427349027368e+00	-7.063838556071411e-01
1	 1.351762254119812e+00	 1.039016467077784e+00	-8.399352087829298e-01
1	 1.329879231309057e+00	 1.068977933240202e+00	-9.824300261027161e-01
1	 1.524932542247848e+00	 7.504280192449314e-01	 5.993815072947804e-02
1	 1.510329585545209e+00	 7.854748559381955e-01	-5.874425249697484e-03
1	 1.494895883419309e+00	 8.200883284737793e-01	-7.954717597086480e-02
1	 1.478628419382025e+00	 8.542416002764679e-01	-1.611602492333216e-01
1	 1.461525511708960e+00	 8.879082111140940e-01	-2.508114866699651e-01
1	 1.443586841123604e+00	 9.210621566909006e-01	-3.486166401220570e-01
1	 1.424813473372803e+00	 9.536779679333758e-01	-4.547093069122284e-01
1	 1.405207876447794e+00	 9.857307894994263e-01	-5.692405672680395e-01
1	 1.384773932240742e+00	 1.017196457036321e+00	-6.923783124001603e-01
1	 1.363516942465446e+00	 1.048051572712035e+00	-8.243062576081586e-01
1	 1.341443628712318e+00	 1.078273578548551e+00	-9.652226411356020e-01
1	 1.538078784114736e+00	 7.568973599993275e-01	 6.163190838777063e-02
1	 1.523349937252375e+00	 7.922463308389349e-01	-2.755487580067642e-03
1	 1.507783183220298e+00	 8.271582015457860e-01	-7.493478257727834e-02
1	 1.491375479525636e+00	 8.616059041900879e-01	-1.550052761467777e-01
1	 1.474125129946076e+00	 8.955627504294971e-01	-2.430826172058085e-01
1	 1.456031812452673e+00	 9.290025117886478e-01	-3.392988016470606e-01
1	 1.437096601979941e+00	 9.618994996285009e-01	-4.438019001792385e-01
1	 1.417321987795348e+00	 9.942286443323317e-01	-5.567555033124789e-01
1	 1.396711885256342e+00	 1.025965573229707e+00	-6.783378755377983e-01
1	 1.375271641782104e+00	 1.057086686778972e+00	-8.087408164207084e-01
1	 1.353008036908993e+00	 1.087569232532751e+00	-9.481682323891019e-01
1	 1.551225035184080e+00	 7.633667052825658e-01	 6.427428784192918e-02
1	 1.536370298073917e+00	 7.990178104799711e-01	 1.172935075152903e-03
1	 1.520670492042556e+00	 8.342280795669296e-01	-6.964807243844820e-02
1	 1.504122548592373e+00	 8.689702132589067e-01	-1.483069099644043e-01
1	 1.486724757003127e+00	 9.032172951032263e-01	-2.349366514067557e-01
1	 1.468476792493434e+00	 9.369428724447580e-01	-3.296850454495628e-01
1	 1.449379739185485e+00	 9.701210370787814e-01	-4.327140345669596e-01
1	 1.429436107622995e+00	 1.002726505113793e+00	-5.441990075539486e-01
1	 1.408649846628719e+00	 1.034734695561511e+00	-6.643277812443243e-01
1	 1.387026349327250e+00	 1.066121807170510e+00	-7.932993125297552e-01
1	 1.364572453200936e+00	 1.096864893023922e+00	-9.313221475382846e-01
1	 1.564371292388615e+00	 7.698360535853119e-01	 6.777562345749455e-02
1	 1.549390664971957e+00	 8.057892932814672e-01	 5.823430095025065e-03
1	 1.533557806879267e+00	 8.412979608877380e-01	-6.377189440220127e-02
1	 1.516869623608153e+00	 8.763345257647448e-01	-1.411471245472377e-01
1	 1.499324389940438e+00	 9.108718433493710e-01	-2.264523782884015e-01
1	 1.480921778342302e+00	 9.448832368066197e-01	-3.198506690652250e-01
1	 1.461662882123616e+00	 9.783425783659890e-01	-4.215172146332227e-01
1	 1.441550233104349e+00	 1.011224369861097e+00	-5.316384971487543e-01
1	 1.420587813572585e+00	 1.043503821985717e+00	-6.504110738683355e-01
1	 1.398781062358348e+00	 1.075156931778564e+00	-7.780401430165642e-01
1	 1.376136874890005e+00	 1.106160557853187e+00	-9.147378747778389e-01
1	 1.577517552661069e+00	 7.763054033982315e-01	 7.204923743438274e-02
1	 1.562411034908616e+00	 8.125607776635853e-01	 1.111149760816506e-02
1	 1.546445124723613e+00	 8.483678438587413e-01	-5.738827001320317e-02
1	 1.529616701598890e+00	 8.836988399894217e-01	-1.336051622767060e-01
1	 1.511924025818336e+00	 9.185263933820198e-01	-2.177059615425276e-01
1	 1.493366767095691e+00	 9.528236030216212e-01	-3.098684610865075e-01
1	 1.473946027928508e+00	 9.865641215718935e-01	-4.102805624266224e-01
1	 1.453664361413024e+00	 1.019722236591529e+00	-5.191391429949100e-01
1	 1.432525783302651e+00	 1.052272950456313e+00	-6.366486972667706e-01
1	 1.410535778132862e+00	 1.084192058495051e+00	-7.630197593871023e-01
1	 1.387701299278052e+00	 1.115456224851666e+00	-8.984671203639170e-01
1	 1.272057500629041e+00	 1.022499912746946e+00	-1.068683604029472e+00
1	 1.250359540147344e+00	 1.050537798776298e+00	-1.231267742651753e+00
1	 1.227904219449511e+00	 1.077935209275797e+00	-1.406249009493746e+00
1	 1.204701875859538e+00	 1.104673546853691e+00	-1.593228549067459e+00
1	 1.180764136830705e+00	 1.130735259195432e+00	-1.791736004500938e+00
1	 1.156103891891588e+00	 1.156103891891588e+00	-2.001231995938935e+00
1	 1.130735259195432e+00	 1.180764136830706e+00	-2.221111374506833e+00
1	 1.104673546853691e+00	 1.204701875859538e+00	-2.450707210671993e+00
1	 1.077935209275797e+00	 1.227904219449511e+00	-2.689295461932708e+00
1	 1.050537798776297e+00	 1.250359540147344e+00	-2.936100252099975e+00
1	 1.022499912746946e+00	 1.272057500629041e+00	-3.190299683374389e+00
1	 1.283621803593056e+00	 1.031795482142871e+00	-1.051612598639198e+00
1	 1.261726586471149e+00	 1.060088261216182e+00	-1.212040909551281e+00
1	 1.239067123954619e+00	 1.087734742182361e+00	-1.384702127793469e+00
1	 1.215653847344298e+00	 1.114716158580364e+00	-1.569232872251545e+00
1	 1.191498489798890e+00	 1.141014798527169e+00	-1.765199601584433e+00
1	 1.166614058025953e+00	 1.166614058025953e+00	-1.972100817871608e+00
1	 1.141014798527169e+00	 1.191498489798890e+00	-2.189370031656857e+00
1	 1.114716158580364e+00	 1.215653847344298e+00	-2.416379451332218e+00
1	 1.087734742182360e+00	 1.239067123954620e+00	-2.652444346113564e+00
1	 1.060088261216181e+00	 1.261726586471148e+00	-2.896828019304921e+00
1	 1.031795482142871e+00	 1.283621803593056e+00	-3.148747317492867e+00
1	 1.295186130841210e+00	 1.041091071059036e+00	-1.034386924745644e+00
1	 1.273093656664901e+00	 1.069638743711571e+00	-1.192774481804607e+00
1	 1.250230051901031e+00	 1.097534295667453e+00	-1.363232692606431e+00
1	 1.226605841827457e+00	 1.124758791395993e+00	-1.545432118363021e+00
1	 1.202232865308533e+00	 1.151294359445364e+00	-1.738974483018476e+00
1	 1.177124246231041e+00	 1.177124246231041e+00	-1.943394614339020e+00
1	 1.151294359445364e+00	 1.202232865308534e+00	-2.158163132384917e+00
1	 1.124758791395993e+00	 1.226605841827457e+00	-2.382689852239409e+00
1	 1.097534295667452e+00	 1.250230051901031e+00	-2.616327854388575e+00
1	 1.069638743711570e+00	 1.273093656664901e+00	-2.858378163705845e+00
1	 1.041091071059036e+00	 1.295186130841210e+00	-3.108094966954633e+00
1	 1.306750479675358e+00	 1.050386677326566e+00	-1.017072542540739e+00
1	 1.284460748076471e+00	 1.079189244034114e+00	-1.173528157851377e+00
1	 1.261393000684236e+00	 1.107333867444610e+00	-1.341894054981364e+00
1	 1.237557856753712e+00	 1.134801442957407e+00	-1.521873234466385e+00
1	 1.212967260855094e+00	 1.161573939551575e+00	-1.713101164938926e+00
1	 1.187634454054607e+00	 1.187634454054607e+00	-1.915147473643662e+00
1	 1.161573939551575e+00	 1.212967260855095e+00	-2.127518370467262e+00
1	 1.134801442957407e+00	 1.237557856753713e+00	-2.349659776113435e+00
1	 1.107333867444610e+00	 1.261393000684237e+00	-2.580961111783646e+00
1	 1.079189244034114e+00	 1.284460748076472e+00	-2.820759695402343e+00
1	 1.050386677326566e+00	 1.306750479675358e+00	-3.068345678407357e+00
1	 1.318314847397356e+00	 1.059682298776580e+00	-9.997330985142288e-01
1	 1.295827858053730e+00	 1.088739759955460e+00	-1.154359542118041e+00
1	 1.272555967699726e+00	 1.117133455227372e+00	-1.320737694643217e+00
1	 1.248509889567757e+00	 1.144844110921433e+00	-1.498601520972678e+00
1	 1.223701673934031e+00	 1.171853536447356e+00	-1.687618742438685e+00
1	 1.198144679044406e+00	 1.198144679044407e+00	-1.887392288541335e+00
1	 1.171853536447356e+00	 1.223701673934032e+00	-2.097462468455121e+00
1	 1.144844110921433e+00	 1.248509889567758e+00	-2.317309836537528e+00
1	 1.117133455227372e+00	 1.272555967699726e+00	-2.546358712994190e+00
1	 1.088739759955460e+00	 1.295827858053730e+00	-2.783981308655308e+00
1	 1.059682298776580e+00	 1.318314847397355e+00	-3.029502391830112e+00
1	 1.329879231309057e+00	 1.068977933240202e+00	-9.824300261027161e-01
1	 1.307194983944547e+00	 1.098290289247258e+00	-1.135324236120209e+00
1	 1.283718950342991e+00	 1.126933056729275e+00	-1.299813301418341e+00
1	 1.259461937714286e+00	 1.154886792944901e+00	-1.475660703301183e+00
1	 1.234436102040804e+00	 1.182133147734263e+00	-1.662564951424853e+00
1	 1.208654918748195e+00	 1.208654918748196e+00	-1.860160808298505e+00
1	 1.182133147734263e+00	 1.234436102040805e+00	-2.068021219982902e+00
1	 1.154886792944901e+00	 1.259461937714287e+00	-2.285659930614051e+00
1	 1.126933056729275e+00	 1.283718950342991e+00	-2.512534745530580e+00
1	 1.098290289247258e+00	 1.307194983944547e+00	-2.748051395709181e+00
1	 1.068977933240202e+00	 1.329879231309057e+00	-2.991567945263088e+00
1	 1.341443628712318e+00	 1.078273578548551e+00	-9.652226411356020e-01
1	 1.318562123096792e+00	 1.107840829681157e+00	-1.116475924855433e+00
1	 1.294881946009521e+00	 1.136732669663859e+00	-1.279168852450317e+00
1	 1.270413998637995e+00	 1.164929486684639e+00	-1.453092999836587e+00
1	 1.245170542670870e+00	 1.192412771013853e+00	-1.637976227278187e+00
1	 1.219165170713729e+00	 1.219165170713729e+00	-1.833483688058439e+00
1	 1.192412771013853e+00	 1.245170542670870e+00	-2.039219529889207e+00
1	 1.164929486684638e+00	 1.270413998637995e+00	-2.254729269932127e+00
1	 1.136732669663859e+00	 1.294881946009521e+00	-2.479502811667145e+00
1	 1.107840829681157e+00	 1.318562123096793e+00	-2.712978059899577e+00
1	 1.078273578548551e+00	 1.341443628712317e+00	-2.954545079292877e+00
1	 1.353008036908993e+00	 1.087569232532751e+00	-9.481682323891019e-01
1	 1.329929272858337e+00	 1.117391379028806e+00	-1.097866458768057e+00
1	 1.306044952094807e+00	 1.146532291744662e+00	-1.258850685458298e+00
1	 1.281366069783578e+00	 1.174972189797474e+00	-1.430939186403072e+00
1	 1.255904993319687e+00	 1.202692403887681e+00	-1.613887760506100e+00
1	 1.229675432488762e+00	 1.229675432488763e+00	-1.807390535677292e+00
1	 1.202692403887681e+00	 1.255904993319688e+00	-2.011081452281597e+00
1	 1.174972189797473e+00	 1.281366069783578e+00	-2.224536409947942e+00
1	 1.146532291744661e+00	 1.306044952094807e+00	-2.447276049266118e+00
1	 1.117391379028805e+00	 1.329929272858337e+00	-2.678769128089250e+00
1	 1.087569232532751e+00	 1.353008036908992e+00	-2.918436441307785e+00
1	 1.364572453200936e+00	 1.096864893023922e+00	-9.313221475382846e-01
1	 1.341296430577051e+00	 1.126941935061853e+00	-1.079545931548643e+00
1	 1.317207965994339e+00	 1.156331920685220e+00	-1.238903568272228e+00
1	 1.292318148595728e+00	 1.185014899940235e+00	-1.409238657461851e+00
1	 1.266639451482715e+00	 1.212972043957304e+00	-1.590333549567254e+00
1	 1.240185701621051e+00	 1.240185701621051e+00	-1.781909956179876e+00
1	 1.212972043957304e+00	 1.266639451482715e+00	-1.983630226666840e+00
1	 1.185014899940234e+00	 1.292318148595729e+00	-2.195099277872007e+00
1	 1.156331920685220e+00	 1.317207965994339e+00	-2.415867151543367e+00
1	 1.126941935061853e+00	 1.341296430577051e+00	-2.645432162471859e+00
1	 1.096864893023922e+00	 1.364572453200936e+00	-2.883244589536875e+00
1	 1.376136874890005e+00	 1.106160557853187e+00	-9.147378747778389e-01
1	 1.352663593600802e+00	 1.136492495551947e+00	-1.061562754012844e+00
1	 1.328370985103609e+00	 1.166131554199074e+00	-1.219370764864169e+00
1	 1.303270232519143e+00	 1.195057614769750e+00	-1.388029484224775e+00
1	 1.277373914655412e+00	 1.223251688824277e+00	-1.567346451034317e+00
1	 1.250695975658350e+00	 1.250695975658350e+00	-1.757069593975293e+00
1	 1.223251688824276e+00	 1.277373914655412e+00	-1.956888312260435e+00
1	 1.195057614769750e+00	 1.303270232519143e+00	-2.166435199151220e+00
1	 1.166131554199074e+00	 1.328370985103609e+00	-2.385288385838121e+00
1	 1.136492495551947e+00	 1.352663593600803e+00	-2.612974471781111e+00
1	 1.106160557853187e+00	 1.376136874890005e+00	-2.848971996885592e+00
1	 1.387701299278052e+00	 1.115456224851666e+00	-8.984671203639170e-01
1	 1.364030759277465e+00	 1.146043058270738e+00	-1.043963724288390e+00
1	 1.339534006818105e+00	 1.175931189999760e+00	-1.200294098079722e+00
1	 1.314222318998515e+00	 1.205100331942848e+00	-1.367348469863881e+00
1	 1.288108380333235e+00	 1.233531336090155e+00	-1.544958227249869e+00
1	 1.261206252148415e+00	 1.261206252148416e+00	-1.732896172962792e+00
1	 1.233531336090155e+00	 1.288108380333236e+00	-1.930877420581727e+00
1	 1.205100331942847e+00	 1.314222318998515e+00	-2.138560922627323e+00
1	 1.175931189999759e+00	 1.339534006818105e+00	-2.355551611444619e+00
1	 1.146043058270737e+00	 1.364030759277465e+00	-2.581403121939586e+00
1	 1.115456224851666e+00	 1.387701299278052e+00	-2.815621054579585e+00
1	 1.022499912746946e+00	 1.272057500629041e+00	-3.190299683374389e+00
1	 9.938411391797880e-01	 1.292989072945795e+00	-3.453220690265806e+00
1	 9.645820033595817e-01	 1.313146545615596e+00	-3.725774630135425e+00
1	 9.347438964536103e-01	 1.332523544722111e+00	-4.006408110589502e+00
1	 9.043490060417456e-01	 1.351115042782550e+00	-4.293475887335981e+00
1	 8.734202465763062e-01	 1.368917358695529e+00	-4.585255521867669e+00
1	 8.419811877575710e-01	 1.385928152126612e+00	-4.879962548217138e+00
1	 8.100559812720007e-01	 1.402146412454711e+00	-5.175765915050242e+00
1	 7.776692863439484e-01	 1.417572442441804e+00	-5.470803473570782e+00
1	 7.448461945508813e-01	 1.432207836825180e+00	-5.763197290856976e+00
1	 7.116121543469851e-01	 1.446055456065250e+00	-6.051068581813876e+00
1	 1.031795482142871e+00	 1.283621803593056e+00	-3.148747317492867e+00
1	 1.002876171029337e+00	 1.304743665298257e+00	-3.409436457877215e+00
1	 9.733510397561598e-01	 1.325084389999482e+00	-3.679714168098097e+00
1	 9.432416739582011e-01	 1.344637545834978e+00	-3.958066179887724e+00
1	 9.125704629231184e-01	 1.363398059616986e+00	-4.242887128614201e+00
1	 8.813605294190264e-01	 1.381362216779144e+00	-4.532494899298389e+00
1	 8.496356574188763e-01	 1.398527655710974e+00	-4.825145484131987e+00
1	 8.174202181726491e-01	 1.414893356603802e+00	-5.119048121985912e+00
1	 7.847390950822557e-01	 1.430459624972012e+00	-5.412380494323226e+00
1	 7.516176078332562e-01	 1.445228070050684e+00	-5.703303760723796e+00
1	 7.180814362322998e-01	 1.459201578304726e+00	-5.989977230375995e+00
1	 1.041091071059036e+00	 1.295186130841210e+00	-3.108094966954633e+00
1	 1.011911221851995e+00	 1.316498282334426e+00	-3.366622266900761e+00
1	 9.821200945672417e-01	 1.337022259451875e+00	-3.634689196744962e+00
1	 9.517394693076283e-01	 1.356751572386259e+00	-3.910820149317662e+00
1	 9.207919370690233e-01	 1.375681102244761e+00	-4.193449304164443e+00
1	 8.893008289357806e-01	 1.393807100995965e+00	-4.480934660198386e+00
1	 8.572901431539762e-01	 1.411127185753312e+00	-4.771572580828305e+00
1	 8.247844705375753e-01	 1.427640327520522e+00	-5.063612626380965e+00
1	 7.918089186665234e-01	 1.443346834564396e+00	-5.355272452298910e+00
1	 7.583890353349521e-01	 1.458248330617824e+00	-5.644752560050451e+00
1	 7.245507317024646e-01	 1.472347728150277e+00	-5.930250700434352e+00
1	 1.050386677326566e+00	 1.306750479675358e+00	-3.068345678407357e+00
1	 1.020946289539679e+00	 1.328252921311766e+00	-3.324775469547554e+00
1	 9.908891657468131e-01	 1.348960151187485e+00	-3.590691745778896e+00
1	 9.602372805191773e-01	 1.368865621549567e+00	-3.864657102493825e+00
1	 9.290134265612304e-01	 1.387964167800052e+00	-4.145144930259795e+00
1	 8.972411432739568e-01	 1.406252008442408e+00	-4.430553132434364e+00
1	 8.649446431769587e-01	 1.423726739313954e+00	-4.719218354797499e+00
1	 8.321487366486005e-01	 1.440387322230788e+00	-5.009430506452185e+00
1	 7.988787554472800e-01	 1.456234068212134e+00	-5.299447354667761e+00
1	 7.651604754761312e-01	 1.471268615488724e+00	-5.587508984473114e+00
1	 7.310200392481446e-01	 1.485493902534635e+00	-5.871851926161493e+00
1	 1.059682298776580e+00	 1.318314847397355e+00	-3.029502391830112e+00
1	 1.029981371984303e+00	 1.340007579487740e+00	-3.283893511082724e+00
1	 9.996582512488599e-01	 1.360898062421025e+00	-3.547714124620192e+00
1	 9.687351056101354e-01	 1.380979690498518e+00	-3.819564576195265e+00
1	 9.372349294815112e-01	 1.400247253417037e+00	-4.097957136488088e+00
1	 9.051814705809433e-01	 1.418696936214885e+00	-4.381329404035800e+00
1	 8.725991557019135e-01	 1.436326313453225e+00	-4.668058216307478e+00
1	 8.395130147875441e-01	 1.453134337760517e+00	-4.956473854711561e+00
1	 8.059486037750551e-01	 1.469121322908410e+00	-5.244874330526633e+00
1	 7.719319266769559e-01	 1.484288921625506e+00	-5.531539546571612e+00
1	 7.374893573600056e-01	 1.498640098390529e+00	-5.814745141408562e+00
1	 1.068977933240202e+00	 1.329879231309057e+00	-2.991567945263088e+00
1	 1.039016467077783e+00	 1.351762254119812e+00	-3.243973925872985e+00
1	 1.008427349027367e+00	 1.372835990367206e+00	-3.505748910338898e+00
1	 9.772329425977898e-01	 1.393093776406722e+00	-3.775530540756844e+00
1	 9.454564439116363e-01	 1.412530356229895e+00	-4.051869639179693e+00
1	 9.131218090041283e-01	 1.431141881409813e+00	-4.333243290236966e+00
1	 8.802536789429289e-01	 1.448925905231452e+00	-4.618068430633802e+00
1	 8.468773032362263e-01	 1.465881371135624e+00	-4.904715733955677e+00
1	 8.130184620003781e-01	 1.482008595646407e+00	-5.191523582206328e+00
1	 7.787033873575901e-01	 1.497309245990293e+00	-5.476811923042405e+00
1	 7.439586845287128e-01	 1.511786312650691e+00	-5.758895823277816e+00
1	 1.078273578548551e+00	 1.341443628712317e+00	-2.954545079292877e+00
1	 1.048051572712034e+00	 1.363516942465446e+00	-3.205014333638193e+00
1	 1.017196457036321e+00	 1.384773932240742e+00	-3.464788936210770e+00
1	 9.857307894994257e-01	 1.405207876447794e+00	-3.732543381474038e+00
1	 9.536779679333754e-01	 1.424813473372804e+00	-4.006866716208956e+00
1	 9.210621566909001e-01	 1.443586841123604e+00	-4.286275302222624e+00
1	 8.879082111140938e-01	 1.461525511708960e+00	-4.569226081294947e+00
1	 8.542416002764672e-01	 1.478628419382025e+00	-4.854130135529859e+00
1	 8.200883284737788e-01	 1.494895883419310e+00	-5.139366339095797e+00
1	 7.854748559381950e-01	 1.510329585545209e+00	-5.423294904602355e+00
1	 7.504280192449314e-01	 1.524932542247848e+00	-5.704270638612218e+00
1	 1.087569232532751e+00	 1.353008036908992e+00	-2.918436441307785e+00
1	 1.057086686778971e+00	 1.375271641782104e+00	-3.167012435895231e+00
1	 1.025965573229707e+00	 1.396711885256342e+00	-3.424827280860127e+00
1	 9.942286443323313e-01	 1.417321987795348e+00	-3.690591880960922e+00
1	 9.618994996285004e-01	 1.437096601979941e+00	-3.962933183086865e+00
1	 9.290025117886472e-01	 1.456031812452673e+00	-4.240406617475688e+00
1	 8.955627504294964e-01	 1.474125129946077e+00	-4.521509035172057e+00
1	 8.616059041900874e-01	 1.491375479525636e+00	-4.804691939731670e+00
1	 8.271582015457856e-01	 1.507783183220298e+00	-5.088374813833165e+00
1	 7.922463308389345e-01	 1.523349937252376e+00	-5.370958348460397e+00
1	 7.568973599993274e-01	 1.538078784114736e+00	-5.650837393227579e+00
1	 1.096864893023922e+00	 1.364572453200936e+00	-2.883244589536875e+00
1	 1.066121807170509e+00	 1.387026349327251e+00	-3.129966012582577e+00
1	 1.034734695561510e+00	 1.408649846628719e+00	-3.385857257954097e+00
1	 1.002726505113793e+00	 1.429436107622995e+00	-3.649665202404726e+00
1	 9.701210370787809e-01	 1.449379739185485e+00	-3.920054370269066e+00
1	 9.369428724447576e-01	 1.468476792493435e+00	-4.195619051631954e+00
1	 9.032172951032259e-01	 1.486724757003127e+00	-4.474895909401120e+00
1	 8.689702132589063e-01	 1.504122548592373e+00	-4.756376878226711e+00
1	 8.342280795669288e-01	 1.520670492042557e+00	-5.038522160722882e+00
1	 7.990178104799709e-01	 1.536370298073918e+00	-5.319773133204217e+00
1	 7.633667052825658e-01	 1.551225035184081e+00	-5.598564983724676e+00
1	 1.106160557853187e+00	 1.376136874890005e+00	-2.848971996885592e+00
1	 1.075156931778564e+00	 1.398781062358349e+00	-3.093872918854906e+00
1	 1.043503821985717e+00	 1.420587813572585e+00	-3.347872406416474e+00
1	 1.011224369861096e+00	 1.441550233104349e+00	-3.609752873664079e+00
1	 9.783425783659885e-01	 1.461662882123616e+00	-3.878216101607058e+00
1	 9.448832368066190e-01	 1.480921778342302e+00	-4.151895031752717e+00
1	 9.108718433493705e-01	 1.499324389940438e+00	-4.429366039933677e+00
1	 8.763345257647444e-01	 1.516869623608153e+00	-4.709161498358137e+00
1	 8.412979608877375e-01	 1.533557806879267e+00	-4.989782436248550e+00
1	 8.057892932814669e-01	 1.549390664971957e+00	-5.269711115960594e+00
1	 7.698360535853118e-01	 1.564371292388615e+00	-5.547423351729730e+00
1	 1.115456224851666e+00	 1.387701299278052e+00	-2.815621054579585e+00
1	 1.084192058495050e+00	 1.410535778132863e+00	-3.058731082037984e+00
1	 1.052272950456312e+00	 1.432525783302652e+00	-3.310866481130433e+00
1	 1.019722236591529e+00	 1.453664361413024e+00	-3.570844772162145e+00
1	 9.865641215718933e-01	 1.473946027928509e+00	-3.837404673876519e+00
1	 9.528236030216204e-01	 1.493366767095692e+00	-4.109217570933546e+00
1	 9.185263933820192e-01	 1.511924025818336e+00	-4.384899451668458e+00
1	 8.836988399894211e-01	 1.529616701598891e+00	-4.663023129240069e+00
1	 8.483678438587410e-01	 1.546445124723613e+00	-4.942130561558868e+00
1	 8.125607776635847e-01	 1.562411034908617e+00	-5.220745091696371e+00
1	 7.763054033982313e-01	 1.577517552661069e+00	-5.497383440421616e+00
1	 7.116121543469851e-01	 1.446055456065250e+00	-6.051068581813876e+00
1	 6.779952603986081e-01	 1.459118509875090e+00	-6.334952792031205e+00
1	 6.440191242799743e-01	 1.471403296560924e+00	-6.615416013088319e+00
1	 6.097098014158014e-01	 1.482916279286323e+00	-6.890584427679111e+00
1	 5.750934079577478e-01	 1.493665038647719e+00	-7.158609088563782e+00
1	 5.401960501077742e-01	 1.503658226640188e+00	-7.417678232265434e+00
1	 5.050437554940973e-01	 1.512905517695068e+00	-7.666028572530913e+00
1	 4.696624069080371e-01	 1.521417557158576e+00	-7.901955493429721e+00
1	 4.340776786805963e-01	 1.529205907584642e+00	-8.123822085842800e+00
1	 3.983149759469042e-01	 1.536282993215550e+00	-8.330066993980898e+00
1	 3.623993770150853e-01	 1.542662043020896e+00	-8.519211060009608e+00
1	 7.180814362322998e-01	 1.459201578304726e+00	-5.989977230375995e+00
1	 6.841589303549738e-01	 1.472383388626782e+00	-6.272931024383697e+00
1	 6.498739164288544e-01	 1.484779856581117e+00	-6.552688400238445e+00
1	 6.152526867491104e-01	 1.496397504088063e+00	-6.827354524147654e+00
1	 5.803215948899217e-01	 1.507243980659427e+00	-7.095056845973931e+00
1	 5.451069843853170e-01	 1.517328016945761e+00	-7.353957802310901e+00
1	 5.096351194812663e-01	 1.526659375328873e+00	-7.602266498052891e+00
1	 4.739321182701249e-01	 1.535248797932060e+00	-7.838249280971509e+00
1	 4.380238884888158e-01	 1.543107952424687e+00	-8.060239148244390e+00
1	 4.019360662311215e-01	 1.550249375998100e+00	-8.266643947373240e+00
1	 3.656939577926278e-01	 1.556686417886749e+00	-8.455953355995982e+00
1	 7.245507317024646e-01	 1.472347728150277e+00	-5.930250700434351e+00
1	 6.903226132544259e-01	 1.485648295234026e+00	-6.212286411639120e+00
1	 6.557287208722129e-01	 1.498156444691492e+00	-6.491336029947891e+00
1	 6.207955837219395e-01	 1.509878757199893e+00	-6.765485879496578e+00
1	 5.855497928008034e-01	 1.520822951186545e+00	-7.032841977145613e+00
1	 5.500179289753964e-01	 1.530997835957644e+00	-7.291543110235023e+00
1	 5.142264931099344e-01	 1.540413261845647e+00	-7.539772892678530e+00
1	 4.782018385983018e-01	 1.549080067751132e+00	-7.775770708644827e+00
1	 4.419701065838273e-01	 1.557010026459114e+00	-7.997841478036222e+00
1	 4.055571641194289e-01	 1.564215788110238e+00	-8.204364202040271e+00
1	 3.689885454886305e-01	 1.570710822204060e+00	-8.393799269707594e+00
1	 7.310200392481446e-01	 1.485493902534635e+00	-5.871851926161492e+00
1	 6.964863076589421e-01	 1.498913226601821e+00	-6.152979843770730e+00
1	 6.615835362440979e-01	 1.511533057770965e+00	-6.431318005347928e+00
1	 6.263384910411126e-01	 1.523360035476277e+00	-6.704936016477682e+00
1	 5.907780004706401e-01	 1.534401947060710e+00	-6.971920580220324e+00
1	 5.549288827322761e-01	 1.544667680486245e+00	-7.230388935145774e+00
1	 5.188178753089218e-01	 1.554167174036154e+00	-7.478501272643352e+00
1	 4.824715668964258e-01	 1.562911363388469e+00	-7.714472037587814e+00
1	 4.459163320449566e-01	 1.570912126444055e+00	-7.936580041903355e+00
1	 4.091782687669960e-01	 1.578182226293059e+00	-8.143177345183629e+00
1	 3.722831393344285e-01	 1.584735252700366e+00	-8.332696879785709e+00
1	 7.374893573600056e-01	 1.498640098390529e+00	-5.814745141408560e+00
1	 7.026500121304988e-01	 1.512178179635163e+00	-6.094973582036535e+00
1	 6.674383611785580e-01	 1.524909692698449e+00	-6.372594863435097e+00
1	 6.318814074134532e-01	 1.536841335771679e+00	-6.645663947048895e+00
1	 5.960062166796790e-01	 1.547980965113555e+00	-6.912250292426261e+00
1	 5.598398445102205e-01	 1.558337547341970e+00	-7.170451641419168e+00
1	 5.234092650070477e-01	 1.567921108691153e+00	-7.418406783667382e+00
1	 4.867413021683554e-01	 1.576742681616749e+00	-7.654307202372283e+00
1	 4.498625639515298e-01	 1.584814249135637e+00	-7.876407525300483e+00
1	 4.127993793289922e-01	 1.592148687287655e+00	-8.083034731099199e+00
1	 3.755777385613569e-01	 1.598759706103210e+00	-8.272596084825091e+00
1	 7.439586845287128e-01	 1.511786312650691e+00	-5.758895823277816e+00
1	 7.088137252310740e-01	 1.525443151239054e+00	-6.038231199434935e+00
1	 6.732931943096422e-01	 1.538286346352859e+00	-6.315128512801569e+00
1	 6.374243315457838e-01	 1.550322654940563e+00	-6.587630107694083e+00
1	 6.012344402081665e-01	 1.561560002176714e+00	-6.853790223224554e+00
1	 5.647508131634932e-01	 1.572007433335227e+00	-7.111689109832806e+00
1	 5.280006611331313e-01	 1.581675062601407e+00	-7.359446130161281e+00
1	 4.910110434179485e-01	 1.590574019208646e+00	-7.595231738294259e+00
1	 4.538088013828737e-01	 1.598716391289989e+00	-7.817278257766025e+00
1	 4.164204949605870e-01	 1.606115167835117e+00	-8.023889404385876e+00
1	 3.788723424007510e-01	 1.612784179140129e+00	-8.213448524279981e+00
1	 7.504280192449314e-01	 1.524932542247848e+00	-5.704270638612219e+00
1	 7.149774455226450e-01	 1.538708138318490e+00	-5.982717524238237e+00
1	 6.791480342713977e-01	 1.551663015613107e+00	-6.258882174584825e+00
1	 6.429672621449286e-01	 1.563803989837395e+00	-6.530796298086733e+00
1	 6.064626698363502e-01	 1.575139055081823e+00	-6.796500890911734e+00
1	 5.696617875463584e-01	 1.585677335276421e+00	-7.054060672259573e+00
1	 5.325920626159921e-01	 1.595429032557675e+00	-7.301577508092163e+00
1	 4.952807896490634e-01	 1.604405372936839e+00	-7.537202712422649e+00
1	 4.577550434183135e-01	 1.612618549663240e+00	-7.759148142097562e+00
1	 4.200416148169501e-01	 1.620081664676538e+00	-7.965696027123808e+00
1	 3.821669500839457e-01	 1.626808668538665e+00	-8.155207503458973e+00
1	 7.568973599993274e-01	 1.538078784114736e+00	-5.650837393227581e+00
1	 7.211411715671887e-01	 1.551973137778469e+00	-5.928398586420589e+00
1	 6.850028796978735e-01	 1.565039697358109e+00	-6.203820326443514e+00
1	 6.485101979177100e-01	 1.577285337316637e+00	-6.475125622896907e+00
1	 6.116909043444768e-01	 1.588718120660515e+00	-6.740344162471430e+00
1	 5.745727665130806e-01	 1.599347249975960e+00	-6.997527049708424e+00
1	 5.371834683844495e-01	 1.609183015350720e+00	-7.244760541290272e+00
1	 4.995505398655584e-01	 1.618236739574002e+00	-7.480178658182822e+00
1	 4.617012891371763e-01	 1.626520721011518e+00	-7.701974587157067e+00
1	 4.236627380532507e-01	 1.634048174553011e+00	-7.908410809785231e+00
1	 3.854615608422766e-01	 1.640833171026356e+00	-8.097827922363978e+00
1	 7.633667052825658e-01	 1.551225035184081e+00	-5.598564983724676e+00
1	 7.273049019266828e-01	 1.565238146523991e+00	-5.875241566808052e+00
1	 6.908577292231181e-01	 1.578416388466777e+00	-6.149908649380750e+00
1	 6.540531375709528e-01	 1.590766694232754e+00	-6.420582436555943e+00
1	 6.169191425127937e-01	 1.602297195744425e+00	-6.685283196482747e+00
1	 5.794837489179234e-01	 1.613017174244251e+00	-6.942050293513903e+00
1	 5.417748773673230e-01	 1.622937007771304e+00	-7.188956220992464e+00
1	 5.038202930712917e-01	 1.632068115892814e+00	-7.424119513263629e+00
1	 4.656475376187880e-01	 1.640422902090953e+00	-7.645716444090960e+00
1	 4.272838638246586e-01	 1.648014694205628e+00	-7.851991445656262e+00
1	 3.887561739070783e-01	 1.654857683330742e+00	-8.041266208145835e+00
1	 7.698360535853118e-01	 1.564371292388615e+00	-5.547423351729730e+00
1	 7.334686351631050e-01	 1.578503161460053e+00	-5.823214748791606e+00
1	 6.967125814811799e-01	 1.591793085818026e+00	-6.097113977246971e+00
1	 6.595960798114791e-01	 1.604248057440212e+00	-6.367132290804347e+00
1	 6.221473831215476e-01	 1.615876277165188e+00	-6.631282388905912e+00
1	 5.843947336151513e-01	 1.626687104891698e+00	-6.887593729489275e+00
1	 5.463662884934321e-01	 1.636691006610186e+00	-7.134126848432476e+00
1	 5.080900482701216e-01	 1.645899498665951e+00	-7.368986560654275e+00
1	 4.695937879424745e-01	 1.654325089657673e+00	-7.590333945764256e+00
1	 4.309049912863432e-01	 1.661981220375480e+00	-7.796397048563355e+00
1	 3.920507885096861e-01	 1.668882202179363e+00	-7.985480250963398e+00
1	 7.763054033982313e-01	 1.577517552661069e+00	-5.497383440421614e+00
1	 7.396323698384324e-01	 1.591768179491655e+00	-5.772287472452722e+00
1	 7.025674351061071e-01	 1.605169786290770e+00	-6.045404248766227e+00
1	 6.651390233461130e-01	 1.617729423793473e+00	-6.314741884861115e+00
1	 6.273756249509856e-01	 1.629455361754438e+00	-6.578307321576639e+00
1	 5.893057194590278e-01	 1.640357038728711e+00	-6.834121904870551e+00
1	 5.509577006915954e-01	 1.650445008658129e+00	-7.080235980299920e+00
1	 5.123598044659060e-01	 1.659730884666089e+00	-7.314742372627229e+00
1	 4.735400391875621e-01	 1.668227280467808e+00	-7.535788649221285e+00
1	 4.345261195934739e-01	 1.675947749803660e+00	-7.741588093711821e+00
1	 3.953454038814352e-01	 1.682906724299760e+00	-7.930429343048038e+00
1	 3.623993770150853e-01	 1.542662043020896e+00	-8.519211060009608e+00
1	 3.263530585742443e-01	 1.548357407728751e+00	-8.691282614929492e+00
1	 2.902028324592135e-01	 1.553383283288272e+00	-8.846913155147213e+00
1	 2.539725263249901e-01	 1.557754965574446e+00	-8.985699925447459e+00
1	 2.176854422294076e-01	 1.561488320293919e+00	-9.107327950505132e+00
1	 1.813643166387074e-01	 1.564599723976281e+00	-9.211564827245478e+00
1	 1.450312841900338e-01	 1.567106005523594e+00	-9.298255257046932e+00
1	 1.087078452135093e-01	 1.569024388591723e+00	-9.367315403522175e+00
1	 7.241483699079308e-02	 1.570372435055877e+00	-9.418727154632194e+00
1	 3.617240870313355e-02	 1.571167989790866e+00	-9.452532360397285e+00
1	 0.000000000000000e+00	 1.571429126974074e+00	-9.468827109686623e+00
1	 3.656939577926278e-01	 1.556686417886749e+00	-8.455953355995984e+00
1	 3.293199414712120e-01	 1.562433559281498e+00	-8.628242786352018e+00
1	 2.928410728486677e-01	 1.567505125187194e+00	-8.784183846211041e+00
1	 2.562813961977030e-01	 1.571916550533969e+00	-8.923332115400335e+00
1	 2.196644254156484e-01	 1.575683845263964e+00	-9.045331211042811e+00
1	 1.830131036664362e-01	 1.578823534786167e+00	-9.149907866218625e+00
1	 1.463497668136618e-01	 1.581352600994570e+00	-9.236866719100293e+00
1	 1.096961106473998e-01	 1.583288424125677e+00	-9.306084897963059e+00
1	 7.307316188147454e-02	 1.584648725710099e+00	-9.357506480961124e+00
1	 3.650125287376429e-02	 1.585451512850806e+00	-9.391136902476198e+00
1	 0.000000000000000e+00	 1.585715024037928e+00	-9.407037370415260e+00
1	 3.689885454886305e-01	 1.570710822204060e+00	-8.393799269707594e+00
1	 3.322868305985031e-01	 1.576509740394501e+00	-8.566268012920963e+00
1	 2.954793187783156e-01	 1.581626996742376e+00	-8.722478462657440e+00
1	 2.585902709189448e-01	 1.586078165233253e+00	-8.861942631019756e+00
1	 2.216434127576642e-01	 1.589879400045076e+00	-8.984260936905196e+00
1	 1.846618941565348e-01	 1.593047375466543e+00	-9.089117577354784e+00
1	 1.476682522060273e-01	 1.595599226383897e+00	-9.176275578249783e+00
1	 1.106843781565813e-01	 1.597552489614615e+00	-9.245571609528509e+00
1	 7.373148815458633e-02	 1.598925046345047e+00	-9.296910644066559e+00
1	 3.683009773493729e-02	 1.599735065906658e+00	-9.330260532697888e+00
1	 0.000000000000000e+00	 1.600000951102682e+00	-9.345646560780150e+00
1	 3.722831393344285e-01	 1.584735252700366e+00	-8.332696879785713e+00
1	 3.352537252638942e-01	 1.590585947783202e+00	-8.505304929967984e+00
1	 2.981175696325952e-01	 1.595748894658584e+00	-8.661742518154229e+00
1	 2.608991499499848e-01	 1.600239806367783e+00	-8.801476233582868e+00
1	 2.236224037936799e-01	 1.604074981324811e+00	-8.924061550650139e+00
1	 1.863106877242587e-01	 1.607271242698359e+00	-9.029138499329123e+00
1	 1.489867400594469e-01	 1.609845878367206e+00	-9.116426982081245e+00
1	 1.116726475104179e-01	 1.611816581730097e+00	-9.185721822305759e+00
1	 7.438981565648303e-02	 1.613201393629416e+00	-9.236887623836788e+00
1	 3.715894320989912e-02	 1.614018645625435e+00	-9.269853514760786e+00
1	 0.000000000000000e+00	 1.614286904834791e+00	-9.284607842116548e+00
1	 3.755777385613569e-01	 1.598759706103210e+00	-8.272596084825091e+00
1	 3.382206247751618e-01	 1.604662178163041e+00	-8.445302043353003e+00
1	 3.007558247959438e-01	 1.609870815640586e+00	-8.601923436188105e+00
1	 2.632080327520928e-01	 1.614401470633040e+00	-8.741879620516812e+00
1	 2.256013980619198e-01	 1.618270585790723e+00	-8.864679422794337e+00
1	 1.879594839848633e-01	 1.621495133162564e+00	-8.969917114613683e+00
1	 1.503052300662377e-01	 1.624092553620127e+00	-9.057268000508806e+00
1	 1.126609184782738e-01	 1.626080697143680e+00	-9.126483702710408e+00
1	 7.504814423351923e-02	 1.627477764231905e+00	-9.177387222840601e+00
1	 3.748778922189638e-02	 1.628302248674145e+00	-9.209867854738034e+00
1	 0.000000000000000e+00	 1.628572881900711e+00	-9.223876016261009e+00
1	 3.788723424007510e-01	 1.612784179140129e+00	-8.213448524279981e+00
1	 3.411875284400819e-01	 1.618738428249461e+00	-8.386209648167137e+00
1	 3.033940836527992e-01	 1.623992756393148e+00	-8.542970467055463e+00
1	 2.655169187865384e-01	 1.628563154724507e+00	-8.683101341240162e+00
1	 2.275803951006083e-01	 1.632466210130370e+00	-8.806062787136980e+00
1	 1.896082825536040e-01	 1.635719043540108e+00	-8.911401764976976e+00
1	 1.516237219187161e-01	 1.638339248818289e+00	-8.998747542202471e+00
1	 1.136491908295131e-01	 1.640344832526921e+00	-9.067807217646770e+00
1	 7.570647373204954e-02	 1.641754154821212e+00	-9.118360987074364e+00
1	 3.781663569417570e-02	 1.642585871719799e+00	-9.150257225307827e+00
1	 0.000000000000000e+00	 1.642858878966899e+00	-9.163407454202003e+00
1	 3.821669500839457e-01	 1.626808668538665e+00	-8.155207503458973e+00
1	 3.441544355664312e-01	 1.632814694757902e+00	-8.327979751638349e+00
1	 3.060323455875985e-01	 1.638114713621036e+00	-8.484834609143952e+00
1	 2.678258075145910e-01	 1.642724855337668e+00	-8.625091717355165e+00
1	 2.295593944479702e-01	 1.646661851031305e+00	-8.748161660460324e+00
1	 1.912570830457364e-01	 1.649942970511941e+00	-8.853542571351918e+00
1	 1.529422153091992e-01	 1.652585960637322e+00	-8.940816275335852e+00
1	 1.146374643335000e-01	 1.654608984551381e+00	-9.009644056899077e+00
1	 7.636480399842863e-02	 1.656030562066033e+00	-9.059762130805609e+00
1	 3.814548254998362e-02	 1.656869511429404e+00	-9.090976893900690e+00
1	 0.000000000000000e+00	 1.657144892699808e+00	-9.103160028419095e+00
1	 3.854615608422766e-01	 1.640833171026356e+00	-8.097827922363978e+00
1	 3.471213454619858e-01	 1.646890974403806e+00	-8.270565999988539e+00
1	 3.086706099847795e-01	 1.652236684029017e+00	-8.427468534248950e+00
1	 2.701346983975204e-01	 1.656886569168003e+00	-8.567802766930003e+00
1	 2.315383956422299e-01	 1.660857505181086e+00	-8.690927766346656e+00
1	 1.929058850765158e-01	 1.664166910759013e+00	-8.796291357810549e+00
1	 1.542607099300037e-01	 1.666832685752855e+00	-8.883426552395886e+00
1	 1.156257387595986e-01	 1.668873149888614e+00	-8.951947559500324e+00
1	 7.702313487901102e-02	 1.670306982635067e+00	-9.001545465269023e+00
1	 3.847432971256679e-02	 1.671153164469973e+00	-9.031983654529604e+00
1	 0.000000000000000e+00	 1.671430919765895e+00	-9.043093048689881e+00
1	 3.887561739070783e-01	 1.654857683330742e+00	-8.041266208145835e+00
1	 3.500882574345220e-01	 1.660967263902613e+00	-8.213923609007523e+00
1	 3.113088762287797e-01	 1.666358664321857e+00	-8.370826516685227e+00
1	 2.724435908965959e-01	 1.671048292910997e+00	-8.511188132629593e+00
1	 2.335173982216118e-01	 1.675053169267265e+00	-8.634314462866332e+00
1	 1.945546882611978e-01	 1.678390860962273e+00	-8.739601579402743e+00
1	 1.555792054734463e-01	 1.681079420840518e+00	-8.826532338813882e+00
1	 1.166140138771731e-01	 1.683137325210182e+00	-8.894672643843013e+00
1	 7.768146622015146e-02	 1.684583413197011e+00	-8.943667330985713e+00
1	 3.880317710517176e-02	 1.685436827508512e+00	-8.973235763084343e+00
1	 0.000000000000000e+00	 1.685716956831615e+00	-8.983167201159324e+00
1	 3.920507885096861e-01	 1.668882202179363e+00	-7.985480250963400e+00
1	 3.530551707918164e-01	 1.675043559969767e+00	-8.158009298125723e+00
1	 3.139471437040367e-01	 1.680480651204323e+00	-8.314864365970976e+00
1	 2.747524844730875e-01	 1.685210023262131e+00	-8.455203013467562e+00
1	 2.354964017243407e-01	 1.689248839977401e+00	-8.578276673909739e+00
1	 1.962034922150377e-01	 1.692614817802672e+00	-8.683428253630829e+00
1	 1.568977016318438e-01	 1.695326162575941e+00	-8.770089145192609e+00
1	 1.176022894555876e-01	 1.697401507187642e+00	-8.837775741311804e+00
1	 7.833979786820437e-02	 1.698859850420562e+00	-8.886085533493500e+00
1	 3.913202465104514e-02	 1.699720497212033e+00	-8.914692875886489e+00
1	 0.000000000000000e+00	 1.700003000563425e+00	-8.923344490479280e+00
1	 3.953454038814352e-01	 1.682906724299760e+00	-7.930429343048038e+00
1	 3.560220848416451e-01	 1.689119859320706e+00	-8.102781227781389e+00
1	 3.165854117949879e-01	 1.694602641381182e+00	-8.259539362875797e+00
1	 2.770613785882645e-01	 1.699371756916888e+00	-8.399804099968978e+00
1	 2.374754056886408e-01	 1.703444513999047e+00	-8.522770823951262e+00
1	 1.978522965532911e-01	 1.706838777961158e+00	-8.627727895349130e+00
1	 1.582161980975129e-01	 1.709572907634753e+00	-8.714053962920760e+00
1	 1.185905652642063e-01	 1.711665692492552e+00	-8.781214733232863e+00
1	 7.899812966952448e-02	 1.713136290974417e+00	-8.828759282288447e+00
1	 3.946087227343351e-02	 1.714004170247544e+00	-8.856315991315304e+00
1	 0.000000000000000e+00	 1.714289047627778e+00	-8.863588184839763e+00
1	 1.714289047627778e+00	 0.000000000000000e+00	 5.922908452135081e-01
1	 1.714004170247544e+00	 3.946087227343405e-02	 5.859511261917703e-01
1	 1.713136290974417e+00	 7.899812966952499e-02	 5.787969132745396e-01
1	 1.711665692492551e+00	 1.185905652642067e-01	 5.705990224974153e-01
1	 1.709572907634753e+00	 1.582161980975134e-01	 5.611368742273560e-01
1	 1.706838777961159e+00	 1.978522965532914e-01	 5.502018712759549e-01
1	 1.703444513999047e+00	 2.374754056886410e-01	 5.376009994697395e-01
1	 1.699371756916888e+00	 2.770613785882647e-01	 5.231606284176737e-01
1	 1.694602641381181e+00	 3.165854117949879e-01	 5.067304840917146e-01
1	 1.689119859320706e+00	 3.560220848416451e-01	 4.881877584275124e-01
1	 1.682906724299760e+00	 3.953454038814352e-01	 4.674413145745253e-01
1	 1.728574095521189e+00	 0.000000000000000e+00	 5.824098950325771e-01
1	 1.728286844278154e+00	 3.978969689590382e-02	 5.759342064828634e-01
1	 1.727411733029215e+00	 7.965641542658061e-02	 5.686858772889885e-01
1	 1.725928880155543e+00	 1.195787719521365e-01	 5.604589616385149e-01
1	 1.723818656271432e+00	 1.595346023467900e-01	 5.510581344519070e-01
1	 1.721061743291110e+00	 1.995009855734061e-01	 5.403021339516141e-01
1	 1.717639195170523e+00	 2.394542712406711e-01	 5.280274111556738e-01
1	 1.713532500095309e+00	 2.793701112187154e-01	 5.140919615936557e-01
1	 1.708723643861422e+00	 3.192234953648744e-01	 4.983793083909722e-01
1	 1.703195174170718e+00	 3.589887913849909e-01	 4.808025994773669e-01
1	 1.696930265540624e+00	 3.986397888273382e-01	 4.613087751691024e-01
1	 1.742859145080407e+00	 0.000000000000000e+00	 5.746171537997313e-01
1	 1.742569519974292e+00	 4.011852155654502e-02	 5.681652215408932e-01
1	 1.741687176748694e+00	 8.031470126013213e-02	 5.609175250738569e-01
1	 1.740192069481785e+00	 1.205669787550092e-01	 5.527008662186488e-01
1	 1.738064406569329e+00	 1.608530067495478e-01	 5.433548011964107e-01
1	 1.735284710279628e+00	 2.011496747855981e-01	 5.327350654921152e-01
1	 1.731833877997279e+00	 2.414331370233990e-01	 5.207171815580174e-01
1	 1.727693244925074e+00	 2.816788441184743e-01	 5.072002224657601e-01
1	 1.722844647988404e+00	 3.218615792426328e-01	 4.921106986019483e-01
1	 1.717270490662191e+00	 3.619554982746882e-01	 4.754065283111925e-01
1	 1.710953808416969e+00	 4.019341741579514e-01	 4.570810471489385e-01
1	 1.757144197972236e+00	 0.000000000000000e+00	 5.687237889395675e-01
1	 1.756852199002485e+00	 4.044734629376737e-02	 5.624787519396539e-01
1	 1.755962623798535e+00	 8.097298724705353e-02	 5.553482495566737e-01
1	 1.754455262135521e+00	 1.215551857881995e-01	 5.472010547302821e-01
1	 1.752310160190644e+00	 1.621714114596792e-01	 5.379209406980505e-01
1	 1.749507680586243e+00	 2.027983643822760e-01	 5.274100073182479e-01
1	 1.746028564135532e+00	 2.434120032677273e-01	 5.155921577578002e-01
1	 1.741853993058423e+00	 2.839875775568943e-01	 5.024166967155875e-01
1	 1.736965655409712e+00	 3.244996637360027e-01	 4.878620156409431e-01
1	 1.731345810437356e+00	 3.649222058567783e-01	 4.719393245937624e-01
1	 1.724977354564966e+00	 4.052285602575090e-01	 4.546963846059699e-01
1	 1.771429255863481e+00	 0.000000000000000e+00	 5.645470598505060e-01
1	 1.771134883029259e+00	 4.077617114598067e-02	 5.587147147883029e-01
1	 1.770238075844416e+00	 8.163127346421889e-02	 5.518390764528873e-01
1	 1.768718459780996e+00	 1.225433931670820e-01	 5.438398356151692e-01
1	 1.766555918797576e+00	 1.634898166310768e-01	 5.346540365935756e-01
1	 1.763730655870483e+00	 2.044470545558483e-01	 5.242392254893213e-01
1	 1.760223255241496e+00	 2.453908702045582e-01	 5.125767080735482e-01
1	 1.756014746147593e+00	 2.862963118033288e-01	 4.996748868111720e-01
1	 1.751086667772930e+00	 3.271377491527243e-01	 4.855726412599326e-01
1	 1.745421135138444e+00	 3.678889144773020e-01	 4.703427108229607e-01
1	 1.739000905620783e+00	 4.085229475102455e-01	 4.540950336884711e-01
1	 1.785714320420949e+00	 0.000000000000000e+00	 5.619100742459286e-01
1	 1.785417573721143e+00	 4.110499615159467e-02	 5.567181502811045e-01
1	 1.784513534552017e+00	 8.228955998850228e-02	 5.502554789587376e-01
1	 1.782981664082449e+00	 1.235316010070312e-01	 5.425013476658607e-01
1	 1.780801684052323e+00	 1.648082224176332e-01	 5.334548532196177e-01
1	 1.777953637791879e+00	 2.060957454987233e-01	 5.231377937121251e-01
1	 1.774417952971385e+00	 2.473697380647936e-01	 5.115976212056486e-01
1	 1.770175505844826e+00	 2.886050471271306e-01	 4.989104233296293e-01
1	 1.765207686725639e+00	 3.297758358005370e-01	 4.851838972082209e-01
1	 1.759496466407687e+00	 3.708556244823006e-01	 4.705602746128998e-01
1	 1.753024463220587e+00	 4.118173363003946e-01	 4.552191529168590e-01
1	 1.799999393311444e+00	 0.000000000000000e+00	 5.606415561006883e-01
1	 1.799700272744663e+00	 4.143382134901918e-02	 5.563390184137047e-01
1	 1.798789001587018e+00	 8.294784689677770e-02	 5.504672012701779e-01
1	 1.797244876704124e+00	 1.245198094234218e-01	 5.430734080288548e-01
1	 1.795047457617085e+00	 1.661266289732409e-01	 5.342273054239364e-01
1	 1.792176628009957e+00	 2.077444374033096e-01	 5.240234819220959e-01
1	 1.788612658981417e+00	 2.493486070793360e-01	 5.125840101843877e-01
1	 1.784336273802357e+00	 2.909137837976530e-01	 5.000609805035078e-01
1	 1.779328713915424e+00	 3.324139239871812e-01	 4.866389682443703e-01
1	 1.773571805887316e+00	 3.738223362178146e-01	 4.725373946786711e-01
1	 1.767048029000547e+00	 4.151117270121904e-01	 4.580127372948067e-01
1	 1.814284476201773e+00	 0.000000000000000e+00	 5.605756245631499e-01
1	 1.813982981766347e+00	 4.176264677666395e-02	 5.574320053054493e-01
1	 1.813064478615097e+00	 8.360613426591922e-02	 5.523480904413584e-01
1	 1.811508099310267e+00	 1.255080185316283e-01	 5.454473673902341e-01
1	 1.809293241154060e+00	 1.674450364517926e-01	 5.368783345286716e-01
1	 1.806399628184248e+00	 2.093931304620157e-01	 5.268166501295444e-01
1	 1.802807374927804e+00	 2.513274774790874e-01	 5.154672208569016e-01
1	 1.798497051672427e+00	 2.932225220842489e-01	 5.030661957578870e-01
1	 1.793449750989868e+00	 3.350520140203967e-01	 4.898828287861460e-01
1	 1.787647155219565e+00	 3.767890500298854e-01	 4.762211703186400e-01
1	 1.781071604596829e+00	 4.184061200298669e-01	 4.624215460064746e-01
1	 1.828569570758740e+00	 0.000000000000000e+00	 5.615515832330089e-01
1	 1.828265702452721e+00	 4.209147247293873e-02	 5.598563386023634e-01
1	 1.827339967301935e+00	 8.426442217280079e-02	 5.557759361264182e-01
1	 1.825771333565118e+00	 1.264962284470254e-01	 5.495179719509848e-01
1	 1.823539036325449e+00	 1.687634450071806e-01	 5.413177901090573e-01
1	 1.820622639974282e+00	 2.110418248672499e-01	 5.314401472428947e-01
1	 1.817002102466761e+00	 2.533063494949500e-01	 5.201807446647133e-01
1	 1.812657841107275e+00	 2.955312622562716e-01	 5.078675930200605e-01
1	 1.807570799596554e+00	 3.376901062079237e-01	 4.948621729995286e-01
1	 1.801722516046665e+00	 3.797557662645540e-01	 4.815603542029526e-01
1	 1.795095191645604e+00	 4.217005157376583e-01	 4.683930335036171e-01
1	 1.842854678649152e+00	 0.000000000000000e+00	 5.634137192422289e-01
1	 1.842548436470314e+00	 4.242029847625331e-02	 5.634756114678054e-01
1	 1.841615469313211e+00	 8.492271069429662e-02	 5.606323177767554e-01
1	 1.840034581132922e+00	 1.274844392849876e-01	 5.551832318234198e-01
1	 1.837784844793450e+00	 1.700818547932978e-01	 5.474583172720222e-01
1	 1.834845665039586e+00	 2.126905208114208e-01	 5.378192145988350e-01
1	 1.831196843254505e+00	 2.552852233578261e-01	 5.266601354790021e-01
1	 1.826818643759138e+00	 2.978400045830740e-01	 5.144085095969200e-01
1	 1.821691861383066e+00	 3.403282008575017e-01	 5.015253481400311e-01
1	 1.815797890010847e+00	 3.827224852678610e-01	 4.885052882888599e-01
1	 1.809118791783039e+00	 4.249949145197988e-01	 4.758762837986802e-01
1	 1.857139801539814e+00	 0.000000000000000e+00	 5.660111116111698e-01
1	 1.856831185485652e+00	 4.274912482501749e-02	 5.681576146984443e-01
1	 1.855890986314602e+00	 8.558099990728060e-02	 5.668024588922596e-01
1	 1.854297843677920e+00	 1.284726511608895e-01	 5.623442955029074e-01
1	 1.852030668220261e+00	 1.714002659640365e-01	 5.552152491383706e-01
1	 1.849068705039691e+00	 2.143392184869368e-01	 5.458813939458872e-01
1	 1.845391598947249e+00	 2.572640992986178e-01	 5.348429302750547e-01
1	 1.840979461280257e+00	 3.001487493340095e-01	 5.226340264279676e-01
1	 1.835812937996986e+00	 3.429662982768709e-01	 5.098222909712987e-01
1	 1.829873278754343e+00	 3.856892073858478e-01	 4.970078426944099e-01
1	 1.823142406645302e+00	 4.282893167605222e-01	 4.848219477911311e-01
1	 1.682906724299760e+00	 3.953454038814352e-01	 4.674413145745253e-01
1	 1.675947749803660e+00	 4.345261195934738e-01	 4.436293613299308e-01
1	 1.668227280467807e+00	 4.735400391875617e-01	 4.160679032679609e-01
1	 1.659730884666089e+00	 5.123598044659057e-01	 3.849353960204369e-01
1	 1.650445008658129e+00	 5.509577006915951e-01	 3.503688104077022e-01
1	 1.640357038728711e+00	 5.893057194590274e-01	 3.124585095630766e-01
1	 1.629455361754438e+00	 6.273756249509855e-01	 2.712432812064092e-01
1	 1.617729423793474e+00	 6.651390233461127e-01	 2.267056128012929e-01
1	 1.605169786290770e+00	 7.025674351061066e-01	 1.787673013033324e-01
1	 1.591768179491655e+00	 7.396323698384317e-01	 1.272854915134890e-01
1	 1.577517552661069e+00	 7.763054033982315e-01	 7.204923743438278e-02
1	 1.696930265540624e+00	 3.986397888273382e-01	 4.613087751691024e-01
1	 1.689913302408431e+00	 4.381469946384857e-01	 4.388742401221807e-01
1	 1.682128498954506e+00	 4.774860144314484e-01	 4.126309505322402e-01
1	 1.673561303295025e+00	 5.166292620345447e-01	 3.827623428179492e-01
1	 1.664198048747260e+00	 5.555487917659617e-01	 3.494089134612464e-01
1	 1.654026016486803e+00	 5.942163618280745e-01	 3.126629276192636e-01
1	 1.643033496618929e+00	 6.326035011166402e-01	 2.725632881849803e-01
1	 1.631209847256555e+00	 6.706815792066391e-01	 2.290906559710139e-01
1	 1.618545551193824e+00	 7.084218792418324e-01	 1.821629158013383e-01
1	 1.605032269764788e+00	 7.457956734213033e-01	 1.316310856844258e-01
1	 1.590662893481110e+00	 7.827743007438482e-01	 7.727576664307680e-02
1	 1.710953808416969e+00	 4.019341741579514e-01	 4.570810471489386e-01
1	 1.703878856642000e+00	 4.417678701064068e-01	 4.359503820795463e-01
1	 1.696029719062592e+00	 4.814319901362581e-01	 4.109571455610654e-01
1	 1.687391723537195e+00	 5.208987201019111e-01	 3.822874071871446e-01
1	 1.677951090440714e+00	 5.601398833766248e-01	 3.500828560175255e-01
1	 1.667694995839533e+00	 5.991270047707271e-01	 3.144353627696213e-01
1	 1.656611633067583e+00	 6.378313778929233e-01	 2.753817089774742e-01
1	 1.644690272292521e+00	 6.762241357145047e-01	 2.328985765001331e-01
1	 1.631921317657670e+00	 7.142763240612714e-01	 1.868978949699918e-01
1	 1.618296361585791e+00	 7.519589777238973e-01	 1.372226472050704e-01
1	 1.603808235835264e+00	 7.892431988448088e-01	 8.364323299472468e-02
1	 1.724977354564966e+00	 4.052285602575090e-01	 4.546963846059698e-01
1	 1.717844414133743e+00	 4.453887464195300e-01	 4.347926113142697e-01
1	 1.709930942413911e+00	 4.853779667621866e-01	 4.109782459976182e-01
1	 1.701222147006159e+00	 5.251681791659193e-01	 3.834397041320756e-01
1	 1.691704135342993e+00	 5.647309760590074e-01	 3.523175944230860e-01
1	 1.681363978381567e+00	 6.040376488596787e-01	 3.177011562620222e-01
1	 1.670189772684441e+00	 6.430592558895325e-01	 2.796228718632146e-01
1	 1.658170700473988e+00	 6.817666935161188e-01	 2.380533489425783e-01
1	 1.645297087242689e+00	 7.201307702472223e-01	 1.928965740667820e-01
1	 1.631560456501998e+00	 7.581222834650542e-01	 1.439856392433761e-01
1	 1.616953581256991e+00	 7.957120984556170e-01	 9.107904465799636e-02
1	 1.739000905620783e+00	 4.085229475102455e-01	 4.540950336884711e-01
1	 1.731809976513040e+00	 4.490096240001489e-01	 4.353378546388462e-01
1	 1.723832170630307e+00	 4.893239447694294e-01	 4.126282110955801e-01
1	 1.715052575315472e+00	 5.294376397244838e-01	 3.861506354994929e-01
1	 1.705457185058600e+00	 5.693220703485321e-01	 3.560424414824506e-01
1	 1.695032965707572e+00	 6.089482946676218e-01	 3.223880578802945e-01
1	 1.683767917053543e+00	 6.482871357161656e-01	 2.852135463102496e-01
1	 1.671651133373571e+00	 6.873092532578903e-01	 2.444814004276673e-01
1	 1.658672861509265e+00	 7.259852184824843e-01	 2.000857292664074e-01
1	 1.644824556060741e+00	 7.642855913636147e-01	 1.518479294803377e-01
1	 1.630098931279753e+00	 8.021810003307787e-01	 9.951295155663813e-02
1	 1.753024463220587e+00	 4.118173363003946e-01	 4.552191529168590e-01
1	 1.745775545409268e+00	 4.526305032705572e-01	 4.375250574575766e-01
1	 1.737733405333627e+00	 4.932699246181824e-01	 4.158431136554646e-01
1	 1.728883010078692e+00	 5.337071022755192e-01	 3.903537985069010e-01
1	 1.719210241192034e+00	 5.739131667806220e-01	 3.611889722023834e-01
1	 1.708701959412214e+00	 6.138589427672492e-01	 3.284261296060903e-01
1	 1.697346067758932e+00	 6.535150179825200e-01	 2.920828453317603e-01
1	 1.685131572563887e+00	 6.928518155862283e-01	 2.521115125616989e-01
1	 1.672048642017779e+00	 7.318396694498565e-01	 2.083944800293591e-01
1	 1.658088661809354e+00	 7.704489021384190e-01	 1.607396939354919e-01
1	 1.643244287437012e+00	 8.086499052247982e-01	 1.088769517061660e-01
1	 1.767048029000547e+00	 4.151117270121904e-01	 4.580127372948067e-01
1	 1.759741122451803e+00	 4.562513846530477e-01	 4.412951036641533e-01
1	 1.751634648145715e+00	 4.972159067686412e-01	 4.205610561554105e-01
1	 1.742713452909377e+00	 5.379765673169402e-01	 3.959848986273871e-01
1	 1.732963305347800e+00	 5.785042658906993e-01	 3.676909340255300e-01
1	 1.722370961090161e+00	 6.187695937312541e-01	 3.357476538692944e-01
1	 1.710924226384649e+00	 6.587429032982933e-01	 3.001621324931921e-01
1	 1.698612019617552e+00	 6.983943811475415e-01	 2.608747280019115e-01
1	 1.685424430328613e+00	 7.376941238321379e-01	 2.177541961206401e-01
1	 1.671352775295170e+00	 7.766122165083076e-01	 1.705933253731741e-01
1	 1.656389651262230e+00	 8.151188138921801e-01	 1.191052020117149e-01
1	 1.781071604596829e+00	 4.184061200298669e-01	 4.624215460064745e-01
1	 1.773706709270024e+00	 4.598722685699136e-01	 4.465907393244311e-01
1	 1.765535900688415e+00	 5.011618916810018e-01	 4.267220908451437e-01
1	 1.756543905421082e+00	 5.422460353466612e-01	 4.029816665910073e-01
1	 1.746716379130398e+00	 5.830953682141868e-01	 3.754841613059033e-01
1	 1.736039972336078e+00	 6.236802481323294e-01	 3.442870461340012e-01
1	 1.724502394514734e+00	 6.639707922731830e-01	 3.093849333137110e-01
1	 1.712092476107182e+00	 7.039369505882386e-01	 2.707042614452377e-01
1	 1.698800228002152e+00	 7.435485823121282e-01	 2.280984090222695e-01
1	 1.684616898065521e+00	 7.827755351921205e-01	 1.813433460369767e-01
1	 1.669535024288868e+00	 8.215877270874299e-01	 1.301339332810727e-01
1	 1.795095191645604e+00	 4.217005157376583e-01	 4.683930335036171e-01
1	 1.787672307493307e+00	 4.634931554434489e-01	 4.533564999373496e-01
1	 1.779437164583574e+00	 5.051078798154593e-01	 4.342681435863634e-01
1	 1.770374369227367e+00	 5.465155068625966e-01	 4.112837792776088e-01
1	 1.760469464144329e+00	 5.876864742865074e-01	 3.845064937941944e-01
1	 1.749708994744631e+00	 6.285909065431676e-01	 3.539807715829284e-01
1	 1.738080573733230e+00	 6.691986855168867e-01	 3.196868508215954e-01
1	 1.725572943605393e+00	 7.094795245547292e-01	 2.815354147903720e-01
1	 1.712176036598775e+00	 7.494030455726258e-01	 2.393627274992176e-01
1	 1.697881031667741e+00	 7.889388589086984e-01	 1.929263244756743e-01
1	 1.682680408050388e+00	 8.280566455650521e-01	 1.419013692223457e-01
1	 1.809118791783039e+00	 4.249949145197988e-01	 4.758762837986802e-01
1	 1.801637918751031e+00	 4.671140456959464e-01	 4.615386410798116e-01
1	 1.793338441453034e+00	 5.090538716322103e-01	 4.431429412361757e-01
1	 1.784204845941787e+00	 5.507849823626610e-01	 4.208327842897983e-01
1	 1.774222561994096e+00	 5.922775846430840e-01	 3.946976989153024e-01
1	 1.763378029910488e+00	 6.335015695364624e-01	 3.647672656777900e-01
1	 1.751658765624176e+00	 6.744265836391019e-01	 3.310054850381689e-01
1	 1.739053423684801e+00	 7.150221036934215e-01	 2.933054962466336e-01
1	 1.725551857678869e+00	 7.552575142964307e-01	 2.514847570933593e-01
1	 1.711145177649163e+00	 7.951021883768816e-01	 2.052807962385377e-01
1	 1.695825804080252e+00	 8.345255700795510e-01	 1.543476492099881e-01
1	 1.823142406645302e+00	 4.282893167605222e-01	 4.848219477911314e-01
1	 1.815603544672573e+00	 4.707349397496997e-01	 4.710850722532181e-01
1	 1.807239732918643e+00	 5.129998675914498e-01	 4.532919423827951e-01
1	 1.798035337177901e+00	 5.550544623447690e-01	 4.315720280079581e-01
1	 1.787975674284199e+00	 5.968686998193390e-01	 4.059993976337820e-01
1	 1.777047079428317e+00	 6.384122376849063e-01	 3.765868583869060e-01
1	 1.765236971771615e+00	 6.796544872495263e-01	 3.432803561786194e-01
1	 1.752533917918022e+00	 7.205646886507250e-01	 3.059537431770621e-01
1	 1.738927692802811e+00	 7.611119891663414e-01	 2.644040233338797e-01
1	 1.724409337557121e+00	 8.012655243155106e-01	 2.183471882316475e-01
1	 1.708971213911921e+00	 8.409945013854322e-01	 1.674147546162341e-01
1	 1.577517552661069e+00	 7.763054033982315e-01	 7.204923743438281e-02
1	 1.562411034908616e+00	 8.125607776635853e-01	 1.111149760816506e-02
1	 1.546445124723613e+00	 8.483678438587413e-01	-5.738827001320339e-02
1	 1.529616701598890e+00	 8.836988399894217e-01	-1.336051622767060e-01
1	 1.511924025818336e+00	 9.185263933820198e-01	-2.177059615425276e-01
1	 1.493366767095691e+00	 9.528236030216212e-01	-3.098684610865077e-01
1	 1.473946027928508e+00	 9.865641215718935e-01	-4.102805624266225e-01
1	 1.453664361413024e+00	 1.019722236591529e+00	-5.191391429949097e-01
1	 1.432525783302651e+00	 1.052272950456313e+00	-6.366486972667704e-01
1	 1.410535778132862e+00	 1.084192058495051e+00	-7.630197593871023e-01
1	 1.387701299278052e+00	 1.115456224851666e+00	-8.984671203639170e-01
1	 1.590662893481110e+00	 7.827743007438482e-01	 7.727576664307678e-02
1	 1.575430494197757e+00	 8.193317884469776e-01	 1.722983297147773e-02
1	 1.559331541226210e+00	 8.554372323608842e-01	-5.029336298250353e-02
1	 1.542362888056345e+00	 8.910626391525762e-01	-1.254668675937009e-01
1	 1.524522780475129e+00	 9.261804080539138e-01	-2.084736760737443e-01
1	 1.505810885444059e+00	 9.607634138857474e-01	-2.995058306514269e-01
1	 1.486228314647727e+00	 9.947850897612733e-01	-3.987633068468100e-01
1	 1.465777642457148e+00	 1.028219508979247e+00	-5.064526902414914e-01
1	 1.444462918088727e+00	 1.061041465612036e+00	-6.227856506473403e-01
1	 1.422289671780186e+00	 1.093226553292651e+00	-7.479772252113461e-01
1	 1.399264914847900e+00	 1.124751241708993e+00	-8.822439266342009e-01
1	 1.603808235835264e+00	 7.892431988448088e-01	 8.364323299472463e-02
1	 1.588449955006404e+00	 8.261028000209216e-01	 2.437889301122614e-02
1	 1.572217959232855e+00	 8.625066216883476e-01	-4.227530530579512e-02
1	 1.555109076001540e+00	 8.984264391753550e-01	-1.165098969267627e-01
1	 1.537121536602497e+00	 9.338344236192464e-01	-1.985235732768961e-01
1	 1.518255005244984e+00	 9.687032256766132e-01	-2.885220545333936e-01
1	 1.498510602800634e+00	 1.003006058910155e+00	-3.867167669674283e-01
1	 1.477890924915242e+00	 1.036716782358670e+00	-4.933233317266568e-01
1	 1.456400054268210e+00	 1.069809981791085e+00	-6.085598757484936e-01
1	 1.434043566799518e+00	 1.102261049144593e+00	-7.326451798217566e-01
1	 1.410828531767526e+00	 1.134046259651052e+00	-8.657966830469808e-01
1	 1.616953581256991e+00	 7.957120984556170e-01	 9.107904465799639e-02
1	 1.601469418853318e+00	 8.328738131751846e-01	 3.248851427385496e-02
1	 1.585104380246781e+00	 8.695760126657284e-01	-3.340171880852082e-02
1	 1.567855266921338e+00	 9.057902409167240e-01	-1.067992244460312e-01
1	 1.549720295670102e+00	 9.414884409708640e-01	-1.879178815359314e-01
1	 1.530699127950089e+00	 9.766430393204287e-01	-2.769765257362161e-01
1	 1.510792893819975e+00	 1.011227029977573e+00	-3.741974199552640e-01
1	 1.490004210200340e+00	 1.045214057721086e+00	-4.798045580123282e-01
1	 1.468337193233596e+00	 1.078578500016408e+00	-5.940218159448384e-01
1	 1.445797464561987e+00	 1.111295547104869e+00	-7.170709694423794e-01
1	 1.422392151385875e+00	 1.143341279762238e+00	-8.491695996967938e-01
1	 1.630098931279753e+00	 8.021810003307787e-01	 9.951295155663810e-02
1	 1.614488887257262e+00	 8.396448286995342e-01	 4.149079671411680e-02
1	 1.597990805771218e+00	 8.766454061176232e-01	-2.373804390449979e-02
1	 1.580601462302604e+00	 9.131540452356487e-01	-9.639772832354951e-02
1	 1.562319059147608e+00	 9.491424610016120e-01	-1.767168218123947e-01
1	 1.543143255010995e+00	 9.845828557434052e-01	-2.649267213038627e-01
1	 1.523075189138495e+00	 1.019448003922562e+00	-3.612599210721811e-01
1	 1.502117499725479e+00	 1.053711336057785e+00	-4.659481340905443e-01
1	 1.480274336377378e+00	 1.087347021310958e+00	-5.792202873280927e-01
1	 1.457551366438721e+00	 1.120330048227474e+00	-7.013004129113600e-01
1	 1.433955775051891e+00	 1.152636303126949e+00	-8.324054604455408e-01
1	 1.643244287437012e+00	 8.086499052247982e-01	 1.088769517061660e-01
1	 1.627508361736999e+00	 8.464158473837371e-01	 5.132001316663609e-02
1	 1.610877237309396e+00	 8.837148028686295e-01	-1.334762684342619e-02
1	 1.593347663632206e+00	 9.205178529910945e-01	-8.536627456308502e-02
1	 1.574917828504675e+00	 9.567964846043375e-01	-1.649786879309855e-01
1	 1.555587387879325e+00	 9.925226758717542e-01	-2.524282789462415e-01
1	 1.535357490188940e+00	 1.027668981704154e+00	-3.479571765373913e-01
1	 1.514230794903695e+00	 1.062208618360056e+00	-4.518041683909804e-01
1	 1.492211485092054e+00	 1.096115546697684e+00	-5.642025437818419e-01
1	 1.469305273800852e+00	 1.129364553566402e+00	-6.853778627584814e-01
1	 1.445519404114519e+00	 1.161931330829578e+00	-8.155456799525674e-01
1	 1.656389651262230e+00	 8.151188138921801e-01	 1.191052020117149e-01
1	 1.640527843811289e+00	 8.531868700175608e-01	 6.191252312930774e-02
1	 1.623763676364548e+00	 8.907842037433427e-01	-2.291802802795950e-03
1	 1.606093872397005e+00	 9.278816650420267e-01	-7.376379683714110e-02
1	 1.587516605210965e+00	 9.644505126718853e-01	-1.527599230411493e-01
1	 1.568031528006701e+00	 1.000462500631687e+00	-2.395350700153291e-01
1	 1.547639798404058e+00	 1.035889964281385e+00	-3.343404129193271e-01
1	 1.526344097148023e+00	 1.070705905619187e+00	-4.374211785017134e-01
1	 1.504148640770117e+00	 1.104884077199536e+00	-5.490143389567572e-01
1	 1.481059188019506e+00	 1.138399064175646e+00	-6.693462633735966e-01
1	 1.457083039922703e+00	 1.171226363954524e+00	-7.986303579884759e-01
1	 1.669535024288868e+00	 8.215877270874299e-01	 1.301339332810726e-01
1	 1.653547334998897e+00	 8.599578973907720e-01	 7.320669062080304e-02
1	 1.636650124439903e+00	 8.978536095663603e-01	 9.370024946617150e-03
1	 1.618840090083870e+00	 9.352454822474111e-01	-6.164737255133165e-02
1	 1.600115390736142e+00	 9.721045460971018e-01	-1.401151924655139e-01
1	 1.580475676844747e+00	 1.008402330949414e+00	-2.262992690328736e-01
1	 1.559922115216593e+00	 1.044110952613289e+00	-3.204592432484645e-01
1	 1.538457407871499e+00	 1.079203198826468e+00	-4.228461537843614e-01
1	 1.516085804804064e+00	 1.113652613839465e+00	-5.336999853172458e-01
1	 1.492813110465814e+00	 1.147433581109201e+00	-6.532472064263118e-01
1	 1.468646683825388e+00	 1.180521403586180e+00	-7.816983311823462e-01
1	 1.682680408050388e+00	 8.280566455650521e-01	 1.419013692223457e-01
1	 1.666566836818583e+00	 8.667289302931382e-01	 8.514280588934216e-02
1	 1.649536583038693e+00	 9.049230211622783e-01	 2.158030958697443e-02
1	 1.631586318179661e+00	 9.426093054662129e-01	-4.907229534246585e-02
1	 1.612714186549867e+00	 9.797585857728328e-01	-1.270974531328352e-01
1	 1.592919835845084e+00	 1.016342167751147e+00	-2.127714199582479e-01
1	 1.572204442059292e+00	 1.052331947658898e+00	-3.063617300304043e-01
1	 1.550570728487159e+00	 1.087700498973188e+00	-4.081246150534982e-01
1	 1.528022978586386e+00	 1.122421157640422e+00	-5.183024104196878e-01
1	 1.504567042510903e+00	 1.156468105421060e+00	-6.371209836873741e-01
1	 1.480210337171517e+00	 1.189816450808942e+00	-7.647872223428017e-01
1	 1.695825804080252e+00	 8.345255700795510e-01	 1.543476492099881e-01
1	 1.679586350789110e+00	 8.734999695144262e-01	 9.766301076370837e-02
1	 1.662423053664149e+00	 9.119924393556940e-01	 3.428328880982737e-02
1	 1.644332558171247e+00	 9.499731355573974e-01	-3.609214420389648e-02
1	 1.625312994121802e+00	 9.874126325919251e-01	-1.137580197807821e-01
1	 1.605364006459333e+00	 1.024282011963096e+00	-1.990004993734364e-01
1	 1.584486780364901e+00	 1.060552950377249e+00	-2.920944453275029e-01
1	 1.562684060408038e+00	 1.096197807050635e+00	-3.933006714797244e-01
1	 1.539960163509583e+00	 1.131189709625357e+00	-5.028632105724913e-01
1	 1.516320985525905e+00	 1.165502638165219e+00	-6.210066373926640e-01
1	 1.491774001310037e+00	 1.199111506707208e+00	-7.479334874845358e-01
1	 1.708971213911921e+00	 8.409945013854322e-01	 1.674147546162340e-01
1	 1.692605878429240e+00	 8.802710158444028e-01	 1.107112274503293e-01
1	 1.675309537819501e+00	 9.190618649712039e-01	 4.742491619373856e-02
1	 1.657078811545492e+00	 9.573369733799312e-01	-2.275884941978945e-02
1	 1.637911814921611e+00	 9.950666874472247e-01	-1.001466281025772e-01
1	 1.617808190139119e+00	 1.032221864511473e+00	-1.850339767511660e-01
1	 1.596769131566166e+00	 1.068773961727374e+00	-2.777025280669065e-01
1	 1.574797405047172e+00	 1.104695124050099e+00	-3.784170748658303e-01
1	 1.551897360966147e+00	 1.139958270817221e+00	-4.874227020190258e-01
1	 1.528074940881947e+00	 1.174537180395669e+00	-6.049420082822248e-01
1	 1.503337677589890e+00	 1.208406572365371e+00	-7.311724606839700e-01
1	 1.387701299278052e+00	 1.115456224851666e+00	-8.984671203639170e-01
1	 1.364030759277465e+00	 1.146043058270738e+00	-1.043963724288390e+00
1	 1.339534006818105e+00	 1.175931189999760e+00	-1.200294098079722e+00
1	 1.314222318998515e+00	 1.205100331942848e+00	-1.367348469863881e+00
1	 1.288108380333235e+00	 1.233531336090155e+00	-1.544958227249869e+00
1	 1.261206252148415e+00	 1.261206252148416e+00	-1.732896172962791e+00
1	 1.233531336090155e+00	 1.288108380333236e+00	-1.930877420581727e+00
1	 1.205100331942847e+00	 1.314222318998515e+00	-2.138560922627323e+00
1	 1.175931189999759e+00	 1.339534006818105e+00	-2.355551611444619e+00
1	 1.146043058270737e+00	 1.364030759277465e+00	-2.581403121939586e+00
1	 1.115456224851666e+00	 1.387701299278052e+00	-2.815621054579585e+00
1	 1.399264914847900e+00	 1.124751241708993e+00	-8.822439266342009e-01
1	 1.375397129932205e+00	 1.155592953020909e+00	-1.026478953359071e+00
1	 1.350696247788508e+00	 1.185730140411611e+00	-1.181400965761346e+00
1	 1.325173639486599e+00	 1.215142346725971e+00	-1.346921567813338e+00
1	 1.298842095240169e+00	 1.243810264395152e+00	-1.522894697270923e+00
1	 1.271715793547383e+00	 1.271715793547383e+00	-1.709116719557488e+00
1	 1.243810264395151e+00	 1.298842095240169e+00	-1.905327148986724e+00
1	 1.215142346725971e+00	 1.325173639486600e+00	-2.111209992020946e+00
1	 1.185730140411611e+00	 1.350696247788508e+00	-2.326395695670929e+00
1	 1.155592953020908e+00	 1.375397129932205e+00	-2.550463672901642e+00
1	 1.124751241708993e+00	 1.399264914847900e+00	-2.782945366341353e+00
1	 1.410828531767526e+00	 1.134046259651052e+00	-8.657966830469808e-01
1	 1.386763501913673e+00	 1.165142848885558e+00	-1.008833708260684e+00
1	 1.361858490061780e+00	 1.195529091967020e+00	-1.162414670536906e+00
1	 1.336124961252898e+00	 1.225184362681042e+00	-1.326471328011274e+00
1	 1.309575811399881e+00	 1.254089193899776e+00	-1.500878914913730e+00
1	 1.282225336172927e+00	 1.282225336172928e+00	-1.685456083624109e+00
1	 1.254089193899775e+00	 1.309575811399881e+00	-1.879965461626138e+00
1	 1.225184362681042e+00	 1.336124961252899e+00	-2.084114820359661e+00
1	 1.195529091967019e+00	 1.361858490061780e+00	-2.297558841584095e+00
1	 1.165142848885558e+00	 1.386763501913674e+00	-2.519901455770825e+00
1	 1.134046259651052e+00	 1.410828531767526e+00	-2.750698716557875e+00
1	 1.422392151385875e+00	 1.143341279762238e+00	-8.491695996967938e-01
1	 1.398129876547819e+00	 1.174692746978819e+00	-9.910689793997027e-01
1	 1.373020734940072e+00	 1.205328045809172e+00	-1.143372861614614e+00
1	 1.347076285574974e+00	 1.235226380979596e+00	-1.306031958761258e+00
1	 1.320309530064563e+00	 1.264368125803190e+00	-1.478941570419627e+00
1	 1.292734881251103e+00	 1.292734881251103e+00	-1.661941383322389e+00
1	 1.264368125803190e+00	 1.320309530064563e+00	-1.854815874123086e+00
1	 1.235226380979596e+00	 1.347076285574974e+00	-2.057295314096996e+00
1	 1.205328045809172e+00	 1.373020734940072e+00	-2.269057363743924e+00
1	 1.174692746978818e+00	 1.398129876547820e+00	-2.489729234312730e+00
1	 1.143341279762238e+00	 1.422392151385875e+00	-2.718890382869500e+00
1	 1.433955775051891e+00	 1.152636303126949e+00	-8.324054604455408e-01
1	 1.409496255160591e+00	 1.184242648414825e+00	-9.732244347982741e-01
1	 1.384182983725537e+00	 1.215127003081255e+00	-1.124311973586714e+00
1	 1.358027613730387e+00	 1.245268402793169e+00	-1.285636564736331e+00
1	 1.331043252486407e+00	 1.274647061304560e+00	-1.457112363875222e+00
1	 1.303244430007965e+00	 1.303244430007966e+00	-1.638598861877467e+00
1	 1.274647061304560e+00	 1.331043252486408e+00	-1.829901143370964e+00
1	 1.245268402793168e+00	 1.358027613730388e+00	-2.030770737378468e+00
1	 1.215127003081255e+00	 1.384182983725537e+00	-2.240907050269833e+00
1	 1.184242648414824e+00	 1.409496255160592e+00	-2.459959360398233e+00
1	 1.152636303126949e+00	 1.433955775051891e+00	-2.687529343485526e+00
1	 1.445519404114519e+00	 1.161931330829578e+00	-8.155456799525674e-01
1	 1.420862639077938e+00	 1.193792554307709e+00	-9.553384729691359e-01
1	 1.395345237720325e+00	 1.224925964926454e+00	-1.105267274992345e+00
1	 1.368978946996702e+00	 1.255310429293297e+00	-1.265317191101251e+00
1	 1.341776979917606e+00	 1.284926001603051e+00	-1.435420044794222e+00
1	 1.313753983669569e+00	 1.313753983669570e+00	-1.615453922551762e+00
1	 1.284926001603050e+00	 1.341776979917607e+00	-1.805243297856047e+00
1	 1.255310429293297e+00	 1.368978946996703e+00	-2.004559737706319e+00
1	 1.224925964926455e+00	 1.395345237720325e+00	-2.213123183870058e+00
1	 1.193792554307708e+00	 1.420862639077939e+00	-2.430603790450091e+00
1	 1.161931330829579e+00	 1.445519404114519e+00	-2.656624289131775e+00
1	 1.457083039922703e+00	 1.171226363954524e+00	-7.986303579884759e-01
1	 1.432229029625809e+00	 1.203342465771605e+00	-9.374482732721077e-01
1	 1.406507498226588e+00	 1.234724932487957e+00	-1.086272914567361e+00
1	 1.379930286651479e+00	 1.265352461651516e+00	-1.245104865533024e+00
1	 1.352510713610353e+00	 1.295204947897826e+00	-1.413892449814126e+00
1	 1.324263543461969e+00	 1.324263543461970e+00	-1.592531161951180e+00
1	 1.295204947897825e+00	 1.352510713610354e+00	-1.780863666535828e+00
1	 1.265352461651516e+00	 1.379930286651479e+00	-1.978680370381728e+00
1	 1.234724932487956e+00	 1.406507498226588e+00	-2.185720561869199e+00
1	 1.203342465771604e+00	 1.432229029625810e+00	-2.401674101106285e+00
1	 1.171226363954523e+00	 1.457083039922703e+00	-2.626183634429164e+00
1	 1.468646683825388e+00	 1.180521403586180e+00	-7.816983311823462e-01
1	 1.443595428130154e+00	 1.212892383920647e+00	-9.195898438910297e-01
1	 1.417669766546477e+00	 1.244523906908949e+00	-1.067361965308718e+00
1	 1.390881633972279e+00	 1.275394501039364e+00	-1.225029638256005e+00
1	 1.363244454816839e+00	 1.305483901388050e+00	-1.392556538611430e+00
1	 1.334773110611222e+00	 1.334773110611222e+00	-1.569854401757378e+00
1	 1.305483901388049e+00	 1.363244454816840e+00	-1.756782906352668e+00
1	 1.275394501039363e+00	 1.390881633972279e+00	-1.953150121792246e+00
1	 1.244523906908948e+00	 1.417669766546476e+00	-2.158713515289348e+00
1	 1.212892383920646e+00	 1.443595428130154e+00	-2.373181504143170e+00
1	 1.180521403586179e+00	 1.468646683825388e+00	-2.596215528734641e+00
1	 1.480210337171517e+00	 1.189816450808942e+00	-7.647872223428017e-01
1	 1.454961835916920e+00	 1.222442309868967e+00	-9.017980675612869e-01
1	 1.428832043982143e+00	 1.254322889332617e+00	-1.048566466472807e+00
1	 1.401832990236666e+00	 1.285436548628375e+00	-1.205120620199767e+00
1	 1.373978204789257e+00	 1.315762863272888e+00	-1.371438428133074e+00
1	 1.345282686343380e+00	 1.345282686343381e+00	-1.547446718972392e+00
1	 1.315762863272887e+00	 1.373978204789257e+00	-1.733021028457565e+00
1	 1.285436548628374e+00	 1.401832990236666e+00	-1.927985931607213e+00
1	 1.254322889332617e+00	 1.428832043982143e+00	-2.132115927036660e+00
1	 1.222442309868966e+00	 1.454961835916921e+00	-2.345136860698929e+00
1	 1.189816450808942e+00	 1.480210337171518e+00	-2.566727866473682e+00
1	 1.491774001310037e+00	 1.199111506707208e+00	-7.479334874845358e-01
1	 1.466328254312057e+00	 1.231992244730699e+00	-8.841067451700168e-01
1	 1.439994331835738e+00	 1.264121880902148e+00	-1.029917463620051e+00
1	 1.412784356722201e+00	 1.295478605590086e+00	-1.185406019381911e+00
1	 1.384711964779798e+00	 1.326041834751505e+00	-1.350563425235308e+00
1	 1.355792271884501e+00	 1.355792271884501e+00	-1.525330474756077e+00
1	 1.326041834751504e+00	 1.384711964779799e+00	-1.709597423213846e+00
1	 1.295478605590085e+00	 1.412784356722201e+00	-1.903204213940659e+00
1	 1.264121880902147e+00	 1.439994331835739e+00	-2.105941249241841e+00
1	 1.231992244730698e+00	 1.466328254312057e+00	-2.317550694835365e+00
1	 1.199111506707207e+00	 1.491774001310037e+00	-2.537728296992306e+00
1	 1.503337677589890e+00	 1.208406572365371e+00	-7.311724606839700e-01
1	 1.477694684641512e+00	 1.241542189619976e+00	-8.665486373435474e-01
1	 1.451156631409414e+00	 1.273920882760728e+00	-1.011445046810784e+00
1	 1.423735734706447e+00	 1.305520673096032e+00	-1.165913175611264e+00
1	 1.395445736040656e+00	 1.336320817023064e+00	-1.329956057815851e+00
1	 1.366301868460640e+00	 1.366301868460640e+00	-1.503527341932441e+00
1	 1.336320817023063e+00	 1.395445736040656e+00	-1.686530884046684e+00
1	 1.305520673096032e+00	 1.423735734706447e+00	-1.878820877537289e+00
1	 1.273920882760727e+00	 1.451156631409415e+00	-2.080202519800039e+00
1	 1.241542189619975e+00	 1.477694684641513e+00	-2.290433206473596e+00
1	 1.208406572365371e+00	 1.503337677589890e+00	-2.509224233954114e+00
1	 1.115456224851666e+00	 1.387701299278052e+00	-2.815621054579585e+00
1	 1.084192058495050e+00	 1.410535778132863e+00	-3.058731082037984e+00
1	 1.052272950456312e+00	 1.432525783302652e+00	-3.310866481130433e+00
1	 1.019722236591529e+00	 1.453664361413024e+00	-3.570844772162145e+00
1	 9.865641215718933e-01	 1.473946027928509e+00	-3.837404673876518e+00
1	 9.528236030216204e-01	 1.493366767095692e+00	-4.109217570933545e+00
1	 9.185263933820192e-01	 1.511924025818336e+00	-4.384899451668458e+00
1	 8.836988399894211e-01	 1.529616701598891e+00	-4.663023129240069e+00
1	 8.483678438587410e-01	 1.546445124723613e+00	-4.942130561558868e+00
1	 8.125607776635847e-01	 1.562411034908617e+00	-5.220745091696371e+00
1	 7.763054033982313e-01	 1.577517552661069e+00	-5.497383440421614e+00
1	 1.124751241708993e+00	 1.399264914847900e+00	-2.782945366341353e+00
1	 1.093226553292651e+00	 1.422289671780187e+00	-3.024303498791552e+00
1	 1.061041465612035e+00	 1.444462918088727e+00	-3.274613078327257e+00
1	 1.028219508979247e+00	 1.465777642457148e+00	-3.532726032485268e+00
1	 9.947850897612730e-01	 1.486228314647728e+00	-3.797417391246054e+00
1	 9.607634138857468e-01	 1.505810885444059e+00	-4.067396430715707e+00
1	 9.261804080539133e-01	 1.524522780475130e+00	-4.341318276147284e+00
1	 8.910626391525756e-01	 1.542362888056346e+00	-4.617795782565177e+00
1	 8.554372323608835e-01	 1.559331541226210e+00	-4.895411513445626e+00
1	 8.193317884469768e-01	 1.575430494197757e+00	-5.172729644018644e+00
1	 7.827743007438484e-01	 1.590662893481111e+00	-5.448307625401884e+00
1	 1.134046259651052e+00	 1.410828531767526e+00	-2.750698716557875e+00
1	 1.102261049144592e+00	 1.434043566799519e+00	-2.990353638051051e+00
1	 1.069809981791084e+00	 1.456400054268210e+00	-3.238886353894096e+00
1	 1.036716782358669e+00	 1.477890924915242e+00	-3.495182246951465e+00
1	 1.003006058910155e+00	 1.498510602800635e+00	-3.758051740629109e+00
1	 9.687032256766124e-01	 1.518255005244984e+00	-4.026241124746742e+00
1	 9.338344236192458e-01	 1.537121536602498e+00	-4.298443829154183e+00
1	 8.984264391753546e-01	 1.555109076001540e+00	-4.573311968459804e+00
1	 8.625066216883469e-01	 1.572217959232856e+00	-4.849467983353595e+00
1	 8.261028000209207e-01	 1.588449955006404e+00	-5.125516209933471e+00
1	 7.892431988448086e-01	 1.603808235835264e+00	-5.400054217805971e+00
1	 1.143341279762238e+00	 1.422392151385875e+00	-2.718890382869500e+00
1	 1.111295547104868e+00	 1.445797464561987e+00	-2.956887322183963e+00
1	 1.078578500016408e+00	 1.468337193233596e+00	-3.203688668459944e+00
1	 1.045214057721085e+00	 1.490004210200339e+00	-3.458212326035220e+00
1	 1.011227029977573e+00	 1.510792893819975e+00	-3.719303211904414e+00
1	 9.766430393204278e-01	 1.530699127950088e+00	-3.985743769641273e+00
1	 9.414884409708635e-01	 1.549720295670103e+00	-4.256264918820246e+00
1	 9.057902409167238e-01	 1.567855266921338e+00	-4.529557268362509e+00
1	 8.695760126657278e-01	 1.585104380246782e+00	-4.804282424284663e+00
1	 8.328738131751842e-01	 1.601469418853318e+00	-5.079084228084440e+00
1	 7.957120984556170e-01	 1.616953581256991e+00	-5.352599771089888e+00
1	 1.152636303126949e+00	 1.433955775051891e+00	-2.687529343485526e+00
1	 1.120330048227473e+00	 1.457551366438722e+00	-2.923910185599757e+00
1	 1.087347021310957e+00	 1.480274336377378e+00	-3.169022306382641e+00
1	 1.053711336057784e+00	 1.502117499725479e+00	-3.421815215258179e+00
1	 1.019448003922562e+00	 1.523075189138495e+00	-3.681167440367834e+00
1	 9.845828557434048e-01	 1.543143255010995e+00	-3.945896736279262e+00
1	 9.491424610016117e-01	 1.562319059147609e+00	-4.214770714305480e+00
1	 9.131540452356479e-01	 1.580601462302605e+00	-4.486517728870663e+00
1	 8.766454061176228e-01	 1.597990805771218e+00	-4.759837855364641e+00
1	 8.396448286995335e-01	 1.614488887257262e+00	-5.033413800528247e+00
1	 8.021810003307788e-01	 1.630098931279753e+00	-5.305921595249097e+00
1	 1.161931330829579e+00	 1.445519404114519e+00	-2.656624289131775e+00
1	 1.129364553566401e+00	 1.469305273800852e+00	-2.891427682238414e+00
1	 1.096115546697683e+00	 1.492211485092054e+00	-3.134889478769711e+00
1	 1.062208618360055e+00	 1.514230794903695e+00	-3.385989893757206e+00
1	 1.027668981704154e+00	 1.535357490188941e+00	-3.643640200885840e+00
1	 9.925226758717538e-01	 1.555587387879325e+00	-3.906692639606047e+00
1	 9.567964846043366e-01	 1.574917828504675e+00	-4.173950731328946e+00
1	 9.205178529910941e-01	 1.593347663632206e+00	-4.444179843106399e+00
1	 8.837148028686287e-01	 1.610877237309397e+00	-4.716117839171438e+00
1	 8.464158473837365e-01	 1.627508361736999e+00	-4.988485666172717e+00
1	 8.086499052247982e-01	 1.643244287437012e+00	-5.259997726533109e+00
1	 1.171226363954523e+00	 1.457083039922703e+00	-2.626183634429164e+00
1	 1.138399064175645e+00	 1.481059188019506e+00	-2.859445092702059e+00
1	 1.104884077199535e+00	 1.504148640770118e+00	-3.101292326355154e+00
1	 1.070705905619187e+00	 1.526344097148023e+00	-3.350735372920664e+00
1	 1.035889964281384e+00	 1.547639798404058e+00	-3.606717402327500e+00
1	 1.000462500631686e+00	 1.568031528006702e+00	-3.868124328918181e+00
1	 9.644505126718846e-01	 1.587516605210966e+00	-4.133794818388070e+00
1	 9.278816650420263e-01	 1.606093872397006e+00	-4.402530532969792e+00
1	 8.907842037433419e-01	 1.623763676364548e+00	-4.673106460143169e+00
1	 8.531868700175602e-01	 1.640527843811290e+00	-4.944281175479997e+00
1	 8.151188138921801e-01	 1.656389651262230e+00	-5.214806898602395e+00
1	 1.180521403586179e+00	 1.468646683825388e+00	-2.596215528734641e+00
1	 1.147433581109200e+00	 1.492813110465814e+00	-2.827967531049753e+00
1	 1.113652613839465e+00	 1.516085804804064e+00	-3.068232922240478e+00
1	 1.079203198826468e+00	 1.538457407871499e+00	-3.316050695089219e+00
1	 1.044110952613288e+00	 1.559922115216593e+00	-3.570395082259592e+00
1	 1.008402330949413e+00	 1.580475676844747e+00	-3.830184878608367e+00
1	 9.721045460971011e-01	 1.600115390736142e+00	-4.094293143629137e+00
1	 9.352454822474106e-01	 1.618840090083870e+00	-4.361557132230844e+00
1	 8.978536095663595e-01	 1.636650124439903e+00	-4.630788304006673e+00
1	 8.599578973907713e-01	 1.653547334998898e+00	-4.900782266365078e+00
1	 8.215877270874299e-01	 1.669535024288868e+00	-5.170328515048397e+00
1	 1.189816450808942e+00	 1.480210337171518e+00	-2.566727866473682e+00
1	 1.156468105421060e+00	 1.504567042510904e+00	-2.796999951273579e+00
1	 1.122421157640422e+00	 1.528022978586387e+00	-3.035713274507200e+00
1	 1.087700498973187e+00	 1.550570728487159e+00	-3.281934932317402e+00
1	 1.052331947658898e+00	 1.572204442059292e+00	-3.534669401890429e+00
1	 1.016342167751146e+00	 1.592919835845083e+00	-3.792867579344193e+00
1	 9.797585857728321e-01	 1.612714186549867e+00	-4.055436182333495e+00
1	 9.426093054662122e-01	 1.631586318179662e+00	-4.321247370414241e+00
1	 9.049230211622777e-01	 1.649536583038693e+00	-4.589148438170455e+00
1	 8.667289302931375e-01	 1.666566836818584e+00	-4.857971441224354e+00
1	 8.280566455650521e-01	 1.682680408050388e+00	-5.126542623201924e+00
1	 1.199111506707207e+00	 1.491774001310037e+00	-2.537728296992306e+00
1	 1.165502638165218e+00	 1.516320985525906e+00	-2.766547153473552e+00
1	 1.131189709625356e+00	 1.539960163509583e+00	-3.003735328707630e+00
1	 1.096197807050634e+00	 1.562684060408039e+00	-3.248387185192915e+00
1	 1.060552950377248e+00	 1.584486780364901e+00	-3.499536641248929e+00
1	 1.024282011963095e+00	 1.605364006459333e+00	-3.756165929657392e+00
1	 9.874126325919247e-01	 1.625312994121803e+00	-4.017214704985661e+00
1	 9.499731355573968e-01	 1.644332558171248e+00	-4.281589357433594e+00
1	 9.119924393556934e-01	 1.662423053664148e+00	-4.548172393029704e+00
1	 8.734999695144252e-01	 1.679586350789110e+00	-4.815831745032889e+00
1	 8.345255700795510e-01	 1.695825804080252e+00	-5.083429889159937e+00
1	 1.208406572365371e+00	 1.503337677589890e+00	-2.509224233954114e+00
1	 1.174537180395669e+00	 1.528074940881948e+00	-2.736613789747431e+00
1	 1.139958270817220e+00	 1.551897360966147e+00	-2.972300970240906e+00
1	 1.104695124050098e+00	 1.574797405047172e+00	-3.215406581710410e+00
1	 1.068773961727374e+00	 1.596769131566166e+00	-3.464993194586169e+00
1	 1.032221864511472e+00	 1.617808190139118e+00	-3.720073627921253e+00
1	 9.950666874472238e-01	 1.637911814921611e+00	-3.979619765892572e+00
1	 9.573369733799303e-01	 1.657078811545492e+00	-4.242571568935343e+00
1	 9.190618649712032e-01	 1.675309537819501e+00	-4.507846144134456e+00
1	 8.802710158444024e-01	 1.692605878429240e+00	-4.774346744452688e+00
1	 8.409945013854322e-01	 1.708971213911920e+00	-5.040971573965254e+00
1	 7.763054033982313e-01	 1.577517552661069e+00	-5.497383440421616e+00
1	 7.396323698384324e-01	 1.591768179491655e+00	-5.772287472452722e+00
1	 7.025674351061071e-01	 1.605169786290770e+00	-6.045404248766228e+00
1	 6.651390233461130e-01	 1.617729423793473e+00	-6.314741884861115e+00
1	 6.273756249509856e-01	 1.629455361754438e+00	-6.578307321576639e+00
1	 5.893057194590278e-01	 1.640357038728711e+00	-6.834121904870551e+00
1	 5.509577006915954e-01	 1.650445008658129e+00	-7.080235980299920e+00
1	 5.123598044659060e-01	 1.659730884666089e+00	-7.314742372627232e+00
1	 4.735400391875621e-01	 1.668227280467808e+00	-7.535788649221286e+00
1	 4.345261195934739e-01	 1.675947749803660e+00	-7.741588093711819e+00
1	 3.953454038814352e-01	 1.682906724299760e+00	-7.930429343048038e+00
1	 7.827743007438484e-01	 1.590662893481111e+00	-5.448307625401884e+00
1	 7.457956734213037e-01	 1.605032269764788e+00	-5.722327954690105e+00
1	 7.084218792418324e-01	 1.618545551193824e+00	-5.994652423795733e+00
1	 6.706815792066391e-01	 1.631209847256555e+00	-6.263288919303772e+00
1	 6.326035011166404e-01	 1.643033496618929e+00	-6.526241621760978e+00
1	 5.942163618280748e-01	 1.654026016486803e+00	-6.781526823529584e+00
1	 5.555487917659618e-01	 1.664198048747260e+00	-7.027187770440063e+00
1	 5.166292620345450e-01	 1.673561303295024e+00	-7.261308393418263e+00
1	 4.774860144314489e-01	 1.682128498954505e+00	-7.482025824787001e+00
1	 4.381469946384860e-01	 1.689913302408431e+00	-7.687541622065576e+00
1	 3.986397888273381e-01	 1.696930265540623e+00	-7.876131649160817e+00
1	 7.892431988448086e-01	 1.603808235835264e+00	-5.400054217805971e+00
1	 7.519589777238975e-01	 1.618296361585791e+00	-5.673199750691519e+00
1	 7.142763240612719e-01	 1.631921317657671e+00	-5.944726857123642e+00
1	 6.762241357145049e-01	 1.644690272292521e+00	-6.212647153348694e+00
1	 6.378313778929237e-01	 1.656611633067583e+00	-6.474966196874628e+00
1	 5.991270047707274e-01	 1.667694995839532e+00	-6.729699497551841e+00
1	 5.601398833766249e-01	 1.677951090440714e+00	-6.974887562740557e+00
1	 5.208987201019113e-01	 1.687391723537195e+00	-7.208609839007280e+00
1	 4.814319901362585e-01	 1.696029719062592e+00	-7.428997441526689e+00
1	 4.417678701064070e-01	 1.703878856641999e+00	-7.634244590751581e+00
1	 4.019341741579514e-01	 1.710953808416969e+00	-7.822618703286984e+00
1	 7.957120984556170e-01	 1.616953581256991e+00	-5.352599771089888e+00
1	 7.581222834650545e-01	 1.631560456501998e+00	-5.624877197068769e+00
1	 7.201307702472227e-01	 1.645297087242690e+00	-5.895600797092239e+00
1	 6.817666935161193e-01	 1.658170700473988e+00	-6.162789769642517e+00
1	 6.430592558895327e-01	 1.670189772684440e+00	-6.424455077553411e+00
1	 6.040376488596789e-01	 1.681363978381566e+00	-6.678615608307350e+00
1	 5.647309760590077e-01	 1.691704135342993e+00	-6.923313379866552e+00
1	 5.251681791659194e-01	 1.701222147006158e+00	-7.156627651255447e+00
1	 4.853779667621870e-01	 1.709930942413911e+00	-7.376687825986711e+00
1	 4.453887464195303e-01	 1.717844414133743e+00	-7.581685064999712e+00
1	 4.052285602575090e-01	 1.724977354564966e+00	-7.769882553387960e+00
1	 8.021810003307788e-01	 1.630098931279753e+00	-5.305921595249097e+00
1	 7.642855913636152e-01	 1.644824556060741e+00	-5.577335458544355e+00
1	 7.259852184824847e-01	 1.658672861509265e+00	-5.847248355323988e+00
1	 6.873092532578907e-01	 1.671651133373571e+00	-6.113690816296249e+00
1	 6.482871357161660e-01	 1.683767917053543e+00	-6.374683132606745e+00
1	 6.089482946676221e-01	 1.695032965707572e+00	-6.628251622150037e+00
1	 5.693220703485324e-01	 1.705457185058600e+00	-6.872443953994469e+00
1	 5.294376397244840e-01	 1.715052575315472e+00	-7.105343387411486e+00
1	 4.893239447694297e-01	 1.723832170630307e+00	-7.325081810949377e+00
1	 4.490096240001493e-01	 1.731809976513040e+00	-7.529851495690793e+00
1	 4.085229475102454e-01	 1.739000905620783e+00	-7.717915504601375e+00
1	 8.086499052247982e-01	 1.643244287437012e+00	-5.259997726533109e+00
1	 7.704489021384195e-01	 1.658088661809354e+00	-5.530550494805076e+00
1	 7.318396694498567e-01	 1.672048642017778e+00	-5.799644472169962e+00
1	 6.928518155862287e-01	 1.685131572563887e+00	-6.065325172248412e+00
1	 6.535150179825203e-01	 1.697346067758932e+00	-6.325626035474252e+00
1	 6.138589427672496e-01	 1.708701959412215e+00	-6.578584759003513e+00
1	 5.739131667806222e-01	 1.719210241192035e+00	-6.822258698418362e+00
1	 5.337071022755197e-01	 1.728883010078692e+00	-7.054739195484006e+00
1	 4.932699246181828e-01	 1.737733405333628e+00	-7.274164715172434e+00
1	 4.526305032705575e-01	 1.745775545409268e+00	-7.478732703919167e+00
1	 4.118173363003946e-01	 1.753024463220587e+00	-7.666710108942049e+00
1	 8.151188138921801e-01	 1.656389651262230e+00	-5.214806898602395e+00
1	 7.766122165083079e-01	 1.671352775295169e+00	-5.484499028934158e+00
1	 7.376941238321383e-01	 1.685424430328613e+00	-5.752764883804208e+00
1	 6.983943811475419e-01	 1.698612019617553e+00	-6.017668514277925e+00
1	 6.587429032982937e-01	 1.710924226384649e+00	-6.277260232280186e+00
1	 6.187695937312543e-01	 1.722370961090161e+00	-6.529592962443460e+00
1	 5.785042658906995e-01	 1.732963305347800e+00	-6.772737680508625e+00
1	 5.379765673169407e-01	 1.742713452909376e+00	-7.004797790787124e+00
1	 4.972159067686416e-01	 1.751634648145715e+00	-7.223922324092955e+00
1	 4.562513846530479e-01	 1.759741122451803e+00	-7.428317866290848e+00
1	 4.151117270121904e-01	 1.767048029000546e+00	-7.616259155493867e+00
1	 8.215877270874299e-01	 1.669535024288868e+00	-5.170328515048397e+00
1	 7.827755351921207e-01	 1.684616898065521e+00	-5.439158517335142e+00
1	 7.435485823121284e-01	 1.698800228002152e+00	-5.706586090872887e+00
1	 7.039369505882389e-01	 1.712092476107183e+00	-5.970697285575744e+00
1	 6.639707922731833e-01	 1.724502394514735e+00	-6.229562911397106e+00
1	 6.236802481323296e-01	 1.736039972336078e+00	-6.481254871193537e+00
1	 5.830953682141872e-01	 1.746716379130398e+00	-6.723861595948669e+00
1	 5.422460353466614e-01	 1.756543905421082e+00	-6.955502433594065e+00
1	 5.011618916810020e-01	 1.765535900688415e+00	-7.174340871443587e+00
1	 4.598722685699141e-01	 1.773706709270024e+00	-7.378596500916048e+00
1	 4.184061200298669e-01	 1.781071604596829e+00	-7.566555661064801e+00
1	 8.280566455650521e-01	 1.682680408050388e+00	-5.126542623201924e+00
1	 7.889388589086984e-01	 1.697881031667741e+00	-5.394507121065845e+00
1	 7.494030455726264e-01	 1.712176036598776e+00	-5.661085328613146e+00
1	 7.094795245547295e-01	 1.725572943605394e+00	-5.924388665789990e+00
1	 6.691986855168869e-01	 1.738080573733230e+00	-6.182511974436911e+00
1	 6.285909065431682e-01	 1.749708994744632e+00	-6.433549791957704e+00
1	 5.876864742865079e-01	 1.760469464144329e+00	-6.675611744179341e+00
1	 5.465155068625969e-01	 1.770374369227367e+00	-6.906836907838833e+00
1	 5.051078798154598e-01	 1.779437164583574e+00	-7.125407021730400e+00
1	 4.634931554434493e-01	 1.787672307493307e+00	-7.329558454058834e+00
1	 4.217005157376584e-01	 1.795095191645604e+00	-7.517592861280377e+00
1	 8.345255700795510e-01	 1.695825804080252e+00	-5.083429889159937e+00
1	 7.951021883768820e-01	 1.711145177649163e+00	-5.350523678506102e+00
1	 7.552575142964307e-01	 1.725551857678868e+00	-5.616240538362532e+00
1	 7.150221036934218e-01	 1.739053423684801e+00	-5.878720542464771e+00
1	 6.744265836391021e-01	 1.751658765624176e+00	-6.136086008591207e+00
1	 6.335015695364629e-01	 1.763378029910489e+00	-6.386457673516569e+00
1	 5.922775846430843e-01	 1.774222561994095e+00	-6.627970004985779e+00
1	 5.507849823626615e-01	 1.784204845941787e+00	-6.858785500808455e+00
1	 5.090538716322107e-01	 1.793338441453034e+00	-7.077107853526052e+00
1	 4.671140456959468e-01	 1.801637918751031e+00	-7.281193887407531e+00
1	 4.249949145197989e-01	 1.809118791783039e+00	-7.469364202091280e+00
1	 8.409945013854322e-01	 1.708971213911920e+00	-5.040971573965253e+00
1	 8.012655243155109e-01	 1.724409337557121e+00	-5.307187679287036e+00
1	 7.611119891663416e-01	 1.738927692802811e+00	-5.572030340383234e+00
1	 7.205646886507253e-01	 1.752533917918023e+00	-5.833671483797271e+00
1	 6.796544872495266e-01	 1.765236971771615e+00	-6.090264260248723e+00
1	 6.384122376849063e-01	 1.777047079428316e+00	-6.339959082019411e+00
1	 5.968686998193392e-01	 1.787975674284199e+00	-6.580918816165082e+00
1	 5.550544623447694e-01	 1.798035337177901e+00	-6.811332983772862e+00
1	 5.129998675914502e-01	 1.807239732918643e+00	-7.029430843534167e+00
1	 4.707349397497000e-01	 1.815603544672573e+00	-7.233493265933036e+00
1	 4.282893167605222e-01	 1.823142406645302e+00	-7.421863331672983e+00
1	 3.953454038814352e-01	 1.682906724299760e+00	-7.930429343048038e+00
1	 3.560220848416451e-01	 1.689119859320706e+00	-8.102781227781389e+00
1	 3.165854117949879e-01	 1.694602641381182e+00	-8.259539362875797e+00
1	 2.770613785882645e-01	 1.699371756916888e+00	-8.399804099968980e+00
1	 2.374754056886408e-01	 1.703444513999047e+00	-8.522770823951264e+00
1	 1.978522965532911e-01	 1.706838777961158e+00	-8.627727895349130e+00
1	 1.582161980975129e-01	 1.709572907634753e+00	-8.714053962920760e+00
1	 1.185905652642063e-01	 1.711665692492552e+00	-8.781214733232861e+00
1	 7.899812966952448e-02	 1.713136290974417e+00	-8.828759282288445e+00
1	 3.946087227343351e-02	 1.714004170247544e+00	-8.856315991315304e+00
1	 0.000000000000000e+00	 1.714289047627778e+00	-8.863588184839763e+00
1	 3.986397888273381e-01	 1.696930265540623e+00	-7.876131649160818e+00
1	 3.589887913849910e-01	 1.703195174170719e+00	-8.048307943253352e+00
1	 3.192234953648744e-01	 1.708723643861422e+00	-8.204974116041996e+00
1	 2.793701112187151e-01	 1.713532500095309e+00	-8.345164847245867e+00
1	 2.394542712406707e-01	 1.717639195170523e+00	-8.468011027093587e+00
1	 1.995009855734057e-01	 1.721061743291110e+00	-8.572738112530061e+00
1	 1.595346023467897e-01	 1.723818656271432e+00	-8.658663802517777e+00
1	 1.195787719521360e-01	 1.725928880155542e+00	-8.725195119575121e+00
1	 7.965641542658011e-02	 1.727411733029215e+00	-8.771824983698052e+00
1	 3.978969689590328e-02	 1.728286844278154e+00	-8.798128362456650e+00
1	 0.000000000000000e+00	 1.728574095521189e+00	-8.803758077571722e+00
1	 4.019341741579514e-01	 1.710953808416969e+00	-7.822618703286984e+00
1	 3.619554982746881e-01	 1.717270490662191e+00	-7.994673834362526e+00
1	 3.218615792426328e-01	 1.722844647988404e+00	-8.151307572953989e+00
1	 2.816788441184740e-01	 1.727693244925074e+00	-8.291473823501322e+00
1	 2.414331370233987e-01	 1.731833877997279e+00	-8.414223823977963e+00
1	 2.011496747855978e-01	 1.735284710279628e+00	-8.518705048527526e+00
1	 1.608530067495474e-01	 1.738064406569329e+00	-8.604159366069990e+00
1	 1.205669787550088e-01	 1.740192069481785e+00	-8.669920542030736e+00
1	 8.031470126013159e-02	 1.741687176748694e+00	-8.715411170279513e+00
1	 4.011852155654447e-02	 1.742569519974292e+00	-8.740139120809960e+00
1	 0.000000000000000e+00	 1.742859145080407e+00	-8.743693585878241e+00
1	 4.052285602575090e-01	 1.724977354564966e+00	-7.769882553387960e+00
1	 3.649222058567783e-01	 1.731345810437356e+00	-7.941873536192853e+00
1	 3.244996637360026e-01	 1.736965655409712e+00	-8.098534280162017e+00
1	 2.839875775568942e-01	 1.741853993058424e+00	-8.238723240363054e+00
1	 2.434120032677271e-01	 1.746028564135532e+00	-8.361397269020840e+00
1	 2.027983643822757e-01	 1.749507680586244e+00	-8.465611195166916e+00
1	 1.621714114596788e-01	 1.752310160190644e+00	-8.550516585348733e+00
1	 1.215551857881991e-01	 1.754455262135521e+00	-8.615359772203506e+00
1	 8.097298724705299e-02	 1.755962623798535e+00	-8.659479238781211e+00
1	 4.044734629376683e-02	 1.756852199002485e+00	-8.682302445939918e+00
1	 0.000000000000000e+00	 1.757144197972236e+00	-8.683342188168337e+00
1	 4.085229475102454e-01	 1.739000905620783e+00	-7.717915504601373e+00
1	 3.678889144773020e-01	 1.745421135138444e+00	-7.889901857529821e+00
1	 3.271377491527241e-01	 1.751086667772930e+00	-8.046648960743701e+00
1	 2.862963118033286e-01	 1.756014746147594e+00	-8.186905561278673e+00
1	 2.453908702045579e-01	 1.760223255241496e+00	-8.309519802551364e+00
1	 2.044470545558480e-01	 1.763730655870484e+00	-8.413439609643840e+00
1	 1.634898166310764e-01	 1.766555918797576e+00	-8.497712169172724e+00
1	 1.225433931670815e-01	 1.768718459780995e+00	-8.561482589836642e+00
1	 8.163127346421838e-02	 1.770238075844416e+00	-8.603991832177655e+00
1	 4.077617114598011e-02	 1.771134883029259e+00	-8.624573996719413e+00
1	 0.000000000000000e+00	 1.771429255863481e+00	-8.622653058688208e+00
1	 4.118173363003946e-01	 1.753024463220587e+00	-7.666710108942051e+00
1	 3.708556244823005e-01	 1.759496466407687e+00	-7.838753773899612e+00
1	 3.297758358005368e-01	 1.765207686725638e+00	-7.995646507229110e+00
1	 2.886050471271304e-01	 1.770175505844825e+00	-8.136013491428750e+00
1	 2.473697380647935e-01	 1.774417952971386e+00	-8.258580235360652e+00
1	 2.060957454987230e-01	 1.777953637791879e+00	-8.362173891896440e+00
1	 1.648082224176328e-01	 1.780801684052323e+00	-8.445723572316478e+00
1	 1.235316010070308e-01	 1.782981664082448e+00	-8.508259742482926e+00
1	 8.228955998850176e-02	 1.784513534552017e+00	-8.548912789823834e+00
1	 4.110499615159411e-02	 1.785417573721143e+00	-8.566910852171077e+00
1	 0.000000000000000e+00	 1.785714320420949e+00	-8.561576999715257e+00
1	 4.151117270121904e-01	 1.767048029000546e+00	-7.616259155493867e+00
1	 3.738223362178146e-01	 1.773571805887316e+00	-7.788424420939745e+00
1	 3.324139239871811e-01	 1.779328713915424e+00	-7.945521974862869e+00
1	 2.909137837976528e-01	 1.784336273802357e+00	-8.086039968119804e+00
1	 2.493486070793357e-01	 1.788612658981417e+00	-8.208567733986930e+00
1	 2.077444374033094e-01	 1.792176628009957e+00	-8.311798163055762e+00
1	 1.661266289732406e-01	 1.795047457617085e+00	-8.394528965899752e+00
1	 1.245198094234214e-01	 1.797244876704125e+00	-8.455662907095531e+00
1	 8.294784689677716e-02	 1.798789001587017e+00	-8.494207099983640e+00
1	 4.143382134901862e-02	 1.799700272744663e+00	-8.509271455126276e+00
1	 0.000000000000000e+00	 1.799999393311444e+00	-8.500066376981740e+00
1	 4.184061200298669e-01	 1.781071604596829e+00	-7.566555661064801e+00
1	 3.767890500298854e-01	 1.787647155219566e+00	-7.738909088083021e+00
1	 3.350520140203967e-01	 1.793449750989868e+00	-7.896270575184374e+00
1	 2.932225220842488e-01	 1.798497051672427e+00	-8.036978151631462e+00
1	 2.513274774790871e-01	 1.802807374927803e+00	-8.159471806696057e+00
1	 2.093931304620154e-01	 1.806399628184248e+00	-8.262297044914131e+00
1	 1.674450364517922e-01	 1.809293241154060e+00	-8.344107209176073e+00
1	 1.255080185316279e-01	 1.811508099310267e+00	-8.403664653433998e+00
1	 8.360613426591867e-02	 1.813064478615097e+00	-8.439840854601277e+00
1	 4.176264677666337e-02	 1.813982981766347e+00	-8.451615558546729e+00
1	 0.000000000000000e+00	 1.814284476201773e+00	-8.438075058149654e+00
1	 4.217005157376584e-01	 1.795095191645604e+00	-7.517592861280378e+00
1	 3.797557662645539e-01	 1.801722516046665e+00	-7.690203212537464e+00
1	 3.376901062079234e-01	 1.807570799596554e+00	-7.847887669909454e+00
1	 2.955312622562715e-01	 1.812657841107276e+00	-7.988821416492840e+00
1	 2.533063494949497e-01	 1.817002102466761e+00	-8.111282290119300e+00
1	 2.110418248672496e-01	 1.820622639974282e+00	-8.213655640356192e+00
1	 1.687634450071802e-01	 1.823539036325449e+00	-8.294437822644161e+00
1	 1.264962284470250e-01	 1.825771333565119e+00	-8.352238409185892e+00
1	 8.426442217280029e-02	 1.827339967301935e+00	-8.385781206193627e+00
1	 4.209147247293815e-02	 1.828265702452721e+00	-8.393904174362522e+00
1	 0.000000000000000e+00	 1.828569570758740e+00	-8.375558354170579e+00
1	 4.249949145197989e-01	 1.809118791783039e+00	-7.469364202091280e+00
1	 3.827224852678611e-01	 1.815797890010847e+00	-7.642302373546508e+00
1	 3.403282008575016e-01	 1.821691861383066e+00	-7.800368765096098e+00
1	 2.978400045830739e-01	 1.826818643759138e+00	-7.941563343164478e+00
1	 2.552852233578258e-01	 1.831196843254504e+00	-8.063989336512753e+00
1	 2.126905208114204e-01	 1.834845665039586e+00	-8.165859514700605e+00
1	 1.700818547932973e-01	 1.837784844793450e+00	-8.245500962409839e+00
1	 1.274844392849872e-01	 1.840034581132922e+00	-8.301358426710941e+00
1	 8.492271069429605e-02	 1.841615469313210e+00	-8.331996326747511e+00
1	 4.242029847625274e-02	 1.842548436470314e+00	-8.336099524690722e+00
1	 0.000000000000000e+00	 1.842854678649152e+00	-8.312472963373247e+00
1	 4.282893167605222e-01	 1.823142406645302e+00	-7.421863331672983e+00
1	 3.856892073858478e-01	 1.829873278754343e+00	-7.595202286914182e+00
1	 3.429662982768709e-01	 1.835812937996986e+00	-7.753709505580185e+00
1	 3.001487493340093e-01	 1.840979461280257e+00	-7.895197710104611e+00
1	 2.572640992986176e-01	 1.845391598947249e+00	-8.017583401605018e+00
1	 2.143392184869364e-01	 1.849068705039692e+00	-8.118894677902714e+00
1	 1.714002659640361e-01	 1.852030668220261e+00	-8.197277395732137e+00
1	 1.284726511608891e-01	 1.854297843677920e+00	-8.250999751320492e+00
1	 8.558099990728006e-02	 1.855890986314603e+00	-8.278455368514946e+00
1	 4.274912482501691e-02	 1.856831185485652e+00	-8.278164995305392e+00
1	 0.000000000000000e+00	 1.857139801539814e+00	-8.248776918132481e+00
1	 1.857139801539814e+00	 0.000000000000000e+00	 5.660111116111698e-01
1	 1.856831185485652e+00	 4.274912482501749e-02	 5.681576146984443e-01
1	 1.855890986314602e+00	 8.558099990728060e-02	 5.668024588922597e-01
1	 1.854297843677920e+00	 1.284726511608895e-01	 5.623442955029074e-01
1	 1.852030668220261e+00	 1.714002659640365e-01	 5.552152491383706e-01
1	 1.849068705039691e+00	 2.143392184869368e-01	 5.458813939458871e-01
1	 1.845391598947249e+00	 2.572640992986178e-01	 5.348429302750547e-01
1	 1.840979461280257e+00	 3.001487493340095e-01	 5.226340264279674e-01
1	 1.835812937996986e+00	 3.429662982768709e-01	 5.098222909712987e-01
1	 1.829873278754343e+00	 3.856892073858478e-01	 4.970078426944102e-01
1	 1.823142406645302e+00	 4.282893167605222e-01	 4.848219477911312e-01
1	 1.871425938885499e+00	 0.000000000000000e+00	 5.693176687908689e-01
1	 1.871114948787420e+00	 4.307797452551081e-02	 5.739440853087081e-01
1	 1.870167517088809e+00	 8.623933586883083e-02	 5.743526640009192e-01
1	 1.868562119125425e+00	 1.294609332147644e-01	 5.710631514871709e-01
1	 1.866277503311067e+00	 1.727187707617287e-01	 5.646301446622881e-01
1	 1.863292755085735e+00	 2.159880332445210e-01	 5.556425456197623e-01
1	 1.859587362677221e+00	 2.592431157688597e-01	 5.447226106912409e-01
1	 1.855141284428371e+00	 3.024576580397680e-01	 5.325245613438407e-01
1	 1.849935017415582e+00	 3.456045830397631e-01	 5.197327275448497e-01
1	 1.843949667057868e+00	 3.886561401843552e-01	 5.070591980526856e-01
1	 1.837167017390747e+00	 4.315839529516940e-01	 4.952409569811390e-01
1	 1.885712081233184e+00	 0.000000000000000e+00	 5.729283920783093e-01
1	 1.885398717090345e+00	 4.340682434133453e-02	 5.806310894246682e-01
1	 1.884444052861604e+00	 8.689767206117580e-02	 5.832201660165038e-01
1	 1.882826399567176e+00	 1.304492156149813e-01	 5.813719074652355e-01
1	 1.880524343389939e+00	 1.740372760213404e-01	 5.757957187560094e-01
1	 1.877516810111782e+00	 2.176368485795780e-01	 5.672318562060645e-01
1	 1.873783131377193e+00	 2.612221329320474e-01	 5.564486167564333e-01
1	 1.869303112534495e+00	 3.047665675538066e-01	 5.442389616180042e-01
1	 1.864057101778160e+00	 3.482428687260726e-01	 5.314165573990075e-01
1	 1.858026060289259e+00	 3.916230740211588e-01	 5.188112251255762e-01
1	 1.851191633045813e+00	 4.348785902957209e-01	 5.072637960330907e-01
1	 1.899998216915481e+00	 0.000000000000000e+00	 5.761442247200179e-01
1	 1.899682478728979e+00	 4.373567400390595e-02	 5.877332481209820e-01
1	 1.898720581973453e+00	 8.755600794664044e-02	 5.931075189891191e-01
1	 1.897090673353649e+00	 1.314374975544066e-01	 5.931339774474902e-01
1	 1.894771176821610e+00	 1.753557806660619e-01	 5.887078789430195e-01
1	 1.891740858501185e+00	 2.192856631455580e-01	 5.807481130640699e-01
1	 1.887978893453634e+00	 2.632011491719851e-01	 5.701918131184368e-01
1	 1.883464934032833e+00	 3.070754759905426e-01	 5.579882489097592e-01
1	 1.878179179551402e+00	 3.508811531812545e-01	 5.450920056565736e-01
1	 1.872102446952540e+00	 3.945900064733498e-01	 5.324554638954494e-01
1	 1.865216242156835e+00	 4.381732261021032e-01	 5.210206084176108e-01
1	 1.914284334264999e+00	 0.000000000000000e+00	 5.782869735499052e-01
1	 1.913966222037872e+00	 4.406452324464238e-02	 5.947796692538500e-01
1	 1.912997092764816e+00	 8.821434298754971e-02	 6.037261546597907e-01
1	 1.911354928835323e+00	 1.324257782259066e-01	 6.062168516131007e-01
1	 1.909017991970809e+00	 1.766742836190831e-01	 6.033626537633077e-01
1	 1.905964888637292e+00	 2.209344755959106e-01	 5.962871531904453e-01
1	 1.902174637313011e+00	 2.651801628724775e-01	 5.861179620951347e-01
1	 1.897626737357590e+00	 3.093843814643931e-01	 5.739771434812939e-01
1	 1.892301239201991e+00	 3.535194342507644e-01	 5.609707808126275e-01
1	 1.886178815551731e+00	 3.975569351180192e-01	 5.481777342925999e-01
1	 1.879240833270147e+00	 4.414678576803407e-01	 5.366376505139421e-01
1	 1.928570421614352e+00	 0.000000000000000e+00	 5.786985360656680e-01
1	 1.928249935351575e+00	 4.439337179496115e-02	 6.013134108286643e-01
1	 1.927273573576156e+00	 8.887267664622857e-02	 6.147960536516568e-01
1	 1.925619154362675e+00	 1.334140568223477e-01	 6.204919453876198e-01
1	 1.923264777202266e+00	 1.779927838035942e-01	 6.197561883692305e-01
1	 1.920188888903455e+00	 2.225832845840858e-01	 6.139419725854955e-01
1	 1.916370351361791e+00	 2.671591724173291e-01	 6.043879127478551e-01
1	 1.911788510942970e+00	 3.116932820897748e-01	 5.924042976783315e-01
1	 1.906423269196610e+00	 3.561577097800575e-01	 5.792583161793211e-01
1	 1.900255154590854e+00	 4.005238575322578e-01	 5.661583481265893e-01
1	 1.893265394932085e+00	 4.447624823399337e-01	 5.542374356398551e-01
1	 1.942856467296148e+00	 0.000000000000000e+00	 5.767401615282964e-01
1	 1.942533607004642e+00	 4.472221938627953e-02	 6.068909679895221e-01
1	 1.941550012747933e+00	 8.953100838500189e-02	 6.260454311348134e-01
1	 1.939883338286183e+00	 1.344023325365960e-01	 6.358344551638641e-01
1	 1.937511520880712e+00	 1.793112801427852e-01	 6.378847403152057e-01
1	 1.934412847683026e+00	 2.242320887635338e-01	 6.338028308052017e-01
1	 1.930566024006441e+00	 2.691381761903444e-01	 6.251577816319402e-01
1	 1.925950243223175e+00	 3.140021759811051e-01	 6.134625191331626e-01
1	 1.920545258001943e+00	 3.587959776145891e-01	 6.001540007025286e-01
1	 1.914331452573932e+00	 4.034907712931571e-01	 5.865723116885927e-01
1	 1.907289915688981e+00	 4.480570973903820e-01	 5.739388717414794e-01
1	 1.957142459643000e+00	 0.000000000000000e+00	 5.717917443500941e-01
1	 1.956817225331620e+00	 4.505106575001486e-02	 6.110817824263318e-01
1	 1.955826398620612e+00	 9.018933766619465e-02	 6.372104362271060e-01
1	 1.954147468956323e+00	 1.353906045615179e-01	 6.521232203276139e-01
1	 1.951758211370878e+00	 1.806297715598461e-01	 6.577446755313591e-01
1	 1.948636753359356e+00	 2.258808867877044e-01	 6.559573509445106e-01
1	 1.944761643653427e+00	 2.711171725753280e-01	 6.485791256487831e-01
1	 1.940111922632410e+00	 3.163110612528009e-01	 6.373389842140903e-01
1	 1.934667194084671e+00	 3.614342355998145e-01	 6.238513996921995e-01
1	 1.928407698004987e+00	 4.064576739778080e-01	 6.095895195003354e-01
1	 1.921314384087171e+00	 4.513517001411860e-01	 5.958573930662946e-01
1	 1.971428386987518e+00	 0.000000000000000e+00	 5.632511481370216e-01
1	 1.971100778667064e+00	 4.537991061758444e-02	 6.134677730648544e-01
1	 1.970102719534652e+00	 9.084766395213176e-02	 6.480348644354303e-01
1	 1.968411534723574e+00	 1.363788720899798e-01	 6.692405912688245e-01
1	 1.966004837037493e+00	 1.819482569779670e-01	 6.793324644718394e-01
1	 1.962860594315794e+00	 2.275296773100474e-01	 6.804906152830182e-01
1	 1.958957198709218e+00	 2.730961599560843e-01	 6.747991073991038e-01
1	 1.954273537604879e+00	 3.186199360192795e-01	 6.642154422149036e-01
1	 1.948789065911478e+00	 3.640724815811890e-01	 6.505384659768404e-01
1	 1.942483879388040e+00	 4.094245631633016e-01	 6.353749396577059e-01
1	 1.935338788672990e+00	 4.546462879018455e-01	 6.201050861238152e-01
1	 1.985714237662315e+00	 0.000000000000000e+00	 5.505335588450259e-01
1	 1.985384255345523e+00	 4.570875372040557e-02	 6.136428869702689e-01
1	 1.984378963830518e+00	 9.150598670513820e-02	 6.582698824824849e-01
1	 1.982675523938412e+00	 1.373671343148479e-01	 6.870723030777270e-01
1	 1.980251386245289e+00	 1.832667353203382e-01	 7.026446784289266e-01
1	 1.977084358935692e+00	 2.291784589840129e-01	 7.074852568112088e-01
1	 1.973152677580279e+00	 2.750751367164180e-01	 7.039606534143139e-01
1	 1.968435076574785e+00	 3.209287983949576e-01	 6.942684107497004e-01
1	 1.962910861949046e+00	 3.667107134041679e-01	 6.803977419633891e-01
1	 1.956559985227112e+00	 4.123914364267289e-01	 6.640887911914284e-01
1	 1.949363117992771e+00	 4.579408579818608e-01	 6.467908102210114e-01
1	 2.000000000000000e+00	 0.000000000000000e+00	 5.330708655978433e-01
1	 1.999667643701550e+00	 4.603759478989555e-02	 6.112126694558275e-01
1	 1.998655119848670e+00	 9.216430538753885e-02	 6.676737649009369e-01
1	 1.996939424951317e+00	 1.383553904289885e-01	 7.055073546421754e-01
1	 1.994497847358994e+00	 1.845852055101493e-01	 7.276779860048549e-01
1	 1.991308035602400e+00	 2.308272304630508e-01	 7.370215468424887e-01
1	 1.987348068673079e+00	 2.770541012401335e-01	 7.362026056212315e-01
1	 1.982596527976333e+00	 3.232376464942529e-01	 7.276693627918125e-01
1	 1.977032570664059e+00	 3.693489289142068e-01	 7.136065530561679e-01
1	 1.970636004026227e+00	 4.153582913451809e-01	 6.958867138430764e-01
1	 1.963387360592848e+00	 4.612354076907317e-01	 6.760203128430986e-01
1	 1.823142406645302e+00	 4.282893167605222e-01	 4.848219477911312e-01
1	 1.815603544672573e+00	 4.707349397496997e-01	 4.710850722532182e-01
1	 1.807239732918643e+00	 5.129998675914498e-01	 4.532919423827950e-01
1	 1.798035337177901e+00	 5.550544623447690e-01	 4.315720280079580e-01
1	 1.787975674284199e+00	 5.968686998193390e-01	 4.059993976337821e-01
1	 1.777047079428317e+00	 6.384122376849063e-01	 3.765868583869060e-01
1	 1.765236971771615e+00	 6.796544872495263e-01	 3.432803561786193e-01
1	 1.752533917918022e+00	 7.205646886507250e-01	 3.059537431770621e-01
1	 1.738927692802811e+00	 7.611119891663414e-01	 2.644040233338796e-01
1	 1.724409337557121e+00	 8.012655243155106e-01	 2.183471882316475e-01
1	 1.708971213911921e+00	 8.409945013854322e-01	 1.674147546162341e-01
1	 1.837167017390747e+00	 4.315839529516940e-01	 4.952409569811389e-01
1	 1.829570162359090e+00	 4.743560909394626e-01	 4.820330459827061e-01
1	 1.821142011580398e+00	 5.169461437735805e-01	 4.647839855359273e-01
1	 1.811866810582170e+00	 5.593242455217806e-01	 4.436017356840412e-01
1	 1.801729763247288e+00	 6.014601410312405e-01	 4.185385495866533e-01
1	 1.790717099649317e+00	 6.433232545618968e-01	 3.895852810919046e-01
1	 1.778816142170903e+00	 6.848827621168463e-01	 3.566659656635019e-01
1	 1.766015369464010e+00	 7.261076672119187e-01	 3.196327803524277e-01
1	 1.752304477807102e+00	 7.669668797889304e-01	 2.782614918235259e-01
1	 1.737674439414772e+00	 8.074292979405400e-01	 2.322475026377730e-01
1	 1.722117557260229e+00	 8.474638920795502e-01	 1.812026047715728e-01
1	 1.851191633045813e+00	 4.348785902957209e-01	 5.072637960330908e-01
1	 1.843536784934809e+00	 4.779772433962460e-01	 4.944905043660334e-01
1	 1.835044295108718e+00	 5.208924213364344e-01	 4.777163520548257e-01
1	 1.825698288828111e+00	 5.635940301926754e-01	 4.570152004755478e-01
1	 1.815483857024859e+00	 6.060515838495604e-01	 4.324069108459324e-01
1	 1.804387124655278e+00	 6.482342731571334e-01	 4.038520988459213e-01
1	 1.792395317323264e+00	 6.901110388134489e-01	 3.712471700738660e-01
1	 1.779496825728795e+00	 7.316506477125575e-01	 3.344197361355398e-01
1	 1.765681267493491e+00	 7.728217724601689e-01	 2.931245139058292e-01
1	 1.750939545915385e+00	 8.135930737223795e-01	 2.470398112013187e-01
1	 1.735263905209901e+00	 8.539332850375116e-01	 1.957647004985084e-01
1	 1.865216242156835e+00	 4.381732261021032e-01	 5.210206084176108e-01
1	 1.857503400993457e+00	 4.815983941629300e-01	 5.085134444238184e-01
1	 1.848946572149907e+00	 5.248386970574064e-01	 4.920808725850687e-01
1	 1.839529760619886e+00	 5.678638128706813e-01	 4.717504833722889e-01
1	 1.829237944384306e+00	 6.106430245248657e-01	 4.474995516783438e-01
1	 1.818057143282288e+00	 6.531452894602179e-01	 4.192505128467158e-01
1	 1.805974486139023e+00	 6.953393130698571e-01	 3.868667213703441e-01
1	 1.792978275702542e+00	 7.371936256261624e-01	 3.501485817399672e-01
1	 1.779058050937662e+00	 7.786766623988440e-01	 3.088301428480719e-01
1	 1.764204646225886e+00	 8.197568466275468e-01	 2.625762474024378e-01
1	 1.748410247024885e+00	 8.604026749762184e-01	 2.109803257521483e-01
1	 1.879240833270147e+00	 4.414678576803407e-01	 5.366376505139421e-01
1	 1.871469999128758e+00	 4.852195402823947e-01	 5.241561898172524e-01
1	 1.862848831350267e+00	 5.287849677138905e-01	 5.078696203192955e-01
1	 1.853361214661657e+00	 5.721335900690259e-01	 4.877474934879413e-01
1	 1.842992014093027e+00	 6.152344593077239e-01	 4.637146742553246e-01
1	 1.831727144366439e+00	 6.580562994607521e-01	 4.356478079057242e-01
1	 1.819553637528504e+00	 7.005675806165934e-01	 4.033720658309500e-01
1	 1.806459708375416e+00	 7.427365964262533e-01	 3.666582449542510e-01
1	 1.792434817215295e+00	 7.845315448237445e-01	 3.252202965009521e-01
1	 1.777469729513201e+00	 8.259206116225587e-01	 2.787133590375005e-01
1	 1.761556571969129e+00	 8.668720566125698e-01	 2.267323681404768e-01
1	 1.893265394932085e+00	 4.447624823399337e-01	 5.542374356398552e-01
1	 1.885436567934439e+00	 4.888406787975204e-01	 5.414714528754194e-01
1	 1.876751061356101e+00	 5.327312300832813e-01	 5.250749020579183e-01
1	 1.867192639657584e+00	 5.764033583009371e-01	 5.049479196509954e-01
1	 1.856746054918420e+00	 6.198258844487023e-01	 4.809534966937752e-01
1	 1.845397116743821e+00	 6.629672991483387e-01	 4.529152012372599e-01
1	 1.833132760402026e+00	 7.057958371841795e-01	 4.206151702172432e-01
1	 1.819941112737581e+00	 7.482795555863506e-01	 3.837924265885471e-01
1	 1.805811555402071e+00	 7.903864149536577e-01	 3.421415771442055e-01
1	 1.790734784944258e+00	 8.320843636739326e-01	 2.953119447319077e-01
1	 1.774702869306581e+00	 8.733414246634675e-01	 2.429071854523552e-01
1	 1.907289915688981e+00	 4.480570973903820e-01	 5.739388717414794e-01
1	 1.899403096004228e+00	 4.924618067511872e-01	 5.605103938922126e-01
1	 1.890653250813712e+00	 5.366774809429736e-01	 5.436892496632770e-01
1	 1.881024024311834e+00	 5.806731140796429e-01	 5.232951650069204e-01
1	 1.870500055627877e+00	 6.244172961983684e-01	 4.991201422011463e-01
1	 1.859067049250523e+00	 6.678782845125785e-01	 4.709276979038057e-01
1	 1.846711843669914e+00	 7.110240785031383e-01	 4.384523555924027e-01
1	 1.833422477779206e+00	 7.538224985799745e-01	 4.013994250010505e-01
1	 1.819188254573673e+00	 7.962412680073720e-01	 3.594450992623770e-01
1	 1.803999801685983e+00	 8.382480977481868e-01	 3.122368976493813e-01
1	 1.787849128301191e+00	 8.798107738458119e-01	 2.593944780607941e-01
1	 1.921314384087171e+00	 4.513517001411860e-01	 5.958573930662946e-01
1	 1.913369571931849e+00	 4.960829211862750e-01	 5.813226778320096e-01
1	 1.904555388369401e+00	 5.406237170703617e-01	 5.637054118872374e-01
1	 1.894855357328564e+00	 5.849428539183713e-01	 5.427342844781168e-01
1	 1.884254004988798e+00	 6.290086908072895e-01	 5.181215330646687e-01
1	 1.872736930722637e+00	 6.727892515430747e-01	 4.895639525780715e-01
1	 1.860290876242493e+00	 7.162523003039925e-01	 4.567441384011699e-01
1	 1.846903792490453e+00	 7.593654208806461e-01	 4.193319682922800e-01
1	 1.832564903805781e+00	 8.020960992036745e-01	 3.769863248464690e-01
1	 1.817264768905303e+00	 8.444118088118374e-01	 3.293570560308857e-01
1	 1.800995338216907e+00	 8.862800988765028e-01	 2.760871669019517e-01
1	 1.935338788672990e+00	 4.546462879018455e-01	 6.201050861238152e-01
1	 1.927335984311028e+00	 4.997040191456642e-01	 6.039565285753441e-01
1	 1.918457462669473e+00	 5.445699352428400e-01	 5.851163465532789e-01
1	 1.908686627411940e+00	 5.892125743303499e-01	 5.632119249369273e-01
1	 1.898007891768577e+00	 6.336000645260323e-01	 5.378672892395608e-01
1	 1.886406749996252e+00	 6.777001962294286e-01	 5.087061373021384e-01
1	 1.873869847030084e+00	 7.214804983172646e-01	 4.753550784440762e-01
1	 1.860385045861490e+00	 7.649083179618846e-01	 4.374470537791626e-01
1	 1.845941492174076e+00	 8.079509037613540e-01	 3.946249058405783e-01
1	 1.830529675769143e+00	 8.505754918314030e-01	 3.465450602174801e-01
1	 1.814141488317677e+00	 8.927493944724415e-01	 2.928812767476903e-01
1	 1.949363117992771e+00	 4.579408579818608e-01	 6.467908102210114e-01
1	 1.941302321735491e+00	 5.033250976722348e-01	 6.284587808280855e-01
1	 1.932359462360228e+00	 5.485161322378032e-01	 6.079152130752435e-01
1	 1.922517823266122e+00	 5.934822718288065e-01	 5.846762679554334e-01
1	 1.911761704734611e+00	 6.381914136051650e-01	 5.582696313051073e-01
1	 1.900076495907460e+00	 6.826111145612423e-01	 5.282398149422578e-01
1	 1.887448744943010e+00	 7.267086682734761e-01	 4.941536333995503e-01
1	 1.873866226882480e+00	 7.704511852972111e-01	 4.556057943830873e-01
1	 1.859318008754241e+00	 8.138056768991979e-01	 4.122245333744857e-01
1	 1.843794511444432e+00	 8.567391417734002e-01	 3.636772158313206e-01
1	 1.827287567867451e+00	 8.992186553505289e-01	 3.096758245056294e-01
1	 1.963387360592848e+00	 4.612354076907317e-01	 6.760203128430986e-01
1	 1.955268572798965e+00	 5.069461538088669e-01	 6.548749298107664e-01
1	 1.946261376087971e+00	 5.524623048326455e-01	 6.320953652960328e-01
1	 1.936348933595271e+00	 5.977519429269690e-01	 6.070769750035212e-01
1	 1.925515432654296e+00	 6.427827342952540e-01	 5.792432875706806e-01
1	 1.913746157292350e+00	 6.875220025281178e-01	 5.480538180552597e-01
1	 1.901027558891593e+00	 7.319368059031507e-01	 5.130120195671719e-01
1	 1.887347324543591e+00	 7.759940183601458e-01	 4.736732715869758e-01
1	 1.872694442621957e+00	 8.196604138359943e-01	 4.296527934436066e-01
1	 1.857059265098094e+00	 8.629027536043464e-01	 3.806333628075729e-01
1	 1.840433566130177e+00	 9.056878762276653e-01	 3.263727122959743e-01
1	 1.708971213911921e+00	 8.409945013854322e-01	 1.674147546162341e-01
1	 1.692605878429240e+00	 8.802710158444028e-01	 1.107112274503293e-01
1	 1.675309537819501e+00	 9.190618649712039e-01	 4.742491619373856e-02
1	 1.657078811545492e+00	 9.573369733799312e-01	-2.275884941978940e-02
1	 1.637911814921611e+00	 9.950666874472247e-01	-1.001466281025772e-01
1	 1.617808190139119e+00	 1.032221864511473e+00	-1.850339767511660e-01
1	 1.596769131566166e+00	 1.068773961727374e+00	-2.777025280669065e-01
1	 1.574797405047172e+00	 1.104695124050099e+00	-3.784170748658303e-01
1	 1.551897360966147e+00	 1.139958270817221e+00	-4.874227020190257e-01
1	 1.528074940881947e+00	 1.174537180395669e+00	-6.049420082822248e-01
1	 1.503337677589890e+00	 1.208406572365371e+00	-7.311724606839700e-01
1	 1.722117557260229e+00	 8.474638920795502e-01	 1.812026047715728e-01
1	 1.705626330646489e+00	 8.870425430173238e-01	 1.243657855123555e-01
1	 1.688196937103913e+00	 9.261317926190925e-01	 6.106408551961207e-02
1	 1.669825970090350e+00	 9.647013341425724e-01	-9.028604479954239e-03
1	 1.650511530422169e+00	 1.002721285852451e+00	-8.622856882706176e-02
1	 1.630253257538177e+00	 1.040162280905763e+00	-1.708392046715684e-01
1	 1.609052354994264e+00	 1.076995556889963e+00	-2.631479456296729e-01
1	 1.586911609911249e+00	 1.113193044483923e+00	-3.634232134161836e-01
1	 1.563835406138682e+00	 1.148727454705887e+00	-4.719114413936422e-01
1	 1.539829730941159e+00	 1.183572364211581e+00	-5.888342149586825e-01
1	 1.514902175060389e+00	 1.217702298110054e+00	-7.143855736758442e-01
1	 1.735263905209901e+00	 8.539332850375116e-01	 1.957647004985082e-01
1	 1.718646787421024e+00	 8.938140725599182e-01	 1.386786839317648e-01
1	 1.701084340899041e+00	 9.332017227411900e-01	 7.525071740698419e-02
1	 1.682573133096854e+00	 9.720656974825775e-01	 5.147977625411360e-03
1	 1.663111250332794e+00	 1.010375886936732e+00	-7.195186126990538e-02
1	 1.642698329293209e+00	 1.048102700079252e+00	-1.563574798273565e-01
1	 1.621335582721734e+00	 1.085217154930274e+00	-2.483607589499833e-01
1	 1.599025819015587e+00	 1.121690967892286e+00	-3.482336627151802e-01
1	 1.575773455489876e+00	 1.157496641664130e+00	-4.562252037532495e-01
1	 1.551584525114940e+00	 1.192607551190254e+00	-5.725585374182589e-01
1	 1.526466676578907e+00	 1.226998027108758e+00	-6.974282307873647e-01
1	 1.748410247024885e+00	 8.604026749762184e-01	 2.109803257521483e-01
1	 1.731667238119636e+00	 9.005855989422995e-01	 1.535604987159606e-01
1	 1.713971738680369e+00	 9.402716495638588e-01	 8.992278641364243e-02
1	 1.695320290155044e+00	 9.794300573857910e-01	 1.973226076607898e-02
1	 1.675710964363958e+00	 1.018030484448819e+00	-5.733585637003524e-02
1	 1.655143395241000e+00	 1.056043115547207e+00	-1.415930445308846e-01
1	 1.633618804717539e+00	 1.093438749133876e+00	-2.333343268656427e-01
1	 1.611140022467182e+00	 1.130188887335035e+00	-3.328351467835620e-01
1	 1.587711499270573e+00	 1.166265824530218e+00	-4.403483243770142e-01
1	 1.563339313803775e+00	 1.201642733952688e+00	-5.561011388413922e-01
1	 1.538031172701298e+00	 1.236293751769691e+00	-6.802925829590137e-01
1	 1.761556571969129e+00	 8.668720566125698e-01	 2.267323681404767e-01
1	 1.744687672109121e+00	 9.073571166345787e-01	 1.689244751975153e-01
1	 1.726859119923383e+00	 9.473415673134628e-01	 1.050201183247345e-01
1	 1.708067430854960e+00	 9.867944078380598e-01	 3.468676164813966e-02
1	 1.688310662226134e+00	 1.025685072137461e+00	-4.239932806490637e-02
1	 1.667588445218332e+00	 1.063983520824892e+00	-1.265500151973803e-01
1	 1.645902010950641e+00	 1.101660332786341e+00	-2.180622072346539e-01
1	 1.623254210373027e+00	 1.138686795872015e+00	-3.172147866907559e-01
1	 1.599649527731620e+00	 1.175034996142415e+00	-4.242656068155237e-01
1	 1.575094087408144e+00	 1.210677905119885e+00	-5.394485959879953e-01
1	 1.549595653983415e+00	 1.245589464501062e+00	-6.629710158179978e-01
1	 1.774702869306581e+00	 8.733414246634675e-01	 2.429071854523552e-01
1	 1.757708078756272e+00	 9.141286201068685e-01	 1.846864291575478e-01
1	 1.739746474103564e+00	 9.544114702163639e-01	 1.204843215662132e-01
1	 1.720814544786643e+00	 9.941587428252298e-01	 4.997510708422309e-02
1	 1.700910333629795e+00	 1.033339643751411e+00	-2.716049470167708e-02
1	 1.680033469061990e+00	 1.071923909427571e+00	-1.112323870557452e-01
1	 1.658185191390005e+00	 1.109881899173237e+00	-2.025381496176017e-01
1	 1.635368372840116e+00	 1.147184686563073e+00	-3.013600859067813e-01
1	 1.611587531123863e+00	 1.183804149338989e+00	-4.079623056073498e-01
1	 1.586848836328530e+00	 1.219713057312842e+00	-5.225878839411230e-01
1	 1.561160110981111e+00	 1.254885157711081e+00	-6.454561410487771e-01
1	 1.787849128301191e+00	 8.798107738458119e-01	 2.593944780607940e-01
1	 1.770728447427880e+00	 9.209001038292814e-01	 2.007646523015218e-01
1	 1.752633790696398e+00	 9.614813524989267e-01	 1.362587216373436e-01
1	 1.733561621540131e+00	 1.001523056333147e+00	 6.556199314460875e-02
1	 1.713509968285415e+00	 1.040994193039420e+00	-1.163703950589046e-02
1	 1.692478456608756e+00	 1.079864274870510e+00	-9.564403865200172e-02
1	 1.670468336004593e+00	 1.118103441580136e+00	-1.867560882821800e-01
1	 1.647482499975440e+00	 1.155682552468055e+00	-2.852589162989838e-01
1	 1.623525499698146e+00	 1.192573276958207e+00	-3.914241097563518e-01
1	 1.598603550965414e+00	 1.228748183152560e+00	-5.055063615221902e-01
1	 1.572724534250239e+00	 1.264180823807955e+00	-6.277407881434698e-01
1	 1.800995338216907e+00	 8.862800988765028e-01	 2.760871669019517e-01
1	 1.783748767490742e+00	 9.276715622719288e-01	 2.170798218655673e-01
1	 1.765521059177368e+00	 9.685512083875137e-01	 1.522882984083933e-01
1	 1.746308650705469e+00	 1.008887342347659e+00	 8.141314609335210e-02
1	 1.726109555903467e+00	 1.048648713750238e+00	 4.153869844269242e-03
1	 1.704923397695415e+00	 1.087804610668973e+00	-7.978873615596105e-02
1	 1.682751434763369e+00	 1.126324953292607e+00	-1.707101355133971e-01
1	 1.659596581885995e+00	 1.164180386646806e+00	-2.688995047406865e-01
1	 1.635463423705317e+00	 1.201342371838334e+00	-3.746371269310464e-01
1	 1.610358221719277e+00	 1.237783275260038e+00	-4.881917573435638e-01
1	 1.584288914346650e+00	 1.273476455199893e+00	-6.098179965127377e-01
1	 1.814141488317677e+00	 8.927493944724415e-01	 2.928812767476902e-01
1	 1.796769028311650e+00	 9.344429899049237e-01	 2.335549141442722e-01
1	 1.778408269021958e+00	 9.756210321084881e-01	 1.685196261384717e-01
1	 1.759055621872693e+00	 1.016251594854609e+00	 9.749528501907462e-02
1	 1.738709086194424e+00	 1.056303199632616e+00	 2.019556249288140e-02
1	 1.717368282158750e+00	 1.095744910338224e+00	-6.367013748107586e-02
1	 1.695034477635295e+00	 1.134546427596219e+00	-1.543945752140347e-01
1	 1.671710608678773e+00	 1.172678182159173e+00	-2.522704203007934e-01
1	 1.647401293396220e+00	 1.210111426817637e+00	-3.575878683494494e-01
1	 1.622112838990602e+00	 1.246818326256276e+00	-4.706321564662069e-01
1	 1.595853241826199e+00	 1.282772044295103e+00	-5.916810079389483e-01
1	 1.827287567867451e+00	 8.992186553505289e-01	 3.096758245056294e-01
1	 1.809789219257397e+00	 9.412143811983774e-01	 2.501151217428838e-01
1	 1.791295409705652e+00	 9.826908178882128e-01	 1.849008160768342e-01
1	 1.771802524631845e+00	 1.023615807839846e+00	 1.137760860752546e-01
1	 1.751308548868758e+00	 1.063957644435306e+00	 3.647184648767976e-02
1	 1.729813099835545e+00	 1.103685167393529e+00	-4.729179622686780e-02
1	 1.707317454589336e+00	 1.142767857776545e+00	-1.378038567807441e-01
1	 1.683824570460768e+00	 1.181175932065001e+00	-2.353605619851835e-01
1	 1.659339099021701e+00	 1.218880434734381e+00	-3.402632343149243e-01
1	 1.633867393179869e+00	 1.255853328762274e+00	-4.528159876319946e-01
1	 1.607417507244739e+00	 1.292067583501795e+00	-5.733232593543763e-01
1	 1.840433566130177e+00	 9.056878762276653e-01	 3.263727122959742e-01
1	 1.822809329694776e+00	 9.479857306224022e-01	 2.666877743681356e-01
1	 1.804182470703934e+00	 9.897605599530511e-01	 2.013814615187725e-01
1	 1.784549348572964e+00	 1.030979975289214e+00	 1.302241482497396e-01
1	 1.763907933636944e+00	 1.071612041907058e+00	 5.296699162770191e-02
1	 1.742257840562584e+00	 1.111625375350152e+00	-3.065716545276342e-02
1	 1.719600355594455e+00	 1.150989237119153e+00	-1.209325892420569e-01
1	 1.695938457338973e+00	 1.189673629424137e+00	-2.181591470023376e-01
1	 1.671276830832606e+00	 1.227649388426834e+00	-3.226505003706454e-01
1	 1.645621874687561e+00	 1.264888275399031e+00	-4.347320110420971e-01
1	 1.618981701158121e+00	 1.301363065228178e+00	-5.547383759282697e-01
1	 1.503337677589890e+00	 1.208406572365371e+00	-7.311724606839700e-01
1	 1.477694684641512e+00	 1.241542189619976e+00	-8.665486373435474e-01
1	 1.451156631409414e+00	 1.273920882760728e+00	-1.011445046810784e+00
1	 1.423735734706447e+00	 1.305520673096032e+00	-1.165913175611264e+00
1	 1.395445736040656e+00	 1.336320817023064e+00	-1.329956057815851e+00
1	 1.366301868460640e+00	 1.366301868460640e+00	-1.503527341932441e+00
1	 1.336320817023063e+00	 1.395445736040656e+00	-1.686530884046684e+00
1	 1.305520673096032e+00	 1.423735734706447e+00	-1.878820877537289e+00
1	 1.273920882760727e+00	 1.451156631409415e+00	-2.080202519800039e+00
1	 1.241542189619975e+00	 1.477694684641513e+00	-2.290433206473597e+00
1	 1.208406572365371e+00	 1.503337677589890e+00	-2.509224233954114e+00
1	 1.514902175060389e+00	 1.217702298110054e+00	-7.143855736758442e-01
1	 1.489061922154348e+00	 1.251092812695976e+00	-8.489794704283683e-01
1	 1.462319723670283e+00	 1.283720580492737e+00	-9.929803267885400e-01
1	 1.434687890399449e+00	 1.315563453736617e+00	-1.146450822837866e+00
1	 1.406180269557087e+00	 1.346600529253643e+00	-1.309405983073753e+00
1	 1.376812211372734e+00	 1.376812211372734e+00	-1.481812164456889e+00
1	 1.346600529253642e+00	 1.406180269557087e+00	-1.663586562066854e+00
1	 1.315563453736616e+00	 1.434687890399449e+00	-1.854597243885393e+00
1	 1.283720580492737e+00	 1.462319723670283e+00	-2.054663716481877e+00
1	 1.251092812695975e+00	 1.489061922154348e+00	-2.263558013549554e+00
1	 1.217702298110054e+00	 1.514902175060389e+00	-2.481006289616875e+00
1	 1.526466676578907e+00	 1.226998027108758e+00	-6.974282307873647e-01
1	 1.500429163646209e+00	 1.260643439115263e+00	-8.312359968883646e-01
1	 1.473482819838770e+00	 1.293520281655245e+00	-9.743421314446066e-01
1	 1.445640049926278e+00	 1.325606237892797e+00	-1.126821716283913e+00
1	 1.416914806831205e+00	 1.356880245082748e+00	-1.288702774535380e+00
1	 1.387322557964068e+00	 1.387322557964069e+00	-1.459965168868986e+00
1	 1.356880245082748e+00	 1.416914806831205e+00	-1.640540011294442e+00
1	 1.325606237892796e+00	 1.445640049926279e+00	-1.830309597373450e+00
1	 1.293520281655244e+00	 1.473482819838770e+00	-2.029107868048363e+00
1	 1.260643439115263e+00	 1.500429163646209e+00	-2.236721392524537e+00
1	 1.226998027108757e+00	 1.526466676578907e+00	-2.452890856045324e+00
1	 1.538031172701298e+00	 1.236293751769691e+00	-6.802925829590137e-01
1	 1.511796399834000e+00	 1.270194061077886e+00	-8.133180921769407e-01
1	 1.484645910798441e+00	 1.303319978244912e+00	-9.555374127652250e-01
1	 1.456592204342702e+00	 1.335649017362756e+00	-1.107039219519700e+00
1	 1.427649339096438e+00	 1.367159956115121e+00	-1.267865529485993e+00
1	 1.397832899651095e+00	 1.397832899651095e+00	-1.438010499566891e+00
1	 1.367159956115120e+00	 1.427649339096439e+00	-1.617419732188007e+00
1	 1.335649017362756e+00	 1.456592204342703e+00	-1.805990103350170e+00
1	 1.303319978244911e+00	 1.484645910798441e+00	-2.003570117786972e+00
1	 1.270194061077885e+00	 1.511796399834000e+00	-2.209960786186988e+00
1	 1.236293751769691e+00	 1.538031172701298e+00	-2.424917009812252e+00
1	 1.549595653983415e+00	 1.245589464501062e+00	-6.629710158179978e-01
1	 1.523163621434620e+00	 1.279744670783892e+00	-7.952256356957793e-01
1	 1.495808987432858e+00	 1.313119662258399e+00	-9.365729152998666e-01
1	 1.467544344704487e+00	 1.345691783944678e+00	-1.087116297161031e+00
1	 1.438383857586212e+00	 1.377439653955503e+00	-1.246912774998151e+00
1	 1.408343227850264e+00	 1.408343227850265e+00	-1.415971580003499e+00
1	 1.377439653955501e+00	 1.438383857586212e+00	-1.594253374191301e+00
1	 1.345691783944678e+00	 1.467544344704487e+00	-1.781669966749768e+00
1	 1.313119662258398e+00	 1.495808987432858e+00	-1.978084559717286e+00
1	 1.279744670783891e+00	 1.523163621434620e+00	-2.183312519497423e+00
1	 1.245589464501063e+00	 1.549595653983416e+00	-2.397122661016080e+00
1	 1.561160110981111e+00	 1.254885157711081e+00	-6.454561410487771e-01
1	 1.534530819164973e+00	 1.289295260433329e+00	-7.769585107127283e-01
1	 1.506972040625587e+00	 1.322919325692369e+00	-9.174551839101751e-01
1	 1.478496462067399e+00	 1.355734529436747e+00	-1.067065529714130e+00
1	 1.449118353533953e+00	 1.387719330208632e+00	-1.225862489123080e+00
1	 1.418853533978028e+00	 1.418853533978028e+00	-1.393871139465160e+00
1	 1.387719330208631e+00	 1.449118353533954e+00	-1.571067767335142e+00
1	 1.355734529436746e+00	 1.478496462067399e+00	-1.757379467752784e+00
1	 1.322919325692368e+00	 1.506972040625587e+00	-1.952684277551065e+00
1	 1.289295260433328e+00	 1.534530819164974e+00	-2.156811841097276e+00
1	 1.254885157711081e+00	 1.561160110981111e+00	-2.369544596602410e+00
1	 1.572724534250239e+00	 1.264180823807955e+00	-6.277407881434698e-01
1	 1.545897983741961e+00	 1.298845822226245e+00	-7.585166042833208e-01
1	 1.518135061260190e+00	 1.332718960543483e+00	-8.981905711778678e-01
1	 1.489448547487204e+00	 1.365777245637144e+00	-1.046899127767082e+00
1	 1.459852818173088e+00	 1.397998976479250e+00	-1.204732121149262e+00
1	 1.429363809450838e+00	 1.429363809450839e+00	-1.371731238671606e+00
1	 1.397998976479250e+00	 1.459852818173088e+00	-1.547888952448262e+00
1	 1.365777245637144e+00	 1.489448547487205e+00	-1.733147995877132e+00
1	 1.332718960543482e+00	 1.518135061260191e+00	-1.927401381937216e+00
1	 1.298845822226245e+00	 1.545897983741961e+00	-2.130492962990752e+00
1	 1.264180823807955e+00	 1.572724534250238e+00	-2.342218521778694e+00
1	 1.584288914346650e+00	 1.273476455199893e+00	-6.098179965127377e-01
1	 1.557265105882484e+00	 1.308396348362689e+00	-7.398998071757648e-01
1	 1.529298040220234e+00	 1.342518558808402e+00	-8.787852444888757e-01
1	 1.500400592019669e+00	 1.375819924344055e+00	-1.026628945561129e+00
1	 1.470587242737042e+00	 1.408278584372098e+00	-1.183538610975662e+00
1	 1.439874045685145e+00	 1.439874045685146e+00	-1.349573294257187e+00
1	 1.408278584372098e+00	 1.470587242737043e+00	-1.524742210047912e+00
1	 1.375819924344054e+00	 1.500400592019670e+00	-1.709004082579379e+00
1	 1.342518558808402e+00	 1.529298040220234e+00	-1.902267046079300e+00
1	 1.308396348362688e+00	 1.557265105882484e+00	-2.104389098492511e+00
1	 1.273476455199893e+00	 1.584288914346650e+00	-2.315179099619022e+00
1	 1.595853241826199e+00	 1.282772044295103e+00	-5.916810079389483e-01
1	 1.568632176303445e+00	 1.317946831042709e+00	-7.211080137991422e-01
1	 1.540460968389281e+00	 1.352318112483789e+00	-8.592451928101814e-01
1	 1.511352586720562e+00	 1.385862557355662e+00	-1.006266493973236e+00
1	 1.481321618459244e+00	 1.418558145491916e+00	-1.162298407644626e+00
1	 1.450384234097401e+00	 1.450384234097401e+00	-1.327418102190076e+00
1	 1.418558145491915e+00	 1.481321618459244e+00	-1.501652087977206e+00
1	 1.385862557355662e+00	 1.511352586720562e+00	-1.684975432441824e+00
1	 1.352318112483789e+00	 1.540460968389282e+00	-1.877311539807941e+00
1	 1.317946831042709e+00	 1.568632176303445e+00	-2.078532498529182e+00
1	 1.282772044295103e+00	 1.595853241826199e+00	-2.288459988950970e+00
1	 1.607417507244739e+00	 1.292067583501795e+00	-5.733232593543763e-01
1	 1.579999185721744e+00	 1.327497262466353e+00	-7.021411221347507e-01
1	 1.551623836650896e+00	 1.362117613566305e+00	-8.395762331747867e-01
1	 1.522304522645647e+00	 1.395905136470149e+00	-9.858229529394802e-01
1	 1.492055936573117e+00	 1.428837651443444e+00	-1.141027487076483e+00
1	 1.460894366104057e+00	 1.460894366104057e+00	-1.305285860182820e+00
1	 1.428837651443443e+00	 1.492055936573118e+00	-1.478642427852100e+00
1	 1.395905136470148e+00	 1.522304522645648e+00	-1.661088953016165e+00
1	 1.362117613566304e+00	 1.551623836650896e+00	-1.852564262185541e+00
1	 1.327497262466353e+00	 1.579999185721745e+00	-2.052954486377303e+00
1	 1.292067583501795e+00	 1.607417507244739e+00	-2.262093880610376e+00
1	 1.618981701158121e+00	 1.301363065228178e+00	-5.547383759282697e-01
1	 1.591366124854286e+00	 1.337047634833670e+00	-6.829990336703484e-01
1	 1.562786635888641e+00	 1.371917054052611e+00	-8.197840168893757e-01
1	 1.533256390850693e+00	 1.405947653485699e+00	-9.653091833471591e-01
1	 1.502790188312090e+00	 1.439117093831422e+00	-1.119741369045704e+00
1	 1.471404433121564e+00	 1.471404433121565e+00	-1.283196189144419e+00
1	 1.439117093831422e+00	 1.502790188312090e+00	-1.455736390377239e+00
1	 1.405947653485699e+00	 1.533256390850694e+00	-1.637370783391110e+00
1	 1.371917054052610e+00	 1.562786635888642e+00	-1.828053772716808e+00
1	 1.337047634833670e+00	 1.591366124854286e+00	-2.027685490915735e+00
1	 1.301363065228178e+00	 1.618981701158121e+00	-2.236112532145944e+00
1	 1.208406572365371e+00	 1.503337677589890e+00	-2.509224233954114e+00
1	 1.174537180395669e+00	 1.528074940881948e+00	-2.736613789747431e+00
1	 1.139958270817220e+00	 1.551897360966147e+00	-2.972300970240906e+00
1	 1.104695124050098e+00	 1.574797405047172e+00	-3.215406581710410e+00
1	 1.068773961727374e+00	 1.596769131566166e+00	-3.464993194586170e+00
1	 1.032221864511472e+00	 1.617808190139118e+00	-3.720073627921252e+00
1	 9.950666874472238e-01	 1.637911814921611e+00	-3.979619765892572e+00
1	 9.573369733799303e-01	 1.657078811545492e+00	-4.242571568935344e+00
1	 9.190618649712032e-01	 1.675309537819501e+00	-4.507846144134456e+00
1	 8.802710158444024e-01	 1.692605878429240e+00	-4.774346744452689e+00
1	 8.409945013854322e-01	 1.708971213911920e+00	-5.040971573965254e+00
1	 1.217702298110054e+00	 1.514902175060389e+00	-2.481006289616875e+00
1	 1.183572364211580e+00	 1.539829730941159e+00	-2.707014675188700e+00
1	 1.148727454705886e+00	 1.563835406138682e+00	-2.941255282118106e+00
1	 1.113193044483922e+00	 1.586911609911249e+00	-3.182873036733845e+00
1	 1.076995556889963e+00	 1.609052354994264e+00	-3.430956519708245e+00
1	 1.040162280905762e+00	 1.630253257538177e+00	-3.684546208154915e+00
1	 1.002721285852451e+00	 1.650511530422170e+00	-3.942643035754546e+00
1	 9.647013341425719e-01	 1.669825970090350e+00	-4.204217137663785e+00
1	 9.261317926190918e-01	 1.688196937103913e+00	-4.468216649008857e+00
1	 8.870425430173231e-01	 1.705626330646489e+00	-4.733576430649039e+00
1	 8.474638920795503e-01	 1.722117557260229e+00	-4.999226603325339e+00
1	 1.226998027108757e+00	 1.526466676578907e+00	-2.452890856045324e+00
1	 1.192607551190254e+00	 1.551584525114940e+00	-2.677592484646145e+00
1	 1.157496641664129e+00	 1.575773455489876e+00	-2.910471723140675e+00
1	 1.121690967892286e+00	 1.599025819015588e+00	-3.150693845127753e+00
1	 1.085217154930273e+00	 1.621335582721735e+00	-3.397369007525839e+00
1	 1.048102700079251e+00	 1.642698329293210e+00	-3.649560308205966e+00
1	 1.010375886936732e+00	 1.663111250332794e+00	-3.906292153490849e+00
1	 9.720656974825767e-01	 1.682573133096854e+00	-4.166558805268194e+00
1	 9.332017227411892e-01	 1.701084340899041e+00	-4.429332979495115e+00
1	 8.938140725599177e-01	 1.718646787421024e+00	-4.693574372671861e+00
1	 8.539332850375116e-01	 1.735263905209901e+00	-4.958238000149731e+00
1	 1.236293751769691e+00	 1.538031172701298e+00	-2.424917009812252e+00
1	 1.201642733952688e+00	 1.563339313803775e+00	-2.648386416253683e+00
1	 1.166265824530217e+00	 1.587711499270573e+00	-2.879987300476738e+00
1	 1.130188887335034e+00	 1.611140022467182e+00	-3.118901606047047e+00
1	 1.093438749133876e+00	 1.633618804717538e+00	-3.364256740662665e+00
1	 1.056043115547206e+00	 1.655143395241000e+00	-3.615133506163033e+00
1	 1.018030484448818e+00	 1.675710964363958e+00	-3.870574335991301e+00
1	 9.794300573857903e-01	 1.695320290155044e+00	-4.129591711709094e+00
1	 9.402716495638580e-01	 1.713971738680371e+00	-4.391176632133469e+00
1	 9.005855989422986e-01	 1.731667238119637e+00	-4.654307013373939e+00
1	 8.604026749762183e-01	 1.748410247024885e+00	-4.917955905207628e+00
1	 1.245589464501063e+00	 1.549595653983416e+00	-2.397122661016080e+00
1	 1.210677905119885e+00	 1.575094087408144e+00	-2.619434498203967e+00
1	 1.175034996142414e+00	 1.599649527731621e+00	-2.849837916943780e+00
1	 1.138686795872015e+00	 1.623254210373027e+00	-3.087527946077533e+00
1	 1.101660332786340e+00	 1.645902010950641e+00	-3.331645023886877e+00
1	 1.063983520824891e+00	 1.667588445218332e+00	-3.581282856285128e+00
1	 1.025685072137460e+00	 1.688310662226134e+00	-3.835496585709286e+00
1	 9.867944078380592e-01	 1.708067430854960e+00	-4.093311143037434e+00
1	 9.473415673134616e-01	 1.726859119923383e+00	-4.353729656731631e+00
1	 9.073571166345781e-01	 1.744687672109121e+00	-4.615741798009355e+00
1	 8.668720566125701e-01	 1.761556571969129e+00	-4.878331947896917e+00
1	 1.254885157711081e+00	 1.561160110981111e+00	-2.369544596602410e+00
1	 1.219713057312841e+00	 1.586848836328531e+00	-2.590773632210500e+00
1	 1.183804149338989e+00	 1.611587531123863e+00	-2.820058412054116e+00
1	 1.147184686563072e+00	 1.635368372840115e+00	-3.056603555413461e+00
1	 1.109881899173236e+00	 1.658185191390005e+00	-3.299558413089146e+00
1	 1.071923909427571e+00	 1.680033469061990e+00	-3.548024908582160e+00
1	 1.033339643751411e+00	 1.700910333629796e+00	-3.801065698791642e+00
1	 9.941587428252290e-01	 1.720814544786643e+00	-4.057712526176444e+00
1	 9.544114702163635e-01	 1.739746474103565e+00	-4.316974636066260e+00
1	 9.141286201068681e-01	 1.757708078756272e+00	-4.577847137294880e+00
1	 8.733414246634674e-01	 1.774702869306581e+00	-4.839319191284621e+00
1	 1.264180823807955e+00	 1.572724534250238e+00	-2.342218521778694e+00
1	 1.228748183152559e+00	 1.598603550965414e+00	-2.562439635056456e+00
1	 1.192573276958206e+00	 1.623525499698147e+00	-2.790682601253702e+00
1	 1.155682552468054e+00	 1.647482499975440e+00	-3.026158222442661e+00
1	 1.118103441580135e+00	 1.670468336004593e+00	-3.268020742985399e+00
1	 1.079864274870509e+00	 1.692478456608757e+00	-3.515375727533605e+00
1	 1.040994193039419e+00	 1.713509968285416e+00	-3.767288272850607e+00
1	 1.001523056333147e+00	 1.733561621540132e+00	-4.022791423933141e+00
1	 9.614813524989264e-01	 1.752633790696398e+00	-4.280894666477983e+00
1	 9.209001038292806e-01	 1.770728447427881e+00	-4.540592372097392e+00
1	 8.798107738458119e-01	 1.787849128301191e+00	-4.800872079566979e+00
1	 1.273476455199893e+00	 1.584288914346650e+00	-2.315179099619022e+00
1	 1.237783275260037e+00	 1.610358221719277e+00	-2.534467278327979e+00
1	 1.201342371838334e+00	 1.635463423705318e+00	-2.761743313446252e+00
1	 1.164180386646805e+00	 1.659596581885995e+00	-2.996220866820476e+00
1	 1.126324953292606e+00	 1.682751434763369e+00	-3.237055153608864e+00
1	 1.087804610668972e+00	 1.704923397695415e+00	-3.483350909989191e+00
1	 1.048648713750237e+00	 1.726109555903467e+00	-3.734170714396200e+00
1	 1.008887342347658e+00	 1.746308650705469e+00	-3.988543530227877e+00
1	 9.685512083875132e-01	 1.765521059177368e+00	-4.245473339314188e+00
1	 9.276715622719285e-01	 1.783748767490743e+00	-4.503947739664349e+00
1	 8.862800988765027e-01	 1.800995338216907e+00	-4.762946387825166e+00
1	 1.282772044295103e+00	 1.595853241826199e+00	-2.288459988950970e+00
1	 1.246818326256276e+00	 1.622112838990602e+00	-2.506890326423884e+00
1	 1.210111426817636e+00	 1.647401293396220e+00	-2.733272426889539e+00
1	 1.172678182159172e+00	 1.671710608678773e+00	-2.966819571108652e+00
1	 1.134546427596219e+00	 1.695034477635296e+00	-3.206684115653079e+00
1	 1.095744910338224e+00	 1.717368282158750e+00	-3.451965602293181e+00
1	 1.056303199632615e+00	 1.738709086194423e+00	-3.701719245946272e+00
1	 1.016251594854609e+00	 1.759055621872693e+00	-3.954964665530850e+00
1	 9.756210321084874e-01	 1.778408269021958e+00	-4.210694723177208e+00
1	 9.344429899049229e-01	 1.796769028311650e+00	-4.467884341319350e+00
1	 8.927493944724416e-01	 1.814141488317677e+00	-4.725499173960839e+00
1	 1.292067583501795e+00	 1.607417507244739e+00	-2.262093880610376e+00
1	 1.255853328762274e+00	 1.633867393179869e+00	-2.479741572927901e+00
1	 1.218880434734381e+00	 1.659339099021702e+00	-2.705300903545425e+00
1	 1.181175932065001e+00	 1.683824570460768e+00	-2.937981611051840e+00
1	 1.142767857776545e+00	 1.707317454589337e+00	-3.176929454722973e+00
1	 1.103685167393528e+00	 1.729813099835545e+00	-3.421234516670837e+00
1	 1.063957644435305e+00	 1.751308548868758e+00	-3.669939912830070e+00
1	 1.023615807839845e+00	 1.771802524631845e+00	-3.922050772494944e+00
1	 9.826908178882120e-01	 1.791295409705652e+00	-4.176543346936745e+00
1	 9.412143811983766e-01	 1.809789219257397e+00	-4.432374111549031e+00
1	 8.992186553505291e-01	 1.827287567867451e+00	-4.688488732701899e+00
1	 1.301363065228178e+00	 1.618981701158121e+00	-2.236112532145944e+00
1	 1.264888275399030e+00	 1.645621874687561e+00	-2.453052875426017e+00
1	 1.227649388426834e+00	 1.671276830832607e+00	-2.677858821961334e+00
1	 1.189673629424137e+00	 1.695938457338974e+00	-2.909733484559024e+00
1	 1.150989237119153e+00	 1.719600355594456e+00	-3.147812374549323e+00
1	 1.111625375350151e+00	 1.742257840562584e+00	-3.391171946914414e+00
1	 1.071612041907057e+00	 1.763907933636944e+00	-3.638838589701261e+00
1	 1.030979975289214e+00	 1.784549348572964e+00	-3.889797911775963e+00
1	 9.897605599530503e-01	 1.804182470703934e+00	-4.143004183469104e+00
1	 9.479857306224013e-01	 1.822809329694776e+00	-4.397389788411987e+00
1	 9.056878762276651e-01	 1.840433566130176e+00	-4.651874551575063e+00
1	 8.409945013854322e-01	 1.708971213911920e+00	-5.040971573965253e+00
1	 8.012655243155109e-01	 1.724409337557121e+00	-5.307187679287034e+00
1	 7.611119891663416e-01	 1.738927692802811e+00	-5.572030340383234e+00
1	 7.205646886507253e-01	 1.752533917918023e+00	-5.833671483797271e+00
1	 6.796544872495266e-01	 1.765236971771615e+00	-6.090264260248722e+00
1	 6.384122376849063e-01	 1.777047079428316e+00	-6.339959082019412e+00
1	 5.968686998193392e-01	 1.787975674284199e+00	-6.580918816165082e+00
1	 5.550544623447694e-01	 1.798035337177901e+00	-6.811332983772862e+00
1	 5.129998675914502e-01	 1.807239732918643e+00	-7.029430843534165e+00
1	 4.707349397497000e-01	 1.815603544672573e+00	-7.233493265933036e+00
1	 4.282893167605222e-01	 1.823142406645302e+00	-7.421863331672983e+00
1	 8.474638920795503e-01	 1.722117557260229e+00	-4.999226603325338e+00
1	 8.074292979405404e-01	 1.737674439414771e+00	-5.264541325342930e+00
1	 7.669668797889307e-01	 1.752304477807102e+00	-5.528466628079450e+00
1	 7.261076672119189e-01	 1.766015369464010e+00	-5.789212111753562e+00
1	 6.848827621168465e-01	 1.778816142170903e+00	-6.044968444212028e+00
1	 6.433232545618970e-01	 1.790717099649317e+00	-6.293923147518470e+00
1	 6.014601410312407e-01	 1.801729763247288e+00	-6.534275557575939e+00
1	 5.593242455217809e-01	 1.811866810582170e+00	-6.764250808835895e+00
1	 5.169461437735808e-01	 1.821142011580397e+00	-6.982112723752897e+00
1	 4.743560909394629e-01	 1.829570162359090e+00	-7.186175514242971e+00
1	 4.315839529516940e-01	 1.837167017390746e+00	-7.374814229317205e+00
1	 8.539332850375116e-01	 1.735263905209901e+00	-4.958238000149729e+00
1	 8.135930737223799e-01	 1.750939545915384e+00	-5.222602900230315e+00
1	 7.728217724601693e-01	 1.765681267493491e+00	-5.485533075899919e+00
1	 7.316506477125579e-01	 1.779496825728795e+00	-5.745284094146162e+00
1	 6.901110388134490e-01	 1.792395317323264e+00	-6.000093986156962e+00
1	 6.482342731571338e-01	 1.804387124655278e+00	-6.248198597382155e+00
1	 6.060515838495607e-01	 1.815483857024858e+00	-6.487846123687156e+00
1	 5.635940301926756e-01	 1.825698288828111e+00	-6.717310690423484e+00
1	 5.208924213364347e-01	 1.835044295108718e+00	-6.934904858190868e+00
1	 4.779772433962463e-01	 1.843536784934809e+00	-7.138990965980319e+00
1	 4.348785902957209e-01	 1.851191633045813e+00	-7.327991248613300e+00
1	 8.604026749762183e-01	 1.748410247024885e+00	-4.917955905207629e+00
1	 8.197568466275470e-01	 1.764204646225886e+00	-5.181308919662109e+00
1	 7.786766623988444e-01	 1.779058050937662e+00	-5.443158882702467e+00
1	 7.371936256261629e-01	 1.792978275702541e+00	-5.701815327784633e+00
1	 6.953393130698574e-01	 1.805974486139023e+00	-5.955573177091911e+00
1	 6.531452894602180e-01	 1.818057143282288e+00	-6.202727472700630e+00
1	 6.106430245248660e-01	 1.829237944384306e+00	-6.441587302752033e+00
1	 5.678638128706814e-01	 1.839529760619885e+00	-6.670488787127383e+00
1	 5.248386970574066e-01	 1.848946572149907e+00	-6.887807013200392e+00
1	 4.815983941629303e-01	 1.857503400993456e+00	-7.091966838229243e+00
1	 4.381732261021031e-01	 1.865216242156835e+00	-7.281452500211119e+00
1	 8.668720566125701e-01	 1.761556571969129e+00	-4.878331947896917e+00
1	 8.259206116225591e-01	 1.777469729513201e+00	-5.140597794096877e+00
1	 7.845315448237447e-01	 1.792434817215295e+00	-5.401275359724712e+00
1	 7.427365964262537e-01	 1.806459708375415e+00	-5.658735859813831e+00
1	 7.005675806165935e-01	 1.819553637528503e+00	-5.911340326200650e+00
1	 6.580562994607525e-01	 1.831727144366439e+00	-6.157453540684386e+00
1	 6.152344593077244e-01	 1.842992014093028e+00	-6.395457167971902e+00
1	 5.721335900690260e-01	 1.853361214661656e+00	-6.623761963430335e+00
1	 5.287849677138907e-01	 1.862848831350267e+00	-6.840818955673598e+00
1	 4.852195402823951e-01	 1.871469999128757e+00	-7.045129528821124e+00
1	 4.414678576803406e-01	 1.879240833270148e+00	-7.235254353299084e+00
1	 8.733414246634674e-01	 1.774702869306581e+00	-4.839319191284622e+00
1	 8.320843636739330e-01	 1.790734784944258e+00	-5.100409758719003e+00
1	 7.903864149536578e-01	 1.805811555402070e+00	-5.359815852479721e+00
1	 7.482795555863507e-01	 1.819941112737581e+00	-5.615977808176001e+00
1	 7.057958371841797e-01	 1.833132760402026e+00	-5.867331686169261e+00
1	 6.629672991483389e-01	 1.845397116743820e+00	-6.112322230779238e+00
1	 6.198258844487028e-01	 1.856746054918419e+00	-6.349415029923984e+00
1	 5.764033583009375e-01	 1.867192639657585e+00	-6.577107763558909e+00
1	 5.327312300832817e-01	 1.876751061356101e+00	-6.793940453005055e+00
1	 4.888406787975209e-01	 1.885436567934440e+00	-6.998504646656731e+00
1	 4.447624823399336e-01	 1.893265394932085e+00	-7.189451500091764e+00
1	 8.798107738458119e-01	 1.787849128301191e+00	-4.800872079566979e+00
1	 8.382480977481868e-01	 1.803999801685982e+00	-5.060686806500931e+00
1	 7.962412680073720e-01	 1.819188254573673e+00	-5.318715666089051e+00
1	 7.538224985799749e-01	 1.833422477779206e+00	-5.573475285573402e+00
1	 7.110240785031388e-01	 1.846711843669915e+00	-5.823485381800346e+00
1	 6.678782845125789e-01	 1.859067049250523e+00	-6.067280573593123e+00
1	 6.244172961983688e-01	 1.870500055627877e+00	-6.303421391083344e+00
1	 5.806731140796434e-01	 1.881024024311833e+00	-6.530504386487154e+00
1	 5.366774809429741e-01	 1.890653250813712e+00	-6.747171273057035e+00
1	 4.924618067511876e-01	 1.899403096004228e+00	-6.952117040693635e+00
1	 4.480570973903820e-01	 1.907289915688981e+00	-7.144097017478892e+00
1	 8.862800988765027e-01	 1.800995338216907e+00	-4.762946387825166e+00
1	 8.444118088118379e-01	 1.817264768905302e+00	-5.021372624190688e+00
1	 8.020960992036750e-01	 1.832564903805781e+00	-5.277911993879306e+00
1	 7.593654208806463e-01	 1.846903792490453e+00	-5.531164326754208e+00
1	 7.162523003039928e-01	 1.860290876242493e+00	-5.779741341746464e+00
1	 6.727892515430750e-01	 1.872736930722637e+00	-6.022277142491437e+00
1	 6.290086908072897e-01	 1.884254004988797e+00	-6.257437902331828e+00
1	 5.849428539183718e-01	 1.894855357328564e+00	-6.483930662032734e+00
1	 5.406237170703621e-01	 1.904555388369402e+00	-6.700511184124783e+00
1	 4.960829211862753e-01	 1.913369571931849e+00	-6.905990827666767e+00
1	 4.513517001411860e-01	 1.921314384087171e+00	-7.099242425980094e+00
1	 8.927493944724416e-01	 1.814141488317677e+00	-4.725499173960840e+00
1	 8.505754918314032e-01	 1.830529675769143e+00	-4.982412531075997e+00
1	 8.079509037613544e-01	 1.845941492174077e+00	-5.237343849075737e+00
1	 7.649083179618851e-01	 1.860385045861490e+00	-5.488982818952466e+00
1	 7.214804983172648e-01	 1.873869847030084e+00	-5.736041233205092e+00
1	 6.777001962294289e-01	 1.886406749996252e+00	-5.977261997726572e+00
1	 6.336000645260328e-01	 1.898007891768577e+00	-6.211427321353960e+00
1	 5.892125743303502e-01	 1.908686627411939e+00	-6.437366027989599e+00
1	 5.445699352428404e-01	 1.918457462669473e+00	-6.653959954904771e+00
1	 4.997040191456646e-01	 1.927335984311028e+00	-6.860149418606311e+00
1	 4.546462879018455e-01	 1.935338788672990e+00	-7.054937746142132e+00
1	 8.992186553505291e-01	 1.827287567867451e+00	-4.688488732701899e+00
1	 8.567391417734005e-01	 1.843794511444431e+00	-4.943753420386453e+00
1	 8.138056768991981e-01	 1.859318008754242e+00	-5.196951999438291e+00
1	 7.704511852972115e-01	 1.873866226882480e+00	-5.446870435324164e+00
1	 7.267086682734767e-01	 1.887448744943010e+00	-5.692328399426265e+00
1	 6.826111145612430e-01	 1.900076495907461e+00	-5.932186632973269e+00
1	 6.381914136051653e-01	 1.911761704734611e+00	-6.165353472824384e+00
1	 5.934822718288069e-01	 1.922517823266122e+00	-6.390790508245737e+00
1	 5.485161322378036e-01	 1.932359462360229e+00	-6.607517354462612e+00
1	 5.033250976722351e-01	 1.941302321735491e+00	-6.814615544213146e+00
1	 4.579408579818608e-01	 1.949363117992770e+00	-7.011231552506803e+00
1	 9.056878762276651e-01	 1.840433566130176e+00	-4.651874551575063e+00
1	 8.629027536043467e-01	 1.857059265098094e+00	-4.905343703201074e+00
1	 8.196604138359946e-01	 1.872694442621957e+00	-5.156678904692250e+00
1	 7.759940183601461e-01	 1.887347324543590e+00	-5.404768571229838e+00
1	 7.319368059031509e-01	 1.901027558891593e+00	-5.648547799892707e+00
1	 6.875220025281183e-01	 1.913746157292350e+00	-5.887003924150486e+00
1	 6.427827342952547e-01	 1.925515432654296e+00	-6.119181210298157e+00
1	 5.977519429269694e-01	 1.936348933595271e+00	-6.344184691836872e+00
1	 5.524623048326459e-01	 1.946261376087971e+00	-6.561183152203956e+00
1	 5.069461538088672e-01	 1.955268572798964e+00	-6.769411279149737e+00
1	 4.612354076907317e-01	 1.963387360592848e+00	-6.968171025271209e+00
1	 4.282893167605222e-01	 1.823142406645302e+00	-7.421863331672983e+00
1	 3.856892073858478e-01	 1.829873278754343e+00	-7.595202286914182e+00
1	 3.429662982768709e-01	 1.835812937996986e+00	-7.753709505580185e+00
1	 3.001487493340093e-01	 1.840979461280257e+00	-7.895197710104611e+00
1	 2.572640992986176e-01	 1.845391598947249e+00	-8.017583401605020e+00
1	 2.143392184869364e-01	 1.849068705039692e+00	-8.118894677902714e+00
1	 1.714002659640361e-01	 1.852030668220261e+00	-8.197277395732137e+00
1	 1.284726511608891e-01	 1.854297843677920e+00	-8.250999751320492e+00
1	 8.558099990728006e-02	 1.855890986314603e+00	-8.278455368514948e+00
1	 4.274912482501691e-02	 1.856831185485652e+00	-8.278164995305390e+00
1	 0.000000000000000e+00	 1.857139801539814e+00	-8.248776918132481e+00
1	 4.315839529516940e-01	 1.837167017390746e+00	-7.374814229317205e+00
1	 3.886561401843551e-01	 1.843949667057867e+00	-7.548656911675478e+00
1	 3.456045830397630e-01	 1.849935017415582e+00	-7.707714568111754e+00
1	 3.024576580397679e-01	 1.855141284428371e+00	-7.849596372573060e+00
1	 2.592431157688595e-01	 1.859587362677220e+00	-7.972014503285195e+00
1	 2.159880332445207e-01	 1.863292755085735e+00	-8.072793775355670e+00
1	 1.727187707617282e-01	 1.866277503311066e+00	-8.149879452456791e+00
1	 1.294609332147639e-01	 1.868562119125425e+00	-8.201343306905047e+00
1	 8.623933586883026e-02	 1.870167517088808e+00	-8.225388015490383e+00
1	 4.307797452551022e-02	 1.871114948787420e+00	-8.220349992794008e+00
1	 0.000000000000000e+00	 1.871425938885499e+00	-8.184700774641739e+00
1	 4.348785902957209e-01	 1.851191633045813e+00	-7.327991248613300e+00
1	 3.916230740211588e-01	 1.858026060289259e+00	-7.502486371445312e+00
1	 3.482428687260724e-01	 1.864057101778160e+00	-7.662262408873845e+00
1	 3.047665675538065e-01	 1.869303112534495e+00	-7.804704750057141e+00
1	 2.612221329320471e-01	 1.873783131377193e+00	-7.927298545235464e+00
1	 2.176368485795777e-01	 1.877516810111782e+00	-8.027640581044558e+00
1	 1.740372760213400e-01	 1.880524343389939e+00	-8.103449153486972e+00
1	 1.304492156149808e-01	 1.882826399567176e+00	-8.152571999473242e+00
1	 8.689767206117521e-02	 1.884444052861604e+00	-8.172992369603277e+00
1	 4.340682434133394e-02	 1.885398717090345e+00	-8.162833342602312e+00
1	 0.000000000000000e+00	 1.885712081233184e+00	-8.120360495712562e+00
1	 4.381732261021031e-01	 1.865216242156835e+00	-7.281452500211119e+00
1	 3.945900064733499e-01	 1.872102446952540e+00	-7.456773992555949e+00
1	 3.508811531812543e-01	 1.878179179551401e+00	-7.617447548088486e+00
1	 3.070754759905426e-01	 1.883464934032833e+00	-7.760615329205387e+00
1	 2.632011491719848e-01	 1.887978893453635e+00	-7.883513575004237e+00
1	 2.192856631455576e-01	 1.891740858501185e+00	-7.983487140607703e+00
1	 1.753557806660615e-01	 1.894771176821610e+00	-8.058001836791016e+00
1	 1.314374975544061e-01	 1.897090673353649e+00	-8.104654618915934e+00
1	 8.755600794663987e-02	 1.898720581973453e+00	-8.121181700321840e+00
1	 4.373567400390536e-02	 1.899682478728979e+00	-8.105464687070723e+00
1	 0.000000000000000e+00	 1.899998216915481e+00	-8.055534848402234e+00
1	 4.414678576803406e-01	 1.879240833270148e+00	-7.235254353299085e+00
1	 3.975569351180192e-01	 1.886178815551730e+00	-7.411600607565500e+00
1	 3.535194342507643e-01	 1.892301239201991e+00	-7.573361678764232e+00
1	 3.093843814643928e-01	 1.897626737357590e+00	-7.717417831027696e+00
1	 2.651801628724773e-01	 1.902174637313011e+00	-7.840735306393769e+00
1	 2.209344755959103e-01	 1.905964888637292e+00	-7.940383942821860e+00
1	 1.766742836190827e-01	 1.909017991970809e+00	-8.013552379591808e+00
1	 1.324257782259062e-01	 1.911354928835323e+00	-8.057560883711611e+00
1	 8.821434298754918e-02	 1.912997092764816e+00	-8.069871862154949e+00
1	 4.406452324464179e-02	 1.913966222037871e+00	-8.048098151125940e+00
1	 0.000000000000000e+00	 1.914284334264999e+00	-7.990009195179015e+00
1	 4.447624823399336e-01	 1.893265394932085e+00	-7.189451500091764e+00
1	 4.005238575322579e-01	 1.900255154590855e+00	-7.367044647630319e+00
1	 3.561577097800574e-01	 1.906423269196610e+00	-7.530093771445688e+00
1	 3.116932820897747e-01	 1.911788510942969e+00	-7.675199313392945e+00
1	 2.671591724173288e-01	 1.916370351361791e+00	-7.799037205987856e+00
1	 2.225832845840856e-01	 1.920188888903456e+00	-7.898379977374232e+00
1	 1.779927838035937e-01	 1.923264777202266e+00	-7.970115215545665e+00
1	 1.334140568223472e-01	 1.925619154362675e+00	-8.011261406634043e+00
1	 8.887267664622797e-02	 1.927273573576155e+00	-8.018981198969763e+00
1	 4.439337179496055e-02	 1.928249935351575e+00	-7.990592176249692e+00
1	 0.000000000000000e+00	 1.928570421614352e+00	-7.923575249531397e+00
1	 4.480570973903820e-01	 1.907289915688981e+00	-7.144097017478892e+00
1	 4.034907712931571e-01	 1.914331452573932e+00	-7.323182230811206e+00
1	 3.587959776145891e-01	 1.920545258001943e+00	-7.487730174351870e+00
1	 3.140021759811049e-01	 1.925950243223175e+00	-7.634044269014754e+00
1	 2.691381761903441e-01	 1.930566024006441e+00	-7.758490575870059e+00
1	 2.242320887635335e-01	 1.934412847683027e+00	-7.857522790090700e+00
1	 1.793112801427847e-01	 1.937511520880713e+00	-7.927704351165157e+00
1	 1.344023325365955e-01	 1.939883338286182e+00	-7.965727661968911e+00
1	 8.953100838500133e-02	 1.941550012747933e+00	-7.968430452521578e+00
1	 4.472221938627893e-02	 1.942533607004641e+00	-7.932809361755295e+00
1	 0.000000000000000e+00	 1.942856467296148e+00	-7.856030842335443e+00
1	 4.513517001411860e-01	 1.921314384087171e+00	-7.099242425980095e+00
1	 4.064576739778081e-01	 1.928407698004986e+00	-7.280087246520909e+00
1	 3.614342355998144e-01	 1.934667194084671e+00	-7.446354709138189e+00
1	 3.163110612528008e-01	 1.940111922632410e+00	-7.594034719155441e+00
1	 2.711171725753277e-01	 1.944761643653427e+00	-7.719164632727789e+00
1	 2.258808867877040e-01	 1.948636753359356e+00	-7.817858535751020e+00
1	 1.806297715598457e-01	 1.951758211370878e+00	-7.886333381524149e+00
1	 1.353906045615175e-01	 1.954147468956323e+00	-7.920931954163682e+00
1	 9.018933766619409e-02	 1.955826398620612e+00	-7.918142674980380e+00
1	 4.505106575001425e-02	 1.956817225331620e+00	-7.874616313000725e+00
1	 0.000000000000000e+00	 1.957142459643000e+00	-7.787179698431168e+00
1	 4.546462879018455e-01	 1.935338788672990e+00	-7.054937746142132e+00
1	 4.094245631633016e-01	 1.942483879388039e+00	-7.237831436307623e+00
1	 3.640724815811889e-01	 1.948789065911478e+00	-7.406048762504710e+00
1	 3.186199360192792e-01	 1.954273537604879e+00	-7.555250303264760e+00
1	 2.730961599560841e-01	 1.958957198709218e+00	-7.681126583524408e+00
1	 2.275296773100471e-01	 1.962860594315794e+00	-7.779432028613115e+00
1	 1.819482569779667e-01	 1.966004837037493e+00	-7.846015505281796e+00
1	 1.363788720899793e-01	 1.968411534723574e+00	-7.876847387836620e+00
1	 9.084766395213119e-02	 1.970102719534653e+00	-7.868043145252548e+00
1	 4.537991061758383e-02	 1.971100778667064e+00	-7.815883496185683e+00
1	 0.000000000000000e+00	 1.971428386987518e+00	-7.716831222891308e+00
1	 4.579408579818608e-01	 1.949363117992770e+00	-7.011231552506803e+00
1	 4.123914364267289e-01	 1.956559985227112e+00	-7.196484471159056e+00
1	 3.667107134041679e-01	 1.962910861949047e+00	-7.366891373858008e+00
1	 3.209287983949575e-01	 1.968435076574785e+00	-7.517768364757635e+00
1	 2.750751367164178e-01	 1.973152677580279e+00	-7.644441697912035e+00
1	 2.291784589840126e-01	 1.977084358935692e+00	-7.742286790760268e+00
1	 1.832667353203377e-01	 1.980251386245289e+00	-7.806763539058784e+00
1	 1.373671343148474e-01	 1.982675523938413e+00	-7.833447839078456e+00
1	 9.150598670513761e-02	 1.984378963830518e+00	-7.818059288905649e+00
1	 4.570875372040495e-02	 1.985384255345523e+00	-7.756485099403518e+00
1	 0.000000000000000e+00	 1.985714237662315e+00	-7.644800296495576e+00
1	 4.612354076907317e-01	 1.963387360592848e+00	-6.968171025271209e+00
1	 4.153582913451808e-01	 1.970636004026227e+00	-7.156114025501281e+00
1	 3.693489289142067e-01	 1.977032570664059e+00	-7.328959319224554e+00
1	 3.232376464942527e-01	 1.982596527976333e+00	-7.481664033123921e+00
1	 2.770541012401332e-01	 1.987348068673079e+00	-7.609173377547807e+00
1	 2.308272304630504e-01	 1.991308035602400e+00	-7.706465098381514e+00
1	 1.845852055101490e-01	 1.994497847358994e+00	-7.768589931199333e+00
1	 1.383553904289880e-01	 1.996939424951316e+00	-7.790707927980277e+00
1	 9.216430538753825e-02	 1.998655119848669e+00	-7.768120601518923e+00
1	 4.603759478989493e-02	 1.999667643701550e+00	-7.696298899634155e+00
1	 0.000000000000000e+00	 2.000000000000000e+00	-7.570907079951435e+00
