label=Stress xy
num_items=576

0:3.2858164640014159e-10
1:6.8942514624543027e-10
2:2.1258335636692013e-10
3:2.4766982752193511e-10
4:4.8299371980552709e-11
5:-3.9129365146021255e-10
6:1.6201377449990212e-10
7:-4.3674943219287892e-10
8:-6.7827406435129155e-10
9:-3.0079879892986627e-10
10:-1.0446481837286377e-10
11:1.5527624195947557e-09
12:-5.4255036294299685e-10
13:-2.0358767881670345e-10
14:5.4451553932449689e-10
15:-4.4350770218485841e-10
16:-4.0613249066874739e-11
17:-2.8032973025491353e-10
18:3.0402786992016315e-09
19:4.0612830606536247e-09
20:2.7730636098781006e-09
21:1.1264843892090970e-09
22:1.7179800584269464e-09
23:1.6956351312029811e-09
24:-7.1691646843155765e-10
25:-8.6458818203085141e-10
26:6.9284152593167454e-11
27:1.1209219316632435e-09
28:-4.2111162980841021e-10
29:1.3866576740350123e-10
30:1.3688741313009858e-09
31:9.4707795292090168e-10
32:9.6298622725983245e-10
33:9.4993286574147383e-10
34:1.5526202327348468e-09
35:9.2890268285975861e-10
36:1.1595332066311343e-09
37:2.0084086303773230e-09
38:1.7065122539731704e-09
39:7.7267352505555187e-10
40:-2.1427271015198676e-10
41:-1.2546463799030063e-09
42:-1.9109555351042992e-10
43:-1.9507662087255018e-09
44:-2.6665219201468013e-09
45:1.3692132363804725e-09
46:1.1402637648197165e-09
47:7.3383976971686293e-10
48:-9.0804700831209195e-10
49:1.0682780781773744e-09
50:2.5959066689598636e-09
51:-1.7254834046618830e-09
52:1.0855940378744746e-09
53:3.1767477974222756e-09
54:1.2618445284388988e-10
55:-6.3103869085274089e-10
56:-1.3342037644297458e-10
57:2.2452612685741613e-09
58:6.3526057411239944e-10
59:3.1569919788675238e-10
60:2.9768761407578545e-09
61:1.5195401611001833e-09
62:1.3882394963358612e-09
63:6.6828086867728375e-10
64:-1.4734774565013847e-10
65:-4.4688719997157509e-09
66:9.8078262925712556e-10
67:1.2616216831923694e-09
68:-7.6782913252353157e-10
69:2.2015360621591582e-09
70:3.5522249955212950e-09
71:3.7882229826868646e-09
72:2.5397569330740327e-10
73:-3.3103903232416354e-10
74:-5.6565835999597414e-10
75:1.0181290572905612e-09
76:6.9521962305619545e-10
77:1.0172192240174700e-10
78:2.3390887787511177e-09
79:2.1532124572175481e-09
80:1.0757664576659149e-09
81:-3.2599582421876366e-10
82:3.4127932184328913e-11
83:-3.3683783551859780e-10
84:-1.1341054964799989e-10
85:-7.3822596173075752e-11
86:-1.7615679047667126e-11
87:2.9712923979256002e-10
88:-2.3233263908513841e-10
89:2.5311102057324047e-12
90:-9.4529961115752403e-10
91:-1.3747393314534639e-09
92:-5.3593059977855239e-10
93:-1.3027289583616558e-10
94:-4.4590030702907435e-10
95:-5.4704829554329320e-10
96:3.7785629863180091e-10
97:3.9766984573972742e-10
98:-4.2180655697705231e-10
99:3.9176294420056456e-10
100:1.0204864881142968e-09
101:2.5211403477707855e-10
102:-5.3369851940598956e-10
103:-7.3140101330517015e-10
104:-1.2486728585709782e-09
105:-1.2372201860350229e-09
106:-2.1888848901279422e-09
107:-2.3825926028432263e-09
108:-8.3086240545234757e-10
109:-2.1538829580735737e-09
110:-2.3484291622232939e-09
111:-1.5109336391547428e-09
112:-1.4809784466816003e-09
113:-1.1293231119722279e-09
114:-1.9085697456174897e-09
115:-8.8825973225680651e-10
116:-3.5302098540597051e-10
117:-1.3789534584975809e-09
118:9.9968227472755866e-10
119:2.7290500734478516e-09
120:-6.2735515567180489e-10
121:4.5105354080493975e-10
122:1.3942428045588252e-09
123:-3.6279886367587677e-10
124:-3.7401034814104800e-10
125:-6.3978317361524745e-12
126:2.5872087091562030e-09
127:1.5107935268739907e-09
128:1.5518044018751141e-09
129:1.4012344803434948e-09
130:8.0491686366359960e-10
131:5.7351910722205812e-10
132:1.9842057845992771e-10
133:3.9952820735719589e-11
134:-5.0608983168312687e-10
135:2.2650558812378976e-09
136:3.5363521506158566e-09
137:4.1608938120750826e-09
138:7.2057856976954515e-10
139:1.0705554239906383e-09
140:1.1862408747845036e-09
141:-7.5530534382256195e-10
142:-7.0049905561930851e-10
143:-4.6751397165143370e-10
144:3.1136051269305027e-09
145:2.6195979146565338e-09
146:1.3752118768003334e-09
147:3.5735373661262604e-09
148:2.0041915843273572e-09
149:7.9065070212757582e-10
150:3.2258655778489759e-09
151:6.4291820544398698e-10
152:-4.7804012648281914e-10
153:5.1694626143841471e-10
154:-1.9141305794663393e-10
155:-1.0611253462449861e-10
156:3.7160787601456035e-10
157:1.0179407397132174e-11
158:-2.0447521297011262e-10
159:-3.3519753145681524e-10
160:1.0110779484618020e-11
161:-1.4469518509128257e-10
162:3.0996372669422051e-10
163:5.0479835989688448e-10
164:-2.8781326780992383e-10
165:-4.0933802821688882e-11
166:3.5515022913731664e-10
167:3.0841471454036539e-10
168:-9.3694218466121206e-11
169:6.2491939384736253e-10
170:1.4453432610677158e-09
171:-1.1753962520169368e-09
172:-2.2065719310498517e-09
173:-2.3252727200982441e-09
174:-8.5177174474973319e-11
175:-8.6897532272164690e-10
176:-1.2868473877137331e-09
177:1.4969236308069894e-09
178:6.7144913416949067e-10
179:-3.3464492260107987e-10
180:-1.7218181341175451e-09
181:-5.2872153103327845e-10
182:2.8635780979352918e-11
183:-9.7043633812559782e-10
184:7.4745773472905382e-11
185:7.7317469750978329e-10
186:-3.8281509143367748e-10
187:5.3704775544206884e-10
188:1.3991438101667848e-09
189:-1.3232870995553234e-10
190:-5.3721300244818493e-10
191:-4.8471280575016995e-10
192:6.7636985088569678e-10
193:6.7967800191445137e-12
194:-4.4944178045035204e-10
195:1.4337011333240120e-09
196:7.0781434881180613e-10
197:-4.8794109590640226e-11
198:-2.7245733714025960e-10
199:-2.8361110868978784e-10
200:-9.0330708491440314e-10
201:-4.4632933833875193e-10
202:-5.1433658680924210e-10
203:-1.1977384583104501e-09
204:-2.6293886042997672e-10
205:-6.2406880596798500e-10
206:-1.6074370658467298e-09
207:-1.1580136555863123e-09
208:-7.6027492261167606e-10
209:4.1057777170104240e-11
210:-1.4252573146795904e-09
211:-6.3217018091998012e-10
212:9.2671873155082262e-10
213:-2.1804167368785100e-09
214:-2.0363136799424624e-09
215:-7.6419752372008125e-10
216:2.8757725367700715e-09
217:2.2447988980476799e-10
218:-8.9804165706372729e-10
219:1.7198642350023920e-09
220:2.7381125545319268e-10
221:-5.2015466586730064e-10
222:-7.0916498584941423e-10
223:-2.2749940328016102e-10
224:2.9564741559520873e-11
225:-6.6428766867585253e-10
226:-1.3395501321426059e-10
227:-2.3673729576571933e-10
228:-4.8393981130127139e-10
229:-2.7255474853544909e-10
230:-5.0444205353293048e-10
231:7.1366252751142722e-11
232:-6.0658797195926553e-11
233:-4.4611426755155078e-10
234:-1.8070614449250400e-10
235:7.0766509639398944e-10
236:1.8816483827796762e-09
237:-5.1885779326867376e-10
238:1.9015363202304136e-10
239:1.2717847650067888e-09
240:-7.0124497237957483e-10
241:-7.3226601898843757e-10
242:-3.0365656690303448e-10
243:2.0212877845841115e-09
244:9.3944984003596210e-10
245:-4.5741797435776388e-10
246:1.3141611196690115e-09
247:-1.1095641633049540e-11
248:-1.5667451977879461e-09
249:-3.3718036000493612e-10
250:-1.2717636230644254e-09
251:-2.3521019622389693e-09
252:-6.4569677062407648e-10
253:3.2063361047415167e-10
254:1.3073134655479273e-09
255:-1.7454647502997882e-09
256:-6.5539537605779485e-10
257:4.3447508878563101e-10
258:-2.4028697993344938e-09
259:-1.4163061728186127e-09
260:-4.5048864410739496e-10
261:1.4298718459260229e-09
262:8.3278369510215899e-10
263:2.0710730139419719e-10
264:6.5164086733464465e-10
265:4.5200246790636589e-10
266:4.7518667186204388e-10
267:-1.8995584852672986e-10
268:5.9041042454327508e-11
269:7.8226420806676919e-10
270:5.2902394003923478e-11
271:-1.8195214298919118e-10
272:-9.5755951912348890e-10
273:7.4797022875597097e-10
274:1.3544981942949978e-09
275:1.7071590326941624e-09
276:1.4797226278152353e-09
277:2.8684907482915847e-09
278:4.2902769506221346e-09
279:-1.5825628734828385e-09
280:-1.9674950103960760e-09
281:-1.3636930627193460e-09
282:1.5266338874143381e-09
283:8.1294846655703800e-10
284:2.4718060214164283e-10
285:4.6119335501523647e-09
286:3.8269358208145140e-09
287:2.3490426343056723e-09
288:-2.5989787245405385e-09
289:-8.9681734261048984e-10
290:1.9472854819009461e-10
291:-3.9928213646725288e-09
292:-1.3942759874003159e-09
293:1.4383092740326395e-10
294:-2.5212229556363121e-09
295:-4.2634688764863249e-10
296:1.5826308394065261e-10
297:3.5079845011737759e-10
298:1.7096066816486738e-10
299:-3.7964089671083966e-11
300:2.6583286186637317e-10
301:1.8782901916506531e-10
302:6.6185363479862258e-10
303:-2.0315970043413570e-10
304:-3.2349425184370245e-10
305:6.8931618001771262e-10
306:-2.9472084495107964e-10
307:-7.4361724043360877e-10
308:-8.7377170803247217e-10
309:8.4008838213902936e-10
310:4.5930857274607723e-10
311:-1.7388757617970088e-10
312:1.4419086167448736e-09
313:1.7523201554239036e-09
314:1.2391549278711643e-09
315:-1.0020756927234040e-09
316:-1.5506472975315497e-09
317:-2.1488555125997584e-09
318:-5.4310055384544964e-10
319:-8.8923593381913423e-10
320:-1.0393474567572307e-09
321:6.6423560612153143e-10
322:1.8410962191227023e-11
323:-1.8572867978148044e-10
324:-2.0824674783737920e-09
325:-1.2589045057477866e-09
326:-4.8929752143685922e-10
327:-8.2348190766357032e-10
328:-1.5331719601150942e-10
329:3.6932784054590689e-10
330:1.0407456814089432e-10
331:8.6339195779640015e-10
332:1.3816184091937638e-09
333:-2.6393283925917593e-10
334:8.9005325545685409e-11
335:9.2728425765900357e-10
336:4.4029667065070837e-10
337:4.3238733240225946e-10
338:6.9657933768074298e-10
339:1.2622078195668485e-09
340:5.2724116764197926e-10
341:-1.4885968382345605e-10
342:1.6419758181323703e-09
343:3.0634709512734361e-09
344:4.6662543620734631e-09
345:1.0769116634770435e-09
346:2.2048437127869098e-09
347:3.7367299133756451e-09
348:-5.7058849832480891e-11
349:1.3010109983192690e-09
350:3.2856969202868781e-09
351:5.0631694349976790e-09
352:4.1111251689254571e-09
353:2.2354218002581869e-09
354:4.0211000261362981e-09
355:2.6403211881810873e-09
356:3.8367629719683072e-10
357:3.7181943409097285e-09
358:2.2807971050420986e-09
359:1.5324393678346520e-11
360:-7.4526122452776532e-10
361:1.6679366221517000e-10
362:-1.8323000034971604e-10
363:8.0499776182570048e-10
364:-2.5393049041682730e-10
365:-1.2722073328035151e-09
366:4.4727784843934254e-10
367:-1.5193030127249938e-09
368:-2.1424936462083282e-09
369:-7.1378800306285072e-10
370:-7.1410892690590643e-10
371:3.0531291637509322e-10
372:-1.4186735386872558e-09
373:-8.9836074610310645e-10
374:-3.2910836015555173e-10
375:-1.6076805330877056e-09
376:-6.0882009403191184e-10
377:-5.3183041039398962e-10
378:1.1322887072395815e-09
379:1.8029501502869751e-09
380:1.7089815139959852e-09
381:3.7332917206363177e-11
382:7.0164660673435530e-10
383:1.3750494132747948e-09
384:-7.0621537213908391e-10
385:-2.8212198828094165e-10
386:9.2478692566118916e-10
387:1.2380381175364647e-09
388:4.2563975848171237e-10
389:-4.8330230042384993e-11
390:1.4189414200240269e-09
391:7.2132520976563574e-10
392:-2.3837223094174387e-10
393:1.4440393971894551e-09
394:9.5942907981964764e-10
395:-3.8777510656925322e-10
396:1.3481737094222215e-10
397:9.1216630936620002e-10
398:1.5228786280896840e-09
399:-4.7188948795526486e-10
400:-2.7512047127655249e-11
401:5.9966830179387820e-10
402:-1.0766471285719780e-09
403:-1.1964044413623946e-09
404:-7.8391858720987993e-10
405:1.3427106648755682e-09
406:2.1815415392948487e-10
407:-9.0988197878894016e-10
408:5.2444960767335135e-10
409:-4.8216255374006633e-10
410:-1.4932898751007999e-09
411:-5.9907287672578669e-10
412:-7.2349531338901163e-10
413:-8.5346281345073610e-10
414:-8.3678923832832308e-10
415:7.9469750758641976e-10
416:2.8134741131387204e-09
417:-1.3148590122674237e-09
418:-1.1227597377457736e-10
419:4.3249262511324127e-10
420:-7.0810152946849846e-10
421:-1.1742391789484352e-09
422:-3.3432992824928046e-09
423:3.0712638628885935e-09
424:1.4176760726885691e-09
425:-6.5533724614131616e-10
426:-2.4801241455839873e-10
427:-2.1018211543539951e-09
428:-3.0185323975271707e-09
429:-4.9954668786127202e-09
430:-5.9243050690354387e-09
431:-4.5595198746120932e-09
432:-2.2949857826103628e-10
433:-1.6809817426910458e-09
434:-1.8286534145902560e-09
435:-8.7674058718140590e-10
436:-2.8603922115515268e-10
437:1.6974502732900978e-10
438:-1.3858579081324700e-09
439:1.3257317461038187e-09
440:2.4636829546022175e-09
441:-1.2026744450760036e-09
442:-3.6290214957033734e-10
443:-4.7967072354702611e-10
444:2.2304006931970724e-10
445:-3.0208541330793814e-11
446:-3.8835704817595201e-10
447:1.9244064600067811e-09
448:4.3101388802520080e-10
449:-3.1563135185080488e-10
450:-7.3376401109006051e-10
451:-3.3821236409782895e-10
452:8.8544889903080947e-10
453:-3.8090424244228665e-10
454:2.0618339434290531e-10
455:1.0033156864080590e-09
456:-1.3520413921721458e-10
457:4.8607254122475929e-10
458:6.9933428758226293e-10
459:1.4045815792502918e-09
460:9.0698549098506153e-10
461:-4.0141217673535129e-10
462:1.1058558582743849e-09
463:5.0467009043986266e-10
464:-1.2884629427759245e-10
465:4.3753110025915742e-10
466:6.9581040898999121e-11
467:4.4777917466263203e-10
468:-1.0907527552113276e-09
469:-1.3361260548815625e-09
470:-1.1294956356429247e-09
471:-2.8839410827379119e-10
472:-2.9407716246129173e-10
473:-4.7293482564987510e-10
474:8.9711800021293675e-10
475:1.0661000828131852e-09
476:4.3672957252808481e-10
477:-8.4377750513116200e-10
478:-3.6616543130918444e-10
479:1.0239272037086795e-10
480:-3.1364934687933427e-10
481:5.1140081752665267e-10
482:1.3163501655553433e-09
483:2.9470643757221066e-10
484:9.3123818660674495e-10
485:1.5366343154465880e-09
486:8.8398839530430442e-11
487:-1.4537209577140195e-09
488:-4.5935751196413994e-09
489:1.0537981411629949e-09
490:-7.6380958849431312e-10
491:-2.7725506936378372e-09
492:1.2992193542292367e-09
493:6.8264667256296729e-10
494:1.2815375179990063e-09
495:-5.9720617874036410e-09
496:-5.1578766631686328e-09
497:-2.2055287617595867e-09
498:-2.5916381754318092e-09
499:3.2183490648126561e-10
500:3.4826642938380510e-09
501:2.4419945274312236e-09
502:3.9855983472493046e-09
503:3.8857534185836109e-09
504:-2.1290528101198123e-09
505:7.6300744568700806e-10
506:2.4282542456489389e-09
507:-3.8531397623835337e-09
508:-2.8873538175762276e-09
509:-5.1780920296754606e-10
510:-4.9421526233085240e-09
511:-6.4832190347422371e-09
512:-3.9899513564217090e-09
513:2.0760289854725702e-09
514:4.8102480866029340e-10
515:-3.5681226936765337e-10
516:2.9951135055012329e-10
517:-2.0532737502764445e-10
518:-7.6884900189210925e-10
519:-2.1250391562273962e-09
520:-1.3781703726284615e-09
521:-1.5058487700596139e-09
522:-1.8860447391889379e-10
523:3.5628217790547506e-10
524:3.0894474345241834e-10
525:-6.1747482127394449e-10
526:1.1219941242116646e-10
527:2.3466480161292969e-10
528:-1.1530151291204438e-09
529:3.5005875318519936e-10
530:1.2309470261463396e-09
531:-1.8881797834670633e-11
532:-1.5219329535947754e-10
533:5.8763173947544544e-10
534:-6.8899213257777300e-11
535:-4.9981636751414648e-10
536:-3.9967657755761981e-10
537:8.2841990645815555e-10
538:-9.1211145290628059e-10
539:-2.4636709971032577e-09
540:1.1139206544343350e-09
541:1.1098787487353090e-09
542:3.1697551234418558e-10
543:-2.8036067057667629e-10
544:-3.9786316602397070e-10
545:-6.4644391102116960e-10
546:-2.7691013044260746e-09
547:-2.0491487050358265e-09
548:-8.0248813090949184e-10
549:1.3196308362290338e-10
550:6.6893138998077505e-10
551:1.0055199528248893e-09
552:-4.6589234873841190e-10
553:-9.8764145900060319e-12
554:-3.2478468699193019e-10
555:-1.0284752233218385e-10
556:-1.5111636985157273e-10
557:-1.5408473661072979e-09
558:8.5478766159291941e-10
559:1.2747181782346573e-09
560:3.4687415533401618e-09
561:-6.1220026110496961e-10
562:6.8902882865130322e-10
563:4.2775019554053064e-09
564:-2.3255009863556357e-09
565:-9.5866639571640844e-10
566:3.2085505824663078e-09
567:4.6111645484864665e-09
568:3.8952708580043147e-09
569:1.1613908619534374e-09
570:5.1518651791230363e-09
571:2.1788151878318831e-09
572:-2.2084965984064313e-09
573:4.4332972831324071e-09
574:2.1440422596051343e-09
575:-9.5574566713270711e-10
