label=Stress xy
num_items=4050

0:-5.1166775924303782e-003
1:-2.4407284757948577e-002
2:-3.9724236293481541e-002
3:-2.2185712779927046e-002
4:9.8629015189662973e-003
5:4.3618116515025474e-003
6:1.1248533229635135e-002
7:5.5605359611720112e-002
8:2.9219049789925514e-002
9:8.0571158585515754e-003
10:9.7983489178465645e-003
11:5.4157401907885080e-002
12:8.4030340377101755e-003
13:-6.8736561244807398e-002
14:-7.9701304812202639e-002
15:-1.7325755308015459e-002
16:7.6910532272536430e-004
17:1.1598395597210827e-002
18:-7.0297120481894029e-002
19:-2.2546528297438490e-001
20:8.9431471175369842e-002
21:-5.7013362206632029e-002
22:-8.0149322888020091e-001
23:-1.8842347376466939e+000
24:8.1509264369510143e-002
25:-1.9747470543537046e-001
26:-1.4114743033627060e+000
27:-3.1177069601187957e+000
28:2.1683120526986684e-002
29:-2.7271171700560115e-001
30:-1.5733313556870416e+000
31:-3.3834103797641273e+000
32:-3.4245647306074295e-001
33:-6.9123784610208572e-001
34:-2.0843634766491848e+000
35:-4.5058736090951133e+000
36:-2.6477193151050566e+000
37:-4.1111057572141219e+000
38:-6.2301458096446209e+000
39:-8.2220878970585520e+000
40:-4.3048498053177369e+000
41:-6.4442169610393645e+000
42:-8.8095674040279999e+000
43:-1.0181280412505403e+001
44:-4.6300218382811247e+000
45:-6.7810947403100208e+000
46:-8.8747126283218130e+000
47:-9.7525853150183561e+000
48:-6.4613287417247598e+000
49:-1.0982153121033081e+001
50:-1.6211678277487852e+001
51:-1.7600874520023524e+001
52:-9.4690432003576532e+000
53:-1.1832038767499656e+001
54:-1.3652818816831894e+001
55:-1.2917512913639916e+001
56:-1.0714265161138922e+001
57:-1.1114259845432548e+001
58:-1.0041285807222710e+001
59:-7.6419141004271918e+000
60:-9.9031330774031456e+000
61:-9.4387719156220307e+000
62:-7.2832175700426243e+000
63:-4.3855381611820334e+000
64:-1.6790071759773532e+001
65:-1.2573835172352208e+001
66:-4.5432576624617536e+000
67:1.0750080983837333e+000
68:-1.1450535938000478e+001
69:-7.2572785669920545e+000
70:-7.1293557671626018e-001
71:3.6304070617666016e+000
72:-5.7428331393929986e+000
73:-1.8667150634410197e+000
74:2.9622007286749512e+000
75:5.8741169688977521e+000
76:-2.4322935564779038e+000
77:1.0741237014066414e+000
78:4.8854011768586973e+000
79:6.9772332518207616e+000
80:3.1325247491909742e+000
81:4.8732520861057242e+000
82:4.2740006437220925e+000
83:2.8011617544809688e+000
84:5.2509573654340942e+000
85:6.6770011659447315e+000
86:6.1023252897520726e+000
87:4.4870032440289442e+000
88:6.9551933376732187e+000
89:7.8984713769504760e+000
90:7.2563355327290990e+000
91:5.5849755900187752e+000
92:7.7200802574840006e+000
93:8.2949899523264268e+000
94:7.5125894224884444e+000
95:5.8220109883666309e+000
96:2.0228174820563436e+000
97:9.7779963265904080e-001
98:2.8363349768973634e-001
99:9.6870568313357372e-002
100:3.4491139082268498e+000
101:1.8780890968606492e+000
102:6.1908734379487740e-001
103:1.9956701638549285e-001
104:4.3993943036263357e+000
105:2.5063602553058333e+000
106:8.8100300703415813e-001
107:3.0361897266691262e-001
108:4.6088570965381139e+000
109:2.6533107616677745e+000
110:9.5649960139320467e-001
111:3.5028242110528085e-001
112:6.5758256784679767e-002
113:3.1632032203946815e-002
114:1.1958799837221652e-002
115:7.8699044091490832e-003
116:1.3818107215470213e-001
117:7.9358001866220884e-002
118:4.7870677034071413e-002
119:4.2576938517321000e-002
120:2.1985615504447106e-001
121:1.3938836852194936e-001
122:9.3122444521065148e-002
123:8.3810613351466015e-002
124:2.6417989333471642e-001
125:1.7953585381477216e-001
126:1.2581729647345555e-001
127:1.1243741387439862e-001
128:7.1616391379030727e-003
129:6.5772939025270242e-003
130:6.6898221026752622e-003
131:6.9551839476956600e-003
132:4.1620312760435936e-002
133:3.8977992445339921e-002
134:3.4689698650263251e-002
135:3.1730723971730199e-002
136:8.2223604800251468e-002
137:7.7584128300994981e-002
138:6.9357773939359060e-002
139:6.3197497180136675e-002
140:1.1005439618067694e-001
141:1.0422361224728478e-001
142:9.4239800423297035e-002
143:8.6397981368062773e-002
144:7.0024521031188071e-003
145:6.6859018179167735e-003
146:5.7642196632932035e-003
147:4.9627547980806430e-003
148:3.0531333962047869e-002
149:2.8605585312487931e-002
150:2.6321966608591398e-002
151:2.4476013165819984e-002
152:6.0485849907961763e-002
153:5.6318245778331423e-002
154:5.1883467008446947e-002
155:4.8597744654385377e-002
156:8.2645698011153859e-002
157:7.6703840165373696e-002
158:7.0380706662132295e-002
159:6.5951751172156056e-002
160:4.5971076242394991e-003
161:4.1763620317782791e-003
162:3.9913326124477152e-003
163:3.9632891704758488e-003
164:2.3400403185185114e-002
165:2.1569949579237687e-002
166:1.9654404441347310e-002
167:1.8565430749440517e-002
168:4.6718954598397748e-002
169:4.3348356287783919e-002
170:3.9512984865316861e-002
171:3.7144569531240963e-002
172:6.3556572722630697e-002
173:5.9243403632814821e-002
174:5.4207944666277402e-002
175:5.0949446088701958e-002
176:3.9348935812271038e-003
177:3.7620045156658440e-003
178:3.3784251561191016e-003
179:3.0473182286250389e-003
180:1.8108780915446640e-002
181:1.7206653468779535e-002
182:1.5887080605355080e-002
183:1.4770335326507240e-002
184:3.6104862803844770e-002
185:3.4194475311778515e-002
186:3.1627542588275492e-002
187:2.9536728287813153e-002
188:4.9449923960974904e-002
189:4.6733476457029119e-002
190:4.3202826847910443e-002
191:4.0413195552062589e-002
192:2.8849818152014936e-003
193:2.6517773128359652e-003
194:2.4399073681771136e-003
195:2.2979615586485097e-003
196:1.4146796110530695e-002
197:1.3055339833547168e-002
198:1.1775716514051963e-002
199:1.0870833811447498e-002
200:2.8369714779400219e-002
201:2.6255042136755228e-002
202:2.3660391169409472e-002
203:2.1776936082460514e-002
204:3.8878659084308917e-002
205:3.6061620707081313e-002
206:3.2528592182950525e-002
207:2.9914980137258754e-002
208:2.2129667158109589e-003
209:2.0041441101298495e-003
210:1.6599335013340174e-003
211:1.3688733683342804e-003
212:1.0398957324843760e-002
213:9.4184091559082524e-003
214:7.9417078387183874e-003
215:6.6692543803046622e-003
216:2.0794247725463597e-002
217:1.8803808218629061e-002
218:1.5870600411750244e-002
219:1.3353824806268922e-002
220:2.8539778604934122e-002
221:2.5781111096022300e-002
222:2.1761143754941238e-002
223:1.8330815861724879e-002
224:1.2125655388500285e-003
225:9.1855264706419313e-004
226:4.9800788311064751e-004
227:1.1461045841617040e-004
228:5.9447945901246390e-003
229:4.4980411150357833e-003
230:2.3982771718187193e-003
231:5.8817882413350067e-004
232:1.1913688489826883e-002
233:9.0061836414199632e-003
234:4.7607695153250740e-003
235:1.1169697592070024e-003
236:1.6369118451643728e-002
237:1.2388931255246616e-002
238:6.5513015612261704e-003
239:1.5365876637219822e-003
240:-2.0793662275690898e-002
241:-1.3373437146097264e-001
242:-1.3817683486885918e-001
243:-4.2807879001422904e-002
244:-7.0356035693610363e-003
245:9.2075458898511958e-002
246:3.3635081542962308e-001
247:5.9784421266314725e-001
248:2.5803926404429389e-001
249:1.3711451935593126e+000
250:2.4878711736073189e+000
251:3.1152827989384764e+000
252:7.3559966980014291e-001
253:3.3127205889024443e+000
254:5.5569867719681749e+000
255:6.5170723720905643e+000
256:1.8608689433430897e-002
257:-2.4548886496465222e-001
258:-1.5111037909897718e+000
259:-3.2767904512420829e+000
260:7.3598576640700719e-001
261:5.6455093809826429e-001
262:-6.3315397821950214e-001
263:-2.3368172462720480e+000
264:3.3553748608090643e+000
265:3.2547458711057100e+000
266:2.0120791505012758e+000
267:2.5345029496641308e-001
268:6.7746991079592105e+000
269:6.5846218372201113e+000
270:5.1028742507059555e+000
271:3.1465518163132176e+000
272:-4.4854097754368443e+000
273:-6.5063640117148065e+000
274:-8.3335462861757765e+000
275:-8.9561733893611422e+000
276:-3.4912634940524137e+000
277:-5.3256228230850846e+000
278:-6.7802033534829382e+000
279:-7.0604209868963297e+000
280:-9.1153538644239274e-001
281:-2.7074957703881553e+000
282:-4.0287016370937874e+000
283:-4.1730100167081732e+000
284:1.8927413385662857e+000
285:-6.0569252932999113e-002
286:-1.5809801676817572e+000
287:-1.8773470207862553e+000
288:-8.9610410525502964e+000
289:-8.2483964848988762e+000
290:-5.8816265554009695e+000
291:-2.9609849588716886e+000
292:-6.8793207012083846e+000
293:-5.9041224802469037e+000
294:-3.4432929454208252e+000
295:-6.9924145745805355e-001
296:-3.9229923132187032e+000
297:-2.9522098155654874e+000
298:-8.1554692394848172e-001
299:1.4066017158476332e+000
300:-1.7141661977076859e+000
301:-1.0011490772288820e+000
302:6.0997891779449276e-001
303:2.2974480765522829e+000
304:-1.0607919001083885e+000
305:2.2270630830547957e+000
306:5.6248376785508194e+000
307:7.3978376886423369e+000
308:1.0042971647128445e+000
309:3.7982993818600712e+000
310:6.4534803569529213e+000
311:7.7049544637826219e+000
312:2.7349793036142316e+000
313:4.8072047377928868e+000
314:6.5987970313301814e+000
315:7.3217888612078541e+000
316:3.3062527285808283e+000
317:4.8601898351385087e+000
318:6.1540346726656852e+000
319:6.6220972710205599e+000
320:8.0000479756758072e+000
321:8.3971051023533878e+000
322:7.5123516266331514e+000
323:5.8036770136463476e+000
324:8.0843925522712627e+000
325:8.2086203455919815e+000
326:7.2042710062367048e+000
327:5.5362300324017770e+000
328:7.4900521651758458e+000
329:7.3797266759320816e+000
330:6.3563193520014734e+000
331:4.8622985378541985e+000
332:6.6968795089042157e+000
333:6.4988738817363032e+000
334:5.5362277311453143e+000
335:4.2238862452434764e+000
336:4.5904240640260339e+000
337:2.6406317338183753e+000
338:9.5731069351578513e-001
339:3.6139329013492777e-001
340:4.3742740795869794e+000
341:2.5172617599606415e+000
342:9.2757769099627130e-001
343:3.7247995584795901e-001
344:3.8439397085117664e+000
345:2.2249884583450950e+000
346:8.4876213228470410e-001
347:3.7266691058698892e-001
348:3.3441832385398991e+000
349:1.9504000127737335e+000
350:7.6985077519864120e-001
351:3.6292512577678904e-001
352:2.7929455065059483e-001
353:1.9758149811451697e-001
354:1.4213705412950292e-001
355:1.2658895152423294e-001
356:2.9907633326784461e-001
357:2.2404777745706475e-001
358:1.6775131145656644e-001
359:1.4971090986190125e-001
360:3.1092086004725911e-001
361:2.4549369678733302e-001
362:1.9217522046313720e-001
363:1.7366253126881687e-001
364:3.1021855405852117e-001
365:2.5329327096191978e-001
366:2.0532778471294177e-001
367:1.8801690662533432e-001
368:1.2369173858667133e-001
369:1.1732489510410438e-001
370:1.0680036823759297e-001
371:9.8311899364574656e-002
372:1.4635685532954629e-001
373:1.3961496244961510e-001
374:1.2846851068267037e-001
375:1.1883334096364499e-001
376:1.7036856135615716e-001
377:1.6379856936498782e-001
378:1.5222589677365173e-001
379:1.4133122856769845e-001
380:1.8481508595503898e-001
381:1.7824468366233473e-001
382:1.6633997419204444e-001
383:1.5483948997469790e-001
384:9.4048140411167769e-002
385:8.7155690312394812e-002
386:7.9770528012749198e-002
387:7.4738160443121968e-002
388:1.1359880025679898e-001
389:1.0497081590352238e-001
390:9.5799099206742594e-002
391:8.9883734414268640e-002
392:1.3502216158071992e-001
393:1.2456921046186699e-001
394:1.1369389248823504e-001
395:1.0707471420172254e-001
396:1.4807506646989102e-001
397:1.3687677450675392e-001
398:1.2532817167973875e-001
399:1.1842890202844480e-001
400:7.2109828209705393e-002
401:6.7386175888088401e-002
402:6.1810960931138817e-002
403:5.8111617203333889e-002
404:8.6972010596447602e-002
405:8.1708139055648055e-002
406:7.5293611624556819e-002
407:7.0811542574666472e-002
408:1.0399792655313575e-001
409:9.8330942305872901e-002
410:9.1083864392196415e-002
411:8.5710499772187421e-002
412:1.1527576519689578e-001
413:1.0937888201435600e-001
414:1.0162448444987504e-001
415:9.5711825390560112e-002
416:5.6363726860846224e-002
417:5.3209420595525525e-002
418:4.9168230638783089e-002
419:4.6027573564034772e-002
420:6.8595870343658077e-002
421:6.4630709604141010e-002
422:5.9685645820091997e-002
423:5.5958722452648733e-002
424:8.2938936986001743e-002
425:7.8025872480589634e-002
426:7.2063659153271981e-002
427:6.7707536058033493e-002
428:9.2609881703578215e-002
429:8.7133872298962037e-002
430:8.0560235477467476e-002
431:7.5813916816002330e-002
432:4.4316688744624147e-002
433:4.1157890981606049e-002
434:3.7153292316124339e-002
435:3.4160189450057228e-002
436:5.3964852884291328e-002
437:5.0242141358941561e-002
438:4.5423108430432617e-002
439:4.1748807196534843e-002
440:6.5418924725717600e-002
441:6.1085047294047901e-002
442:5.5333665768106867e-002
443:5.0846916398959670e-002
444:7.3335981974870276e-002
445:6.8600567049792796e-002
446:6.2223982833043076e-002
447:5.7185621994776031e-002
448:3.2576771215417535e-002
449:2.9413567707312915e-002
450:2.4829387726945422e-002
451:2.0930501740762258e-002
452:3.9784025121807697e-002
453:3.5883607843544260e-002
454:3.0282566995221912e-002
455:2.5547825571049662e-002
456:4.8418198308844390e-002
457:4.3623117736676396e-002
458:3.6796925257616436e-002
459:3.1062384176995396e-002
460:5.4440218562543080e-002
461:4.9031665874050348e-002
462:4.1360485644040303e-002
463:3.4933275636079869e-002
464:1.8702791867301137e-002
465:1.4172067546032757e-002
466:7.5102536968676744e-003
467:1.7815533274152095e-003
468:2.2847924439195332e-002
469:1.7333842238426763e-002
470:9.1870472420705653e-003
471:2.1634665053002211e-003
472:2.7799661875344578e-002
473:2.1105761575018738e-002
474:1.1161497670739533e-002
475:2.5602057988743272e-003
476:3.1279716348363101e-002
477:2.3764562182647414e-002
478:1.2565677730150127e-002
479:2.8609867235394634e-003
480:1.1067653374977386e+000
481:4.7159492956836955e+000
482:7.7114925994116570e+000
483:8.8387684550767158e+000
484:2.1319052705225556e+000
485:7.5310833618985118e+000
486:1.1694009538228672e+001
487:1.2905965243521567e+001
488:5.1353900614978309e+000
489:1.1718637883326256e+001
490:1.6281836132693449e+001
491:1.7021070503790508e+001
492:9.6611464554276960e+000
493:1.5579311927550640e+001
494:1.9081028122395708e+001
495:1.8922881922522873e+001
496:9.0628526466137824e+000
497:8.7410836431150631e+000
498:7.0329580168488839e+000
499:4.9076694299841579e+000
500:1.2933402325718095e+001
501:1.2176881491179151e+001
502:9.9297600184512032e+000
503:7.4893723164335704e+000
504:1.6573958316282372e+001
505:1.4980624721119973e+001
506:1.1919487356603463e+001
507:9.1431694366016067e+000
508:1.7994662604831781e+001
509:1.5647887414719770e+001
510:1.1966778142734034e+001
511:9.0322327991075149e+000
512:3.5770611412088389e+000
513:1.4750534950505119e+000
514:-2.5248016278771046e-001
515:-7.1389577307503160e-001
516:6.0420528710662111e+000
517:3.7197395242717755e+000
518:1.6820528096032146e+000
519:9.6857612553863814e-001
520:7.6294068288363928e+000
521:5.1945992120802069e+000
522:2.9823937822351527e+000
523:2.1069868084749239e+000
524:7.5467611143692208e+000
525:5.1798747727603036e+000
526:3.0287081916663112e+000
527:2.1652950906332058e+000
528:-6.4200578772664618e-001
529:-1.4166239359577837e-001
530:1.1225185887196731e+000
531:2.5088590960325305e+000
532:8.9864666374647606e-001
533:1.0654840507075840e+000
534:1.7783168974917627e+000
535:2.6786045218471490e+000
536:1.9362984256181772e+000
537:1.8448014743601919e+000
538:2.0882629807212374e+000
539:2.5386652223766144e+000
540:1.9844598518397636e+000
541:1.8361082534312343e+000
542:1.9216068490585851e+000
543:2.1784101287861550e+000
544:3.3543598419279572e+000
545:4.6706342732386386e+000
546:5.7758595680187801e+000
547:6.1660404648749019e+000
548:3.2575087812683146e+000
549:4.1853498977847092e+000
550:4.9837464620662209e+000
551:5.2501652243476800e+000
552:2.8571539794684950e+000
553:3.3946320522931406e+000
554:3.8728065530092071e+000
555:4.0089177579724407e+000
556:2.3702629128046651e+000
557:2.7079014882159500e+000
558:3.0126730957490624e+000
559:3.0789884938826537e+000
560:6.2153255151820828e+000
561:6.0006510206604506e+000
562:5.0876485510897602e+000
563:3.8764362909573662e+000
564:5.2610352773597597e+000
565:5.0305552341286122e+000
566:4.2252584162640057e+000
567:3.2092713803414648e+000
568:3.9830081679766454e+000
569:3.7550846748580859e+000
570:3.1103273382496042e+000
571:2.3505184092624432e+000
572:3.0376058801650583e+000
573:2.8305674721747316e+000
574:2.3184024771621559e+000
575:1.7460230543722484e+000
576:3.0720558121748605e+000
577:1.7999010643660427e+000
578:7.2425912815843818e-001
579:3.5426694959322985e-001
580:2.5469162490535417e+000
581:1.5036666264946990e+000
582:6.2638149145449817e-001
583:3.2829519909864557e-001
584:1.8682112908596533e+000
585:1.1138533077715380e+000
586:4.8736327489107462e-001
587:2.8241040564983083e-001
588:1.3906079350468650e+000
589:8.3825886980313413e-001
590:3.8589846963911223e-001
591:2.4540249522919083e-001
592:3.0650706758675167e-001
593:2.5479588909766276e-001
594:2.1078134784748964e-001
595:1.9446805696550790e-001
596:2.9188403657545631e-001
597:2.5307470782773261e-001
598:2.1855508183621078e-001
599:2.0415428755895626e-001
600:2.6263186690167900e-001
601:2.4348075775271355e-001
602:2.2299539805350252e-001
603:2.1096826930402943e-001
604:2.3730601805812307e-001
605:2.3193990755205324e-001
606:2.2116487991701242e-001
607:2.1077334324662769e-001
608:1.9118233921444813e-001
609:1.8436612341346248e-001
610:1.7220209388102686e-001
611:1.6057013648378432e-001
612:2.0024220396141912e-001
613:1.9239082351182060e-001
614:1.7977315392574056e-001
615:1.6844985951587763e-001
616:2.0580328227659481e-001
617:1.9625676081973492e-001
618:1.8357088532745572e-001
619:1.7361993684239688e-001
620:2.0479557893883707e-001
621:1.9441956789728121e-001
622:1.8246746797853242e-001
623:1.7416738611516433e-001
624:1.5376309921467524e-001
625:1.4249434190978849e-001
626:1.3085027774159599e-001
627:1.2386322858476241e-001
628:1.6200009619415098e-001
629:1.5121884929176285e-001
630:1.3977442018081887e-001
631:1.3263745882632288e-001
632:1.6827142383295668e-001
633:1.5899619111896962e-001
634:1.4834152839379894e-001
635:1.4107329294050305e-001
636:1.6993643345459838e-001
637:1.6216733097281477e-001
638:1.5235049314583585e-001
639:1.4508041158784218e-001
640:1.2065368692778021e-001
641:1.1461683296603908e-001
642:1.0662088292862058e-001
643:1.0048813448678791e-001
644:1.2925995374804236e-001
645:1.2292268299862157e-001
646:1.1458867118490626e-001
647:1.0822787818972865e-001
648:1.3744060738747804e-001
649:1.3077149127099635e-001
650:1.2230380664347619e-001
651:1.1599060228263962e-001
652:1.4130757717130499e-001
653:1.3455168709182669e-001
654:1.2627923971216684e-001
655:1.2024069990169263e-001
656:9.7261288851775637e-002
657:9.1567641182960416e-002
658:8.4740151723472448e-002
659:7.9814129841936837e-002
660:1.0488572353532417e-001
661:9.8955147408296404e-002
662:9.1775510533046861e-002
663:8.6549913957578495e-002
664:1.1269483366268471e-001
665:1.0673363562197694e-001
666:9.9301651597088203e-002
667:9.3764630799912499e-002
668:1.1709435675465456e-001
669:1.1126844341237133e-001
670:1.0377118326256535e-001
671:9.8064150676328135e-002
672:7.7241929219381542e-002
673:7.2307903518705627e-002
674:6.5627675201254398e-002
675:6.0325118121380285e-002
676:8.3808262475586051e-002
677:7.8532849222728407e-002
678:7.1356215597922421e-002
679:6.5630440009515081e-002
680:9.0831089428604836e-002
681:8.5195926704082117e-002
682:7.7533901521494974e-002
683:7.1400361720748207e-002
684:9.5019841103491376e-002
685:8.9195867780410082e-002
686:8.1299576171060220e-002
687:7.4963449196179602e-002
688:5.7428964544175350e-002
689:5.1725556792892015e-002
690:4.3642238058050647e-002
691:3.6873187199994453e-002
692:6.2492519244680425e-002
693:5.6303868155919291e-002
694:4.7521973869414556e-002
695:4.0164040552444241e-002
696:6.8024559776457466e-002
697:6.1331831610278567e-002
698:5.1784982569110703e-002
699:4.3766858255614764e-002
700:7.1460955553367775e-002
701:6.4475872763774006e-002
702:5.4454815528703564e-002
703:4.6018182087767263e-002
704:3.3025685693270593e-002
705:2.5103739295150140e-002
706:1.3285037359966567e-002
707:3.0361540939341123e-003
708:3.5981255381655947e-002
709:2.7360797100498612e-002
710:1.4483540963948270e-002
711:3.3055201215271071e-003
712:3.9207380873490585e-002
713:2.9811305414022791e-002
714:1.5767708688971580e-002
715:3.5636480733233149e-003
716:4.1220515387229824e-002
717:3.1340914855724662e-002
718:1.6575288990909650e-002
719:3.7318333928950081e-003
720:1.3135047331594079e+001
721:1.7929080438636220e+001
722:2.0227855780749810e+001
723:1.9379066389281718e+001
724:2.0931863312623364e+001
725:2.2254352749941908e+001
726:2.1272225458901758e+001
727:1.8881667622993298e+001
728:2.9685186297559490e+001
729:2.5507126724888831e+001
730:1.9724699337937199e+001
731:1.5415001816506651e+001
732:3.1775376312610469e+001
733:2.4199448767743490e+001
734:1.5691074631759319e+001
735:1.0490671353927681e+001
736:1.8170515306896586e+001
737:1.5417101617918854e+001
738:1.1442392272890091e+001
739:8.4770081889431683e+000
740:1.7183181381906664e+001
741:1.3813126863331885e+001
742:9.5445099713336070e+000
743:6.7296187828525573e+000
744:1.3267410621507269e+001
745:9.5282761180502220e+000
746:5.4772597940989858e+000
747:3.2626973711983109e+000
748:8.2435192320387731e+000
749:4.6687749534824983e+000
750:1.3037245720060615e+000
751:-1.6492634278377963e-001
752:7.0411076825310515e+000
753:4.7740695653344387e+000
754:2.7312594167356901e+000
755:1.9240698939598346e+000
756:5.4898475377339810e+000
757:3.5764532227745471e+000
758:1.8982123424632311e+000
759:1.2759900075304469e+000
760:2.4522624040678300e+000
761:1.2793004351362902e+000
762:3.5772591828632799e-001
763:1.2654851112955587e-001
764:-5.4751959791433724e-001
765:-9.9197146520714297e-001
766:-1.1544977569127486e+000
767:-9.7396247973255812e-001
768:1.7613103051344812e+000
769:1.6315771239056382e+000
770:1.7031057051730156e+000
771:1.9103076413877191e+000
772:1.1745838750666817e+000
773:1.1247417812336371e+000
774:1.2266493286430384e+000
775:1.3884833201245856e+000
776:1.6226207807539314e-001
777:3.0455201840210216e-001
778:5.4371129669425389e-001
779:7.2289434082211135e-001
780:-7.8299423501596899e-001
781:-4.1698558530793861e-001
782:4.5965598347504364e-003
783:2.5034352933683551e-001
784:2.0610907541280006e+000
785:2.3289910246201635e+000
786:2.5692232945770761e+000
787:2.6105742312308422e+000
788:1.4900291797091534e+000
789:1.6697040953120825e+000
790:1.8260401147390037e+000
791:1.8382998576980700e+000
792:8.0456126806520900e-001
793:9.3697873171026380e-001
794:1.0421042556095133e+000
795:1.0426866976039530e+000
796:3.4559323925875995e-001
797:4.8442867637130210e-001
798:5.8439732654495669e-001
799:5.8936120395743463e-001
800:2.5660349310233501e+000
801:2.3767555757078997e+000
802:1.9362334389172422e+000
803:1.4570887023903274e+000
804:1.7943235133204447e+000
805:1.6425922694036075e+000
806:1.3249102545163112e+000
807:9.9788623461707160e-001
808:1.0081180275623260e+000
809:9.0761104716408414e-001
810:7.2324428230770332e-001
811:5.4992421468008534e-001
812:5.6552309261308276e-001
813:5.0192347717580099e-001
814:3.9748411383772969e-001
815:3.0928282738213986e-001
816:1.1630286637616616e+000
817:7.0759388642281917e-001
818:3.3783564207906364e-001
819:2.2725705017994766e-001
820:8.0230928328176199e-001
821:5.0161586274438408e-001
822:2.6233471821257931e-001
823:1.9755274596127878e-001
824:4.5135219661602893e-001
825:3.0175452931632507e-001
826:1.8752959300040570e-001
827:1.6415602727384665e-001
828:2.6269678939026320e-001
829:1.9310579294675032e-001
830:1.4343222234101941e-001
831:1.3970787191985812e-001
832:2.2425801452467314e-001
833:2.2475116373081411e-001
834:2.1811148284665541e-001
835:2.0851602931551988e-001
836:2.0144520594257528e-001
837:2.0967277001990042e-001
838:2.0896297685878210e-001
839:2.0105164944274834e-001
840:1.7268343593120361e-001
841:1.8598511248890132e-001
842:1.9058869158985034e-001
843:1.8559070158851645e-001
844:1.4929552670900528e-001
845:1.6389353725780936e-001
846:1.7169585085041142e-001
847:1.6973494006141843e-001
848:2.0230470079640964e-001
849:1.9186438694675603e-001
850:1.8067106422659240e-001
851:1.7340088689839558e-001
852:1.9492898654300461e-001
853:1.8506605453982500e-001
854:1.7558722869492774e-001
855:1.7015167828976413e-001
856:1.8060152371693761e-001
857:1.7275403033846770e-001
858:1.6590286016465000e-001
859:1.6254666623507186e-001
860:1.6636964839478702e-001
861:1.6096518532117357e-001
862:1.5635158237798713e-001
863:1.5430096082004621e-001
864:1.6979255553655798e-001
865:1.6285495896923108e-001
866:1.5352403290395347e-001
867:1.4631021621660525e-001
868:1.6760550798108290e-001
869:1.6218159419084185e-001
870:1.5395226473321189e-001
871:1.4709237154880797e-001
872:1.6113235170185425e-001
873:1.5755044423301831e-001
874:1.5113302732165151e-001
875:1.4523874994308383e-001
876:1.5353820820717326e-001
877:1.5123380006746062e-001
878:1.4646479548448474e-001
879:1.4168710491080452e-001
880:1.4250905858043844e-001
881:1.3580096652179954e-001
882:1.2774881754045275e-001
883:1.2192716542691047e-001
884:1.4337524448326414e-001
885:1.3692740915746179e-001
886:1.2937850368963608e-001
887:1.2398165572165223e-001
888:1.4190547844738680e-001
889:1.3612176942352136e-001
890:1.2936942439164148e-001
891:1.2453189719049686e-001
892:1.3885668000253487e-001
893:1.3382742156940231e-001
894:1.2778615117425707e-001
895:1.2337421912861790e-001
896:1.1888781725875107e-001
897:1.1317333969347750e-001
898:1.0568029223683229e-001
899:9.9911748193345543e-002
900:1.2115144159804690e-001
901:1.1569699548495875e-001
902:1.0832584882209896e-001
903:1.0254011828378307e-001
904:1.2197915255035324e-001
905:1.1695371806161936e-001
906:1.0996653151901442e-001
907:1.0435459327084161e-001
908:1.2103339929795187e-001
909:1.1639819541046013e-001
910:1.0986968913364083e-001
911:1.0453646338617645e-001
912:9.6826135307533381e-002
913:9.0938531524581256e-002
914:8.2968380255379670e-002
915:7.6561567504647945e-002
916:9.9425010663752950e-002
917:9.3487925397674670e-002
918:8.5444100687761107e-002
919:7.8948072727161853e-002
920:1.0129533791600144e-001
921:9.5426662787672617e-002
922:8.7404544914169990e-002
923:8.0871247468650972e-002
924:1.0159016097366355e-001
925:9.5872647023783522e-002
926:8.7955018871269774e-002
927:8.1453224403285215e-002
928:7.3009690975583005e-002
929:6.5900614249270267e-002
930:5.5667309108846465e-002
931:4.7040645947428725e-002
932:7.5328827258320977e-002
933:6.8044837924421120e-002
934:5.7502777005205383e-002
935:4.8592658824510901e-002
936:7.7212177644536570e-002
937:6.9812648414812439e-002
938:5.9044113097476758e-002
939:4.9907025742727117e-002
940:7.7800555170258648e-002
941:7.0398399828378672e-002
942:5.9589503275489855e-002
943:5.0385381578963807e-002
944:4.2135267633422041e-002
945:3.2039222260875182e-002
946:1.6951510063593279e-002
947:3.8207287249908740e-003
948:4.3523995635024716e-002
949:3.3097262358122909e-002
950:1.7516499721869850e-002
951:3.9482981667535513e-003
952:4.4700137351421004e-002
953:3.3986929259367846e-002
954:1.7978733363542772e-002
955:4.0404671855825336e-003
956:4.5128225642617800e-002
957:3.4304326113816355e-002
958:1.8133079380403237e-002
959:4.0658409744426666e-003
960:3.0208475833907276e+001
961:2.1614115347540960e+001
962:1.2422446015578013e+001
963:7.1138087294804757e+000
964:2.2635362021405314e+001
965:1.4211569179483226e+001
966:5.6283975115665381e+000
967:9.2458430069475273e-001
968:8.4362238911133147e+000
969:2.6039602989085142e+000
970:-3.0387806951112450e+000
971:-6.0428701425560147e+000
972:-1.4732010851664505e+000
973:-5.1749411807667158e+000
974:-8.4263831501869024e+000
975:-1.0069301515689153e+001
976:4.9304976790726700e+000
977:1.6310721827371997e+000
978:-1.1808032226503016e+000
979:-2.1708997384895174e+000
980:-9.2461065575441015e-001
981:-3.4642114903161647e+000
982:-5.1540575966573199e+000
983:-5.3348242131656454e+000
984:-7.2215319964889462e+000
985:-8.5579734604461777e+000
986:-8.8384368842996395e+000
987:-8.1955502979785511e+000
988:-1.0724709252627918e+001
989:-1.1201313134973132e+001
990:-1.0595899889718202e+001
991:-9.5089266212359291e+000
992:-2.3075263232961749e+000
993:-2.3341147977398431e+000
994:-2.0521243541044654e+000
995:-1.6208535963459536e+000
996:-5.0988151227174034e+000
997:-4.4934164515262767e+000
998:-3.5262880174474285e+000
999:-2.6983646308530007e+000
1000:-7.6404813655486166e+000
1001:-6.4967568456084548e+000
1002:-4.9301159757321553e+000
1003:-3.7443443283798556e+000
1004:-8.8080028736681637e+000
1005:-7.4212244626857489e+000
1006:-5.5805418407123790e+000
1007:-4.2311158008016330e+000
1008:-1.3306661053573408e+000
1009:-8.2023765829088569e-001
1010:-2.7710334081662430e-001
1011:1.9803289971621126e-002
1012:-2.2471042368357876e+000
1013:-1.4996867464133636e+000
1014:-7.5129804207898432e-001
1015:-3.6057071921171119e-001
1016:-3.1440462600052137e+000
1017:-2.1749904555552226e+000
1018:-1.2279602291124618e+000
1019:-7.3722702985543298e-001
1020:-3.5634439037498478e+000
1021:-2.4950955304449569e+000
1022:-1.4583792394581514e+000
1023:-9.1935013895595175e-001
1024:1.3044273839434420e-001
1025:2.8450469168271358e-001
1026:3.9060904402112406e-001
1027:4.0077786136076093e-001
1028:-2.1748122176105059e-001
1029:-2.6177643251477561e-002
1030:1.0250354467287717e-001
1031:1.2814800803902823e-001
1032:-5.5453753227737967e-001
1033:-3.1283626277528170e-001
1034:-1.4702904821510218e-001
1035:-9.7249908797337692e-002
1036:-7.1553972508647112e-001
1037:-4.4593834092846768e-001
1038:-2.5839385691311650e-001
1039:-1.9429045542264678e-001
1040:3.8306652262477070e-001
1041:3.3721396653093366e-001
1042:2.6711702265372866e-001
1043:2.1325900893126878e-001
1044:1.2315938598769760e-001
1045:1.0789757462099996e-001
1046:8.8842419048977495e-002
1047:8.1773758495111537e-002
1048:-8.6081729821986724e-002
1049:-6.9273925287384908e-002
1050:-4.5399145964242590e-002
1051:-1.9360584235607155e-002
1052:-1.7398616730080063e-001
1053:-1.4133477031798120e-001
1054:-1.0068698236324408e-001
1055:-6.4885246161447432e-002
1056:1.8703352277958865e-001
1057:1.4843659585004779e-001
1058:1.2319603887918584e-001
1059:1.2631279721215297e-001
1060:8.2226239636254778e-002
1061:8.4058736868300329e-002
1062:9.0345880561252159e-002
1063:1.0164339198587206e-001
1064:-1.6654501296313399e-003
1065:2.6452152298632542e-002
1066:5.3442759865839858e-002
1067:6.9612921340670444e-002
1068:-4.3032066190229236e-002
1069:-7.8676286401380257e-003
1070:2.5851125431182738e-002
1071:4.4119721186870374e-002
1072:1.3585027099353014e-001
1073:1.5058828205523808e-001
1074:1.6003339179238568e-001
1075:1.6001419010754231e-001
1076:1.1053382109919022e-001
1077:1.2484233708065132e-001
1078:1.3672289045214508e-001
1079:1.4026955228728188e-001
1080:7.7477967886041971e-002
1081:9.0891037222962837e-002
1082:1.0500121369295083e-001
1083:1.1261551643942783e-001
1084:5.1830910863927812e-002
1085:6.5251913928379743e-002
1086:8.0792315492196218e-002
1087:9.0811526122760902e-002
1088:1.5776124499555227e-001
1089:1.5395007606071970e-001
1090:1.5059807198641659e-001
1091:1.4913831452491130e-001
1092:1.4025711596487894e-001
1093:1.3975319496485342e-001
1094:1.3905200162886555e-001
1095:1.3871345647907174e-001
1096:1.1541557582528630e-001
1097:1.1929397428438028e-001
1098:1.2236161291600189e-001
1099:1.2363640175211781e-001
1100:9.5353296190884160e-002
1101:1.0215928351854150e-001
1102:1.0808816618134300e-001
1103:1.1079113699086926e-001
1104:1.4864220573439729e-001
1105:1.4695644652478504e-001
1106:1.4313367553443027e-001
1107:1.3906955002284985e-001
1108:1.3863060176323955e-001
1109:1.3793558054288002e-001
1110:1.3574429215022848e-001
1111:1.3301712773559118e-001
1112:1.2407117443109655e-001
1113:1.2452367233951560e-001
1114:1.2422665448371760e-001
1115:1.2315376201239928e-001
1116:1.1173380380762399e-001
1117:1.1314192876369790e-001
1118:1.1421459592586483e-001
1119:1.1430260912798436e-001
1120:1.3657661186614536e-001
1121:1.3203356382408601e-001
1122:1.2640882339190390e-001
1123:1.2222412243847246e-001
1124:1.3120500239196042e-001
1125:1.2768081546483165e-001
1126:1.2296555335465514e-001
1127:1.1927060962318034e-001
1128:1.2224742477468133e-001
1129:1.2016073286864208e-001
1130:1.1683462017763629e-001
1131:1.1391383698753257e-001
1132:1.1404853053624515e-001
1133:1.1306124483335168e-001
1134:1.1089801437400579e-001
1135:1.0867197595434917e-001
1136:1.1999553055031865e-001
1137:1.1558674874683503e-001
1138:1.0935426004457979e-001
1139:1.0421636326519154e-001
1140:1.1726776650128866e-001
1141:1.1330125202659677e-001
1142:1.0764488160690203e-001
1143:1.0290059048104792e-001
1144:1.1225148149956013e-001
1145:1.0891227955542816e-001
1146:1.0404333979375747e-001
1147:9.9850260442694752e-002
1148:1.0731774100253967e-001
1149:1.0451621551280622e-001
1150:1.0028825172984888e-001
1151:9.6543576024481437e-002
1152:1.0135335061376718e-001
1153:9.5749823219824948e-002
1154:8.7919193643157451e-002
1155:8.1456187487478057e-002
1156:1.0021572310590587e-001
1157:9.4875333914574506e-002
1158:8.7280179433440186e-002
1159:8.0945332253696572e-002
1160:9.7431076955592680e-002
1161:9.2518059459940349e-002
1162:8.5363155213846631e-002
1163:7.9299288608200888e-002
1164:9.4348533009301599e-002
1165:8.9818140435382429e-002
1166:8.3091719198999617e-002
1167:7.7307723746669624e-002
1168:7.7820238570762548e-002
1169:7.0446731690258474e-002
1170:5.9661935703532724e-002
1171:5.0458503579261030e-002
1172:7.7368547023737105e-002
1173:7.0098952872422571e-002
1174:5.9425366815265203e-002
1175:5.0277937944671933e-002
1176:7.5851041629448265e-002
1177:6.8808474000451689e-002
1178:5.8400845976023803e-002
1179:4.9429693163235706e-002
1180:7.3993814620625098e-002
1181:6.7189988244104271e-002
1182:5.7074472084068552e-002
1183:4.8316193074910752e-002
1184:4.5193606684834735e-002
1185:3.4348666431405273e-002
1186:1.8148835002482374e-002
1187:4.0678145498695356e-003
1188:4.5030509306545730e-002
1189:3.4216464681014240e-002
1190:1.8073807231350526e-002
1191:4.0643605126959199e-003
1192:4.4266849412054422e-002
1193:3.3626750347659447e-002
1194:1.7762187950519037e-002
1195:4.0186239288884703e-003
1196:4.3265288991459948e-002
1197:3.2856826781710875e-002
1198:1.7347962067900149e-002
1199:3.9239326749298635e-003
1200:-5.1172883214282301e+000
1201:-8.1261899539577769e+000
1202:-1.0505977594406696e+001
1203:-1.1597381041969257e+001
1204:-8.2505323763201819e+000
1205:-1.0840165537735954e+001
1206:-1.2500570323961849e+001
1207:-1.3011121818187371e+001
1208:-7.3143367117497951e+000
1209:-1.0110844823399162e+001
1210:-1.1798142345232341e+001
1211:-1.2126276389812356e+001
1212:-4.8130105788295605e+000
1213:-7.4845832522549944e+000
1214:-9.1771694774277801e+000
1215:-9.5100270872728228e+000
1216:-1.2023271836077392e+001
1217:-1.2133233222188125e+001
1218:-1.1172138791831195e+001
1219:-9.9186364033841112e+000
1220:-1.3149458561765924e+001
1221:-1.2812941640408569e+001
1222:-1.1456560107908158e+001
1223:-1.0042032604336987e+001
1224:-1.2104031147586184e+001
1225:-1.1576438467379051e+001
1226:-1.0184257478703058e+001
1227:-8.8579374200582635e+000
1228:-9.4638003454283819e+000
1229:-9.0076443260864067e+000
1230:-7.9007303177188533e+000
1231:-6.8682617777601447e+000
1232:-9.1667018470595725e+000
1233:-7.6967318925119184e+000
1234:-5.7653476471806613e+000
1235:-4.3655655727351368e+000
1236:-9.2503616332360128e+000
1237:-7.7256451162692263e+000
1238:-5.7523486349524520e+000
1239:-4.3471499168292622e+000
1240:-8.1388388339500271e+000
1241:-6.7677462472557322e+000
1242:-5.0169326466297974e+000
1243:-3.7916398977730688e+000
1244:-6.3115840669268986e+000
1245:-5.2506364116896345e+000
1246:-3.9004593989389118e+000
1247:-2.9635550571104359e+000
1248:-3.6791413061297207e+000
1249:-2.5847437543244607e+000
1250:-1.5259677635706193e+000
1251:-9.7490352913298928e-001
1252:-3.6677273678920890e+000
1253:-2.5905211506120724e+000
1254:-1.5535053864930974e+000
1255:-1.0134582397876304e+000
1256:-3.2080297986660051e+000
1257:-2.2884254637061177e+000
1258:-1.4082809832878063e+000
1259:-9.5015740128148285e-001
1260:-2.5215615191577800e+000
1261:-1.8286957107343227e+000
1262:-1.1690910114051878e+000
1263:-8.2599733272451881e-001
1264:-7.6533757581105433e-001
1265:-4.8835649999410446e-001
1266:-2.9528386435334703e-001
1267:-2.2701946618401184e-001
1268:-8.0656324216255093e-001
1269:-5.3333023929691314e-001
1270:-3.4199191608487972e-001
1271:-2.7086342815834552e-001
1272:-7.7344477466283468e-001
1273:-5.3943303858401959e-001
1274:-3.7276389850044367e-001
1275:-3.0589289112888790e-001
1276:-6.9281549874363679e-001
1277:-5.1480834326060898e-001
1278:-3.8332163126006774e-001
1279:-3.2483306738814421e-001
1280:-2.0376516561821623e-001
1281:-1.6637706320262513e-001
1282:-1.2165510054014853e-001
1283:-8.4303926181727468e-002
1284:-2.4431454656780310e-001
1285:-2.0158610321814258e-001
1286:-1.5292126760690639e-001
1287:-1.1527981774101723e-001
1288:-2.7834472117894671e-001
1289:-2.3323146459917052e-001
1290:-1.8310483581280071e-001
1291:-1.4724664672073534e-001
1292:-2.9839567688578650e-001
1293:-2.5349743227752808e-001
1294:-2.0266615046825490e-001
1295:-1.6761215319245862e-001
1296:-6.2080096625989373e-002
1297:-2.5630018219290066e-002
1298:1.0336361463392903e-002
1299:2.9929989498798024e-002
1300:-9.3798595814015298e-002
1301:-5.7284879072348811e-002
1302:-1.8944113518708464e-002
1303:3.0606336458515468e-003
1304:-1.2798347036911964e-001
1305:-9.3976752090379284e-002
1306:-5.5357176703761439e-002
1307:-3.0985597217951820e-002
1308:-1.4973523469231409e-001
1309:-1.1787976161601606e-001
1310:-8.0316931883496881e-002
1311:-5.5119058679412004e-002
1312:3.7992940246000598e-002
1313:5.1935341468690208e-002
1314:6.8286671519750972e-002
1315:7.9271107117694237e-002
1316:1.2270239287939758e-002
1317:2.7951741315764906e-002
1318:4.6161291646388068e-002
1319:5.8613616819895610e-002
1320:-1.9999212988901217e-002
1321:-1.4799815373036864e-003
1322:1.9398340913314844e-002
1323:3.3309310222242858e-002
1324:-4.3096746072244022e-002
1325:-2.2759169500992427e-002
1326:-7.0299786156933740e-005
1327:1.4754066102430508e-002
1328:8.4500243473791384e-002
1329:9.2567540245581031e-002
1330:9.9919357073874893e-002
1331:1.0346354420948498e-001
1332:6.4737254848292305e-002
1333:7.4553082110868862e-002
1334:8.4139373325640282e-002
1335:8.9228388878548531e-002
1336:4.0086919700689894e-002
1337:5.1330717532353388e-002
1338:6.3134056024978111e-002
1339:7.0080038660899027e-002
1340:2.1863011620362954e-002
1341:3.3878260986059353e-002
1342:4.7030059378632770e-002
1343:5.5229413422531889e-002
1344:1.0475074780043953e-001
1345:1.0674863884340859e-001
1346:1.0855298512740438e-001
1347:1.0921216747572558e-001
1348:9.1242866130933339e-002
1349:9.4465368856747570e-002
1350:9.7681132213169958e-002
1351:9.9349653679305081e-002
1352:7.3094336909972399e-002
1353:7.7995353599118800e-002
1354:8.3050484179388914e-002
1355:8.5932699805216103e-002
1356:5.8964057325153918e-002
1357:6.5085360990731894e-002
1358:7.1472568256578453e-002
1359:7.5217400787444849e-002
1360:1.0927433931820765e-001
1361:1.0884486917628164e-001
1362:1.0731482407230580e-001
1363:1.0549112899881137e-001
1364:9.9942902139026568e-002
1365:1.0046806881341891e-001
1366:1.0006910001285295e-001
1367:9.9002734680263951e-002
1368:8.7127815956824131e-002
1369:8.8758240885710993e-002
1370:8.9734677666784349e-002
1371:8.9644449633099865e-002
1372:7.6832029462346005e-002
1373:7.9244413875225864e-002
1374:8.1222867318043263e-002
1375:8.1867198861777124e-002
1376:1.0432020625598160e-001
1377:1.0182979206165622e-001
1378:9.7959618683712765e-002
1379:9.4462348673347407e-002
1380:9.8191156103317842e-002
1381:9.6311907764313601e-002
1382:9.3141063340089397e-002
1383:9.0124218997962802e-002
1384:8.9316738671968751e-002
1385:8.8266111327689148e-002
1386:8.6044921802228919e-002
1387:8.3679119270722954e-002
1388:8.1912080353922403e-002
1389:8.1503667045828607e-002
1390:8.0023164947008438e-002
1391:7.8167650662306021e-002
1392:9.2392425882014503e-002
1393:8.8082027869634538e-002
1394:8.1611720095806667e-002
1395:7.5999368898374373e-002
1396:8.8296346950636317e-002
1397:8.4415083316189909e-002
1398:7.8452418415212166e-002
1399:7.3186775446138927e-002
1400:8.2178389456464704e-002
1401:7.8882936599620299e-002
1402:7.3627579155616019e-002
1403:6.8857726505041406e-002
1404:7.6924048179400795e-002
1405:7.4094013001895664e-002
1406:6.9412047579413369e-002
1407:6.5054020760801662e-002
1408:7.2768357576220091e-002
1409:6.6112780257845699e-002
1410:5.6182822839939466e-002
1411:4.7565100366870110e-002
1412:7.0125790969519888e-002
1413:6.3780326044219363e-002
1414:5.4250268768325352e-002
1415:4.5943819046214189e-002
1416:6.6045120211288791e-002
1417:6.0162179558742576e-002
1418:5.1245184725790587e-002
1419:4.3426423672589337e-002
1420:6.2451555466481651e-002
1421:5.6964303625237869e-002
1422:4.8578293992353340e-002
1423:4.1185431190587554e-002
1424:4.2590382303410959e-002
1425:3.2338675148727916e-002
1426:1.7065403018134740e-002
1427:3.8475106717017682e-003
1428:4.1140040450277748e-002
1429:3.1236499983465598e-002
1430:1.6478549332304207e-002
1431:3.7061875671114369e-003
1432:3.8892944692622410e-002
1433:2.9536936618248896e-002
1434:1.5583141888771921e-002
1435:3.5024143249517822e-003
1436:3.6888749832477974e-002
1437:2.8013386894550359e-002
1438:1.4767777439811244e-002
1439:3.2981480191469760e-003
1440:-3.4846750245953513e+000
1441:-5.7680286550892435e+000
1442:-7.2555868578703375e+000
1443:-7.5586090534714296e+000
1444:-1.6983533278615563e+000
1445:-3.1624737159374430e+000
1446:-4.1691140252493399e+000
1447:-4.3918960059924830e+000
1448:-5.0554870248786943e-001
1449:-1.0643301584728957e+000
1450:-1.4987236157591544e+000
1451:-1.6219650909761880e+000
1452:-1.7833191981684396e-001
1453:-3.5586510974180952e-001
1454:-5.3609265591064093e-001
1455:-6.1752171652780796e-001
1456:-7.5149764211607462e+000
1457:-7.1453776087875651e+000
1458:-6.2741108258998564e+000
1459:-5.4674335890749433e+000
1460:-4.3631744308227995e+000
1461:-4.1517448895841982e+000
1462:-3.6731430664324636e+000
1463:-3.2340034621144427e+000
1464:-1.6218706187099419e+000
1465:-1.5725739366280962e+000
1466:-1.4491115864339725e+000
1467:-1.3304841514473575e+000
1468:-6.3743434613406891e-001
1469:-6.5979479056850843e-001
1470:-6.6933781395162328e-001
1471:-6.6449287640552901e-001
1472:-5.0329671403593732e+000
1473:-4.2011831574357075e+000
1474:-3.1390067117888170e+000
1475:-2.4030503123153637e+000
1476:-2.9970806883914363e+000
1477:-2.5350296176505314e+000
1478:-1.9354986785090613e+000
1479:-1.5197841793823637e+000
1480:-1.2640190900024018e+000
1481:-1.1222133519634399e+000
1482:-9.2371625892969922e-001
1483:-7.8318912175198963e-001
1484:-6.5793691214750294e-001
1485:-6.3178869787040015e-001
1486:-5.8129884033427881e-001
1487:-5.4160557052060210e-001
1488:-2.0573980080512309e+000
1489:-1.5175971558156425e+000
1490:-1.0058294211301069e+000
1491:-7.3966250947529688e-001
1492:-1.3264384287916531e+000
1493:-1.0276217710963658e+000
1494:-7.4732429962014246e-001
1495:-6.0092458439023821e-001
1496:-7.1904137711707583e-001
1497:-6.2249760948224764e-001
1498:-5.3332992488790454e-001
1499:-4.8397386747478310e-001
1500:-5.2355607281239869e-001
1501:-4.9674565682884569e-001
1502:-4.6961170194810242e-001
1503:-4.4939206391844949e-001
1504:-6.3572245772706470e-001
1505:-4.9517525051937844e-001
1506:-3.8708420732348098e-001
1507:-3.3442968132245360e-001
1508:-5.4237055656265043e-001
1509:-4.6001242336291343e-001
1510:-3.8885904671815652e-001
1511:-3.4656135208666478e-001
1512:-4.6170785135146664e-001
1513:-4.2564625974200337e-001
1514:-3.8440974031965325e-001
1515:-3.5213433802681332e-001
1516:-4.3734262059072931e-001
1517:-4.1363574844251100e-001
1518:-3.7998181715652429e-001
1519:-3.5108387920358486e-001
1520:-3.0906327817839074e-001
1521:-2.6465070028984850e-001
1522:-2.1304940865597283e-001
1523:-1.7768423447161466e-001
1524:-3.2390948674272996e-001
1525:-2.8203728545822682e-001
1526:-2.3075825801803565e-001
1527:-1.9521317483033920e-001
1528:-3.3329725793225090e-001
1529:-2.9663487027916519e-001
1530:-2.4899498554951491e-001
1531:-2.1469702400507501e-001
1532:-3.3434283376718182e-001
1533:-3.0165572595564683e-001
1534:-2.5845019770336758e-001
1535:-2.2645455481811019e-001
1536:-1.6009711364343765e-001
1537:-1.2897336430047163e-001
1538:-9.2132270193834423e-002
1539:-6.6926370348570477e-002
1540:-1.7790236625166736e-001
1541:-1.4764378251435945e-001
1542:-1.1187752891577966e-001
1543:-8.6905888540764989e-002
1544:-1.9779190463561502e-001
1545:-1.6837907143358247e-001
1546:-1.3368659994796403e-001
1547:-1.0925550457073445e-001
1548:-2.1026910850437791e-001
1549:-1.8183664404822664e-001
1550:-1.4799881100198045e-001
1551:-1.2404751806586126e-001
1552:-5.4615413692445006e-002
1553:-3.3659419418628878e-002
1554:-1.0215683930784779e-002
1555:5.0607622398789734e-003
1556:-7.4375849226839805e-002
1557:-5.2797703781610666e-002
1558:-2.8390567435170367e-002
1559:-1.2400117343141143e-002
1560:-9.6839150482067385e-002
1561:-7.5178109356135364e-002
1562:-5.0217344729641976e-002
1563:-3.3572547812154824e-002
1564:-1.1185988872219631e-001
1565:-9.0440738361086709e-002
1566:-6.5425312439643057e-002
1567:-4.8484979616925585e-002
1568:1.2350327095579278e-002
1569:2.4758281429780170e-002
1570:3.8558074519292537e-002
1571:4.7350408848990805e-002
1572:-4.7709020214756924e-003
1573:8.3438695485450395e-003
1574:2.3233814619255524e-002
1575:3.2986100691131955e-002
1576:-2.5547413682706313e-002
1577:-1.1639575438928717e-002
1578:4.3911794894667634e-003
1579:1.5109388934299250e-002
1580:-4.0228031907477611e-002
1581:-2.5864821064579765e-002
1582:-9.2020270704439352e-003
1583:2.0496884392997260e-003
1584:5.1427076137779762e-002
1585:5.8136687587998566e-002
1586:6.5183140114807178e-002
1587:6.9366654184890450e-002
1588:3.7609714338986772e-002
1589:4.5282449214545564e-002
1590:5.3453407638527101e-002
1591:5.8415000906856258e-002
1592:2.0279042889391738e-002
1593:2.8961047557617546e-002
1594:3.8398518412376785e-002
1595:4.4288108578145947e-002
1596:7.5265968555819273e-003
1597:1.6819433772497807e-002
1598:2.7093178733773971e-002
1599:3.3630021097573758e-002
1600:7.1198005122930022e-002
1601:7.4015571949300987e-002
1602:7.6515137456160023e-002
1603:7.7543477564116003e-002
1604:6.0638334250455915e-002
1605:6.4182714236164604e-002
1606:6.7608295492894807e-002
1607:6.9318597231609866e-002
1608:4.6989935716606923e-002
1609:5.1407739509972877e-002
1610:5.5927981636861246e-002
1611:5.8444506982048137e-002
1612:3.6670982038007331e-002
1613:4.1696271550980948e-002
1614:4.6963749277991421e-002
1615:5.0031457786634849e-002
1616:7.7784037957068133e-002
1617:7.7714609166837992e-002
1618:7.6628096931984760e-002
1619:7.5046020555183487e-002
1620:6.9908585938921228e-002
1621:7.0451917965795322e-002
1622:7.0089509473203485e-002
1623:6.9015826893749979e-002
1624:5.9452237082652105e-002
1625:6.0744587683609720e-002
1626:6.1293222963270208e-002
1627:6.0871639310134028e-002
1628:5.1328985056141828e-002
1629:5.3154998039504631e-002
1630:5.4374476100119605e-002
1631:5.4443407346401532e-002
1632:7.3940824620105317e-002
1633:7.1363161268112624e-002
1634:6.6996237562125027e-002
1635:6.2868042089715553e-002
1636:6.8168911837602889e-002
1637:6.6063931269261703e-002
1638:6.2292564572454898e-002
1639:5.8604992548087403e-002
1640:6.0357874751526951e-002
1641:5.8864271872347718e-002
1642:5.5870502183649917e-002
1643:5.2767714100049351e-002
1644:5.4181782971073185e-002
1645:5.3150907179347777e-002
1646:5.0748447800201067e-002
1647:4.8095387705673349e-002
1648:6.0384176709112294e-002
1649:5.5121080347240961e-002
1650:4.7036677667954406e-002
1651:3.9885900573436370e-002
1652:5.6351167385113025e-002
1653:5.1525237746472462e-002
1654:4.4031788104306378e-002
1655:3.7356160989557727e-002
1656:5.0823594850197544e-002
1657:4.6591521696326126e-002
1658:3.9907907387157257e-002
1659:3.3886366396460574e-002
1660:4.6392074498614828e-002
1661:4.2626188762118204e-002
1662:3.6584952099708322e-002
1663:3.1085514006017292e-002
1664:3.5723815043258826e-002
1665:2.7122839348380973e-002
1666:1.4284100331949106e-002
1667:3.1674603346451341e-003
1668:3.3458315371818904e-002
1669:2.5398596387288634e-002
1670:1.3367548114153829e-002
1671:2.9549384336702432e-003
1672:3.0352705008333564e-002
1673:2.3041610398172475e-002
1674:1.2132760474344258e-002
1675:2.7015252403603733e-003
1676:2.7843119875707322e-002
1677:2.1130657655500755e-002
1678:1.1118816842365882e-002
1679:2.4717898764502538e-003
1680:-1.2045666499657752e-001
1681:-2.4665956706005820e-001
1682:-3.8928890243297415e-001
1683:-4.6734315378167218e-001
1684:-5.6404186090218460e-002
1685:-1.3944965062191597e-001
1686:-2.4451776454653790e-001
1687:-3.1557209545223253e-001
1688:-2.0238491068776877e-002
1689:-8.1740489250221787e-002
1690:-1.6039530508058011e-001
1691:-2.1831899063492238e-001
1692:-1.3306654197004514e-002
1693:-7.2134747107925695e-002
1694:-1.4326418895292556e-001
1695:-1.9381944704554141e-001
1696:-4.9448165561226948e-001
1697:-5.3231970606682466e-001
1698:-5.6206177944919333e-001
1699:-5.7219978237723468e-001
1700:-3.4799890327405614e-001
1701:-3.9779893599758365e-001
1702:-4.4408311479174101e-001
1703:-4.6792853807094692e-001
1704:-2.4775097285831391e-001
1705:-2.9593302963597223e-001
1706:-3.4646779514022741e-001
1707:-3.7796347944595143e-001
1708:-2.1933980883211837e-001
1709:-2.6271693447179417e-001
1710:-3.1129344701289025e-001
1711:-3.4353914583253814e-001
1712:-5.7353593197978270e-001
1713:-5.6525842716432340e-001
1714:-5.4052123845925748e-001
1715:-5.1841113874422895e-001
1716:-4.7727972381007161e-001
1717:-4.8875964740207112e-001
1718:-4.9380874156401067e-001
1719:-4.9199857024386212e-001
1720:-3.9287434107241587e-001
1721:-4.1795380698999990e-001
1722:-4.4316728977879616e-001
1723:-4.5499109334550031e-001
1724:-3.5929671124296997e-001
1725:-3.8594127386501226e-001
1726:-4.1298238699819212e-001
1727:-4.2600905208414630e-001
1728:-5.0775849651786253e-001
1729:-4.9052664674251967e-001
1730:-4.6923252809718907e-001
1731:-4.5001998096408985e-001
1732:-4.8960115929697878e-001
1733:-4.8256970977903713e-001
1734:-4.6687444622882412e-001
1735:-4.4842855641599827e-001
1736:-4.5814675904525393e-001
1737:-4.5852057341636265e-001
1738:-4.4865908324143672e-001
1739:-4.3353191067448382e-001
1740:-4.2974703739138426e-001
1741:-4.3155311508994015e-001
1742:-4.2468704236134480e-001
1743:-4.1306539483355981e-001
1744:-4.3778287335912319e-001
1745:-4.1318498225258260e-001
1746:-3.7836629091156793e-001
1747:-3.4947753562759531e-001
1748:-4.3605173685918269e-001
1749:-4.1065579279685865e-001
1750:-3.7485344316417479e-001
1751:-3.4630413536013949e-001
1752:-4.2298545564148821e-001
1753:-4.0048946263610541e-001
1754:-3.6770293308663138e-001
1755:-3.4134216807904899e-001
1756:-4.0486938700215802e-001
1757:-3.8679822963154836e-001
1758:-3.5925865340504198e-001
1759:-3.3618049391526411e-001
1760:-3.3330459901857551e-001
1761:-3.0231319435104470e-001
1762:-2.6174361801267371e-001
1763:-2.3144658295843651e-001
1764:-3.3099568577800226e-001
1765:-3.0260784333528751e-001
1766:-2.6624676698892596e-001
1767:-2.3884730986786173e-001
1768:-3.2731160293043898e-001
1769:-3.0179980100301157e-001
1770:-2.6960653502500531e-001
1771:-2.4519303105950119e-001
1772:-3.2355544102535216e-001
1773:-3.0032631510606184e-001
1774:-2.7064071706903614e-001
1775:-2.4793101435022455e-001
1776:-2.1587413479570633e-001
1777:-1.8822060426348658e-001
1778:-1.5493483921915058e-001
1779:-1.3123947115628395e-001
1780:-2.2443333730330248e-001
1781:-1.9835848572697773e-001
1782:-1.6633705192250142e-001
1783:-1.4328861593980066e-001
1784:-2.3214007135792231e-001
1785:-2.0814071187722144e-001
1786:-1.7810223921059723e-001
1787:-1.5620715877346564e-001
1788:-2.3574625971692881e-001
1789:-2.1324134194819200e-001
1790:-1.8487238518677174e-001
1791:-1.6404451922775223e-001
1792:-1.1917998470443392e-001
1793:-9.7928174903093079e-002
1794:-7.2965695605124462e-002
1795:-5.5937428124600543e-002
1796:-1.3153807628644873e-001
1797:-1.1072060351534205e-001
1798:-8.6005332091919226e-002
1799:-6.8916360920651148e-002
1800:-1.4499245774063282e-001
1801:-1.2497287552098935e-001
1802:-1.0086616327092822e-001
1803:-8.3907760606271531e-002
1804:-1.5332292564268751e-001
1805:-1.3406773833070074e-001
1806:-1.1063713042590662e-001
1807:-9.3949298133644277e-002
1808:-4.7591647781159777e-002
1809:-3.3052897283478079e-002
1810:-1.6143380567242533e-002
1811:-4.6749810362812132e-003
1812:-6.0455460585184424e-002
1813:-4.5674666868418541e-002
1814:-2.8408934604784435e-002
1815:-1.6621152179486530e-002
1816:-7.5404327009509539e-002
1817:-6.0480551069320369e-002
1818:-4.2940131704198969e-002
1819:-3.0879185880401793e-002
1820:-8.5506016943349597e-002
1821:-7.0616204631978041e-002
1822:-5.3005891182137700e-002
1823:-4.0826769684004532e-002
1824:9.3170433117216510e-004
1825:1.0499749404029649e-002
1826:2.1175076184926110e-002
1827:2.8033375599613129e-002
1828:-1.0822091665300515e-002
1829:-8.3375440389734854e-004
1830:1.0480132435358905e-002
1831:1.7869483786364965e-002
1832:-2.4912213682283645e-002
1833:-1.4542489699687454e-002
1834:-2.6127790036283034e-003
1835:5.3230423735430481e-003
1836:-3.4780226644563240e-002
1837:-2.4224317831068948e-002
1838:-1.1974255013205256e-002
1839:-3.7307865631491677e-003
1840:3.1244066223598415e-002
1841:3.6569638648176590e-002
1842:4.2202086910597542e-002
1843:4.5539594060622149e-002
1844:2.1367968630121623e-002
1845:2.7209010747827653e-002
1846:3.3475464060321487e-002
1847:3.7283915235163848e-002
1848:9.1319236096589693e-003
1849:1.5546684699610926e-002
1850:2.2542299876003254e-002
1851:2.6900704400120611e-002
1852:2.6337470733187859e-004
1853:7.0383229439913049e-003
1854:1.4516862961014303e-002
1855:1.9249914004454704e-002
1856:4.6980531462181285e-002
1857:4.9075766370761172e-002
1858:5.0641599678181923e-002
1859:5.0967672733976011e-002
1860:3.8974968045923028e-002
1861:4.1541481922420243e-002
1862:4.3719338271535367e-002
1863:4.4505910271235453e-002
1864:2.8883690250531998e-002
1865:3.2000799853166458e-002
1866:3.4900372067298971e-002
1867:3.6239946088777661e-002
1868:2.1432613216764089e-002
1869:2.4925554982094568e-002
1870:2.8320370522538947e-002
1871:3.0045492836852344e-002
1872:5.0838895689179063e-002
1873:5.0051666351911404e-002
1874:4.7960980305457139e-002
1875:4.5546246479535042e-002
1876:4.4617708191819760e-002
1877:4.4275102958559846e-002
1878:4.2758531990517774e-002
1879:4.0785497064112837e-002
1880:3.6645597130067389e-002
1881:3.6853692954048355e-002
1882:3.6059745384405296e-002
1883:3.4648641799488906e-002
1884:3.0659370881794320e-002
1885:3.1263838962810445e-002
1886:3.0999456751718942e-002
1887:3.0005036097075079e-002
1888:4.3971247142778419e-002
1889:4.0455422371420233e-002
1890:3.4761435388701654e-002
1891:2.9545701296914119e-002
1892:3.9448979637081480e-002
1893:3.6399660059051778e-002
1894:3.1357180645629881e-002
1895:2.6676601461749244e-002
1896:3.3616760805457550e-002
1897:3.1165797144235560e-002
1898:2.6964454854129540e-002
1899:2.2979401852086280e-002
1900:2.9200036973926164e-002
1901:2.7195960418401308e-002
1902:2.3625766713438259e-002
1903:2.0165252786769901e-002
1904:2.6461869579639159e-002
1905:2.0074704905493481e-002
1906:1.0549035934496744e-002
1907:2.3262084729123358e-003
1908:2.3892768023259871e-002
1909:1.8120487846091566e-002
1910:9.5117664451156540e-003
1911:2.0871561973228800e-003
1912:2.0587007720183150e-002
1913:1.5616396272969693e-002
1914:8.2002412338320237e-003
1915:1.8108397381766481e-003
1916:1.8069000088757257e-002
1917:1.3704667525568094e-002
1918:7.1888880216230350e-003
1919:1.5793585612851237e-003
1920:-1.2292839426556334e-002
1921:-7.0642542978423165e-002
1922:-1.4056272259428185e-001
1923:-1.8958480398898067e-001
1924:-1.1411625222492016e-002
1925:-6.6246880475982040e-002
1926:-1.3258369869340056e-001
1927:-1.7926617119471469e-001
1928:-1.1429717498768879e-002
1929:-5.8787657421761258e-002
1930:-1.1820330786337577e-001
1931:-1.6151117652491803e-001
1932:-1.1692644414682096e-002
1933:-5.3550884336552279e-002
1934:-1.0734626273784326e-001
1935:-1.4752796456712367e-001
1936:-2.1409861253574289e-001
1937:-2.5633416647055485e-001
1938:-3.0431600035065681e-001
1939:-3.3603077868316200e-001
1940:-2.0262632936074551e-001
1941:-2.4359267209110777e-001
1942:-2.9072948328767628e-001
1943:-3.2136920401523611e-001
1944:-1.8365995790565409e-001
1945:-2.2286677548085293e-001
1946:-2.6810740619128298e-001
1947:-2.9713024987152842e-001
1948:-1.6838472861593032e-001
1949:-2.0519262699587087e-001
1950:-2.4756250108736552e-001
1951:-2.7491254559168604e-001
1952:-3.5123276326773528e-001
1953:-3.7601887275786505e-001
1954:-3.9991447853863538e-001
1955:-4.1083703937454497e-001
1956:-3.3552066639263295e-001
1957:-3.5727639902513997e-001
1958:-3.7652937972277473e-001
1959:-3.8466620034520160e-001
1960:-3.1023246684814904e-001
1961:-3.2990817261629335e-001
1962:-3.4702079935356234e-001
1963:-3.5463814492438900e-001
1964:-2.8742248358192185e-001
1965:-3.0680881977168928e-001
1966:-3.2492498821509785e-001
1967:-3.3411405753549017e-001
1968:-4.1382384026440916e-001
1969:-4.1514003648032083e-001
1970:-4.0929788337987522e-001
1971:-3.9959377635447513e-001
1972:-3.8682158281922541e-001
1973:-3.8784347809054598e-001
1974:-3.8378128686532220e-001
1975:-3.7684396172126650e-001
1976:-3.5708624637345188e-001
1977:-3.5926360889341252e-001
1978:-3.5757676591250931e-001
1979:-3.5293973827767627e-001
1980:-3.3758446617111620e-001
1981:-3.4155479403455474e-001
1982:-3.4184518172107092e-001
1983:-3.3841789887133233e-001
1984:-3.9276160936223825e-001
1985:-3.7747466883221148e-001
1986:-3.5351329515778351e-001
1987:-3.3274303527925481e-001
1988:-3.7189936360535980e-001
1989:-3.6062273431968117e-001
1990:-3.4214675162530539e-001
1991:-3.2519529938839586e-001
1992:-3.4935370006174526e-001
1993:-3.4109111291642691e-001
1994:-3.2716152882572042e-001
1995:-3.1383433260770804e-001
1996:-3.3537563069545906e-001
1997:-3.2823656983551303e-001
1998:-3.1611326367066306e-001
1999:-3.0450362136893000e-001
2000:-3.2108127901462197e-001
2001:-2.9921904004709943e-001
2002:-2.7074235436042721e-001
2003:-2.4876519479519626e-001
2004:-3.1525577257699072e-001
2005:-2.9594439731745698e-001
2006:-2.6985446352901599e-001
2007:-2.4935204454804927e-001
2008:-3.0575962274535612e-001
2009:-2.8949260740797661e-001
2010:-2.6664699472670250e-001
2011:-2.4827982630550108e-001
2012:-2.9747024285253515e-001
2013:-2.8315445511829535e-001
2014:-2.6274304403404858e-001
2015:-2.4610545930152353e-001
2016:-2.3697321280911798e-001
2017:-2.1520666774867050e-001
2018:-1.8774612882897704e-001
2019:-1.6752874011497648e-001
2020:-2.3832663311389080e-001
2021:-2.1796272976697947e-001
2022:-1.9217479676837432e-001
2023:-1.7305132747190807e-001
2024:-2.3832675964600689e-001
2025:-2.1983735334129625e-001
2026:-1.9617167008965283e-001
2027:-1.7838797037195464e-001
2028:-2.3700930275286006e-001
2029:-2.1997197611967592e-001
2030:-1.9789828360307937e-001
2031:-1.8111056761068567e-001
2032:-1.5708945991111017e-001
2033:-1.3828232675186877e-001
2034:-1.1527772797425750e-001
2035:-9.8794878461647445e-002
2036:-1.6311069640404033e-001
2037:-1.4511232679763419e-001
2038:-1.2292644587191677e-001
2039:-1.0689282979003388e-001
2040:-1.6905254857007546e-001
2041:-1.5206086558290727e-001
2042:-1.3096321837738845e-001
2043:-1.1560110334134135e-001
2044:-1.7223141183200913e-001
2045:-1.5600771841197394e-001
2046:-1.3576252131774166e-001
2047:-1.2095153445555676e-001
2048:-9.0418918557150590e-002
2049:-7.5601233499604292e-002
2050:-5.8002856899478289e-002
2051:-4.5787957269692571e-002
2052:-9.8694261824723753e-002
2053:-8.4104646098623850e-002
2054:-6.6629860851316738e-002
2055:-5.4404083646902371e-002
2056:-1.0770412992365853e-001
2057:-9.3552181117411329e-002
2058:-7.6413518807274650e-002
2059:-6.4285951003105468e-002
2060:-1.1331448800666949e-001
2061:-9.9568034778291570e-002
2062:-8.2796756542376421e-002
2063:-7.0830746699250713e-002
2064:-3.9712003569538315e-002
2065:-2.9087134112843215e-002
2066:-1.6713938014020494e-002
2067:-8.3445173986748476e-003
2068:-4.8294408943706846e-002
2069:-3.7579393713237166e-002
2070:-2.5031140342851341e-002
2071:-1.6475208569726903e-002
2072:-5.8180682645979802e-002
2073:-4.7430638901660063e-002
2074:-3.4758381184323846e-002
2075:-2.6045411053354475e-002
2076:-6.4771866394211383e-002
2077:-5.4066058281874455e-002
2078:-4.1379491532714557e-002
2079:-3.2605627026658500e-002
2080:-4.2707656689619337e-003
2081:2.6668398911821600e-003
2082:1.0374983897831863e-002
2083:1.5291319723080924e-002
2084:-1.2281632737053070e-002
2085:-5.0919643876214437e-003
2086:2.9856497656836197e-003
2087:8.2067157110022378e-003
2088:-2.1745853565255501e-002
2089:-1.4321502625721428e-002
2090:-5.8767572792566732e-003
2091:-3.3513566127345437e-004
2092:-2.8257646720248077e-002
2093:-2.0716580611278686e-002
2094:-1.2071568790318992e-002
2095:-6.3416596686278158e-003
2096:1.7572446473347526e-002
2097:2.1250152550205906e-002
2098:2.4888806707235946e-002
2099:2.6805458525577398e-002
2100:1.0654787065461021e-002
2101:1.4649094123971867e-002
2102:1.8710609639365071e-002
2103:2.0962559970995987e-002
2104:2.2949227548165899e-003
2105:6.6422016145933323e-003
2106:1.1187343414186313e-002
2107:1.3829764705975084e-002
2108:-3.5998944983216242e-003
2109:9.7118895081031351e-004
2110:5.8342597110883918e-003
2111:8.7397412644722693e-003
2112:2.7523803217664088e-002
2113:2.8329342713739280e-002
2114:2.8337079290929826e-002
2115:2.7558611682959096e-002
2116:2.1864693688709382e-002
2117:2.3026001031326737e-002
2118:2.3519324482562547e-002
2119:2.3129388174421672e-002
2120:1.4947687540724982e-002
2121:1.6530014103229834e-002
2122:1.7605037278731035e-002
2123:1.7686310663369995e-002
2124:1.0004609565778045e-002
2125:1.1876050112874183e-002
2126:1.3355619331266473e-002
2127:1.3768794258549308e-002
2128:2.6871587604306784e-002
2129:2.5100204764532529e-002
2130:2.1859391065828244e-002
2131:1.8673324560722245e-002
2132:2.2655714886787082e-002
2133:2.1306555336778679e-002
2134:1.8665615675336141e-002
2135:1.5980659873277014e-002
2136:1.7473474554693967e-002
2137:1.6643187464496879e-002
2138:1.4743452998757184e-002
2139:1.2679826534771600e-002
2140:1.3741192793248081e-002
2141:1.3281212696964279e-002
2142:1.1913091594322831e-002
2143:1.0296425587991735e-002
2144:1.6732275160963647e-002
2145:1.2685670410131911e-002
2146:6.6413867520973653e-003
2147:1.4397965238655698e-003
2148:1.4323288741014838e-002
2149:1.0857172473204115e-002
2150:5.6734586027033370e-003
2151:1.2156207743320093e-003
2152:1.1374618567662115e-002
2153:8.6284509256191622e-003
2154:4.5101325784851418e-003
2155:9.7137045144204438e-004
2156:9.2447732835498116e-003
2157:7.0162995591567636e-003
2158:3.6623804201897938e-003
2159:7.8161120791111029e-004
2160:-1.1709792627585074e-002
2161:-5.1418572547183426e-002
2162:-1.0254069749818694e-001
2163:-1.4082434653872511e-001
2164:-1.1146918330673643e-002
2165:-4.8015202120059837e-002
2166:-9.5118048670334437e-002
2167:-1.3017010289638045e-001
2168:-9.6503764223278485e-003
2169:-4.4022122161471000e-002
2170:-8.7196226740279062e-002
2171:-1.1880537183366781e-001
2172:-8.3464248921977617e-003
2173:-4.0817396580400366e-002
2174:-8.1364318465005941e-002
2175:-1.1088508119721502e-001
2176:-1.6072372487654996e-001
2177:-1.9567136514265737e-001
2178:-2.3586284468379037e-001
2179:-2.6212122441773245e-001
2180:-1.4831580791329396e-001
2181:-1.7996545549679702e-001
2182:-2.1643128623495556e-001
2183:-2.4082891778140211e-001
2184:-1.3500878603113370e-001
2185:-1.6325281280958076e-001
2186:-1.9610694422619626e-001
2187:-2.1863391226560835e-001
2188:-1.2598117287618782e-001
2189:-1.5250289248082829e-001
2190:-1.8371435751458276e-001
2191:-2.0529197245583092e-001
2192:-2.7437485751483265e-001
2193:-2.9397561414984086e-001
2194:-3.1333600050290827e-001
2195:-3.2383978899668353e-001
2196:-2.5261016803072706e-001
2197:-2.7232143734768666e-001
2198:-2.9317577533920286e-001
2199:-3.0530503263411224e-001
2200:-2.2980747921836003e-001
2201:-2.4898116137305543e-001
2202:-2.6996935098798963e-001
2203:-2.8254904476197995e-001
2204:-2.1601730393024840e-001
2205:-2.3433952941751657e-001
2206:-2.5429090540657751e-001
2207:-2.6623870595067528e-001
2208:-3.2801848113735999e-001
2209:-3.3312994406835650e-001
2210:-3.3453736179702209e-001
2211:-3.3170220245386217e-001
2212:-3.1035344796594294e-001
2213:-3.1697669431518405e-001
2214:-3.2014875783250568e-001
2215:-3.1853533551722435e-001
2216:-2.8788586356537155e-001
2217:-2.9530398775175026e-001
2218:-3.0005684849094222e-001
2219:-3.0007148931818811e-001
2220:-2.7133841304854422e-001
2221:-2.7869688003015530e-001
2222:-2.8413342652008194e-001
2223:-2.8522684812227467e-001
2224:-3.2889146889781867e-001
2225:-3.2212187631176398e-001
2226:-3.1051968822994791e-001
2227:-2.9947956549694649e-001
2228:-3.1633133224299376e-001
2229:-3.1055033515209285e-001
2230:-3.0014829293974649e-001
2231:-2.9016656077443831e-001
2232:-2.9886079869643406e-001
2233:-2.9481337230214799e-001
2234:-2.8645852714184833e-001
2235:-2.7799160731391892e-001
2236:-2.8476283537743391e-001
2237:-2.8213582650990149e-001
2238:-2.7557021828701134e-001
2239:-2.6838729869390093e-001
2240:-2.9284733914459543e-001
2241:-2.7939545261085585e-001
2242:-2.6021052911480669e-001
2243:-2.4449681808194615e-001
2244:-2.8420693746513870e-001
2245:-2.7218864548117239e-001
2246:-2.5504479416282672e-001
2247:-2.4088450836202635e-001
2248:-2.7285631712749542e-001
2249:-2.6247985866655016e-001
2250:-2.4757591455810662e-001
2251:-2.3511596535626497e-001
2252:-2.6389675545027447e-001
2253:-2.5470043341552995e-001
2254:-2.4129050593508206e-001
2255:-2.2994225612357772e-001
2256:-2.3585896804438572e-001
2257:-2.1958975880958850e-001
2258:-1.9835303847644273e-001
2259:-1.8209609584370542e-001
2260:-2.3302717727598996e-001
2261:-2.1809139683466300e-001
2262:-1.9836087220090903e-001
2263:-1.8310431510526382e-001
2264:-2.2813056758969708e-001
2265:-2.1473327540753503e-001
2266:-1.9683395685201280e-001
2267:-1.8286343484178699e-001
2268:-2.2353717366089951e-001
2269:-2.1119288374601683e-001
2270:-1.9459602128073505e-001
2271:-1.8157084091028702e-001
2272:-1.7346588135279997e-001
2273:-1.5766093789823690e-001
2274:-1.3787805938726996e-001
2275:-1.2336497378676291e-001
2276:-1.7495940734798773e-001
2277:-1.5997097109869404e-001
2278:-1.4107930695342233e-001
2279:-1.2712778899819444e-001
2280:-1.7536464514759789e-001
2281:-1.6147043623382976e-001
2282:-1.4377359672761345e-001
2283:-1.3056791481493846e-001
2284:-1.7455541432854751e-001
2285:-1.6149127366462065e-001
2286:-1.4471960731052674e-001
2287:-1.3210317798857985e-001
2288:-1.1586885790802959e-001
2289:-1.0235112686619353e-001
2290:-8.5805556735824226e-002
2291:-7.3955116095033774e-002
2292:-1.1989210286294832e-001
2293:-1.0680400828994598e-001
2294:-9.0703235235689628e-002
2295:-7.9102873376226054e-002
2296:-1.2367390610234708e-001
2297:-1.1115813898246230e-001
2298:-9.5677183544005048e-002
2299:-8.4455632504346026e-002
2300:-1.2548238311259302e-001
2301:-1.1342760588061213e-001
2302:-9.8455683872146427e-002
2303:-8.7557117781479496e-002
2304:-6.7937552540690060e-002
2305:-5.7282451303036351e-002
2306:-4.4617036998470319e-002
2307:-3.5829826352802116e-002
2308:-7.3186219558583746e-002
2309:-6.2669405472241785e-002
2310:-5.0094998623181945e-002
2311:-4.1317204306381625e-002
2312:-7.8706911589225187e-002
2313:-6.8441026895778245e-002
2314:-5.6075941787503407e-002
2315:-4.7375653028142631e-002
2316:-8.1957610177410753e-002
2317:-7.1926590247129843e-002
2318:-5.9782397772429663e-002
2319:-5.1189249813997334e-002
2320:-3.1465890603548020e-002
2321:-2.3882077841235756e-002
2322:-1.5156583366228571e-002
2323:-9.3459020282615664e-003
2324:-3.6939829893448073e-002
2325:-2.9306344472529083e-002
2326:-2.0469740664927502e-002
2327:-1.4538344443307285e-002
2328:-4.3013239347586274e-002
2329:-3.5374180673260300e-002
2330:-2.6468106933850120e-002
2331:-2.0436621990769996e-002
2332:-4.6863473639691823e-002
2333:-3.9265697055156590e-002
2334:-3.0363124739099814e-002
2335:-2.4297063068371511e-002
2336:-6.5544499166308289e-003
2337:-1.8807957458351413e-003
2338:3.1327766432395045e-003
2339:6.1654647183497450e-003
2340:-1.1670178076702592e-002
2341:-6.8339184535566250e-003
2342:-1.5743001983876401e-003
2343:1.6712954851066549e-003
2344:-1.7498986694379663e-002
2345:-1.2506639276295998e-002
2346:-6.9956017332993680e-003
2347:-3.5223973510575025e-003
2348:-2.1328353853021124e-002
2349:-1.6257273284645168e-002
2350:-1.0605090617056643e-002
2351:-6.9952196415167681e-003
2352:7.5020521000802596e-003
2353:9.5154735448114147e-003
2354:1.1195501792197166e-002
2355:1.1774594145569802e-002
2356:3.1294538352918109e-003
2357:5.3857671244410448e-003
2358:7.4126690623499509e-003
2359:8.2815620989311455e-003
2360:-1.9311477786534399e-003
2361:5.9567286666746815e-004
2362:3.0168907141059540e-003
2363:4.2205355954289536e-003
2364:-5.3214063662139523e-003
2365:-2.6228913452708072e-003
2366:5.5248956602380916e-005
2367:1.4813112853594645e-003
2368:1.1840106135848712e-002
2369:1.1566848893918584e-002
2370:1.0467583574303592e-002
2371:9.0773361277051209e-003
2372:8.5105299867899546e-003
2373:8.5657954199615405e-003
2374:7.9405922666065526e-003
2375:6.9501240386681106e-003
2376:4.6398800696975237e-003
2377:5.0791487785884926e-003
2378:5.0099746846027707e-003
2379:4.4894139526490302e-003
2380:2.0283906688881425e-003
2381:2.7263909005386571e-003
2382:3.0333336005926225e-003
2383:2.8313913019693587e-003
2384:8.1541779688499415e-003
2385:6.1877728453738666e-003
2386:3.2201274482300413e-003
2387:6.7130242700395870e-004
2388:6.2539324372053165e-003
2389:4.7498855896851450e-003
2390:2.4623354224985058e-003
2391:4.9675754007627983e-004
2392:4.0601452720697619e-003
2393:3.0983965934858570e-003
2394:1.6050097018013307e-003
2395:3.1760359405692568e-004
2396:2.5831860928248614e-003
2397:1.9877513025401989e-003
2398:1.0272199917115438e-003
2399:1.9197436642289734e-004
2400:-7.7352883722054443e-003
2401:-3.8951309520992385e-002
2402:-7.8054903093554465e-002
2403:-1.0663003000599000e-001
2404:-6.9901433981034008e-003
2405:-3.5750690980448127e-002
2406:-7.2109018539086508e-002
2407:-9.8949607713436361e-002
2408:-6.5858578781099984e-003
2409:-3.2362450479522201e-002
2410:-6.5317790287942379e-002
2411:-8.9943990519142772e-002
2412:-6.4733436038179552e-003
2413:-3.0418799261075765e-002
2414:-6.1105945452500421e-002
2415:-8.4095899931545676e-002
2416:-1.2129076609051914e-001
2417:-1.4723105580807180e-001
2418:-1.7796563809628815e-001
2419:-1.9920303478759588e-001
2420:-1.1283007686286359e-001
2421:-1.3765978519802824e-001
2422:-1.6736907031189777e-001
2423:-1.8787491852443919e-001
2424:-1.0278975311779258e-001
2425:-1.2593516160572174e-001
2426:-1.5381905530309462e-001
2427:-1.7308952643186354e-001
2428:-9.6106344087988627e-002
2429:-1.1772946612826592e-001
2430:-1.4379963562366171e-001
2431:-1.6189628786739074e-001
2432:-2.0969707669324150e-001
2433:-2.2745137363344384e-001
2434:-2.4656733765948827e-001
2435:-2.5796141981846771e-001
2436:-1.9791730074675526e-001
2437:-2.1469842700729821e-001
2438:-2.3255345111910011e-001
2439:-2.4321969155566184e-001
2440:-1.8249910560002480e-001
2441:-1.9820983483504825e-001
2442:-2.1504332991307015e-001
2443:-2.2533297321922799e-001
2444:-1.7078575747760277e-001
2445:-1.8578924529386645e-001
2446:-2.0218562733497344e-001
2447:-2.1246285277160595e-001
2448:-2.6284692571286100e-001
2449:-2.7003005734647267e-001
2450:-2.7566537479680364e-001
2451:-2.7721470312221153e-001
2452:-2.4786921981296511e-001
2453:-2.5489846173557673e-001
2454:-2.6085255715832173e-001
2455:-2.6300859881702959e-001
2456:-2.2995117920955552e-001
2457:-2.3707671140398581e-001
2458:-2.4339762324913045e-001
2459:-2.4599675946132588e-001
2460:-2.1716605472110967e-001
2461:-2.2447213048183748e-001
2462:-2.3104167373955642e-001
2463:-2.3384210891867169e-001
2464:-2.7708882104107824e-001
2465:-2.7516470423932621e-001
2466:-2.6956631207205295e-001
2467:-2.6310426424576522e-001
2468:-2.6332190947175588e-001
2469:-2.6237936189449124e-001
2470:-2.5826168305638625e-001
2471:-2.5299531858092822e-001
2472:-2.4660317983550803e-001
2473:-2.4641349256143380e-001
2474:-2.4362596337235548e-001
2475:-2.3957882544715073e-001
2476:-2.3456540409397741e-001
2477:-2.3471064922077370e-001
2478:-2.3259642104104655e-001
2479:-2.2923643617189141e-001
2480:-2.5897328329290931e-001
2481:-2.5040305495022402e-001
2482:-2.3774155042118178e-001
2483:-2.2693796551965231e-001
2484:-2.4949301907878282e-001
2485:-2.4203278573031942e-001
2486:-2.3071449736907676e-001
2487:-2.2089661098133137e-001
2488:-2.3677101302349096e-001
2489:-2.3058139492642829e-001
2490:-2.2086018803261312e-001
2491:-2.1224285681575830e-001
2492:-2.2684804449526788e-001
2493:-2.2146416938783112e-001
2494:-2.1281310478123250e-001
2495:-2.0502903750136892e-001
2496:-2.2081941267334768e-001
2497:-2.0900128827873596e-001
2498:-1.9306344255258553e-001
2499:-1.8051950743540995e-001
2500:-2.1529760320761041e-001
2501:-2.0442872107963680e-001
2502:-1.8966779911885931e-001
2503:-1.7797256434817121e-001
2504:-2.0728033822266242e-001
2505:-1.9756974499433605e-001
2506:-1.8423304598019161e-001
2507:-1.7355413915276463e-001
2508:-2.0051337095372593e-001
2509:-1.9161970115889926e-001
2510:-1.7929363638954954e-001
2511:-1.6934002734056985e-001
2512:-1.7375048465335496e-001
2513:-1.6111541283142747e-001
2514:-1.4483418547276952e-001
2515:-1.3253936427831889e-001
2516:-1.7163460017571916e-001
2517:-1.5975860354024421e-001
2518:-1.4436642232251726e-001
2519:-1.3267360219831195e-001
2520:-1.6772902203597262e-001
2521:-1.5676800414600303e-001
2522:-1.4247752089515892e-001
2523:-1.3155767167733060e-001
2524:-1.6388232690742932e-001
2525:-1.5358180717889919e-001
2526:-1.4009848606489639e-001
2527:-1.2975588758315015e-001
2528:-1.2607077861536461e-001
2529:-1.1427309169817293e-001
2530:-9.9585236607935113e-002
2531:-8.8867872757709493e-002
2532:-1.2649721469613814e-001
2533:-1.1519567584387146e-001
2534:-1.0105800255884058e-001
2535:-9.0692375654586543e-002
2536:-1.2576689983164738e-001
2537:-1.1512702111999765e-001
2538:-1.0173251699076004e-001
2539:-9.1848177439899523e-002
2540:-1.2425751542215907e-001
2541:-1.1412590731350693e-001
2542:-1.0131410619595774e-001
2543:-9.1815948583356621e-002
2544:-8.3352831151605217e-002
2545:-7.3458314320280743e-002
2546:-6.1450169493542602e-002
2547:-5.2930083978244759e-002
2548:-8.5341575570501593e-002
2549:-7.5717253424986170e-002
2550:-6.3989557322511284e-002
2551:-5.5630616747628675e-002
2552:-8.6724245158817465e-002
2553:-7.7481211387883456e-002
2554:-6.6167208321104010e-002
2555:-5.8062294691565652e-002
2556:-8.6877174486813133e-002
2557:-7.7950498327884393e-002
2558:-6.6990154878883615e-002
2559:-5.9111354918648440e-002
2560:-4.8632713890630480e-002
2561:-4.1072964098913721e-002
2562:-3.2191907655454266e-002
2563:-2.6121735521492315e-002
2564:-5.1400763285289003e-002
2565:-4.3938919694242150e-002
2566:-3.5132012182946655e-002
2567:-2.9079274328821101e-002
2568:-5.3945994730019230e-002
2569:-4.6660119236046037e-002
2570:-3.8012785896407365e-002
2571:-3.2030628785746328e-002
2572:-5.5099809994960516e-002
2573:-4.7982823997749724e-002
2574:-3.9503276922337405e-002
2575:-3.3610722436616509e-002
2576:-2.3143908971709818e-002
2577:-1.8044701836163794e-002
2578:-1.2334993928275957e-002
2579:-8.6654634966339926e-003
2580:-2.6097481382531297e-002
2581:-2.0970079380410674e-002
2582:-1.5184281045047435e-002
2583:-1.1426897731588326e-002
2584:-2.9068981449772897e-002
2585:-2.3952215728871868e-002
2586:-1.8128599661442975e-002
2587:-1.4303103694481371e-002
2588:-3.0683595317154342e-002
2589:-2.5610751485533042e-002
2590:-1.9804470173488027e-002
2591:-1.5961791407818143e-002
2592:-6.9545036050885174e-003
2593:-4.1771490991704069e-003
2594:-1.3783683656872676e-003
2595:1.5381253985584606e-004
2596:-9.6589276744992927e-003
2597:-6.7573644101737154e-003
2598:-3.7631841987585480e-003
2599:-2.0557701369883045e-003
2600:-1.2485268068473434e-002
2601:-9.4675769993767499e-003
2602:-6.2786038332048903e-003
2603:-4.3890873802973802e-003
2604:-1.4124188327847969e-002
2605:-1.1052108884069031e-002
2606:-7.7592860376746011e-003
2607:-5.7654448322945820e-003
2608:7.6231184591241802e-004
2609:1.5851307316363285e-003
2610:2.0740770396923043e-003
2611:2.0265932779585365e-003
2612:-1.3448937947186583e-003
2613:-3.1319021721956599e-004
2614:4.8148176359707790e-004
2615:6.9404396221229648e-004
2616:-3.5697509072186726e-003
2617:-2.3149985300558408e-003
2618:-1.1915072668055614e-003
2619:-6.9806088374442467e-004
2620:-4.8820367269993914e-003
2621:-3.4939502648513700e-003
2622:-2.1718324075767487e-003
2623:-1.5077040674223695e-003
2624:1.8661828483827420e-003
2625:1.4476553256577446e-003
2626:7.4283428539094823e-004
2627:1.2328883447770107e-004
2628:6.8149435649551729e-004
2629:5.5942480359259100e-004
2630:2.7967526532249901e-004
2631:1.5920038800133919e-005
2632:-5.5081396491906819e-004
2633:-3.5562581830399752e-004
2634:-1.8782142678901804e-004
2635:-8.2961207450142250e-005
2636:-1.2632986509258537e-003
2637:-8.7801553092260829e-004
2638:-4.4869970992910497e-004
2639:-1.3399909143507822e-004
2640:-6.4046179215958366e-003
2641:-2.9601693455723530e-002
2642:-5.9249987668650438e-002
2643:-8.1399661656627750e-002
2644:-6.1007971960602659e-003
2645:-2.7996447754109154e-002
2646:-5.5831241168837163e-002
2647:-7.6511674149834411e-002
2648:-5.4656528711004588e-003
2649:-2.5665952027541742e-002
2650:-5.1242382091856213e-002
2651:-7.0173498153172337e-002
2652:-4.9154719053108708e-003
2653:-2.3705136684026604e-002
2654:-4.7527158655896247e-002
2655:-6.5196658383556275e-002
2656:-9.2946971135166701e-002
2657:-1.1367860708299188e-001
2658:-1.3864823992772271e-001
2659:-1.5604895926569243e-001
2660:-8.7250499945359786e-002
2661:-1.0644648855673303e-001
2662:-1.2953554374649426e-001
2663:-1.4573438187421633e-001
2664:-7.9980368537553401e-002
2665:-9.7477509943092247e-002
2666:-1.1853997173806120e-001
2667:-1.3340899011216997e-001
2668:-7.4367634982302033e-002
2669:-9.0771656974680925e-002
2670:-1.1058283006929848e-001
2671:-1.2460106813751472e-001
2672:-1.6465102738762083e-001
2673:-1.7930204307051670e-001
2674:-1.9553274595614281e-001
2675:-2.0583836584323739e-001
2676:-1.5382534003485734e-001
2677:-1.6778733510736646e-001
2678:-1.8353951785351433e-001
2679:-1.9369799130933887e-001
2680:-1.4089332672200319e-001
2681:-1.5390501997313721e-001
2682:-1.6872454659702327e-001
2683:-1.7834932892243049e-001
2684:-1.3166196210146827e-001
2685:-1.4392132823559392e-001
2686:-1.5786092931217718e-001
2687:-1.6690857047469146e-001
2688:-2.1058831769377101e-001
2689:-2.1798397481997270e-001
2690:-2.2467161531546301e-001
2691:-2.2756953951863024e-001
2692:-1.9841615217722930e-001
2693:-2.0581089348723250e-001
2694:-2.1261886418668399e-001
2695:-2.1570949851652768e-001
2696:-1.8283504985518440e-001
2697:-1.8995128573962730e-001
2698:-1.9671860238442357e-001
2699:-2.0002415409495028e-001
2700:-1.7113046268304904e-001
2701:-1.7789748791476720e-001
2702:-1.8449780756400627e-001
2703:-1.8788729408962557e-001
2704:-2.2835042138889039e-001
2705:-2.2864137417487462e-001
2706:-2.2680470567092997e-001
2707:-2.2373230382757020e-001
2708:-2.1662953598813892e-001
2709:-2.1723019903346211e-001
2710:-2.1590251316904155e-001
2711:-2.1331384560115862e-001
2712:-2.0113960654945048e-001
2713:-2.0215412366986993e-001
2714:-2.0144692670050923e-001
2715:-1.9940457293311392e-001
2716:-1.8911521290134056e-001
2717:-1.9038399667091829e-001
2718:-1.9007706914097816e-001
2719:-1.8839462430849865e-001
2720:-2.2152448822623250e-001
2721:-2.1650327808148401e-001
2722:-2.0835879464233750e-001
2723:-2.0098169751250752e-001
2724:-2.1139981036434691e-001
2725:-2.0697678939830608e-001
2726:-1.9968539134340704e-001
2727:-1.9300402844826137e-001
2728:-1.9780994192553333e-001
2729:-1.9404639233080853e-001
2730:-1.8771602854614672e-001
2731:-1.8183100517840256e-001
2732:-1.8701138840205050e-001
2733:-1.8368918606737372e-001
2734:-1.7801028869619978e-001
2735:-1.7266971313973128e-001
2736:-1.9668679569023476e-001
2737:-1.8820038674816089e-001
2738:-1.7638530000148481e-001
2739:-1.6680393329526971e-001
2740:-1.8908955492534940e-001
2741:-1.8131218726747739e-001
2742:-1.7040266346429583e-001
2743:-1.6149479905868513e-001
2744:-1.7835584574753807e-001
2745:-1.7140771603603333e-001
2746:-1.6158135524913478e-001
2747:-1.5350058670011335e-001
2748:-1.6949623079477791e-001
2749:-1.6312199632264374e-001
2750:-1.5405676446719052e-001
2751:-1.4656822574161471e-001
2752:-1.6153665678189569e-001
2753:-1.5157889879176056e-001
2754:-1.3851501798937466e-001
2755:-1.2847315956217184e-001
2756:-1.5657712461360387e-001
2757:-1.4725051050260302e-001
2758:-1.3496003938467779e-001
2759:-1.2547263391385968e-001
2760:-1.4902038685884791e-001
2761:-1.4048963811674825e-001
2762:-1.2918236346906253e-001
2763:-1.2040404260535878e-001
2764:-1.4240576845790129e-001
2765:-1.3445978003085440e-001
2766:-1.2388616403357204e-001
2767:-1.1564431112782650e-001
2768:-1.2312761062863294e-001
2769:-1.1326439000531793e-001
2770:-1.0076586697769478e-001
2771:-9.1479646252031352e-002
2772:-1.2040878494163051e-001
2773:-1.1104469810457816e-001
2774:-9.9138473186069526e-002
2775:-9.0260710229358609e-002
2776:-1.1570171137733457e-001
2777:-1.0698569466875188e-001
2778:-9.5864261625482380e-002
2779:-8.7540053509905971e-002
2780:-1.1121778488964783e-001
2781:-1.0300097036125136e-001
2782:-9.2493257061505893e-002
2783:-8.4608840740757696e-002
2784:-8.6644003067673683e-002
2785:-7.7895031069461676e-002
2786:-6.7136043547072144e-002
2787:-5.9388203023395751e-002
2788:-8.5626608957525913e-002
2789:-7.7227323559570057e-002
2790:-6.6868961254766338e-002
2791:-5.9385479066694308e-002
2792:-8.3183460813152102e-002
2793:-7.5270395011056687e-002
2794:-6.5478178151724797e-002
2795:-5.8376114401474076e-002
2796:-8.0475124495352823e-002
2797:-7.2956203707773226e-002
2798:-6.3630297539804287e-002
2799:-5.6848653631990931e-002
2800:-5.5438220682557313e-002
2801:-4.8422423767210253e-002
2802:-4.0047652540159323e-002
2803:-3.4215125008495176e-002
2804:-5.5561353463306248e-002
2805:-4.8756070026871295e-002
2806:-4.0606901844795408e-002
2807:-3.4910390740338887e-002
2808:-5.4736776505996412e-002
2809:-4.8247060836614092e-002
2810:-4.0449185121542906e-002
2811:-3.4975614337758802e-002
2812:-5.3367019896171229e-002
2813:-4.7150881643920013e-002
2814:-3.9665824273515400e-002
2815:-3.4397510502961220e-002
2816:-3.1313076513242354e-002
2817:-2.6276171106543064e-002
2818:-2.0495341119081915e-002
2819:-1.6655760665308491e-002
2820:-3.2068110855357823e-002
2821:-2.7122366539372136e-002
2822:-2.1419933134740537e-002
2823:-1.7609440948707648e-002
2824:-3.2235889611008005e-002
2825:-2.7454954581330140e-002
2826:-2.1914138265165313e-002
2827:-1.8186775487112748e-002
2828:-3.1754840918366965e-002
2829:-2.7134687237580085e-002
2830:-2.1762417408389096e-002
2831:-1.8132863190498182e-002
2832:-1.4814082324727959e-002
2833:-1.1725159761516134e-002
2834:-8.3929734224676943e-003
2835:-6.3559491821689237e-003
2836:-1.5772469332516907e-002
2837:-1.2675281603409654e-002
2838:-9.2999722200213797e-003
2839:-7.2056305582569695e-003
2840:-1.6379960230576501e-002
2841:-1.3317211731643082e-002
2842:-9.9448219872675988e-003
2843:-7.8210239447764774e-003
2844:-1.6367301725734258e-002
2845:-1.3364944735264494e-002
2846:-1.0038918338185498e-002
2847:-7.9260561321622056e-003
2848:-5.4451121726862050e-003
2849:-3.9992341849477463e-003
2850:-2.5901073909335194e-003
2851:-1.8507735668292942e-003
2852:-6.2560384483962839e-003
2853:-4.7265429951309718e-003
2854:-3.1889340635045537e-003
2855:-2.3372844192103459e-003
2856:-6.8450365323673790e-003
2857:-5.2533032977382420e-003
2858:-3.6131138343608819e-003
2859:-2.6683940558308722e-003
2860:-6.9476019001853285e-003
2861:-5.3423386358943028e-003
2862:-3.6704672324345275e-003
2863:-2.6926656847387257e-003
2864:-1.5635369448014113e-003
2865:-1.0956705103666500e-003
2866:-5.5569080891455607e-004
2867:-1.5471860374924410e-004
2868:-1.9859640710756417e-003
2869:-1.3971782071662510e-003
2870:-7.0171814198170010e-004
2871:-1.8534869132567832e-004
2872:-2.2636017536881532e-003
2873:-1.5802894714822928e-003
2874:-7.7945833291631454e-004
2875:-1.9981395937488278e-004
2876:-2.2683708064586386e-003
2877:-1.5579256904903595e-003
2878:-7.4675370373993813e-004
2879:-1.8207692488963033e-004
2880:-4.6392409718607362e-003
2881:-2.2613693815118224e-002
2882:-4.5466214545534005e-002
2883:-6.2474994273996637e-002
2884:-4.2277030827326690e-003
2885:-2.0708713050821843e-002
2886:-4.1757520209794674e-002
2887:-5.7511193571904665e-002
2888:-3.8362680823816613e-003
2889:-1.8493835264376209e-002
2890:-3.7262714264249458e-002
2891:-5.1359758932661301e-002
2892:-3.5775985486962607e-003
2893:-1.6949407445142606e-002
2894:-3.4047605985089782e-002
2895:-4.6875792908938833e-002
2896:-7.1327098251730059e-002
2897:-8.7206338437764194e-002
2898:-1.0643647922033618e-001
2899:-1.2004863778855324e-001
2900:-6.5746197539386750e-002
2901:-8.0586885533026509e-002
2902:-9.8640653661090469e-002
2903:-1.1143186583498045e-001
2904:-5.8750445262015553e-002
2905:-7.2111260328381416e-002
2906:-8.8422389921554503e-002
2907:-1.0000066175225060e-001
2908:-5.3597361508506768e-002
2909:-6.5740593009829845e-002
2910:-8.0567119800757703e-002
2911:-9.1110472474756898e-002
2912:-1.2689482781929126e-001
2913:-1.3874901338229279e-001
2914:-1.5218714204584974e-001
2915:-1.6090058936905288e-001
2916:-1.1785257261427697e-001
2917:-1.2893269338111274e-001
2918:-1.4145816537938574e-001
2919:-1.4959077374560514e-001
2920:-1.0581302783462604e-001
2921:-1.1584185266898181e-001
2922:-1.2720557855742934e-001
2923:-1.3463512196334965e-001
2924:-9.6415622228969600e-002
2925:-1.0559513635182660e-001
2926:-1.1605103521525133e-001
2927:-1.2293476446305683e-001
2928:-1.6497195172265813e-001
2929:-1.7153077193508318e-001
2930:-1.7800062320271476e-001
2931:-1.8139088070779805e-001
2932:-1.5340769011168440e-001
2933:-1.5959634397673902e-001
2934:-1.6578150170424766e-001
2935:-1.6909502360477838e-001
2936:-1.3814921237907307e-001
2937:-1.4386449236248766e-001
2938:-1.4960323015760749e-001
2939:-1.5270059018689078e-001
2940:-1.2620810692182538e-001
2941:-1.3152999816500868e-001
2942:-1.3686541442004854e-001
2943:-1.3974040721793726e-001
2944:-1.8265119221927434e-001
2945:-1.8401193416575884e-001
2946:-1.8387859657094446e-001
2947:-1.8236848205256639e-001
2948:-1.7036079410827151e-001
2949:-1.7180384319015160e-001
2950:-1.7191086083990004e-001
2951:-1.7068142475108031e-001
2952:-1.5389587966612944e-001
2953:-1.5531606496793379e-001
2954:-1.5560193454569007e-001
2955:-1.5465875824602240e-001
2956:-1.4085015567906967e-001
2957:-1.4219596350370367e-001
2958:-1.4254697655220397e-001
2959:-1.4176698767204904e-001
2960:-1.8109045472736546e-001
2961:-1.7798883098239635e-001
2962:-1.7263590583334193e-001
2963:-1.6756789481470885e-001
2964:-1.6958474967714773e-001
2965:-1.6686605005113270e-001
2966:-1.6208324488318626e-001
2967:-1.5749697262418366e-001
2968:-1.5376251160564436e-001
2969:-1.5147463764160715e-001
2970:-1.4734845508278752e-001
2971:-1.4333217613159238e-001
2972:-1.4099327172474330e-001
2973:-1.3897720656152510e-001
2974:-1.3528370331491094e-001
2975:-1.3165937890942908e-001
2976:-1.6454547473068040e-001
2977:-1.5845920547255932e-001
2978:-1.4977786330270670e-001
2979:-1.4259019230713407e-001
2980:-1.5474388155656257e-001
2981:-1.4917574042447576e-001
2982:-1.4119205878541541e-001
2983:-1.3455430490489928e-001
2984:-1.4090420505102269e-001
2985:-1.3597341634927410e-001
2986:-1.2886537895738320e-001
2987:-1.2292592340761974e-001
2988:-1.2946139310714463e-001
2989:-1.2499244339205881e-001
2990:-1.1853514421686782e-001
2991:-1.1312261048409580e-001
2992:-1.3859017276814745e-001
2993:-1.3094610599312828e-001
2994:-1.2075681531588776e-001
2995:-1.1279981299788745e-001
2996:-1.3085183132183142e-001
2997:-1.2376479584358885e-001
2998:-1.1429308517388831e-001
2999:-1.0687462041823784e-001
3000:-1.1960286548917928e-001
3001:-1.1323253394000041e-001
3002:-1.0469782735350965e-001
3003:-9.7993493233467260e-002
3004:-1.1008753113778737e-001
3005:-1.0426508145244268e-001
3006:-9.6454795738758078e-002
3007:-9.0309024635736507e-002
3008:-1.0852094064774023e-001
3009:-1.0057274864342419e-001
3010:-9.0397639354123885e-002
3011:-8.2753255854900162e-002
3012:-1.0287725337817295e-001
3013:-9.5443623767444877e-002
3014:-8.5909820546075613e-002
3015:-7.8731372606142117e-002
3016:-9.4373328527830300e-002
3017:-8.7634079333119896e-002
3018:-7.8974486081910156e-002
3019:-7.2437793810906745e-002
3020:-8.6986239366673143e-002
3021:-8.0798248314988816e-002
3022:-7.2839810301019561e-002
3023:-6.6823180670514404e-002
3024:-7.8741768483929997e-002
3025:-7.1440329518555820e-002
3026:-6.2374480227003190e-002
3027:-5.5773812328418701e-002
3028:-7.4958290853549520e-002
3029:-6.8083889795663266e-002
3030:-5.9534151659423024e-002
3031:-5.3296720014163433e-002
3032:-6.8995471467790545e-002
3033:-6.2718733394069651e-002
3034:-5.4901029571892815e-002
3035:-4.9185806761583642e-002
3036:-6.3650791997379386e-002
3037:-5.7865311265024304e-002
3038:-5.0655646524770427e-002
3039:-4.5378632268968662e-002
3040:-5.2382116575497469e-002
3041:-4.6323287010573616e-002
3042:-3.9020532681398191e-002
3043:-3.3873773287985021e-002
3044:-5.0086929481513658e-002
3045:-4.4348125993157357e-002
3046:-3.7420046151930196e-002
3047:-3.2526458218463637e-002
3048:-4.6239869679050936e-002
3049:-4.0968560593980546e-002
3050:-3.4594662390030652e-002
3051:-3.0081606909471880e-002
3052:-4.2655565114021472e-002
3053:-3.7781397555802058e-002
3054:-3.1883020374448408e-002
3055:-2.7700624637161192e-002
3056:-3.1289319587655455e-002
3057:-2.6766991320065225e-002
3058:-2.1500312941996055e-002
3059:-1.7934927720733504e-002
3060:-3.0064634752551431e-002
3061:-2.5750997555927115e-002
3062:-2.0715005452394589e-002
3063:-1.7294588360730771e-002
3064:-2.7806582251917809e-002
3065:-2.3815304783091015e-002
3066:-1.9144659654447359e-002
3067:-1.5961515480759074e-002
3068:-2.5589570895379825e-002
3069:-2.1884014823052210e-002
3070:-1.7542611511361605e-002
3071:-1.4577775502161437e-002
3072:-1.6197756285127259e-002
3073:-1.3239518935926725e-002
3074:-9.9535594104692617e-003
3075:-7.8580969209504151e-003
3076:-1.5623568480599691e-002
3077:-1.2771744442134282e-002
3078:-9.5908354063595127e-003
3079:-7.5503030015312157e-003
3080:-1.4401879203326138e-002
3081:-1.1734644418983756e-002
3082:-8.7482021235771989e-003
3083:-6.8218639811266904e-003
3084:-1.3122372176213893e-002
3085:-1.0630856826253733e-002
3086:-7.8360930469557194e-003
3087:-6.0285986976174296e-003
3088:-6.8844298073051143e-003
3089:-5.2836051020841079e-003
3090:-3.6106588153437358e-003
3091:-2.6279556265191811e-003
3092:-6.5973341963783882e-003
3093:-5.0269189513338954e-003
3094:-3.3808931114928482e-003
3095:-2.4111401862264891e-003
3096:-5.9181369804745922e-003
3097:-4.4285296093325658e-003
3098:-2.8698016110956623e-003
3099:-1.9554545037131091e-003
3100:-5.1788692359089660e-003
3101:-3.7805463127384927e-003
3102:-2.3244014813574932e-003
3103:-1.4775973367448267e-003
3104:-2.2003664837362893e-003
3105:-1.4904764694079083e-003
3106:-6.9725651943825743e-004
3107:-1.6181964879296258e-004
3108:-1.9892175588188707e-003
3109:-1.3045388317706576e-003
3110:-5.8165736152022019e-004
3111:-1.3398137765190151e-004
3112:-1.5609506199781881e-003
3113:-9.4841175837383847e-004
3114:-3.7422064268534199e-004
3115:-9.0836451774437639e-005
3116:-1.1166391425593983e-003
3117:-5.8240888198097466e-004
3118:-1.5291737709919454e-004
3119:-2.0920431126705496e-005
3120:-3.4309134373502080e-003
3121:-1.6154252542491646e-002
3122:-3.2388943109870318e-002
3123:-4.4543899751547419e-002
3124:-3.0879457498447674e-003
3125:-1.4526170694962953e-002
3126:-2.9072698145402438e-002
3127:-3.9932214770555294e-002
3128:-2.5400325147373649e-003
3129:-1.2121440648844115e-002
3130:-2.4277820476572842e-002
3131:-3.3347939678502969e-002
3132:-2.0807933809296906e-003
3133:-1.0084762181975081e-002
3134:-2.0237758795329297e-002
3135:-2.7834145226637526e-002
3136:-5.0903615743728606e-002
3137:-6.2374209225561070e-002
3138:-7.6364201319175248e-002
3139:-8.6322559806337101e-002
3140:-4.5603522510528842e-002
3141:-5.5801269087874389e-002
3142:-6.8210412858056138e-002
3143:-7.7055980840871119e-002
3144:-3.8086095518155463e-002
3145:-4.6581622136323275e-002
3146:-5.6894046527178749e-002
3147:-6.4253286745068250e-002
3148:-3.1814884380018553e-002
3149:-3.8948323841930116e-002
3150:-4.7601820499884644e-002
3151:-5.3781642077170094e-002
3152:-9.1343613106131691e-002
3153:-1.0005144529243121e-001
3154:-1.1000352689756293e-001
3155:-1.1657738779636957e-001
3156:-8.1530704309135199e-002
3157:-8.9313098666020871e-002
3158:-9.8241377774327121e-002
3159:-1.0415909979333242e-001
3160:-6.7986514820439936e-002
3161:-7.4480301673737856e-002
3162:-8.1927536066504200e-002
3163:-8.6861722269061845e-002
3164:-5.6919492002956679e-002
3165:-6.2361864218920426e-002
3166:-6.8576975390853820e-002
3167:-7.2683208671497648e-002
3168:-1.1970927766642657e-001
3169:-1.2479840155582533e-001
3170:-1.2989568262439707e-001
3171:-1.3264171589519569e-001
3172:-1.0698324040046094e-001
3173:-1.1157180078837840e-001
3174:-1.1617150012882253e-001
3175:-1.1865954486505544e-001
3176:-8.9216084240774748e-002
3177:-9.3045722115608492e-002
3178:-9.6900439727599888e-002
3179:-9.9005743521993206e-002
3180:-7.4641298310903617e-002
3181:-7.7828778158582981e-002
3182:-8.1043861377049650e-002
3183:-8.2807125668018691e-002
3184:-1.3370307316072313e-001
3185:-1.3500191455279800e-001
3186:-1.3537166349117893e-001
3187:-1.3466073593417580e-001
3188:-1.1962807879192119e-001
3189:-1.2082966366499237e-001
3190:-1.2121198795418835e-001
3191:-1.2060830497287657e-001
3192:-9.9835699156004737e-002
3193:-1.0087342280532437e-001
3194:-1.0121982871177305e-001
3195:-1.0071992986552424e-001
3196:-8.3505228320131228e-002
3197:-8.4371872556615782e-002
3198:-8.4642904576433503e-002
3199:-8.4200141488276717e-002
3200:-1.3394078529550815e-001
3201:-1.3204848878706729e-001
3202:-1.2856153692162969e-001
3203:-1.2513171717438226e-001
3204:-1.1997699025191917e-001
3205:-1.1830211048632548e-001
3206:-1.1519713202777986e-001
3207:-1.1213478491270736e-001
3208:-1.0018906782547227e-001
3209:-9.8786211308485139e-002
3210:-9.6189947698037445e-002
3211:-9.3625922252396340e-002
3212:-8.3741017041333507e-002
3213:-8.2549164895259389e-002
3214:-8.0363076124909796e-002
3215:-7.8202933490058107e-002
3216:-1.2305047457297524e-001
3217:-1.1882013132527718e-001
3218:-1.1270524016961689e-001
3219:-1.0757319010404716e-001
3220:-1.1027521061932841e-001
3221:-1.0649909837886569e-001
3222:-1.0103957680705064e-001
3223:-9.6448209213909147e-002
3224:-9.2066944289771357e-002
3225:-8.8906645250024355e-002
3226:-8.4339332273934489e-002
3227:-8.0490101304762821e-002
3228:-7.6886407268520141e-002
3229:-7.4221831607370684e-002
3230:-7.0374242820302718e-002
3231:-6.7127361470478847e-002
3232:-1.0469214672189514e-001
3233:-9.9163858884141684e-002
3234:-9.1744686647517379e-002
3235:-8.5902158863374017e-002
3236:-9.3865784905271921e-002
3237:-8.8910629360109239e-002
3238:-8.2257952366875262e-002
3239:-7.7012207298417651e-002
3240:-7.8320603698918662e-002
3241:-7.4163379528832923e-002
3242:-6.8586114099950787e-002
3243:-6.4182086815481737e-002
3244:-6.5295008746892050e-002
3245:-6.1792944643442788e-002
3246:-5.7104235796216131e-002
3247:-5.3398597409234895e-002
3248:-8.2741436004942867e-002
3249:-7.6855191619230559e-002
3250:-6.9283097558815052e-002
3251:-6.3554923314123740e-002
3252:-7.4171081266043590e-002
3253:-6.8881596496051384e-002
3254:-6.2076806717393969e-002
3255:-5.6923830642028016e-002
3256:-6.1792812994779525e-002
3257:-5.7349733754064790e-002
3258:-5.1638331142495414e-002
3259:-4.7308570525448276e-002
3260:-5.1384929189645281e-002
3261:-4.7647035322430094e-002
3262:-4.2849587769524432e-002
3263:-3.9210026522210978e-002
3264:-6.0532912023673023e-002
3265:-5.5022154063878982e-002
3266:-4.8154367945355922e-002
3267:-4.3125026520579937e-002
3268:-5.4202438367445246e-002
3269:-4.9241924976477308e-002
3270:-4.3060950527003893e-002
3271:-3.8530856556235712e-002
3272:-4.5018575315848609e-002
3273:-4.0849277380164625e-002
3274:-3.5659152339319052e-002
3275:-3.1852086321215771e-002
3276:-3.7282388913425168e-002
3277:-3.3778634654193389e-002
3278:-2.9423959448909288e-002
3279:-2.6228235606737781e-002
3280:-4.0528343730065787e-002
3281:-3.5880109030053974e-002
3282:-3.0253770404744730e-002
3283:-2.6261842145084858e-002
3284:-3.6189578365906312e-002
3285:-3.1999135929779772e-002
3286:-2.6926372665118790e-002
3287:-2.3323877284700704e-002
3288:-2.9881778794035512e-002
3289:-2.6358272824663014e-002
3290:-2.2095803625867862e-002
3291:-1.9066256407989299e-002
3292:-2.4572266780065018e-002
3293:-2.1615071025594096e-002
3294:-1.8042866751635831e-002
3295:-1.5503071357013820e-002
3296:-2.4245746962706319e-002
3297:-2.0706435280921309e-002
3298:-1.6558106039552378e-002
3299:-1.3722524108577779e-002
3300:-2.1502596290896427e-002
3301:-1.8305244043777799e-002
3302:-1.4556012778068247e-002
3303:-1.1989432644448437e-002
3304:-1.7532616415104077e-002
3305:-1.4841597166689533e-002
3306:-1.1686518286440529e-002
3307:-9.5234809297402977e-003
3308:-1.4215886698952058e-002
3309:-1.1959585710634697e-002
3310:-9.3166431012350198e-003
3311:-7.5033769833043468e-003
3312:-1.2329308753948739e-002
3313:-9.9434303523219247e-003
3314:-7.2656155996843668e-003
3315:-5.5322140023678929e-003
3316:-1.0726406464212879e-002
3317:-8.5628653080193542e-003
3318:-6.1334850590219307e-003
3319:-4.5593531588309505e-003
3320:-8.4570343583156432e-003
3321:-6.6307891890669234e-003
3322:-4.5810745448922009e-003
3323:-3.2524602101058815e-003
3324:-6.6080975331662475e-003
3325:-5.0761268933776109e-003
3326:-3.3584276292982374e-003
3327:-2.2449667873125018e-003
3328:-4.7167913901383805e-003
3329:-3.3768468983799279e-003
3330:-1.9866723542534830e-003
3331:-1.1833919727775402e-003
3332:-3.8183361327649044e-003
3333:-2.6048622799601691e-003
3334:-1.3571289782344962e-003
3335:-6.4754317519609569e-004
3336:-2.6268036914211730e-003
3337:-1.6086308378762647e-003
3338:-5.7912922377981581e-004
3339:-1.1946447621616270e-005
3340:-1.7204622798821726e-003
3341:-8.7262139234588329e-004
3342:-3.1564088299222797e-005
3343:4.1403188480894885e-004
3344:-8.4390241892867137e-004
3345:-3.5743103125269104e-004
3346:-1.1960454644430660e-005
3347:3.4396627372802371e-005
3348:-3.5399235092647090e-004
3349:3.4765881567414463e-005
3350:2.1797859485310950e-004
3351:1.0543572669314553e-004
3352:2.1263231655095367e-004
3353:4.6562888264747192e-004
3354:4.4642402388337060e-004
3355:1.5084546217710218e-004
3356:5.8066651245812148e-004
3357:7.3011350479494782e-004
3358:5.7905911125897278e-004
3359:1.7975873755706476e-004
3360:-1.8338582406436858e-003
3361:-8.9387862528493168e-003
3362:-1.7955075131950625e-002
3363:-2.4720452176152950e-002
3364:-1.3733169818918268e-003
3365:-6.6952271490464659e-003
3366:-1.3440660571312248e-002
3367:-1.8528040501864729e-002
3368:-7.3337513511399657e-004
3369:-3.5279008226189964e-003
3370:-7.0300394708130631e-003
3371:-9.6913403559844430e-003
3372:-1.7099013803012852e-004
3373:-8.5891109221152191e-004
3374:-1.6511891216349505e-003
3375:-2.2730427547799172e-003
3376:-2.8276502836300170e-002
3377:-3.4652210069521960e-002
3378:-4.2389651949049714e-002
3379:-4.7918427438895621e-002
3380:-2.1218625649106520e-002
3381:-2.6039663294022748e-002
3382:-3.1887704923732496e-002
3383:-3.6075467573641808e-002
3384:-1.1116579348076546e-002
3385:-1.3639791366022181e-002
3386:-1.6668354184033528e-002
3387:-1.8854584909736655e-002
3388:-2.6275165219540202e-003
3389:-3.1878059988237977e-003
3390:-3.7853445369457547e-003
3391:-4.2420778783708989e-003
3392:-5.0726148549691590e-002
3393:-5.5582907018047668e-002
3394:-6.1109860660740041e-002
3395:-6.4755131379745368e-002
3396:-3.8206981915473726e-002
3397:-4.1874982345430342e-002
3398:-4.6023361486474429e-002
3399:-4.8757005854022900e-002
3400:-1.9983263153923694e-002
3401:-2.1905008462264265e-002
3402:-2.4053293000073670e-002
3403:-2.5476759313776114e-002
3404:-4.5070743675676471e-003
3405:-4.9310017518287225e-003
3406:-5.3693660931873610e-003
3407:-5.6712619646800749e-003
3408:-6.6493815210594776e-002
3409:-6.9323471719397178e-002
3410:-7.2174719359149889e-002
3411:-7.3734977472520460e-002
3412:-5.0064905238527600e-002
3413:-5.2187928096688943e-002
3414:-5.4312500119718513e-002
3415:-5.5462255173158274e-002
3416:-2.6167694193694847e-002
3417:-2.7277615211234070e-002
3418:-2.8364076770165027e-002
3419:-2.8937521682847526e-002
3420:-5.8320724326993006e-003
3421:-6.0767313145075573e-003
3422:-6.2953129385708859e-003
3423:-6.4097865809820574e-003
3424:-7.4350614216726660e-002
3425:-7.5106344679644360e-002
3426:-7.5320293193286189e-002
3427:-7.4903227506040074e-002
3428:-5.5910206680451664e-002
3429:-5.6448341822999050e-002
3430:-5.6567269895207453e-002
3431:-5.6220328874130192e-002
3432:-2.9157150841151228e-002
3433:-2.9420287321587600e-002
3434:-2.9465393526029806e-002
3435:-2.9264130797010731e-002
3436:-6.4596264198780512e-003
3437:-6.5386834331037343e-003
3438:-6.5817468012392332e-003
3439:-6.5384760265802325e-003
3440:-7.4483021693429005e-002
3441:-7.3408697878391341e-002
3442:-7.1452702958250000e-002
3443:-6.9518435271262724e-002
3444:-5.5887227320664451e-002
3445:-5.5059492017928181e-002
3446:-5.3572093041623595e-002
3447:-5.2096135254697043e-002
3448:-2.9074879194914038e-002
3449:-2.8624926650721028e-002
3450:-2.7830872349760092e-002
3451:-2.7031990244218505e-002
3452:-6.4828504388329223e-003
3453:-6.3673468999359169e-003
3454:-6.1742418002145418e-003
3455:-5.9633014164410360e-003
3456:-6.8336899546221644e-002
3457:-6.5948035472240707e-002
3458:-6.2501117359131067e-002
3459:-5.9590474898588312e-002
3460:-5.1189759749258025e-002
3461:-4.9367057457115948e-002
3462:-4.6746962203844979e-002
3463:-4.4529573829764926e-002
3464:-2.6535396151512392e-002
3465:-2.5562831952891454e-002
3466:-2.4189261649259573e-002
3467:-2.3013577017623448e-002
3468:-5.8251664046844887e-003
3469:-5.5994444922257865e-003
3470:-5.3213520427555887e-003
3471:-5.0570460078709972e-003
3472:-5.7946811860246930e-002
3473:-5.4812341271122805e-002
3474:-5.0623577157910105e-002
3475:-4.7311621736392251e-002
3476:-4.3273745657106483e-002
3477:-4.0892407269491199e-002
3478:-3.7724547352332286e-002
3479:-3.5215018630613625e-002
3480:-2.2337402918379615e-002
3481:-2.1076300705121641e-002
3482:-1.9419504595541266e-002
3483:-1.8094372406064936e-002
3484:-4.8854250306523232e-003
3485:-4.5956223587930228e-003
3486:-4.2438290559582261e-003
3487:-3.9393215990663963e-003
3488:-4.5509859804547852e-002
3489:-4.2170211271088991e-002
3490:-3.7889629971341668e-002
3491:-3.4640871014813300e-002
3492:-3.3844968573255738e-002
3493:-3.1316589507819063e-002
3494:-2.8088470255949190e-002
3495:-2.5634802190121746e-002
3496:-1.7361032711927432e-002
3497:-1.6028245983877878e-002
3498:-1.4348710429493138e-002
3499:-1.3062459123493422e-002
3500:-3.7542876196028142e-003
3501:-3.4498728119495077e-003
3502:-3.0994277808713811e-003
3503:-2.8125480596346338e-003
3504:-3.2918551024722117e-002
3505:-2.9792110419579958e-002
3506:-2.5911524098833481e-002
3507:-2.3063123803991826e-002
3508:-2.4329861960118083e-002
3509:-2.1969777365464637e-002
3510:-1.9050936032170201e-002
3511:-1.6906331028174661e-002
3512:-1.2369302730193611e-002
3513:-1.1130836665442472e-002
3514:-9.6166043249173647e-003
3515:-8.4977905546536441e-003
3516:-2.6421053837314104e-003
3517:-2.3605550317744492e-003
3518:-2.0422086790539418e-003
3519:-1.7949993451366944e-003
3520:-2.1585905081325601e-002
3521:-1.8951016154717441e-002
3522:-1.5772168762543226e-002
3523:-1.3511840874425703e-002
3524:-1.5791062619885204e-002
3525:-1.3808281173169143e-002
3526:-1.1424360159038752e-002
3527:-9.7281869366057944e-003
3528:-7.9093644201150178e-003
3529:-6.8743135790893155e-003
3530:-5.6430356185913121e-003
3531:-4.7630341669218030e-003
3532:-1.6536229298616336e-003
3533:-1.4214932554132734e-003
3534:-1.1643558211621100e-003
3535:-9.7239929926420151e-004
3536:-1.2365421805750424e-002
3537:-1.0357636353448437e-002
3538:-8.0080102920936942e-003
3539:-6.3956135645539596e-003
3540:-8.8657364859956768e-003
3541:-7.3590194910662056e-003
3542:-5.6007132924501242e-003
3543:-4.3936314556526478e-003
3544:-4.3107956010017641e-003
3545:-3.5270196037712983e-003
3546:-2.6209732899692821e-003
3547:-1.9981559135949845e-003
3548:-8.6538519384153417e-004
3549:-6.8915060445323012e-004
3550:-4.9818498150608153e-004
3551:-3.6521421472230438e-004
3552:-5.5988519663724553e-003
3553:-4.2362898572047723e-003
3554:-2.7096248482560924e-003
3555:-1.7197882362479651e-003
3556:-3.7958966046079796e-003
3557:-2.7754136904496567e-003
3558:-1.6337134275331848e-003
3559:-8.9203779115292522e-004
3560:-1.6875685764979826e-003
3561:-1.1604634434629398e-003
3562:-5.7293118769956113e-004
3563:-1.8702996804973495e-004
3564:-2.9539572255425899e-004
3565:-1.8202061786210696e-004
3566:-5.8874330821226728e-005
3567:2.9536206156520891e-005
3568:-1.2532960939679264e-003
3569:-5.0267385428270429e-004
3570:2.3189290876463471e-004
3571:6.0972287338924530e-004
3572:-5.4148076482424278e-004
3573:1.6976616197296111e-005
3574:5.4774210773582042e-004
3575:8.0362224308635610e-004
3576:-1.7947297313685884e-006
3577:2.8748659779438251e-004
3578:5.4792147062169053e-004
3579:6.5980369098492123e-004
3580:7.7044285057683610e-005
3581:1.4612136290721297e-004
3582:1.9785162675841090e-004
3583:2.1358626172106820e-004
3584:7.4464205738044946e-004
3585:8.4212139342625212e-004
3586:6.3540672648296583e-004
3587:2.0030547352067830e-004
3588:8.8554015805399240e-004
3589:9.1054274680600199e-004
3590:6.5551258015679394e-004
3591:2.1157122102960136e-004
3592:6.8865462100149851e-004
3593:6.7170183174664283e-004
3594:4.6139080396204407e-004
3595:1.1260110695518696e-004
3596:2.1571850785011585e-004
3597:2.0679789148478787e-004
3598:1.0619451276550103e-004
3599:-9.8738029045270477e-005
3600:-2.5277504788599869e-001
3601:-2.2591331508012180e-001
3602:-2.1921077006446990e-001
3603:-2.3498031935434660e-001
3604:-8.7237801985999097e-001
3605:-5.6263463924726886e-001
3606:-2.4313962313166337e-001
3607:-5.0019415881584400e-002
3608:-1.6784565801938309e+000
3609:-1.0091198001716770e+000
3610:-2.9616491126725142e-001
3611:1.5763895546993376e-001
3612:-2.2902736773092074e+000
3613:-1.3533688472566112e+000
3614:-3.5178909773680728e-001
3615:2.9100484398068721e-001
3616:-2.5035248103302449e-001
3617:-2.8014125269208168e-001
3618:-2.8467497360170557e-001
3619:-2.3536676850365967e-001
3620:3.8420086659973714e-002
3621:2.0028242066396548e-001
3622:4.4246066299806314e-001
3623:6.7905137473936705e-001
3624:3.7509547409942900e-001
3625:7.7204524244236461e-001
3626:1.3092667904187905e+000
3627:1.7632004251618116e+000
3628:6.0144388279336991e-001
3629:1.1660688829504955e+000
3630:1.9089885047441137e+000
3631:2.5098654921512162e+000
3632:-1.8370319915825209e-001
3633:-1.4781641648234914e-002
3634:4.3453956467791821e-001
3635:1.0220033083413518e+000
3636:8.2950594630384133e-001
3637:1.1686306553381403e+000
3638:1.7919495909851808e+000
3639:2.4633618356071962e+000
3640:2.0259683973926141e+000
3641:2.5573618928271467e+000
3642:3.3738517992924013e+000
3643:4.1337635392100056e+000
3644:2.8467904676676334e+000
3645:3.5032811305968883e+000
3646:4.4407912609648612e+000
3647:5.2503162208066643e+000
3648:1.4387779971046686e+000
3649:2.4305028042846981e+000
3650:4.1355665667710753e+000
3651:5.7567535565716517e+000
3652:2.9043696726346107e+000
3653:3.9024711432078685e+000
3654:5.5273026260201101e+000
3655:7.0090759081203160e+000
3656:4.5969361464468825e+000
3657:5.5857281705864006e+000
3658:7.0880712946099313e+000
3659:8.3829709485701489e+000
3660:5.7217674975730288e+000
3661:6.6876353007427038e+000
3662:8.0805152618827059e+000
3663:9.2275910761570366e+000
3664:6.7312177715372181e+000
3665:8.7164929801784190e+000
3666:1.1426339803072134e+001
3667:1.3445948645597268e+001
3668:7.8783213001293300e+000
3669:9.5999748252390056e+000
3670:1.1860823765739932e+001
3671:1.3477726171452268e+001
3672:9.1168386257345091e+000
3673:1.0511383535160331e+001
3674:1.2232313520673861e+001
3675:1.3374850883107660e+001
3676:9.8589488459300405e+000
3677:1.1015366262028314e+001
3678:1.2357352366427504e+001
3679:1.3175353747756676e+001
3680:1.4461457240564686e+001
3681:1.6168921385034594e+001
3682:1.7790015739348210e+001
3683:1.8392192898993791e+001
3684:1.4263831265383368e+001
3685:1.5528214415198391e+001
3686:1.6591250650083474e+001
3687:1.6817174888035911e+001
3688:1.3893563406976744e+001
3689:1.4642184640008336e+001
3690:1.5056303262049372e+001
3691:1.4845523317581796e+001
3692:1.3513702202242705e+001
3693:1.3917117059538445e+001
3694:1.3901857611412998e+001
3695:1.3406558265930990e+001
3696:1.8438844506224637e+001
3697:1.8001112056116746e+001
3698:1.6506831510742469e+001
3699:1.4742575986451516e+001
3700:1.6691667644443598e+001
3701:1.5997567671078379e+001
3702:1.4302531593142392e+001
3703:1.2488154482094094e+001
3704:1.4521114233062868e+001
3705:1.3540318408347265e+001
3706:1.1638614696244018e+001
3707:9.7893246013000557e+000
3708:1.2954893877935543e+001
3709:1.1800048687090797e+001
3710:9.7912939463218933e+000
3711:7.9434805065319205e+000
3712:1.3608078433323394e+001
3713:1.1198652700884550e+001
3714:7.7597245486305715e+000
3715:5.1065995784997966e+000
3716:1.1364650558161877e+001
3717:9.0479702055830149e+000
3718:5.8270980268256416e+000
3719:3.3767630828514541e+000
3720:8.6905331498555842e+000
3721:6.5050518712740848e+000
3722:3.5710411091216372e+000
3723:1.3844668035366396e+000
3724:6.8734538146672364e+000
3725:4.7977999095015136e+000
3726:2.0833565754349754e+000
3727:9.3791174487176415e-002
3728:3.7448655323434430e+000
3729:1.3678673813486111e+000
3730:-1.2538749688776660e+000
3731:-2.7899708120745381e+000
3732:2.1255295394400191e+000
3733:-4.6016617119911382e-002
3734:-2.4359670992679630e+000
3735:-3.8507252532743710e+000
3736:2.7727674476952852e-001
3737:-1.6289917158203038e+000
3738:-3.7173442869889404e+000
3739:-4.9647306440709711e+000
3740:-9.0646187816514612e-001
3741:-2.6191413139252453e+000
3742:-4.4892051086040592e+000
3743:-5.6124322863276204e+000
3744:-3.4113999641099118e+000
3745:-4.2086721102695011e+000
3746:-4.6429597846210591e+000
3747:-4.6109662013781882e+000
3748:-4.4346865922747440e+000
3749:-5.2029865021179518e+000
3750:-5.6614165532066423e+000
3751:-5.6812985911344942e+000
3752:-5.4898268687450100e+000
3753:-6.1971514287025196e+000
3754:-6.6496305838995919e+000
3755:-6.7030907943697686e+000
3756:-6.0911908775593808e+000
3757:-6.7463041282251988e+000
3758:-7.1817825948526375e+000
3759:-7.2474456429686605e+000
3760:-4.4923739639681992e+000
3761:-4.1195387061492159e+000
3762:-3.4385944111426476e+000
3763:-2.8522623726431227e+000
3764:-5.5972287284388456e+000
3765:-5.2764185281486347e+000
3766:-4.6111644930610343e+000
3767:-3.9770677275687150e+000
3768:-6.6447746159197205e+000
3769:-6.3681324683208027e+000
3770:-5.7241944719799633e+000
3771:-5.0565684393581654e+000
3772:-7.2006336823143409e+000
3773:-6.9480010897881419e+000
3774:-6.3238127251235241e+000
3775:-5.6488281676088201e+000
3776:-2.5416349685495772e+000
3777:-1.9988809909639065e+000
3778:-1.3869891881788223e+000
3779:-1.0035122441302016e+000
3780:-3.6165954911648583e+000
3781:-2.9713332360311364e+000
3782:-2.2111685813246780e+000
3783:-1.6982251733471354e+000
3784:-4.6562344257647483e+000
3785:-3.9228089633123862e+000
3786:-3.0243259085932532e+000
3787:-2.3842425676758050e+000
3788:-5.2334544116283261e+000
3789:-4.4601181947691551e+000
3790:-3.4886764696098052e+000
3791:-2.7763288371917798e+000
3792:-8.3294010254686379e-001
3793:-5.7713642809972521e-001
3794:-3.4684169198409176e-001
3795:-2.2972854345067817e-001
3796:-1.4525252708936682e+000
3797:-1.0588990438124111e+000
3798:-6.6521226176403947e-001
3799:-4.4171819937334761e-001
3800:-2.0633736775694400e+000
3801:-1.5332755892520789e+000
3802:-9.8130284489363717e-001
3803:-6.5773243458497876e-001
3804:-2.4117829165733591e+000
3805:-1.8035452235353691e+000
3806:-1.1633667751562320e+000
3807:-7.8579623929274067e-001
3808:-1.8270834920173437e-001
3809:-1.1689894289244503e-001
3810:-6.6242233660882555e-002
3811:-4.7043771048570583e-002
3812:-3.4639734002868472e-001
3813:-2.0650208285272637e-001
3814:-9.4453795732854895e-002
3815:-5.7811437619963248e-002
3816:-5.1805605498133023e-001
3817:-3.0878010979502168e-001
3818:-1.3564080243267410e-001
3819:-7.7516145023294153e-002
3820:-6.2276541811975905e-001
3821:-3.7605833973991504e-001
3822:-1.6745775003996288e-001
3823:-9.3956561453189202e-002
3824:-4.1295139152490994e-002
3825:-3.0486417507495589e-002
3826:-1.4908455348335811e-002
3827:-1.8512930986852247e-003
3828:-5.2870998887047833e-002
3829:-4.2957414490120631e-002
3830:-2.2682400018881579e-002
3831:-1.0792886257107040e-003
3832:-7.0031345280045496e-002
3833:-5.6959584521165021e-002
3834:-3.1592415027461268e-002
3835:-4.5192599610727165e-003
3836:-8.2594662890675782e-002
3837:-6.5029735165891375e-002
3838:-3.7231972366399177e-002
3839:-1.0149197769432237e-002
3840:-2.6128918612072187e+000
3841:-1.5366497968555715e+000
3842:-3.8647434386111879e-001
3843:3.5262057230588062e-001
3844:-3.2098751010693789e+000
3845:-1.8815151355552608e+000
3846:-4.6466257081501772e-001
3847:4.4535621318254387e-001
3848:-3.9645877250533683e+000
3849:-2.3290506184003399e+000
3850:-5.9115763296081936e-001
3851:5.2109520866192516e-001
3852:-4.5174817111367993e+000
3853:-2.6658393065406534e+000
3854:-7.0501022115203071e-001
3855:5.4501960334047905e-001
3856:7.1018376332204147e-001
3857:1.3593264247653043e+000
3858:2.2045584948962018e+000
3859:2.8770690565475094e+000
3860:8.8585640319996495e-001
3861:1.6827537913233845e+000
3862:2.7047456948474813e+000
3863:3.4991438432014950e+000
3864:1.0583776641271829e+000
3865:2.0259247490481389e+000
3866:3.2483272770432290e+000
3867:4.1775483605988670e+000
3868:1.1472258173824890e+000
3869:2.2280671783494830e+000
3870:3.5808834210294509e+000
3871:4.5952867324369429e+000
3872:3.2495296468108457e+000
3873:3.9650372565205538e+000
3874:4.9573565129530088e+000
3875:5.7865273252610283e+000
3876:3.9313298400258634e+000
3877:4.7449145584297669e+000
3878:5.8258865025705751e+000
3879:6.6839490777665924e+000
3880:4.6744111917909335e+000
3881:5.5916138062768033e+000
3882:6.7606237342680275e+000
3883:7.6407079910260940e+000
3884:5.1318807495171752e+000
3885:6.1100887171858096e+000
3886:7.3250121316210670e+000
3887:8.2091763689986017e+000
3888:6.2590700328997873e+000
3889:7.2069547965131360e+000
3890:8.5362110036207994e+000
3891:9.6032902276792349e+000
3892:7.1555831205711442e+000
3893:8.0664879181398597e+000
3894:9.2772893722686351e+000
3895:1.0199484236392326e+001
3896:8.1053355590650522e+000
3897:8.9621136514532367e+000
3898:1.0021465813392364e+001
3899:1.0765996835277097e+001
3900:8.6634244221335432e+000
3901:9.4734643133015677e+000
3902:1.0418735472404748e+001
3903:1.1035925407672313e+001
3904:1.0180721789612193e+001
3905:1.1215088571928238e+001
3906:1.2367810774489110e+001
3907:1.3026825051561797e+001
3908:1.0680344190908739e+001
3909:1.1499210112014350e+001
3910:1.2323056474464323e+001
3911:1.2709502871192683e+001
3912:1.1130459071873659e+001
3913:1.1695356506786379e+001
3914:1.2141921499790458e+001
3915:1.2223121101212564e+001
3916:1.1318710714794891e+001
3917:1.1710095816983328e+001
3918:1.1907528026493129e+001
3919:1.1793643236099973e+001
3920:1.3277827837276508e+001
3921:1.3515651984460639e+001
3922:1.3297455942843969e+001
3923:1.2670354500560244e+001
3924:1.2812096922824058e+001
3925:1.2771008888819983e+001
3926:1.2214704537297036e+001
3927:1.1370417804548429e+001
3928:1.2162335551583579e+001
3929:1.1820424799944703e+001
3930:1.0909359428269942e+001
3931:9.8439196378101030e+000
3932:1.1631019857555382e+001
3933:1.1108085847627631e+001
3934:9.9945461093019858e+000
3935:8.8109646673155009e+000
3936:1.2161043137237799e+001
3937:1.0931351014798311e+001
3938:8.8848237761093962e+000
3939:7.0479402019962087e+000
3940:1.0767088296432362e+001
3941:9.4184378606962422e+000
3942:7.3187533488514891e+000
3943:5.5078940544950594e+000
3944:9.1475440029076740e+000
3945:7.6878432925900730e+000
3946:5.5536530966490583e+000
3947:3.7863414645393356e+000
3948:8.0682533300717036e+000
3949:6.5605693500393896e+000
3950:4.4287960896381007e+000
3951:2.7023298749425733e+000
3952:5.9966010360295448e+000
3953:3.9821229661143884e+000
3954:1.3829994940880808e+000
3955:-5.0514207801977851e-001
3956:4.4916515822463898e+000
3957:2.5872582950065213e+000
3958:1.9304448871110025e-001
3959:-1.5143244708294790e+000
3960:2.8149557156145044e+000
3961:1.0415630471382566e+000
3962:-1.1151909684794052e+000
3963:-2.6130958213428372e+000
3964:1.7641167621186060e+000
3965:7.8890574392557283e-002
3966:-1.9252712408147030e+000
3967:-3.2901110925958057e+000
3968:-1.4507223002658152e+000
3969:-3.0658283908607009e+000
3970:-4.8271481021112548e+000
3971:-5.8882169114640108e+000
3972:-2.3618503371586721e+000
3973:-3.8020215706189293e+000
3974:-5.3666487514867924e+000
3975:-6.3117182809825172e+000
3976:-3.3462469065420537e+000
3977:-4.5825200360814300e+000
3978:-5.9150813696899363e+000
3979:-6.7175151361270844e+000
3980:-3.9505384707880187e+000
3981:-5.0575959946892288e+000
3982:-6.2415797554552048e+000
3983:-6.9490299335289523e+000
3984:-6.3432949290624601e+000
3985:-6.9714102082299876e+000
3986:-7.3971801510452471e+000
3987:-7.4676076575283865e+000
3988:-6.7203621057877658e+000
3989:-7.2917546090242116e+000
3990:-7.6890722092651274e+000
3991:-7.7602949661834568e+000
3992:-7.0655023120664282e+000
3993:-7.5563671797391834e+000
3994:-7.9000318008475992e+000
3995:-7.9568234518774181e+000
3996:-7.2543658112466956e+000
3997:-7.6842505502732097e+000
3998:-7.9784441208825569e+000
3999:-8.0133539126354076e+000
4000:-7.4256556651295149e+000
4001:-7.1843962996023221e+000
4002:-6.5724943543511598e+000
4003:-5.8989458043353498e+000
4004:-7.7235086662763193e+000
4005:-7.4990728872256422e+000
4006:-6.9125638321605880e+000
4007:-6.2517088067467776e+000
4008:-7.9186050088822428e+000
4009:-7.7047926636219994e+000
4010:-7.1494760617659701e+000
4011:-6.5173417540386307e+000
4012:-7.9675403488899530e+000
4013:-7.7509887325500921e+000
4014:-7.2118864887000589e+000
4015:-6.6039306239105926e+000
4016:-5.4799674737146757e+000
4017:-4.6931979720863302e+000
4018:-3.6922704740852419e+000
4019:-2.9486663687979924e+000
4020:-5.8344166707785829e+000
4021:-5.0388188242522327e+000
4022:-4.0036562347022668e+000
4023:-3.2172452349372680e+000
4024:-6.1141536973568940e+000
4025:-5.3316545043366510e+000
4026:-4.2859503901785345e+000
4027:-3.4707739787805671e+000
4028:-6.2161836241207764e+000
4029:-5.4550995361559078e+000
4030:-4.4198808662515372e+000
4031:-3.5991779092972136e+000
4032:-2.5649002481067158e+000
4033:-1.9226014439088497e+000
4034:-1.2445481752712477e+000
4035:-8.4408883654150924e-001
4036:-2.8056542927125658e+000
4037:-2.1134021612561691e+000
4038:-1.3789046489549404e+000
4039:-9.4358806843065191e-001
4040:-3.0373397648622529e+000
4041:-2.3044655972740555e+000
4042:-1.5220542597916713e+000
4043:-1.0555050096211835e+000
4044:-3.1583394757632868e+000
4045:-2.4104643022077461e+000
4046:-1.6085809887140050e+000
4047:-1.1278664726442609e+000
4048:-6.7121710447272487e-001
4049:-4.0845860838066983e-001
4050:-1.8385601005490768e-001
4051:-1.0246746392179078e-001
4052:-7.5539947371373595e-001
4053:-4.6692072919616556e-001
4054:-2.1493243221836131e-001
4055:-1.1813361904238584e-001
4056:-8.5288956277169992e-001
4057:-5.3877447322953109e-001
4058:-2.5620822357906931e-001
4059:-1.3877980262374645e-001
4060:-9.1809122229060669e-001
4061:-5.9012189055181963e-001
4062:-2.8844899070809188e-001
4063:-1.5563536422153465e-001
4064:-8.8555137970970546e-002
4065:-6.8143788029762800e-002
4066:-3.9678327417264611e-002
4067:-1.3974626822715854e-002
4068:-9.8245941485799446e-002
4069:-7.1172774122758381e-002
4070:-4.2245380126346307e-002
4071:-2.1835145482975216e-002
4072:-1.0930901377096675e-001
4073:-7.1273750894811666e-002
4074:-4.2226573990309164e-002
4075:-3.2175618137187015e-002
4076:-1.1801979960298575e-001
4077:-7.0230959681002555e-002
4078:-4.0504743170605081e-002
4079:-3.9238440410306920e-002
4080:-4.8010127333213042e+000
4081:-2.8418840122393831e+000
4082:-7.7123753419578533e-001
4083:5.4568867394356246e-001
4084:-5.3098361543429133e+000
4085:-3.1650119589551982e+000
4086:-9.0671740052215410e-001
4087:5.2258190323555065e-001
4088:-5.9215638855538986e+000
4089:-3.5678579039252680e+000
4090:-1.1029041390410925e+000
4091:4.4603035721593687e-001
4092:-6.3447207835076460e+000
4093:-3.8581089400895796e+000
4094:-1.2656619926466341e+000
4095:3.5331732220074186e-001
4096:1.1790472375562924e+000
4097:2.3138737223831187e+000
4098:3.7279490695509088e+000
4099:4.7814537544143487e+000
4100:1.2075203698285659e+000
4101:2.4310839770804549e+000
4102:3.9444877784669905e+000
4103:5.0600281692425320e+000
4104:1.1842731484156788e+000
4105:2.4982566829563404e+000
4106:4.1101313801661563e+000
4107:5.2843349340912278e+000
4108:1.1212690717228144e+000
4109:2.4845340934442728e+000
4110:4.1476105710411941e+000
4111:5.3496058941776852e+000
4112:5.3358515352258449e+000
4113:6.3401991804665876e+000
4114:7.5719767338526367e+000
4115:8.4536581191128093e+000
4116:5.6420017384600447e+000
4117:6.6845662892729845e+000
4118:7.9349672110951612e+000
4119:8.8036783667639718e+000
4120:5.8909349192397178e+000
4121:6.9623614287782987e+000
4122:8.2118986130995228e+000
4123:9.0475622170527856e+000
4124:5.9663936218985647e+000
4125:7.0439558261989355e+000
4126:8.2738267789812721e+000
4127:9.0721054486175152e+000
4128:8.9004904205611854e+000
4129:9.6836318819985188e+000
4130:1.0568835546627572e+001
4131:1.1121459722482477e+001
4132:9.2329913548229445e+000
4133:9.9614347320838839e+000
4134:1.0734491770411488e+001
4135:1.1171817278349005e+001
4136:9.4469924760809683e+000
4137:1.0095874467930598e+001
4138:1.0723989702948181e+001
4139:1.1022775530073778e+001
4140:9.4434424484381836e+000
4141:1.0025597813280138e+001
4142:1.0544726756730896e+001
4143:1.0747511583306244e+001
4144:1.1363527372405683e+001
4145:1.1670173744539305e+001
4146:1.1749230637120124e+001
4147:1.1545205550117347e+001
4148:1.1342772983331995e+001
4149:1.1505006171660394e+001
4150:1.1388103532713590e+001
4151:1.1038669278051897e+001
4152:1.1111626806055668e+001
4153:1.1114450230389759e+001
4154:1.0793148995758939e+001
4155:1.0299974931428796e+001
4156:1.0782252139742125e+001
4157:1.0685992376466510e+001
4158:1.0247798214959168e+001
4159:9.6796224702865103e+000
4160:1.1336585507334696e+001
4161:1.0734790769579906e+001
4162:9.5382578559889364e+000
4163:8.3103756663290955e+000
4164:1.0757315442861415e+001
4165:1.0035561105796646e+001
4166:8.7221281208141068e+000
4167:7.4401232163068682e+000
4168:9.9497848886556621e+000
4169:9.1242681551872717e+000
4170:7.7296431192678350e+000
4171:6.4290474919676130e+000
4172:9.2964305176629427e+000
4173:8.4303423741205137e+000
4174:7.0241449253738386e+000
4175:5.7446291702718320e+000
4176:7.5521362865543740e+000
4177:6.0323791266349591e+000
4178:3.9121185853308456e+000
4179:2.2098223910622310e+000
4180:6.6670538150415188e+000
4181:5.1456121218982451e+000
4182:3.0640838944210471e+000
4183:1.4141277259363416e+000
4184:5.6618396550465038e+000
4185:4.1746797423248978e+000
4186:2.1730418730599066e+000
4187:6.0341518665754390e-001
4188:4.9984043496537538e+000
4189:3.5607337410416311e+000
4190:1.6379257011464998e+000
4191:1.3624442967491926e-001
4192:1.2886664520320135e+000
4193:-3.5448412221596171e-001
4194:-2.2889868816370154e+000
4195:-3.5940255845481599e+000
4196:5.2691131597679619e-001
4197:-1.0375902503026775e+000
4198:-2.8474359561796163e+000
4199:-4.0473022180051306e+000
4200:-2.3600843788070994e-001
4201:-1.6980733493635956e+000
4202:-3.3552209835697111e+000
4203:-4.4294936602753889e+000
4204:-6.6508235977351038e-001
4205:-2.0506115567721261e+000
4206:-3.5999217610703225e+000
4207:-4.5874713046527500e+000
4208:-4.2218635849339696e+000
4209:-5.2711699602515782e+000
4210:-6.3881655805641309e+000
4211:-7.0514579663177770e+000
4212:-4.6180114133024084e+000
4213:-5.5657487286915588e+000
4214:-6.5640581702781153e+000
4215:-7.1482749343339806e+000
4216:-4.9322319780044594e+000
4217:-5.7579764558813071e+000
4218:-6.6113904319488501e+000
4219:-7.0972840218422748e+000
4220:-5.0432858570979411e+000
4221:-5.7834810230735387e+000
4222:-6.5326260834155914e+000
4223:-6.9457422499859662e+000
4224:-7.3361749174886626e+000
4225:-7.7350202560546570e+000
4226:-8.0009740355701116e+000
4227:-8.0208462481670626e+000
4228:-7.3957012489465104e+000
4229:-7.7378642783752491e+000
4230:-7.9519203805566434e+000
4231:-7.9446722255840987e+000
4232:-7.2976920449040774e+000
4233:-7.5677558048473035e+000
4234:-7.7162391407921476e+000
4235:-7.6767761951488254e+000
4236:-7.1106268814786553e+000
4237:-7.3256391094450439e+000
4238:-7.4243318371740594e+000
4239:-7.3620064067414965e+000
4240:-7.9687884202681767e+000
4241:-7.7467537238762381e+000
4242:-7.2125470834766663e+000
4243:-6.6167939631575168e+000
4244:-7.8818695377599708e+000
4245:-7.6527324044157972e+000
4246:-7.1348829809315966e+000
4247:-6.5700533591920998e+000
4248:-7.6026569447659158e+000
4249:-7.3713309407772734e+000
4250:-6.8881257844585901e+000
4251:-6.3771130955684399e+000
4252:-7.2810081758177327e+000
4253:-7.0519905255772324e+000
4254:-6.6017418141439581e+000
4255:-6.1380102069989162e+000
4256:-6.2379261617426938e+000
4257:-5.4906124706453774e+000
4258:-4.4658462031524335e+000
4259:-3.6470796498336511e+000
4260:-6.2130325329282732e+000
4261:-5.5020936012022066e+000
4262:-4.5117724385975668e+000
4263:-3.7085755250218901e+000
4264:-6.0569829851656971e+000
4265:-5.4114651401189597e+000
4266:-4.4932173381440013e+000
4267:-3.7333835926797723e+000
4268:-5.8499182128249920e+000
4269:-5.2641951188481455e+000
4270:-4.4185779938460890e+000
4271:-3.7084509196186342e+000
4272:-3.2051955091878490e+000
4273:-2.4543717432696548e+000
4274:-1.6475310891472206e+000
4275:-1.1623541553520460e+000
4276:-3.2711085135068081e+000
4277:-2.5248063775363088e+000
4278:-1.7178219470833287e+000
4279:-1.2284264303650951e+000
4280:-3.3143296323670679e+000
4281:-2.5935451412473771e+000
4282:-1.8034309483555724e+000
4283:-1.3155167940950807e+000
4284:-3.3129971895103525e+000
4285:-2.6263586062466517e+000
4286:-1.8613904599676139e+000
4287:-1.3791126238763747e+000
4288:-9.5000233194992056e-001
4289:-6.1653883079783289e-001
4290:-3.0620730215390640e-001
4291:-1.6549845838702612e-001
4292:-1.0125395386121139e+000
4293:-6.7045551923476421e-001
4294:-3.4476021490337616e-001
4295:-1.8886494761420664e-001
4296:-1.0968598213053244e+000
4297:-7.4618672425634536e-001
4298:-4.0280484437617053e-001
4299:-2.2797422204158177e-001
4300:-1.1592642142422933e+000
4301:-8.0379413521665177e-001
4302:-4.4969557442881869e-001
4303:-2.6280468466692219e-001
4304:-1.2338361964525833e-001
4305:-6.9965945779878261e-002
4306:-3.9321762500233004e-002
4307:-4.2463189345263906e-002
4308:-1.3774337109091034e-001
4309:-7.2336064964499402e-002
4310:-3.7636794651441242e-002
4311:-4.7067963042235671e-002
4312:-1.6515866996215786e-001
4313:-8.2460825432895776e-002
4314:-3.7108647803026203e-002
4315:-4.8559105231610875e-002
4316:-1.9227258940481709e-001
4317:-9.6349731869147207e-002
4318:-3.8301689264567861e-002
4319:-4.4700270751424021e-002
4320:-6.5523841493096935e+000
4321:-4.0050750871803302e+000
4322:-1.3560905812445938e+000
4323:2.9231691024065148e-001
4324:-6.9056445327446454e+000
4325:-4.2650687452840135e+000
4326:-1.5317105427470876e+000
4327:1.5792922813309021e-001
4328:-7.2889030715480398e+000
4329:-4.5694980367799873e+000
4330:-1.7699834413854927e+000
4331:-5.3883016699111753e-002
4332:-7.5182641053683579e+000
4333:-4.7730489715322673e+000
4334:-1.9575333861474651e+000
4335:-2.4210255650252216e-001
4336:1.0720678891882391e+000
4337:2.4544263347238409e+000
4338:4.1362304544850019e+000
4339:5.3470732223050286e+000
4340:9.5299752387531067e-001
4341:2.3594485070734019e+000
4342:4.0630812902770685e+000
4343:5.2817645367221688e+000
4344:7.4813224675598478e-001
4345:2.1633573562867650e+000
4346:3.8691750022585452e+000
4347:5.0803307824814476e+000
4348:5.5544621933575866e-001
4349:1.9600655303135841e+000
4350:3.6467333595938900e+000
4351:4.8375203485266915e+000
4352:5.9663039912777576e+000
4353:7.0417015713843343e+000
4354:8.2547688279569265e+000
4355:9.0292498667509662e+000
4356:5.9013797928833664e+000
4357:6.9655617442043809e+000
4358:8.1401244214499204e+000
4359:8.8671942397213641e+000
4360:5.6918158818685400e+000
4361:6.7272547413322243e+000
4362:7.8391550175902713e+000
4363:8.5008683300359511e+000
4364:5.4355275649173800e+000
4365:6.4375574484025790e+000
4366:7.4924177626581008e+000
4367:8.1025967746629561e+000
4368:9.3840190706962172e+000
4369:9.9291118303533050e+000
4370:1.0391675832485211e+001
4371:1.0547485517837242e+001
4372:9.1905628663936909e+000
4373:9.6684005556559907e+000
4374:1.0032970720722911e+001
4375:1.0110333005603014e+001
4376:8.7839502672842471e+000
4377:9.1807890694685028e+000
4378:9.4357246158539834e+000
4379:9.4307471683139905e+000
4380:8.3562210030794688e+000
4381:8.6976278202572157e+000
4382:8.8839551985476639e+000
4383:8.8320204766017376e+000
4384:1.0556787415262534e+001
4385:1.0416149276941832e+001
4386:9.9295461974182047e+000
4387:9.3333501756549886e+000
4388:1.0078152094603384e+001
4389:9.8673777515323557e+000
4390:9.3081281318371936e+000
4391:8.6727567849147924e+000
4392:9.3569142276476800e+000
4393:9.0800202842205628e+000
4394:8.4597576292314489e+000
4395:7.7971291827966906e+000
4396:8.7361501568309823e+000
4397:8.4282452282019058e+000
4398:7.7865881329691735e+000
4399:7.1204086937837108e+000
4400:8.9391705844276022e+000
4401:8.0640572917359137e+000
4402:6.6673401518493352e+000
4403:5.4094359726565919e+000
4404:8.2645609520385968e+000
4405:7.3839107228236776e+000
4406:6.0186108379447623e+000
4407:4.8112994700556158e+000
4408:7.3819605732228988e+000
4409:6.5125090965002004e+000
4410:5.2087240170795051e+000
4411:4.0821158013780945e+000
4412:6.7078710995519302e+000
4413:5.8592567938881377e+000
4414:4.6148610119612474e+000
4415:3.5579590426328429e+000
4416:4.6790404302186630e+000
4417:3.2741491967796024e+000
4418:1.3980328733244964e+000
4419:-6.5839590008217277e-002
4420:4.1159359838039844e+000
4421:2.7822370188028507e+000
4422:1.0060043008724926e+000
4423:-3.7751136123760293e-001
4424:3.4403961386073667e+000
4425:2.2155180587015062e+000
4426:5.9277254353605491e-001
4427:-6.6613280135706654e-001
4428:2.9614455624189375e+000
4429:1.8292979157768550e+000
4430:3.3995598172756775e-001
4431:-8.0857107581974097e-001
4432:-8.4653558682837182e-001
4433:-2.1920928588549926e+000
4434:-3.6869988646029097e+000
4435:-4.6314069760522036e+000
4436:-1.1145086973066931e+000
4437:-2.3776760919481448e+000
4438:-3.7652162247362249e+000
4439:-4.6280345577436171e+000
4440:-1.3351199985702626e+000
4441:-2.4747483838528748e+000
4442:-3.7118379922133253e+000
4443:-4.4687248512332145e+000
4444:-1.4168231927592154e+000
4445:-2.4499553930138243e+000
4446:-3.5662312961443683e+000
4447:-4.2454973171091801e+000
4448:-5.0638622998614169e+000
4449:-5.7609457980257455e+000
4450:-6.4564868304078580e+000
4451:-6.8313726679587905e+000
4452:-5.0174945858814457e+000
4453:-5.6364178061542640e+000
4454:-6.2363327930283603e+000
4455:-6.5437525807961867e+000
4456:-4.8053426563750499e+000
4457:-5.3314951561525934e+000
4458:-5.8226906027374428e+000
4459:-6.0561495529657927e+000
4460:-4.5462044448045313e+000
4461:-5.0124619137057165e+000
4462:-5.4383466882955451e+000
4463:-5.6304920347558776e+000
4464:-6.9773106218272032e+000
4465:-7.1628170471148165e+000
4466:-7.2350466735067336e+000
4467:-7.1612282893732324e+000
4468:-6.6564360964900500e+000
4469:-6.7911586467982143e+000
4470:-6.8202754433710764e+000
4471:-6.7303097364081808e+000
4472:-6.1331427412195083e+000
4473:-6.2151640973597457e+000
4474:-6.2036807177797382e+000
4475:-6.1030016452485656e+000
4476:-5.6884652218049352e+000
4477:-5.7435808776423070e+000
4478:-5.7139854588560963e+000
4479:-5.6116261990073024e+000
4480:-7.0772298012488699e+000
4481:-6.8505806868769179e+000
4482:-6.4191174105715900e+000
4483:-5.9814138193406983e+000
4484:-6.6436119234368114e+000
4485:-6.4253888613840804e+000
4486:-6.0312669076215375e+000
4487:-5.6418060970820543e+000
4488:-6.0175532544253825e+000
4489:-5.8153945536282690e+000
4490:-5.4689284362268609e+000
4491:-5.1361022592903538e+000
4492:-5.5293464642271983e+000
4493:-5.3400489498768957e+000
4494:-5.0238985430737761e+000
4495:-4.7247573231543809e+000
4496:-5.7108872259203283e+000
4497:-5.1590859691265853e+000
4498:-4.3571051514528101e+000
4499:-3.6788027821716538e+000
4500:-5.4033262322871183e+000
4501:-4.9149123514407158e+000
4502:-4.1984663561940261e+000
4503:-3.5863086621423559e+000
4504:-4.9344964712940413e+000
4505:-4.5216062198507148e+000
4506:-3.9140174903092873e+000
4507:-3.3924719457356152e+000
4508:-4.5447703105622548e+000
4509:-4.1784453421981356e+000
4510:-3.6437600882063022e+000
4511:-3.1879073751327764e+000
4512:-3.2991712261233457e+000
4513:-2.6357273004822726e+000
4514:-1.8882717023259619e+000
4515:-1.4103986012884311e+000
4516:-3.2410681357656861e+000
4517:-2.6293773173751500e+000
4518:-1.9231451470892653e+000
4519:-1.4576152059910330e+000
4520:-3.0968764791158678e+000
4521:-2.5631961780475319e+000
4522:-1.9252212492276695e+000
4523:-1.4861463728239546e+000
4524:-2.9301895987246813e+000
4525:-2.4593492135402126e+000
4526:-1.8828606769578191e+000
4527:-1.4738515809641333e+000
4528:-1.1901341424582652e+000
4529:-8.3270924660958845e-001
4530:-4.7425607272457493e-001
4531:-2.8237767807006570e-001
4532:-1.2378644270953307e+000
4533:-8.7914432135207143e-001
4534:-5.1614251055193661e-001
4535:-3.1834237944501503e-001
4536:-1.2719441831432747e+000
4537:-9.1947419826932153e-001
4538:-5.5931242348182464e-001
4539:-3.5996500859087471e-001
4540:-1.2696048337420758e+000
4541:-9.3079039466050328e-001
4542:-5.8092217323775985e-001
4543:-3.8456535048300061e-001
4544:-2.0856250130575457e-001
4545:-1.0605547694375297e-001
4546:-3.9594480276180184e-002
4547:-4.0436512556340079e-002
4548:-2.4039018023670317e-001
4549:-1.2760729140683380e-001
4550:-4.3886971637164707e-002
4551:-2.9628783290525377e-002
4552:-2.7982961107193932e-001
4553:-1.5812839815847873e-001
4554:-5.3381503793277989e-002
4555:-1.6303226563923495e-002
4556:-3.0450384061963615e-001
4557:-1.7964011397107638e-001
4558:-6.3662145146586219e-002
4559:-1.2080320181838236e-002
4560:-7.6164303538448292e+000
4561:-4.8700709541896012e+000
4562:-2.0584337089882991e+000
4563:-3.5067406262289125e-001
4564:-7.7548842104845717e+000
4565:-5.0279729122790435e+000
4566:-2.2443519219103791e+000
4567:-5.6329419269069059e-001
4568:-7.8463355120607430e+000
4569:-5.1840957446527174e+000
4570:-2.4757598895388648e+000
4571:-8.5357724997240636e-001
4572:-7.8492815909964664e+000
4573:-5.2639435328358939e+000
4574:-2.6414394175489662e+000
4575:-1.0829369478940944e+000
4576:4.4112282108025302e-001
4577:1.8340073235858592e+000
4578:3.5029540021668168e+000
4579:4.6775011498914196e+000
4580:2.1185378161579041e-001
4581:1.5717689941308357e+000
4582:3.1939557330978019e+000
4583:4.3289838056875807e+000
4584:-1.1199104073037304e-001
4585:1.1827651702572310e+000
4586:2.7168507898104992e+000
4587:3.7824192903930123e+000
4588:-3.7658283016526961e-001
4589:8.5055571364222060e-001
4590:2.2957612308437465e+000
4591:3.2941420985722942e+000
4592:5.2656364111815579e+000
4593:6.2458413776541395e+000
4594:7.2675433505476352e+000
4595:7.8503166905883974e+000
4596:4.8944904810960779e+000
4597:5.8287565156424668e+000
4598:6.7868428464156256e+000
4599:7.3206488902616762e+000
4600:4.3104039284252611e+000
4601:5.1753302782410424e+000
4602:6.0484784355064054e+000
4603:6.5238730384299330e+000
4604:3.7871832556510139e+000
4605:4.5917655736225145e+000
4606:5.3985387664475999e+000
4607:5.8336676512899537e+000
4608:8.0890987081870964e+000
4609:8.4038402260608649e+000
4610:8.5594290393790349e+000
4611:8.4882334902032781e+000
4612:7.5339988490222574e+000
4613:7.8043171026009519e+000
4614:7.9106027485488015e+000
4615:7.8097812493097631e+000
4616:6.7090862985972182e+000
4617:6.9326445841274174e+000
4618:6.9904795472205352e+000
4619:6.8627331426720728e+000
4620:6.0013797756776084e+000
4621:6.1978754550840547e+000
4622:6.2306323167566573e+000
4623:6.0909063538984576e+000
4624:8.3840573752172958e+000
4625:8.0662483709852690e+000
4626:7.4214048734714222e+000
4627:6.7587471744447516e+000
4628:7.6933099334809931e+000
4629:7.3622375447430910e+000
4630:6.7172971369972974e+000
4631:6.0655262955582598e+000
4632:6.7359134258887030e+000
4633:6.3967149359094782e+000
4634:5.7623108840727184e+000
4635:5.1333259605430257e+000
4636:5.9602918737377646e+000
4637:5.6219003671498662e+000
4638:5.0046090149414990e+000
4639:4.4009262778563967e+000
4640:6.3500282526586176e+000
4641:5.5160475436225695e+000
4642:4.3064544522437469e+000
4643:3.2884531937538157e+000
4644:5.6663012400571802e+000
4645:4.8639053031180932e+000
4646:3.7244991918324990e+000
4647:2.7829068581639427e+000
4648:4.7514792137928739e+000
4649:3.9988595171541998e+000
4650:2.9603071826279153e+000
4651:2.1241054315206664e+000
4652:4.0370394743898705e+000
4653:3.3300209461914112e+000
4654:2.3756899210435631e+000
4655:1.6235475145548779e+000
4656:2.7169013391352492e+000
4657:1.6366581043775399e+000
4658:2.2346729886014174e-001
4659:-8.6100903025116271e-001
4660:2.2600028046035319e+000
4661:1.2820719719533291e+000
4662:2.1121102804446696e-002
4663:-9.3407631818755421e-001
4664:1.6673149637305087e+000
4665:8.2868945977505615e-001
4666:-2.2453208727242896e-001
4667:-1.0033582865510859e+000
4668:1.2184916297211277e+000
4669:4.8727142933319550e-001
4670:-4.0870618188749736e-001
4671:-1.0561076518137209e+000
4672:-1.4337753042205390e+000
4673:-2.4061049963642094e+000
4674:-3.4567628835170261e+000
4675:-4.0968285214635953e+000
4676:-1.4350303893411769e+000
4677:-2.2865413950954512e+000
4678:-3.2115299190320488e+000
4679:-3.7803712674672960e+000
4680:-1.4065360965143106e+000
4681:-2.0955576814348822e+000
4682:-2.8554913544349394e+000
4683:-3.3338824767389155e+000
4684:-1.3870460367420192e+000
4685:-1.9556941752364965e+000
4686:-2.5921229050794588e+000
4687:-3.0014457010527842e+000
4688:-4.3806022460959690e+000
4689:-4.8199913302881203e+000
4690:-5.2188554992097647e+000
4691:-5.3955330508581225e+000
4692:-4.0349053114237270e+000
4693:-4.4293970112163468e+000
4694:-4.7860024603507991e+000
4695:-4.9411405017834094e+000
4696:-3.5524998672661470e+000
4697:-3.8930372507627511e+000
4698:-4.2015225554881352e+000
4699:-4.3350090970132822e+000
4700:-3.1919462509441248e+000
4701:-3.4895451180500965e+000
4702:-3.7586715174020329e+000
4703:-3.8736532832952659e+000
4704:-5.4469058403889683e+000
4705:-5.4931368678275323e+000
4706:-5.4585315607019291e+000
4707:-5.3570196662565186e+000
4708:-4.9843686899635973e+000
4709:-5.0202307371702624e+000
4710:-4.9811108392095047e+000
4711:-4.8826850521232954e+000
4712:-4.3713770522140889e+000
4713:-4.3990458307881317e+000
4714:-4.3576659069151757e+000
4715:-4.2639908751288891e+000
4716:-3.9038109949684356e+000
4717:-3.9234035447653293e+000
4718:-3.8781694959262278e+000
4719:-3.7869253735884461e+000
4720:-5.2767218443443094e+000
4721:-5.0934244968228253e+000
4722:-4.7896579202101019e+000
4723:-4.5036662337618090e+000
4724:-4.8061806049597395e+000
4725:-4.6327918950509916e+000
4726:-4.3476075445573059e+000
4727:-4.0805651572927664e+000
4728:-4.1922296772863836e+000
4729:-4.0303485824174787e+000
4730:-3.7654579596607061e+000
4731:-3.5184443248550670e+000
4732:-3.7183888931202023e+000
4733:-3.5653286792408174e+000
4734:-3.3173637628474912e+000
4735:-3.0876241639679503e+000
4736:-4.3320714130512368e+000
4737:-3.9850063473922845e+000
4738:-3.4831961677562555e+000
4739:-3.0590763086476898e+000
4740:-3.9210202325257106e+000
4741:-3.6036634345944698e+000
4742:-3.1560564453851874e+000
4743:-2.7860495647166403e+000
4744:-3.3715607806156651e+000
4745:-3.0868337147325677e+000
4746:-2.7003682322150149e+000
4747:-2.3915647987223121e+000
4748:-2.9516263551554056e+000
4749:-2.6924360365913795e+000
4750:-2.3492151020645187e+000
4751:-2.0807251611068702e+000
4752:-2.8203911360420251e+000
4753:-2.3826266196889589e+000
4754:-1.8414537247227940e+000
4755:-1.4523703592890949e+000
4756:-2.5802840414250823e+000
4757:-2.2013883081187386e+000
4758:-1.7272536706561257e+000
4759:-1.3804065182738439e+000
4760:-2.2229852861129618e+000
4761:-1.9125580463500242e+000
4762:-1.5221430419062689e+000
4763:-1.2342737193701296e+000
4764:-1.9358090511154133e+000
4765:-1.6696425978433662e+000
4766:-1.3362599409850586e+000
4767:-1.0919307691192179e+000
4768:-1.2559865399732790e+000
4769:-9.2839137504617997e-001
4770:-5.8734652013868760e-001
4771:-3.9395564323760501e-001
4772:-1.2028152118031081e+000
4773:-9.0327900900499525e-001
4774:-5.8571948735499024e-001
4775:-4.0115743428008699e-001
4776:-1.0857756564157786e+000
4777:-8.3191576718515581e-001
4778:-5.5578713261370516e-001
4779:-3.8926233340876681e-001
4780:-9.6641465275995508e-001
4781:-7.5043706930875531e-001
4782:-5.1168058929711824e-001
4783:-3.6388479802555962e-001
4784:-3.1436565266072702e-001
4785:-1.8920288379711467e-001
4786:-7.0081593241670806e-002
4787:-1.3451760094962427e-002
4788:-3.2348919140690702e-001
4789:-2.0055944661235878e-001
4790:-8.1518851475885015e-002
4791:-2.1974518609612262e-002
4792:-3.1679261727906033e-001
4793:-2.0224182066441909e-001
4794:-9.2363708575161921e-002
4795:-3.8048768547964441e-002
4796:-2.9795702279509040e-001
4797:-1.9390634669786769e-001
4798:-9.5482152743983306e-002
4799:-4.8444995192990947e-002
4800:-7.8274804541045064e+000
4801:-5.2919230008525897e+000
4802:-2.7247638040136763e+000
4803:-1.2069125536665264e+000
4804:-7.7400417540607567e+000
4805:-5.3152234674138743e+000
4806:-2.8727052541067417e+000
4807:-1.4453606597641293e+000
4808:-7.5326441647579436e+000
4809:-5.2900992954279440e+000
4810:-3.0523007400091662e+000
4811:-1.7693883932334133e+000
4812:-7.3015453668688526e+000
4813:-5.2309193770800446e+000
4814:-3.1828011957596667e+000
4815:-2.0288595348168146e+000
4816:-5.2286675126975091e-001
4817:6.6177556183311637e-001
4818:2.0519852492989274e+000
4819:3.0096655017597871e+000
4820:-8.1007704793304247e-001
4821:2.8317891684936614e-001
4822:1.5574695751138894e+000
4823:2.4308489754245821e+000
4824:-1.2096787659445054e+000
4825:-2.5601654962850134e-001
4826:8.4400676198293056e-001
4827:1.5923611796788777e+000
4828:-1.5346197703541540e+000
4829:-7.0117949179004735e-001
4830:2.4931445345572109e-001
4831:8.9070282363767439e-001
4832:3.4819382192501105e+000
4833:4.2518925281103739e+000
4834:5.0229099410703100e+000
4835:5.4381796163881972e+000
4836:2.8606252444195239e+000
4837:3.5613263775377235e+000
4838:4.2634411250034656e+000
4839:4.6421109957207412e+000
4840:1.9597156228542048e+000
4841:2.5608878632786514e+000
4842:3.1672332864632979e+000
4843:3.4967084656662415e+000
4844:1.2047872726257316e+000
4845:1.7219065210415940e+000
4846:2.2483324462742056e+000
4847:2.5367370613597164e+000
4848:5.5979798202127427e+000
4849:5.7829959913042446e+000
4850:5.8062750469693345e+000
4851:5.6628757548671818e+000
4852:4.7878718521102339e+000
4853:4.9526141144018352e+000
4854:4.9595795478519848e+000
4855:4.8106903317717453e+000
4856:3.6239809508488658e+000
4857:3.7617657559881379e+000
4858:3.7473396152823768e+000
4859:3.5925643090108359e+000
4860:2.6483205205393503e+000
4861:2.7629145694834487e+000
4862:2.7301877198130962e+000
4863:2.5711447078073180e+000
4864:5.5315214360494807e+000
4865:5.1959192278705695e+000
4866:4.5911847283806209e+000
4867:4.0042217837748950e+000
4868:4.6789365957894660e+000
4869:4.3516605987337167e+000
4870:3.7775045297791157e+000
4871:3.2299214777166303e+000
4872:3.4617653828171608e+000
4873:3.1511599105000432e+000
4874:2.6314100485930743e+000
4875:2.1522203940117155e+000
4876:2.4420306770995288e+000
4877:2.1486942177091981e+000
4878:1.6825003502229869e+000
4879:1.2698131831683883e+000
4880:3.6518673011241090e+000
4881:2.9722113906032965e+000
4882:2.0653401142863168e+000
4883:1.3589077743537630e+000
4884:2.9043536466216793e+000
4885:2.2846787367437922e+000
4886:1.4746765128534582e+000
4887:8.5660235599106760e-001
4888:1.8725958185685432e+000
4889:1.3495052135184549e+000
4890:6.8214776897453155e-001
4891:1.8434423253535548e-001
4892:1.0345049379948683e+000
4893:6.0033229144512157e-001
4894:5.4959917622723259e-002
4895:-3.4733742897664416e-001
4896:9.8151433886482264e-001
4897:3.0654388720814002e-001
4898:-5.0920445191224240e-001
4899:-1.0909748212267802e+000
4900:5.3103626376327362e-001
4901:-4.2051180540266082e-002
4902:-7.1806532423449765e-001
4903:-1.1887249414755272e+000
4904:-7.4032602672345432e-002
4905:-5.2080052714997216e-001
4906:-1.0325037852620964e+000
4907:-1.3775134585278179e+000
4908:-5.5493976807373435e-001
4909:-9.0937145126326635e-001
4910:-1.3054565844838728e+000
4911:-1.5643831184701806e+000
4912:-1.3862174838450039e+000
4913:-1.8946964203376178e+000
4914:-2.4676098435929075e+000
4915:-2.8397208222000163e+000
4916:-1.4242378778108149e+000
4917:-1.8301757520506405e+000
4918:-2.2902225219124981e+000
4919:-2.5919299213772167e+000
4920:-1.5465012132896885e+000
4921:-1.8348549255984605e+000
4922:-2.1571877541466282e+000
4923:-2.3655053456441193e+000
4924:-1.6881645749169143e+000
4925:-1.8944015131720187e+000
4926:-2.1152416199062132e+000
4927:-2.2500807456976983e+000
4928:-3.0143140060044282e+000
4929:-3.2868659118290284e+000
4930:-3.5316807482026387e+000
4931:-3.6339820033137742e+000
4932:-2.7345935017599334e+000
4933:-2.9551628023308338e+000
4934:-3.1466242463496639e+000
4935:-3.2186311325495316e+000
4936:-2.4628152639326308e+000
4937:-2.6078165283340251e+000
4938:-2.7196262289267006e+000
4939:-2.7450850972309615e+000
4940:-2.3100131258159915e+000
4941:-2.3928713323997153e+000
4942:-2.4406335064540450e+000
4943:-2.4303937131694937e+000
4944:-3.6592954262645865e+000
4945:-3.6721051102336411e+000
4946:-3.6225048510908104e+000
4947:-3.5315301341436776e+000
4948:-3.2313380324917942e+000
4949:-3.2256250873054517e+000
4950:-3.1619552325659961e+000
4951:-3.0682160920386665e+000
4952:-2.7380064436657343e+000
4953:-2.7026167721078358e+000
4954:-2.6148012194586903e+000
4955:-2.5140457366792077e+000
4956:-2.4089443096428647e+000
4957:-2.3521369627396340e+000
4958:-2.2469257385315999e+000
4959:-2.1412146183436165e+000
4960:-3.4644523273175336e+000
4961:-3.3163347039360969e+000
4962:-3.0790698256477422e+000
4963:-2.8607775001884406e+000
4964:-3.0025705617592209e+000
4965:-2.8623836193038259e+000
4966:-2.6457096409618259e+000
4967:-2.4510614442236589e+000
4968:-2.4487924750922145e+000
4969:-2.3166783247358786e+000
4970:-2.1251328707243551e+000
4971:-1.9611978678338695e+000
4972:-2.0763021588405981e+000
4973:-1.9493728311560126e+000
4974:-1.7738771890981158e+000
4975:-1.6298869499873818e+000
4976:-2.7320084173355381e+000
4977:-2.4880799021810982e+000
4978:-2.1676181472328970e+000
4979:-1.9184025506899209e+000
4980:-2.3374959252543421e+000
4981:-2.1235736293242518e+000
4982:-1.8440433686788082e+000
4983:-1.6272004769539909e+000
4984:-1.8677433522455231e+000
4985:-1.6916859699903204e+000
4986:-1.4604490920295656e+000
4987:-1.2798371758631431e+000
4988:-1.5496439340060819e+000
4989:-1.3985212454174396e+000
4990:-1.1994869144892928e+000
4991:-1.0436401452098176e+000
4992:-1.7842528144916849e+000
4993:-1.5382885915672129e+000
4994:-1.2316805549365624e+000
4995:-1.0087226377810259e+000
4996:-1.5105665543878009e+000
4997:-1.2982169038456888e+000
4998:-1.0375214922355573e+000
4999:-8.5179600858402449e-001
5000:-1.1823794677185768e+000
5001:-1.0079104498104690e+000
5002:-8.0012442645219872e-001
5003:-6.5702259786201767e-001
5004:-9.5957469116770222e-001
5005:-8.1161765384863149e-001
5006:-6.3984711801240357e-001
5007:-5.2412204650805916e-001
5008:-8.9490676661607360e-001
5009:-6.9893416055897584e-001
5010:-4.8119375673805515e-001
5011:-3.4496993451729646e-001
5012:-7.5844725728403684e-001
5013:-5.9782845315245703e-001
5014:-4.1832161171079085e-001
5015:-3.0444583697583399e-001
5016:-5.8674292298702690e-001
5017:-4.6611345856863462e-001
5018:-3.3104039601357865e-001
5019:-2.4486448010399112e-001
5020:-4.6792082721067357e-001
5021:-3.7151843945649843e-001
5022:-2.6385362917562971e-001
5023:-1.9573202397499032e-001
5024:-2.8351848853425793e-001
5025:-1.8639019808308965e-001
5026:-9.4826547250922849e-002
5027:-5.1698937671060201e-002
5028:-2.5227161426953310e-001
5029:-1.6916386570827571e-001
5030:-9.0217810198413434e-002
5031:-5.2962343786352714e-002
5032:-2.0507340920865069e-001
5033:-1.4066788273693093e-001
5034:-7.7765067276340374e-002
5035:-4.6880091275777455e-002
5036:-1.6454528333828808e-001
5037:-1.1363530405860116e-001
5038:-6.3109670416236024e-002
5039:-3.7820636179334580e-002
5040:-7.1529570053114959e+000
5041:-5.1863516797028897e+000
5042:-3.2510033534718525e+000
5043:-2.1715459235455183e+000
5044:-6.8303843664069852e+000
5045:-5.0824282080737628e+000
5046:-3.3791570716266746e+000
5047:-2.4476553312001861e+000
5048:-6.3354763577478579e+000
5049:-4.9129680224167398e+000
5050:-3.5479460149925397e+000
5051:-2.8237182489446231e+000
5052:-5.9105663564826827e+000
5053:-4.7626501465078768e+000
5054:-3.6796426007160750e+000
5055:-3.1236793397678406e+000
5056:-1.7142772242082562e+000
5057:-9.4864415566436999e-001
5058:-8.2709326979197362e-002
5059:4.9796050613958276e-001
5060:-2.0617162367336577e+000
5061:-1.4261547039932809e+000
5062:-7.2327258145641760e-001
5063:-2.6165104829236546e-001
5064:-2.5341444482380617e+000
5065:-2.0723786666307511e+000
5066:-1.5881978957091758e+000
5067:-1.2897273362726844e+000
5068:-2.9101965332870678e+000
5069:-2.5839896370662121e+000
5070:-2.2704102231577967e+000
5071:-2.1013970294381039e+000
5072:7.8171975015701223e-001
5073:1.2509832735221158e+000
5074:1.7316860589441978e+000
5075:1.9961728434354453e+000
5076:-3.8411642283029825e-002
5077:3.3333613862732092e-001
5078:7.1780778078914675e-001
5079:9.3016319923731228e-001
5080:-1.1514858780692432e+000
5081:-9.2191510758482653e-001
5082:-6.8632186024324504e-001
5083:-5.6019161136478324e-001
5084:-2.0320468308366859e+000
5085:-1.9224893844089128e+000
5086:-1.8207496718423624e+000
5087:-1.7777039037182163e+000
5088:2.0983821560230891e+000
5089:2.1990633705472797e+000
5090:2.1555133880976434e+000
5091:1.9942924757093672e+000
5092:1.0115229967449044e+000
5093:1.0826530211981642e+000
5094:1.0197914131168331e+000
5095:8.5943055112759359e-001
5096:-5.1487056639037287e-001
5097:-4.9124613786324656e-001
5098:-5.7542824815937210e-001
5099:-7.2024618177932498e-001
5100:-1.7687608071472884e+000
5101:-1.7902451706392266e+000
5102:-1.8863745235878346e+000
5103:-2.0045321314230229e+000
5104:1.8665186645676444e+000
5105:1.5843136573267096e+000
5106:1.1514563307554877e+000
5107:7.7967898881529563e-001
5108:7.3825829085942718e-001
5109:4.8655538510090135e-001
5110:1.3093333071123181e-001
5111:-1.5246727064521570e-001
5112:-8.2147512684263713e-001
5113:-1.0111420922219718e+000
5114:-1.2390528245874222e+000
5115:-1.3904419933821215e+000
5116:-2.0792082111574675e+000
5117:-2.2022098711034639e+000
5118:-2.3146216666104613e+000
5119:-2.3583274320077146e+000
5120:5.7143998394966689e-001
5121:1.9009824188095764e-001
5122:-2.8596361467274928e-001
5123:-6.3651301786892400e-001
5124:-3.0408617426576606e-001
5125:-5.7862639627233226e-001
5126:-9.2012539485090628e-001
5127:-1.1731454502160716e+000
5128:-1.4612959611770393e+000
5129:-1.5869423965561036e+000
5130:-1.7442904520533240e+000
5131:-1.8642370570405442e+000
5132:-2.3663618194397529e+000
5133:-2.3755473059118173e+000
5134:-2.3848664446908470e+000
5135:-2.3933687794179104e+000
5136:-8.1749214686921257e-001
5137:-1.1241319256206699e+000
5138:-1.4610533319800358e+000
5139:-1.6761552158677564e+000
5140:-1.3046085960643048e+000
5141:-1.5220322869848586e+000
5142:-1.7479519965616366e+000
5143:-1.8807403574424226e+000
5144:-1.9277403441566436e+000
5145:-2.0231485295604528e+000
5146:-2.0993279021440960e+000
5147:-2.1234465880347146e+000
5148:-2.3982239052719967e+000
5149:-2.3899113215589236e+000
5150:-2.3435261356976085e+000
5151:-2.2828712565023674e+000
5152:-1.7768928306986198e+000
5153:-1.9406982266982555e+000
5154:-2.1077643195853391e+000
5155:-2.2025327597987832e+000
5156:-1.9382476303541587e+000
5157:-2.0224231815407205e+000
5158:-2.0886981700482288e+000
5159:-2.1086497434014060e+000
5160:-2.1249163273820946e+000
5161:-2.1077623292267971e+000
5162:-2.0498265537513642e+000
5163:-1.9810406557537830e+000
5164:-2.2422612823918411e+000
5165:-2.1521905481994801e+000
5166:-2.0113768706578186e+000
5167:-1.8887481132968718e+000
5168:-2.2417099025464697e+000
5169:-2.2905856846801562e+000
5170:-2.3048087962344606e+000
5171:-2.2773701177485468e+000
5172:-2.1093211426157037e+000
5173:-2.0971870294758812e+000
5174:-2.0556306105188185e+000
5175:-2.0036717276839258e+000
5176:-1.9373486008151255e+000
5177:-1.8570329024993768e+000
5178:-1.7572714762014410e+000
5179:-1.6836033706989169e+000
5180:-1.8199747211865296e+000
5181:-1.7011161751299684e+000
5182:-1.5673997044259724e+000
5183:-1.4795836264744058e+000
5184:-2.2496720333099898e+000
5185:-2.1838073641827398e+000
5186:-2.0716509128822165e+000
5187:-1.9645487996279143e+000
5188:-1.9689564500348748e+000
5189:-1.8941533469797212e+000
5190:-1.7776900189074054e+000
5191:-1.6733880164768666e+000
5192:-1.6447189510143485e+000
5193:-1.5665204274956452e+000
5194:-1.4532000002478744e+000
5195:-1.3578254473151692e+000
5196:-1.4369591671195285e+000
5197:-1.3547330518425749e+000
5198:-1.2418363590458252e+000
5199:-1.1517027959173682e+000
5200:-1.9002801082284098e+000
5201:-1.7761572461191342e+000
5202:-1.6077228245883415e+000
5203:-1.4721724200811908e+000
5204:-1.6127366407961286e+000
5205:-1.4967099368441170e+000
5206:-1.3417975549393217e+000
5207:-1.2197294524214035e+000
5208:-1.3041907902667897e+000
5209:-1.2014883650347472e+000
5210:-1.0645604198842507e+000
5211:-9.5776155394208418e-001
5212:-1.1025964971934572e+000
5213:-1.0089658644665112e+000
5214:-8.8508061581934194e-001
5215:-7.8978153252249783e-001
5216:-1.3975235497489373e+000
5217:-1.2574002627967273e+000
5218:-1.0736236958182059e+000
5219:-9.3039607016033943e-001
5220:-1.1535366095386481e+000
5221:-1.0306218258437727e+000
5222:-8.7204546050453369e-001
5223:-7.5056359965275010e-001
5224:-9.0052294920815579e-001
5225:-7.9626824013748088e-001
5226:-6.6597746612867426e-001
5227:-5.6943271748868374e-001
5228:-7.3934306448323384e-001
5229:-6.4883668248471993e-001
5230:-5.3845236888942538e-001
5231:-4.5877106533981860e-001
5232:-8.5343963068957329e-001
5233:-7.1922497248027573e-001
5234:-5.6505594766832212e-001
5235:-4.6164114395472194e-001
5236:-6.8603636724113159e-001
5237:-5.7451295400842906e-001
5238:-4.4693777933449919e-001
5239:-3.6043701827450075e-001
5240:-5.1916776601385051e-001
5241:-4.3178647529694836e-001
5242:-3.2935130861183459e-001
5243:-2.5698706565675761e-001
5244:-4.1790796229102362e-001
5245:-3.4588696965744908e-001
5246:-2.5913462125498671e-001
5247:-1.9612197742661414e-001
5248:-4.1133809100989338e-001
5249:-3.2497896005411614e-001
5250:-2.2884297871528400e-001
5251:-1.6866659592445360e-001
5252:-3.1770719663685920e-001
5253:-2.4476593770713914e-001
5254:-1.6530837184389580e-001
5255:-1.1753789923334899e-001
5256:-2.2010493867027767e-001
5257:-1.5851310595093643e-001
5258:-9.4921093913863788e-002
5259:-5.9745353509256624e-002
5260:-1.6356036279583286e-001
5261:-1.1045326182641731e-001
5262:-5.8137983108222761e-002
5263:-3.1011497736143149e-002
5264:-1.4146254181541174e-001
5265:-9.7160984506257264e-002
5266:-5.3422100819495770e-002
5267:-3.1887953313838140e-002
5268:-9.6848684851060005e-002
5269:-6.3964160563068528e-002
5270:-3.3185112748949475e-002
5271:-1.9910505332722383e-002
5272:-4.5802440985275354e-002
5273:-2.5242051203603438e-002
5274:-9.3693852197140656e-003
5275:-6.2192358799892855e-003
5276:-2.0962268720053707e-002
5277:-7.2224658122239391e-003
5278:1.0418051479124991e-003
5279:-2.7374475379358763e-004
5280:-5.6715717690826200e+000
5281:-4.6769641446609302e+000
5282:-3.7506497624500668e+000
5283:-3.2870418189699437e+000
5284:-5.2047305075153671e+000
5285:-4.5051086589633380e+000
5286:-3.8782345676304710e+000
5287:-3.5899001415494576e+000
5288:-4.5694815661169264e+000
5289:-4.2629841613168926e+000
5290:-4.0321010861308073e+000
5291:-3.9742181078077836e+000
5292:-4.0715750659544518e+000
5293:-4.0677357665457476e+000
5294:-4.1404465090968277e+000
5295:-4.2591069166468207e+000
5296:-3.1147520990202544e+000
5297:-2.8613721030484407e+000
5298:-2.6393499830944616e+000
5299:-2.5404420763319155e+000
5300:-3.4954740267515660e+000
5301:-3.3799536394074545e+000
5302:-3.3316815006459879e+000
5303:-3.3660377312624221e+000
5304:-3.9820475399159143e+000
5305:-4.0488182090062210e+000
5306:-4.2323278862782452e+000
5307:-4.4454040027153079e+000
5308:-4.3455324408486558e+000
5309:-4.5539151841762164e+000
5310:-4.9199782644120997e+000
5311:-5.2751583671995972e+000
5312:-2.5088522017144812e+000
5313:-2.4669036922144771e+000
5314:-2.4437289688521404e+000
5315:-2.4515922299354047e+000
5316:-3.4063575592490047e+000
5317:-3.4947646694466732e+000
5318:-3.6261987249989294e+000
5319:-3.7366320412596945e+000
5320:-4.5823233566257908e+000
5321:-4.8460370758407638e+000
5322:-5.1856826448316582e+000
5323:-5.4344096708086669e+000
5324:-5.4890505521437154e+000
5325:-5.8902150271183817e+000
5326:-6.3884807860778317e+000
5327:-6.7388944786609262e+000
5328:-2.4655699848787731e+000
5329:-2.5144750710628414e+000
5330:-2.6147946076573465e+000
5331:-2.7123837798978934e+000
5332:-3.7975093863424263e+000
5333:-3.9005229258212371e+000
5334:-4.0031254890767123e+000
5335:-4.0517894518840540e+000
5336:-5.5584406594271094e+000
5337:-5.7320265190847133e+000
5338:-5.8307935596063372e+000
5339:-5.8060986785008470e+000
5340:-6.9080456679164355e+000
5341:-7.1314983677942561e+000
5342:-7.2262417272150712e+000
5343:-7.1477576562187251e+000
5344:-2.7681756895018239e+000
5345:-2.8484069981992528e+000
5346:-2.8942337969197918e+000
5347:-2.8803783031300711e+000
5348:-4.0651040918085606e+000
5349:-4.0557534140093869e+000
5350:-3.9728920717230363e+000
5351:-3.8541293170481201e+000
5352:-5.7579253573020939e+000
5353:-5.6238282279206580e+000
5354:-5.3702402209370961e+000
5355:-5.1176868034682279e+000
5356:-7.0547078665736951e+000
5357:-6.8279811130588435e+000
5358:-6.4447358670008690e+000
5359:-6.0887938165808722e+000
5360:-2.8560312709111106e+000
5361:-2.8039476376389061e+000
5362:-2.7319120173671063e+000
5363:-2.6761933089981071e+000
5364:-3.7723110964871300e+000
5365:-3.6082111834950092e+000
5366:-3.3801002109882408e+000
5367:-3.1959692843256686e+000
5368:-4.9639759227103415e+000
5369:-4.6569854442070024e+000
5370:-4.2235975841818920e+000
5371:-3.8662832633069422e+000
5372:-5.8791256336803608e+000
5373:-5.4626702945643695e+000
5374:-4.8752576478811758e+000
5375:-4.3897998400203537e+000
5376:-2.6462812128882081e+000
5377:-2.5773577872497975e+000
5378:-2.4617952835840797e+000
5379:-2.3553883972497354e+000
5380:-3.0951066618198109e+000
5381:-2.9042121179417015e+000
5382:-2.6537497486920296e+000
5383:-2.4616741246326832e+000
5384:-3.6685375847808572e+000
5385:-3.3117294394662800e+000
5386:-2.8796956592479539e+000
5387:-2.5740219949704572e+000
5388:-4.1206835053658164e+000
5389:-3.6398249011114414e+000
5390:-3.0679957392791768e+000
5391:-2.6715605519721377e+000
5392:-2.2928951241036515e+000
5393:-2.1665762576960010e+000
5394:-1.9880473097445170e+000
5395:-1.8439338380600410e+000
5396:-2.3596024045349684e+000
5397:-2.1705889415737794e+000
5398:-1.9325171089113331e+000
5399:-1.7593774106142679e+000
5400:-2.4202200336817867e+000
5401:-2.1512522336811117e+000
5402:-1.8407976330616367e+000
5403:-1.6350883702450245e+000
5404:-2.4751497588194451e+000
5405:-2.1381854600863668e+000
5406:-1.7607847877779068e+000
5407:-1.5187630788670514e+000
5408:-1.7662359279368633e+000
5409:-1.6330431308860553e+000
5410:-1.4846056042166438e+000
5411:-1.3883233357644884e+000
5412:-1.6714217812336833e+000
5413:-1.5189200388328095e+000
5414:-1.3437568627715579e+000
5415:-1.2263388120402907e+000
5416:-1.5365294009196138e+000
5417:-1.3603353238450082e+000
5418:-1.1459279527409738e+000
5419:-9.9418589878741304e-001
5420:-1.4051974042931330e+000
5421:-1.2001485802179324e+000
5422:-9.4750115509614063e-001
5423:-7.6820707450462478e-001
5424:-1.3421126959790310e+000
5425:-1.2547741867616382e+000
5426:-1.1386834672075663e+000
5427:-1.0490471749289019e+000
5428:-1.1689692665054734e+000
5429:-1.0644868494323609e+000
5430:-9.3464931656307415e-001
5431:-8.4148193586635966e-001
5432:-9.1800398814805062e-001
5433:-7.8470580029516745e-001
5434:-6.3179227951303507e-001
5435:-5.3236605728893638e-001
5436:-6.7874402390061195e-001
5437:-5.2657923405896045e-001
5438:-3.6167552518556351e-001
5439:-2.6284544605127508e-001
5440:-1.0012658458930921e+000
5441:-9.1109880643789609e-001
5442:-7.9364012765930281e-001
5443:-7.0491420401542404e-001
5444:-7.9433862612602091e-001
5445:-7.0885686601683218e-001
5446:-6.0408057881239663e-001
5447:-5.3010872950123578e-001
5448:-4.8593379662852904e-001
5449:-4.0775475727986843e-001
5450:-3.2325421560493872e-001
5451:-2.7251855312636791e-001
5452:-2.2010058817201503e-001
5453:-1.5272066995318589e-001
5454:-8.8652109345625757e-002
5455:-5.7766302627130645e-002
5456:-6.5856285958483207e-001
5457:-5.7594837908054952e-001
5458:-4.7616226662446576e-001
5459:-4.0488175221172717e-001
5460:-4.9323063322742705e-001
5461:-4.2838014322566126e-001
5462:-3.5137315584954376e-001
5463:-2.9747101813790700e-001
5464:-2.5032772381472757e-001
5465:-2.1254009176368302e-001
5466:-1.6951289425618757e-001
5467:-1.4118603115732714e-001
5468:-4.7304763692532087e-002
5469:-3.1087016383191148e-002
5470:-1.5485819693468010e-002
5471:-8.2131551818963866e-003
5472:-3.6854175422196805e-001
5473:-3.0407766496958882e-001
5474:-2.2581928879591576e-001
5475:-1.6886831803703503e-001
5476:-2.7037029284483166e-001
5477:-2.2244785359367586e-001
5478:-1.6503593052363730e-001
5479:-1.2438020061177089e-001
5480:-1.2768860847648286e-001
5481:-1.0523409209980318e-001
5482:-8.1608961672101396e-002
5483:-6.7897507915715929e-002
5484:-6.0766638501764374e-003
5485:-4.7343849453860380e-003
5486:-8.2977110468762019e-003
5487:-1.5300739921553624e-002
5488:-1.3953913495513834e-001
5489:-9.2363740305207415e-002
5490:-4.6900982677074106e-002
5491:-2.3835998786544792e-002
5492:-1.0397008880311170e-001
5493:-7.1744982039492616e-002
5494:-4.1051155760509939e-002
5495:-2.5015350824617713e-002
5496:-6.2129183121037497e-002
5497:-5.3261557592876776e-002
5498:-4.3661364379287852e-002
5499:-3.6316601794313910e-002
5500:-2.0405290588560103e-002
5501:-2.8753990438412477e-002
5502:-3.4892179429840540e-002
5503:-3.4569039609332691e-002
5504:-1.5416833139138103e-002
5505:-4.1617565835045224e-003
5506:2.1084197718666178e-003
5507:4.2727582653688089e-004
5508:-1.8725545771976351e-002
5509:-9.8502102378436041e-003
5510:-3.4678305588394754e-003
5511:-2.2694700168780684e-003
5512:-3.2069345591125349e-002
5513:-2.4564246846140933e-002
5514:-1.5266559985840457e-002
5515:-7.8903234419638504e-003
5516:-3.2400078238026250e-002
5517:-2.7270935535994224e-002
5518:-1.8152280846997746e-002
5519:-8.4444662662885080e-003
5520:-3.8050646919248403e+000
5521:-3.9612313353990189e+000
5522:-4.1943596805744576e+000
5523:-4.4065744879624971e+000
5524:-3.3070558226971527e+000
5525:-3.7542086686734142e+000
5526:-4.2804376501116010e+000
5527:-4.6654559494541221e+000
5528:-2.6739920566690825e+000
5529:-3.4744653789379840e+000
5530:-4.3619656845541197e+000
5531:-4.9659732410676369e+000
5532:-2.2124485266495433e+000
5533:-3.2571631450146823e+000
5534:-4.4011736881979120e+000
5535:-5.1674914954869893e+000
5536:-4.5348715149782137e+000
5537:-4.8194079341758522e+000
5538:-5.2847626396660283e+000
5539:-5.7178092702172831e+000
5540:-4.8720519953643500e+000
5541:-5.3006076052125852e+000
5542:-5.9551640490254023e+000
5543:-6.5363375107227739e+000
5544:-5.2744646241612214e+000
5545:-5.8926119638608787e+000
5546:-6.7966346292085600e+000
5547:-7.5709560762109662e+000
5548:-5.5542456671888418e+000
5549:-6.3186166517255993e+000
5550:-7.4131112517258826e+000
5551:-8.3318341094673016e+000
5552:-5.9739110242355569e+000
5553:-6.4489182107280314e+000
5554:-7.0292675225354788e+000
5555:-7.4298047887915306e+000
5556:-6.8721410083900825e+000
5557:-7.4824663963555764e+000
5558:-8.2056579181729212e+000
5559:-8.6878408337512063e+000
5560:-8.0091319845237301e+000
5561:-8.7868561260879456e+000
5562:-9.6751831320314405e+000
5563:-1.0243165703700633e+001
5564:-8.8450495167006356e+000
5565:-9.7421210786945771e+000
5566:-1.0742481413261517e+001
5567:-1.1364525695450565e+001
5568:-7.6203077799794254e+000
5569:-7.8674597841481386e+000
5570:-7.9608852042194203e+000
5571:-7.8575972458671242e+000
5572:-8.9112014360820258e+000
5573:-9.1951226946997640e+000
5574:-9.2882084537489220e+000
5575:-9.1488310178840297e+000
5576:-1.0498023594626837e+001
5577:-1.0818317106767765e+001
5578:-1.0916198501135927e+001
5579:-1.0748723812365494e+001
5580:-1.1637766132724844e+001
5581:-1.1980849426158855e+001
5582:-1.2087715435774554e+001
5583:-1.1911757244194151e+001
5584:-7.7435781263877983e+000
5585:-7.4714441126657007e+000
5586:-7.0207969937176644e+000
5587:-6.6086288178899171e+000
5588:-9.0036220380533347e+000
5589:-8.6589705398454182e+000
5590:-8.0908132560543091e+000
5591:-7.5734238651942567e+000
5592:-1.0577473538608853e+001
5593:-1.0162750313242579e+001
5594:-9.4626769059952487e+000
5595:-8.8141771155921607e+000
5596:-1.1730341047796554e+001
5597:-1.1279752400374354e+001
5598:-1.0497370112638146e+001
5599:-9.7574865615097881e+000
5600:-6.3678967975768082e+000
5601:-5.8923541992650188e+000
5602:-5.2252627813020407e+000
5603:-4.6757091586115100e+000
5604:-7.2723399571867180e+000
5605:-6.6837758857959688e+000
5606:-5.8698342621503938e+000
5607:-5.2069569173541597e+000
5608:-8.4338483021997721e+000
5609:-7.6968604653175694e+000
5610:-6.6940289823401447e+000
5611:-5.8905061854227778e+000
5612:-9.3189763126705376e+000
5613:-8.4703083033797579e+000
5614:-7.3228187085943759e+000
5615:-6.4115870839297022e+000
5616:-4.3713987375555403e+000
5617:-3.8280070584526431e+000
5618:-3.1825807979142025e+000
5619:-2.7358144760465937e+000
5620:-4.8419162589434857e+000
5621:-4.1884100056287163e+000
5622:-3.4074799872625476e+000
5623:-2.8628149448840876e+000
5624:-5.4520806394637162e+000
5625:-4.6631067090783276e+000
5626:-3.7081764866411677e+000
5627:-3.0309798200199687e+000
5628:-5.9174431908532750e+000
5629:-5.0256532898960904e+000
5630:-3.9373449692286582e+000
5631:-3.1565608839968551e+000
5632:-2.5147908252072777e+000
5633:-2.1367568758980018e+000
5634:-1.7149141291208179e+000
5635:-1.4448863094433777e+000
5636:-2.5918045045195997e+000
5637:-2.1264836013839021e+000
5638:-1.6027109927140237e+000
5639:-1.2625682296020275e+000
5640:-2.6895013952822855e+000
5641:-2.0957266984447140e+000
5642:-1.4122221130287671e+000
5643:-9.5540750288628007e-001
5644:-2.7590071968284415e+000
5645:-2.0606531221780262e+000
5646:-1.2432002436720562e+000
5647:-6.8623291452628565e-001
5648:-1.3181979809578412e+000
5649:-1.0905191860941605e+000
5650:-8.1334831525385243e-001
5651:-6.2026237988373489e-001
5652:-1.1012649445767164e+000
5653:-8.1796637376755610e-001
5654:-4.8898378894247502e-001
5655:-2.7343985762807554e-001
5656:-7.3467245302173056e-001
5657:-3.5893309431904469e-001
5658:4.9906964648099537e-002
5659:2.9504573627275782e-001
5660:-4.1388933302342640e-001
5661:4.2699268554271697e-002
5662:5.2344813238565857e-001
5663:7.9830953830909901e-001
5664:-5.2551510195780604e-001
5665:-3.6697346587530222e-001
5666:-2.0061819427621999e-001
5667:-1.0597534208081133e-001
5668:-1.7290941125469134e-001
5669:-1.0010476634848223e-002
5670:1.5027556646359780e-001
5671:2.3115238846004246e-001
5672:4.0069742412264731e-001
5673:5.6486555419749440e-001
5674:7.1267379839839196e-001
5675:7.7298796530919189e-001
5676:9.1140806535208774e-001
5677:1.0829858499425338e+000
5678:1.2293624608892033e+000
5679:1.2799806772215017e+000
5680:-6.7238243294651778e-002
5681:-8.6346533139663086e-003
5682:4.2365715327654735e-002
5683:6.2362800673430752e-002
5684:2.5957709888166064e-001
5685:2.9830866935637457e-001
5686:3.2354651751495656e-001
5687:3.2404577204258278e-001
5688:7.8691657061213549e-001
5689:7.9883214106736733e-001
5690:7.9034345204183309e-001
5691:7.6511853239642880e-001
5692:1.2859088858067746e+000
5693:1.2814765133539785e+000
5694:1.2485151274540924e+000
5695:1.2009327187824494e+000
5696:6.6841199920919123e-002
5697:7.1950760015138726e-002
5698:7.2990724683071828e-002
5699:6.8711806973236228e-002
5700:3.1821316751368467e-001
5701:3.0330355250638719e-001
5702:2.7630371925314973e-001
5703:2.4867960628332536e-001
5704:7.4529413107641174e-001
5705:7.0178809092725691e-001
5706:6.3255203248985148e-001
5707:5.6878657889469530e-001
5708:1.1676187417491226e+000
5709:1.0963053339987030e+000
5710:9.8641783599810540e-001
5711:8.8848291244172162e-001
5712:6.4506757160428169e-002
5713:5.4396702255720582e-002
5714:3.6950499802225603e-002
5715:2.0122154144231356e-002
5716:2.3141794793040429e-001
5717:1.9823658426428231e-001
5718:1.5406145720367828e-001
5719:1.1934986645598722e-001
5720:5.3116672162983469e-001
5721:4.6195733844528586e-001
5722:3.7601388328133872e-001
5723:3.1339255706126595e-001
5724:8.3182731197576376e-001
5725:7.2806277119466667e-001
5726:6.0007178407857220e-001
5727:5.0773265879822371e-001
5728:1.0110234626298242e-002
5729:-6.1690895491134726e-003
5730:-2.0157171413816226e-002
5731:-2.4066987592761512e-002
5732:1.0071099341850343e-001
5733:6.9473303302865927e-002
5734:3.8142243697308252e-002
5735:2.2478131697968119e-002
5736:2.8124370277275329e-001
5737:2.2516026058699953e-001
5738:1.6198916558584148e-001
5739:1.2237386591491016e-001
5740:4.6063119994764445e-001
5741:3.7718870245245012e-001
5742:2.7954404035363717e-001
5743:2.1449292964793876e-001
5744:-2.3589905236172836e-002
5745:-2.1132588972256335e-002
5746:-1.4479607669638529e-002
5747:-5.7513977761506048e-003
5748:1.7181762405850780e-002
5749:9.4446760738892792e-003
5750:4.3629477297939985e-003
5751:5.6242714177724669e-003
5752:1.0452088438782788e-001
5753:7.4518847381248199e-002
5754:4.3730332204688763e-002
5755:2.8397809360116967e-002
5756:1.8352390268987129e-001
5757:1.3118933199740318e-001
5758:7.6538348210162518e-002
5759:4.7412047780071007e-002
5760:-1.9779998670683345e+000
5761:-3.1416214873243340e+000
5762:-4.4138567757857725e+000
5763:-5.2644748951183944e+000
5764:-1.5631689375334190e+000
5765:-2.9281029118633102e+000
5766:-4.4228414859127483e+000
5767:-5.4248429885521672e+000
5768:-1.0725158106651749e+000
5769:-2.6608222068896041e+000
5770:-4.4097626168125528e+000
5771:-5.5922498395352926e+000
5772:-7.3556110467286762e-001
5773:-2.4682998803469500e+000
5774:-4.3843104801448218e+000
5775:-5.6892565052940771e+000
5776:-5.6930466876710799e+000
5777:-6.5354012349007329e+000
5778:-7.7301103248508589e+000
5779:-8.7233060404715665e+000
5780:-5.9303130182212778e+000
5781:-6.9153532363063936e+000
5782:-8.2910375270501202e+000
5783:-9.4167613959761152e+000
5784:-6.1921675864772494e+000
5785:-7.3518834132055799e+000
5786:-8.9463450515420373e+000
5787:-1.0229747365731267e+001
5788:-6.3548516217886002e+000
5789:-7.6364017640089727e+000
5790:-9.3829200164084838e+000
5791:-1.0774934322821572e+001
5792:-9.2746005149160418e+000
5793:-1.0231521372351908e+001
5794:-1.1287062436958408e+001
5795:-1.1935135180410134e+001
5796:-1.0035158427630739e+001
5797:-1.1097647160052739e+001
5798:-1.2250961548046508e+001
5799:-1.2945544287115966e+001
5800:-1.0927130504641813e+001
5801:-1.2115138524356444e+001
5802:-1.3387689973087550e+001
5803:-1.4141659377083551e+001
5804:-1.1526370906307832e+001
5805:-1.2802073318706906e+001
5806:-1.4161993403509408e+001
5807:-1.4963139489936033e+001
5808:-1.2217072101880474e+001
5809:-1.2571692389484298e+001
5810:-1.2685569496659223e+001
5811:-1.2509124022062805e+001
5812:-1.3243249672624936e+001
5813:-1.3619845591664879e+001
5814:-1.3749811719004468e+001
5815:-1.3576472174497891e+001
5816:-1.4460810379609059e+001
5817:-1.4869569523793833e+001
5818:-1.5028241980770797e+001
5819:-1.4867057109039894e+001
5820:-1.5301022708790624e+001
5821:-1.5739580490871456e+001
5822:-1.5928180070091344e+001
5823:-1.5783239048729305e+001
5824:-1.2325211907175458e+001
5825:-1.1861238127444150e+001
5826:-1.1041937920355949e+001
5827:-1.0257634236695065e+001
5828:-1.3390554288406625e+001
5829:-1.2906631020855214e+001
5830:-1.2025491740285586e+001
5831:-1.1164560497812738e+001
5832:-1.4683506395205560e+001
5833:-1.4183563703971657e+001
5834:-1.3237447025933371e+001
5835:-1.2291841876843506e+001
5836:-1.5605492849419166e+001
5837:-1.5101792372319979e+001
5838:-1.4120137382974219e+001
5839:-1.3123836339929859e+001
5840:-9.7898250251853174e+000
5841:-8.8832268737024389e+000
5842:-7.6582741687395535e+000
5843:-6.6881825128514629e+000
5844:-1.0645724253788462e+001
5845:-9.6361613015516010e+000
5846:-8.2687104990478826e+000
5847:-7.1861014683999214e+000
5848:-1.1715764579475888e+001
5849:-1.0585890120721235e+001
5850:-9.0407327949730245e+000
5851:-7.8081572371547621e+000
5852:-1.2512550476202232e+001
5853:-1.1303411751295522e+001
5854:-9.6298878787623465e+000
5855:-8.2802189539202136e+000
5856:-6.1633852834890197e+000
5857:-5.2155315593671778e+000
5858:-4.0552700659806806e+000
5859:-3.2188627676071624e+000
5860:-6.6010955446587811e+000
5861:-5.5421241600957920e+000
5862:-4.2387307082125734e+000
5863:-3.2921574290535438e+000
5864:-7.1392125349382036e+000
5865:-5.9205408857505999e+000
5866:-4.4050187560907101e+000
5867:-3.2925471249622515e+000
5868:-7.5425791588011899e+000
5869:-6.1876178033910643e+000
5870:-4.4824125988617824e+000
5871:-3.2169469339606538e+000
5872:-2.7911803225481360e+000
5873:-2.0363263293621943e+000
5874:-1.1461028587643707e+000
5875:-5.3462886196084702e-001
5876:-2.8052370290206592e+000
5877:-1.9407303896323522e+000
5878:-9.1216858933156597e-001
5879:-1.9931657135215461e-001
5880:-2.7164492254706105e+000
5881:-1.6926102098255196e+000
5882:-4.7491782005314398e-001
5883:3.6758599848449541e-001
5884:-2.5579075757147036e+000
5885:-1.3918621139410485e+000
5886:-1.8338687515328078e-002
5887:9.2074916494009040e-001
5888:-2.3417581810469656e-001
5889:2.6732215252967850e-001
5890:7.9037759764481441e-001
5891:1.0854621309769246e+000
5892:1.5274986361837714e-001
5893:7.3796372882262107e-001
5894:1.3434996529578314e+000
5895:1.6819677979355039e+000
5896:7.8280150250686309e-001
5897:1.4708311401395380e+000
5898:2.1803217486222808e+000
5899:2.5766128617908168e+000
5900:1.3794456191969282e+000
5901:2.1367780937191760e+000
5902:2.9147859277902457e+000
5903:3.3482382517793856e+000
5904:1.2053068087492913e+000
5905:1.3858910220717013e+000
5906:1.5376264517451215e+000
5907:1.5874324329316543e+000
5908:1.8183626578785788e+000
5909:2.0227298091972652e+000
5910:2.1922265810390802e+000
5911:2.2454598430777826e+000
5912:2.7366497060606405e+000
5913:2.9760206817510744e+000
5914:3.1735202303033372e+000
5915:3.2345850226340427e+000
5916:3.5231891206203532e+000
5917:3.7843701414486270e+000
5918:3.9985262103356209e+000
5919:4.0630955383720444e+000
5920:1.5912500897469475e+000
5921:1.5808116218009984e+000
5922:1.5354062400900912e+000
5923:1.4740276831727901e+000
5924:2.2475103475617084e+000
5925:2.2271754496481879e+000
5926:2.1549632975644877e+000
5927:2.0614879847566403e+000
5928:3.2358347519558386e+000
5929:3.2024609142810574e+000
5930:3.0897480331997551e+000
5931:2.9468684396206051e+000
5932:4.0627402244452862e+000
5933:4.0175274805842891e+000
5934:3.8717497497349522e+000
5935:3.6901702940603385e+000
5936:1.4317455687431559e+000
5937:1.3422146783777065e+000
5938:1.2064885171979456e+000
5939:1.0874175773365797e+000
5940:1.9980760198370142e+000
5941:1.8669299105987862e+000
5942:1.6744181080823410e+000
5943:1.5100730648803082e+000
5944:2.8510224239024438e+000
5945:2.6563724253739434e+000
5946:2.3772380079489275e+000
5947:2.1432412437303836e+000
5948:3.5692822368259947e+000
5949:3.3241441898458470e+000
5950:2.9725960445302930e+000
5951:2.6774944324835941e+000
5952:1.0191432077966323e+000
5953:8.9380333501497022e-001
5954:7.3845041877438033e-001
5955:6.2589281328625457e-001
5956:1.4171263237341447e+000
5957:1.2451094887601251e+000
5958:1.0285354325674210e+000
5959:8.6907316417510638e-001
5960:2.0119609713143571e+000
5961:1.7665051469043718e+000
5962:1.4515947812298704e+000
5963:1.2150647212415129e+000
5964:2.5116367173077094e+000
5965:2.1998693322299161e+000
5966:1.7961974906418661e+000
5967:1.4899590500371611e+000
5968:5.6833625589595660e-001
5969:4.6609760008931927e-001
5970:3.4561697209548814e-001
5971:2.6438678121294412e-001
5972:7.8671761220889302e-001
5973:6.4051214384647381e-001
5974:4.6853288410635635e-001
5975:3.5267053114071084e-001
5976:1.0914259783703817e+000
5977:8.7340500171664381e-001
5978:6.2123225867619702e-001
5979:4.5530968447456305e-001
5980:1.3289564372600529e+000
5981:1.0472586581728014e+000
5982:7.2743905343703896e-001
5983:5.2274628680834245e-001
5984:2.2532488940382162e-001
5985:1.5977069185433265e-001
5986:9.2167255340751944e-002
5987:5.6619020010206092e-002
5988:2.9705856332841851e-001
5989:2.0575123080309496e-001
5990:1.1525830350437578e-001
5991:7.0345191066262247e-002
5992:3.7737679605887731e-001
5993:2.5266736809936280e-001
5994:1.3431694654369405e-001
5995:7.9261065314780402e-002
5996:4.2897828564391255e-001
5997:2.8068537043917058e-001
5998:1.4166133798428665e-001
5999:7.7353278951587195e-002
6000:-5.6962836318789678e-001
6001:-2.3709342116912104e+000
6002:-4.3662708659811633e+000
6003:-5.7300868824517242e+000
6004:-2.8195281147471296e-001
6005:-2.1972570281711556e+000
6006:-4.3246998185466117e+000
6007:-5.7869084272208031e+000
6008:4.3877017048347830e-002
6009:-1.9881628495163648e+000
6010:-4.2529477454870257e+000
6011:-5.8192450558072712e+000
6012:2.5306429035788780e-001
6013:-1.8410720566812677e+000
6014:-4.1821667507349298e+000
6015:-5.8090390976412776e+000
6016:-6.4276547057969076e+000
6017:-7.7688534818104307e+000
6018:-9.5900814128038760e+000
6019:-1.1035435649428523e+001
6020:-6.5380457880646139e+000
6021:-7.9790897832824017e+000
6022:-9.9257152921100680e+000
6023:-1.1461351617044635e+001
6024:-6.6275759073445348e+000
6025:-8.1748737904030957e+000
6026:-1.0255578679214683e+001
6027:-1.1889503718449056e+001
6028:-6.6514541735990163e+000
6029:-8.2618642472217250e+000
6030:-1.0422921544172270e+001
6031:-1.2117466850332033e+001
6032:-1.1813411766935335e+001
6033:-1.3133149884101549e+001
6034:-1.4539058054690106e+001
6035:-1.5366869147102783e+001
6036:-1.2284782519812936e+001
6037:-1.3683091095633694e+001
6038:-1.5177338133838175e+001
6039:-1.6061435235737214e+001
6040:-1.2763666880139626e+001
6041:-1.4256518558025128e+001
6042:-1.5870108062163853e+001
6043:-1.6839965843607875e+001
6044:-1.3024075765189290e+001
6045:-1.4583349287794121e+001
6046:-1.6291261501651341e+001
6047:-1.7335827457285717e+001
6048:-1.5716116885075879e+001
6049:-1.6173278970673685e+001
6050:-1.6381432699476612e+001
6051:-1.6247932457709155e+001
6052:-1.6436654119040263e+001
6053:-1.6937802989342707e+001
6054:-1.7194249089999104e+001
6055:-1.7090473862190084e+001
6056:-1.7258227042264231e+001
6057:-1.7835027405121547e+001
6058:-1.8178463520132741e+001
6059:-1.8130945811387548e+001
6060:-1.7793784740883726e+001
6061:-1.8442227062501843e+001
6062:-1.8870780939081865e+001
6063:-1.8880160679540957e+001
6064:-1.6074787479959785e+001
6065:-1.5572415078456109e+001
6066:-1.4577577200825116e+001
6067:-1.3560031987954080e+001
6068:-1.6930062197853228e+001
6069:-1.6438119872344892e+001
6070:-1.5430285132350098e+001
6071:-1.4383538768343287e+001
6072:-1.7995896449576222e+001
6073:-1.7533553887592237e+001
6074:-1.6530527208624399e+001
6075:-1.5464373661530459e+001
6076:-1.8771524637862314e+001
6077:-1.8343995528700464e+001
6078:-1.7359887239500228e+001
6079:-1.6291194550324295e+001
6080:-1.2933493903182068e+001
6081:-1.1687302574493890e+001
6082:-9.9485074324490910e+000
6083:-8.5357013142194038e+000
6084:-1.3734598102467789e+001
6085:-1.2427823821046225e+001
6086:-1.0572117038798950e+001
6087:-9.0404498986953392e+000
6088:-1.4796926081428355e+001
6089:-1.3427483419698774e+001
6090:-1.1432107918937344e+001
6091:-9.7486796458634810e+000
6092:-1.5616537235079232e+001
6093:-1.4210753206292862e+001
6094:-1.2120093021577764e+001
6095:-1.0326465748238322e+001
6096:-7.7598308504433087e+000
6097:-6.3266277786171639e+000
6098:-4.5087148891079458e+000
6099:-3.1501767407799401e+000
6100:-8.1909613333698879e+000
6101:-6.6038172290002333e+000
6102:-4.5583919522172609e+000
6103:-3.0081356242341881e+000
6104:-8.8026282282758022e+000
6105:-7.0102630220907036e+000
6106:-4.6559525175286147e+000
6107:-2.8416091097671057e+000
6108:-9.3087085924373767e+000
6109:-7.3638424142543677e+000
6110:-4.7801471802335609e+000
6111:-2.7696470093122034e+000
6112:-2.4402727314279620e+000
6113:-1.1892507023740941e+000
6114:2.7230496010194583e-001
6115:1.2616192628989149e+000
6116:-2.1924769685488856e+000
6117:-7.6731629478838337e-001
6118:8.6826538865022884e-001
6119:1.9508995867767547e+000
6120:-1.8791926943519945e+000
6121:-2.1309385297905778e-001
6122:1.6605850439999299e+000
6123:2.8677887199956276e+000
6124:-1.6980341806391799e+000
6125:1.4999404327893495e-001
6126:2.2089148478521388e+000
6127:3.5176128601907068e+000
6128:1.7412445120152447e+000
6129:2.5308186073567054e+000
6130:3.3389940314482378e+000
6131:3.7874042670995540e+000
6132:2.4668384709583822e+000
6133:3.3105656962005110e+000
6134:4.1666366696326973e+000
6135:4.6364089947365770e+000
6136:3.4306755441158341e+000
6137:4.3438180787942366e+000
6138:5.2611918398732609e+000
6139:5.7587792583313275e+000
6140:4.1207491279777031e+000
6141:5.0957756715880542e+000
6142:6.0729508643510997e+000
6143:6.6031722576039771e+000
6144:3.9678047371718197e+000
6145:4.2365369183820496e+000
6146:4.4554677759523909e+000
6147:4.5196137747925889e+000
6148:4.8235690377009304e+000
6149:5.1008176670643399e+000
6150:5.3231188673672190e+000
6151:5.3835493586514298e+000
6152:5.9550832201151689e+000
6153:6.2432195798123571e+000
6154:6.4679580278709379e+000
6155:6.5210192358098364e+000
6156:6.8129278833058891e+000
6157:7.1186523662682735e+000
6158:7.3514502530402464e+000
6159:7.3995314078811845e+000
6160:4.5174723529943535e+000
6161:4.4649049288812979e+000
6162:4.3016237476304120e+000
6163:4.1007086984489343e+000
6164:5.3770173656986762e+000
6165:5.3102368551921719e+000
6166:5.1163121849557998e+000
6167:4.8825531969501546e+000
6168:6.5072026030834937e+000
6169:6.4198376350454787e+000
6170:6.1845767511864613e+000
6171:5.9073349140381426e+000
6172:7.3792191372269311e+000
6173:7.2730630528802527e+000
6174:6.9995119090902325e+000
6175:6.6815382319627759e+000
6176:3.9675118779794816e+000
6177:3.6964238207944984e+000
6178:3.3051860554559780e+000
6179:2.9748233077248711e+000
6180:4.7284389895755465e+000
6181:4.4102000284134943e+000
6182:3.9409380745006293e+000
6183:3.5374980924843333e+000
6184:5.7254077513837434e+000
6185:5.3412869268419909e+000
6186:4.7573027943215802e+000
6187:4.2430829219778676e+000
6188:6.4734769331599189e+000
6189:6.0287964182342373e+000
6190:5.3417196955070931e+000
6191:4.7292730995693137e+000
6192:2.7884949993111277e+000
6193:2.4375975292224226e+000
6194:1.9819843655210303e+000
6195:1.6352572605914215e+000
6196:3.3077653797370123e+000
6197:2.8745807158751857e+000
6198:2.3123021573257878e+000
6199:1.8850348838440663e+000
6200:3.9468629455820317e+000
6201:3.3908758177844955e+000
6202:2.6780233799145199e+000
6203:2.1449535712435392e+000
6204:4.3746257591107689e+000
6205:3.7148093426764914e+000
6206:2.8843404913096129e+000
6207:2.2773635534688053e+000
6208:1.4526726556156087e+000
6209:1.1348274963050087e+000
6210:7.7813058636971844e-001
6211:5.5381518508763905e-001
6212:1.6606161055378978e+000
6213:1.2748744917092791e+000
6214:8.5285240218727110e-001
6215:5.9693629885982025e-001
6216:1.8686223725179409e+000
6217:1.4020261272602159e+000
6218:9.0779168905061514e-001
6219:6.2132021421535144e-001
6220:1.9681401054711378e+000
6221:1.4524301287995123e+000
6222:9.1709444153664588e-001
6223:6.1517659867219998e-001
6224:4.5268940783054379e-001
6225:2.9320570326670004e-001
6226:1.4323864247326812e-001
6227:7.2644562651892786e-002
6228:4.8521151931259798e-001
6229:3.0887566947460982e-001
6230:1.4038812771166745e-001
6231:5.7651334090298656e-002
6232:5.0118499169766639e-001
6233:3.1114716556611544e-001
6234:1.2697683896764456e-001
6235:3.4533577842152156e-002
6236:4.9166080344717178e-001
6237:2.9727926290219076e-001
6238:1.1154695865322595e-001
6239:2.2474719367538986e-002
6240:3.4955351347052721e-001
6241:-1.7670816042506305e+000
6242:-4.1378852624777158e+000
6243:-5.7899782711104129e+000
6244:5.0216941211136268e-001
6245:-1.6342425458684335e+000
6246:-4.0375916218716297e+000
6247:-5.7218077835437873e+000
6248:6.4800292405494397e-001
6249:-1.4708915642932336e+000
6250:-3.8710271221490475e+000
6251:-5.5664735996428210e+000
6252:7.2196368465902738e-001
6253:-1.3516573861064121e+000
6254:-3.7148425430265117e+000
6255:-5.3950069684741155e+000
6256:-6.6470400592241665e+000
6257:-8.2845055741489464e+000
6258:-1.0480345538856362e+001
6259:-1.2201896339810670e+001
6260:-6.5986323128743871e+000
6261:-8.2722307288753765e+000
6262:-1.0514538878670070e+001
6263:-1.2273129649483225e+001
6264:-6.4532903497074914e+000
6265:-8.1446353602233241e+000
6266:-1.0410777102560077e+001
6267:-1.2191584975148722e+001
6268:-6.2769988203919089e+000
6269:-7.9592566493213699e+000
6270:-1.0216372343717081e+001
6271:-1.1995627910877928e+001
6272:-1.3123453587381755e+001
6273:-1.4715769603858055e+001
6274:-1.6474576591102931e+001
6275:-1.7561851033932633e+001
6276:-1.3215984250206333e+001
6277:-1.4860678015702785e+001
6278:-1.6709569043092930e+001
6279:-1.7878913404260153e+001
6280:-1.3149391047526711e+001
6281:-1.4843002931300612e+001
6282:-1.6795837416422561e+001
6283:-1.8072528032656273e+001
6284:-1.2955975275714511e+001
6285:-1.4672919015762227e+001
6286:-1.6693934165431269e+001
6287:-1.8050917799121663e+001
6288:-1.8043218215868862e+001
6289:-1.8734633131515171e+001
6290:-1.9215364536384403e+001
6291:-1.9260397001809103e+001
6292:-1.8407508995294368e+001
6293:-1.9189177071296221e+001
6294:-1.9785760853357548e+001
6295:-1.9914652786093839e+001
6296:-1.8667106973912546e+001
6297:-1.9582437359889525e+001
6298:-2.0363548020460570e+001
6299:-2.0635095330618089e+001
6300:-1.8697870925882548e+001
6301:-1.9725356086005622e+001
6302:-2.0671150096832054e+001
6303:-2.1076332308076175e+001
6304:-1.9168611063527909e+001
6305:-1.8764386798526925e+001
6306:-1.7795978327466038e+001
6307:-1.6730097000577462e+001
6308:-1.9864371697227607e+001
6309:-1.9522693019091783e+001
6310:-1.8606773959908551e+001
6311:-1.7561147229606906e+001
6312:-2.0658815921530046e+001
6313:-2.0437733877750677e+001
6314:-1.9640021355122602e+001
6315:-1.8654537858133651e+001
6316:-2.1171563131863156e+001
6317:-2.1072734401110974e+001
6318:-2.0405036845179872e+001
6319:-1.9493461940630244e+001
6320:-1.6053832063862711e+001
6321:-1.4632659768560409e+001
6322:-1.2495860028810750e+001
6323:-1.0646579204056795e+001
6324:-1.6888491645661635e+001
6325:-1.5448224158229282e+001
6326:-1.3233885045368538e+001
6327:-1.1285485343839229e+001
6328:-1.8002047780872154e+001
6329:-1.6560832745914411e+001
6330:-1.4269853909427889e+001
6331:-1.2208385830402454e+001
6332:-1.8869651419335700e+001
6333:-1.7449406996983154e+001
6334:-1.5124205660864293e+001
6335:-1.2993877967099685e+001
6336:-9.5921348338517429e+000
6337:-7.5699380815704318e+000
6338:-4.8713100291011031e+000
6339:-2.7633608996768073e+000
6340:-1.0164934683338382e+001
6341:-8.0053211919815048e+000
6342:-5.1063302521595881e+000
6343:-2.8310612422618995e+000
6344:-1.1010229182294770e+001
6345:-8.6911008893896060e+000
6346:-5.5638551799057598e+000
6347:-3.1011194965900288e+000
6348:-1.1745928499419259e+001
6349:-9.3240979377485793e+000
6350:-6.0502743938075056e+000
6351:-3.4677922753367829e+000
6352:-1.6376161683395580e+000
6353:3.0256253228099100e-001
6354:2.4595967285077935e+000
6355:3.8257810376892190e+000
6356:-1.6128800046940619e+000
6357:4.8910426034325549e-001
6358:2.8289643132610287e+000
6359:4.3119936929084242e+000
6360:-1.7799378486971740e+000
6361:5.1032633934751337e-001
6362:3.0815052719762535e+000
6363:4.7287594679778238e+000
6364:-2.0808077768697282e+000
6365:3.3546903083678314e-001
6366:3.0742165079339747e+000
6367:4.8508933288560527e+000
6368:4.4533327586956570e+000
6369:5.4675103857803657e+000
6370:6.4855388888136298e+000
6371:7.0407907229480289e+000
6372:4.9934347165277151e+000
6373:6.0987351451754952e+000
6374:7.2192987814746763e+000
6375:7.8423688117285923e+000
6376:5.4926181177380586e+000
6377:6.7444499279807086e+000
6378:8.0404100672166283e+000
6379:8.7856179289552241e+000
6380:5.6835790801045905e+000
6381:7.0617325387386156e+000
6382:8.5141505599095240e+000
6383:9.3708395220850740e+000
6384:7.2619473260431500e+000
6385:7.5832675000766931e+000
6386:7.8249315461480675e+000
6387:7.8713573345389811e+000
6388:8.0958518025256190e+000
6389:8.4625979189117508e+000
6390:8.7331075682419250e+000
6391:8.7793755713561179e+000
6392:9.0988807161910099e+000
6393:9.5522506309353830e+000
6394:9.8845470290116637e+000
6395:9.9407511264197073e+000
6396:9.7392263938755939e+000
6397:1.0274891052656214e+001
6398:1.0672172816304240e+001
6399:1.0747209447665238e+001
6400:7.8473075603369011e+000
6401:7.7294996080924756e+000
6402:7.4312541937422081e+000
6403:7.0866125149824306e+000
6404:8.7477328528029314e+000
6405:8.6033162000223751e+000
6406:8.2459773302176202e+000
6407:7.8369664416743401e+000
6408:9.9016772986945387e+000
6409:9.7203211949984851e+000
6410:9.2703598606673498e+000
6411:8.7568108692951707e+000
6412:1.0707458107382063e+001
6413:1.0502516629311838e+001
6414:9.9787809949377078e+000
6415:9.3768633742388108e+000
6416:6.8614427535416107e+000
6417:6.3786244621562007e+000
6418:5.6293501701319917e+000
6419:4.9592580848887478e+000
6420:7.5707503103194380e+000
6421:7.0004775052816086e+000
6422:6.1171514391164425e+000
6423:5.3290618595600510e+000
6424:8.4236782290067076e+000
6425:7.7170171046888427e+000
6426:6.6386884028958022e+000
6427:5.6899156255573828e+000
6428:8.9864164285906121e+000
6429:8.1670877959574479e+000
6430:6.9376278922224861e+000
6431:5.8725581639384812e+000
6432:4.5708361671712696e+000
6433:3.8529613956524904e+000
6434:2.9612006780545936e+000
6435:2.3198639910032379e+000
6436:4.8736373707956036e+000
6437:4.0454569799154134e+000
6438:3.0467047697877176e+000
6439:2.3533511784371983e+000
6440:5.1470859174001209e+000
6441:4.1819134259564734e+000
6442:3.0634921244859661e+000
6443:2.3235697402627533e+000
6444:5.2694080857952397e+000
6445:4.2132135901796453e+000
6446:3.0216157596807491e+000
6447:2.2589992824731215e+000
6448:1.9970675207228632e+000
6449:1.4618355824632583e+000
6450:9.1082966573772861e-001
6451:6.0334137485282635e-001
6452:2.0133028895419760e+000
6453:1.4540147941361554e+000
6454:8.8396828664459093e-001
6455:5.6995064348941482e-001
6456:1.9735037039741066e+000
6457:1.4021526432107272e+000
6458:8.2460378816764845e-001
6459:5.1057711386222970e-001
6460:1.9073493747914692e+000
6461:1.3366554035235445e+000
6462:7.6423381123614753e-001
6463:4.5777658957374012e-001
6464:4.7873948471003841e-001
6465:2.8413726875293005e-001
6466:1.0245054777201816e-001
6467:2.0768268457278874e-002
6468:4.4436936549830952e-001
6469:2.5321803407539567e-001
6470:8.7558538956445151e-002
6471:2.7864198866522458e-002
6472:3.8710713184217749e-001
6473:2.0793276375955383e-001
6474:7.3613104453977327e-002
6475:4.9205657646907902e-002
6476:3.3984506410064663e-001
6477:1.7550651900129674e-001
6478:6.7506660559332340e-002
6479:6.6752031389452418e-002
6480:7.4907324375961282e-001
6481:-1.2896653179017596e+000
6482:-3.6210987709428379e+000
6483:-5.2844665574434151e+000
6484:7.7838741577597870e-001
6485:-1.1760462716590854e+000
6486:-3.4246464071417524e+000
6487:-5.0386804854533143e+000
6488:7.7786954453800095e-001
6489:-1.0308520129750884e+000
6490:-3.1270157319208507e+000
6491:-4.6425165442683207e+000
6492:7.5131598090982943e-001
6493:-9.1945622174797292e-001
6494:-2.8661860160191766e+000
6495:-4.2810137911875312e+000
6496:-6.1592928813649275e+000
6497:-7.8285016616265342e+000
6498:-1.0071212946430789e+001
6499:-1.1843291598200585e+001
6500:-5.8903863320640077e+000
6501:-7.5175451220851075e+000
6502:-9.7117129812130845e+000
6503:-1.1454926112502594e+001
6504:-5.4454453444862088e+000
6505:-6.9836378842671882e+000
6506:-9.0720415123547014e+000
6507:-1.0746714334589361e+001
6508:-5.0328160518575267e+000
6509:-6.4774107788569060e+000
6510:-8.4527305938574973e+000
6511:-1.0051307415492623e+001
6512:-1.2801986575598480e+001
6513:-1.4526321177394609e+001
6514:-1.6578952576851329e+001
6515:-1.7977113599125712e+001
6516:-1.2402655720802796e+001
6517:-1.4126213077504467e+001
6518:-1.6220785620407188e+001
6519:-1.7685515067343591e+001
6520:-1.1664172142220648e+001
6521:-1.3356534071582942e+001
6522:-1.5469043713798502e+001
6523:-1.6997066352187229e+001
6524:-1.0933299605724157e+001
6525:-1.2578414819261790e+001
6526:-1.4675948565999835e+001
6527:-1.6233847325881172e+001
6528:-1.8652016670587759e+001
6529:-1.9741698182606417e+001
6530:-2.0782550064278091e+001
6531:-2.1267201404518634e+001
6532:-1.8408517457681363e+001
6533:-1.9611333711200274e+001
6534:-2.0836357130237790e+001
6535:-2.1483496419124442e+001
6536:-1.7772751043534964e+001
6537:-1.9112823128079750e+001
6538:-2.0584760637837388e+001
6539:-2.1466590621957625e+001
6540:-1.7041817368624198e+001
6541:-1.8478137614244982e+001
6542:-2.0142424388812604e+001
6543:-2.1219530503440989e+001
6544:-2.1405747671716590e+001
6545:-2.1382942286951870e+001
6546:-2.0799554227058575e+001
6547:-1.9938464162968774e+001
6548:-2.1713861882592667e+001
6549:-2.1859619847950032e+001
6550:-2.1476759182389788e+001
6551:-2.0746499326320450e+001
6552:-2.1835765343020284e+001
6553:-2.2250815009775604e+001
6554:-2.2213818207092938e+001
6555:-2.1728044813504770e+001
6556:-2.1708482655765607e+001
6557:-2.2366079964045781e+001
6558:-2.2657603874755782e+001
6559:-2.2415619832177040e+001
6560:-1.9335426833235847e+001
6561:-1.7935858855767744e+001
6562:-1.5603794245941257e+001
6563:-1.3445139609854451e+001
6564:-2.0202238394360581e+001
6565:-1.8878878591889503e+001
6566:-1.6579595863338849e+001
6567:-1.4397303589190834e+001
6568:-2.1301628735552587e+001
6569:-2.0158227133437144e+001
6570:-1.8005084128889365e+001
6571:-1.5862774268766261e+001
6572:-2.2111289196909620e+001
6573:-2.1169817342051822e+001
6574:-1.9214552503332062e+001
6575:-1.7164834255983735e+001
6576:-1.2175089986855845e+001
6577:-9.7065989359366380e+000
6578:-6.3648608252830865e+000
6579:-3.7263160842917160e+000
6580:-1.3098634918755106e+001
6581:-1.0559477098051850e+001
6582:-7.1011638130427599e+000
6583:-4.3599903689880497e+000
6584:-1.4559212041404582e+001
6585:-1.1971858195990977e+001
6586:-8.3917706035594737e+000
6587:-5.5253638609366886e+000
6588:-1.5887191600352367e+001
6589:-1.3304633864053461e+001
6590:-9.6626290706462203e+000
6591:-6.7115472158090412e+000
6592:-2.3083243385635805e+000
6593:1.6935503853248060e-001
6594:2.9938922789943812e+000
6595:4.8398819746671169e+000
6596:-2.8837675760469019e+000
6597:-2.8671352365906588e-001
6598:2.7097624597862668e+000
6599:4.6959974102823017e+000
6600:-3.9740389754976193e+000
6601:-1.2135489607195178e+000
6602:2.0300033331109235e+000
6603:4.2209552564628803e+000
6604:-5.1052981273905189e+000
6605:-2.2166004095970164e+000
6606:1.2312343347879213e+000
6607:3.5947504806421824e+000
6608:5.7104429652998352e+000
6609:7.1589833411731805e+000
6610:8.6995105422421695e+000
6611:9.6192105316570071e+000
6612:5.6429177589701647e+000
6613:7.2310851720812499e+000
6614:8.9419936929587323e+000
6615:9.9802948626154748e+000
6616:5.2789220082143542e+000
6617:7.0660093995753952e+000
6618:9.0117721376945070e+000
6619:1.0207825366919721e+001
6620:4.7463621418806996e+000
6621:6.6990240665906837e+000
6622:8.8360501372300995e+000
6623:1.0157467199402578e+001
6624:1.0018755228375097e+001
6625:1.0601828325176623e+001
6626:1.1038939772642125e+001
6627:1.1128457460126345e+001
6628:1.0437395738116422e+001
6629:1.1107613687041555e+001
6630:1.1618815554763939e+001
6631:1.1737672963901797e+001
6632:1.0739537339440986e+001
6633:1.1521462550826163e+001
6634:1.2128557424051227e+001
6635:1.2289477149819026e+001
6636:1.0747382527941159e+001
6637:1.1615585366347954e+001
6638:1.2297486033790015e+001
6639:1.2494314223501913e+001
6640:1.1090796142799491e+001
6641:1.0876511970965938e+001
6642:1.0314934722588871e+001
6643:9.6651993213575018e+000
6644:1.1706250168456467e+001
6645:1.1478474045799333e+001
6646:1.0850200242650077e+001
6647:1.0113493390098192e+001
6648:1.2270412085499693e+001
6649:1.2034535443883048e+001
6650:1.1334286323844255e+001
6651:1.0497818718530366e+001
6652:1.2488239150793659e+001
6653:1.2255606590124804e+001
6654:1.1517975800619809e+001
6655:1.0622824182743317e+001
6656:9.2433595062049640e+000
6657:8.3639149857829551e+000
6658:7.0576905859501435e+000
6659:5.9368665306312423e+000
6660:9.6342765365682954e+000
6661:8.6485635127130838e+000
6662:7.2141821502606467e+000
6663:6.0060649346024233e+000
6664:9.9520833510666957e+000
6665:8.8490094330521174e+000
6666:7.2858435973131455e+000
6667:6.0004126741168431e+000
6668:1.0037046758632147e+001
6669:8.8672551949842369e+000
6670:7.2402779798951888e+000
6671:5.9252173526981000e+000
6672:5.3060094712132662e+000
6673:4.2089070804699285e+000
6674:2.9857846157230634e+000
6675:2.2145633620512180e+000
6676:5.3337968194486463e+000
6677:4.1761922184309910e+000
6678:2.9071478586644819e+000
6679:2.1240817359677142e+000
6680:5.2952697036211331e+000
6681:4.0912383484700419e+000
6682:2.7892989441095186e+000
6683:2.0003831174976434e+000
6684:5.2111607460785203e+000
6685:3.9967853661448758e+000
6686:2.6914379783607201e+000
6687:1.9067260436875497e+000
6688:1.8631179146918730e+000
6689:1.2947224401316071e+000
6690:7.2810062170783074e-001
6691:4.2864414953259911e-001
6692:1.7735356138485687e+000
6693:1.2109672538217200e+000
6694:6.5899409856959767e-001
6695:3.7686851079538702e-001
6696:1.6527415341558729e+000
6697:1.1010598004273615e+000
6698:5.7370310881264708e-001
6699:3.1921656490258443e-001
6700:1.5634408965382010e+000
6701:1.0231260869537873e+000
6702:5.1739942180710163e-001
6703:2.8529426187358098e-001
6704:3.1542754016749397e-001
6705:1.6089383996182366e-001
6706:6.5892515020762252e-002
6707:7.3939010159118537e-002
6708:2.7497135851465720e-001
6709:1.4027291977254600e-001
6710:6.4926890447817631e-002
6711:8.1168762820308354e-002
6712:2.3474116602393078e-001
6713:1.2607684465993260e-001
6714:6.7042725513325713e-002
6715:8.0330568907137800e-002
6716:2.1438948377526132e-001
6717:1.2380468007643033e-001
6718:7.0608266238313080e-002
6719:7.3798264818337386e-002
6720:7.2900255662037750e-001
6721:-8.5934011216699946e-001
6722:-2.7153497070828005e+000
6723:-4.0679371913132671e+000
6724:6.7263900228604090e-001
6725:-7.4563212898999576e-001
6726:-2.4120016494642411e+000
6727:-3.6325047636869856e+000
6728:5.7553579742614802e-001
6729:-5.9329023437493555e-001
6730:-1.9770003858820553e+000
6731:-2.9969317226012455e+000
6732:4.8779873164161552e-001
6733:-4.7103676065799421e-001
6734:-1.6135373759831180e+000
6735:-2.4595825447904609e+000
6736:-4.7877804847027035e+000
6737:-6.1737017934301530e+000
6738:-8.0775245375105555e+000
6739:-9.6271739082097820e+000
6740:-4.2838868426830379e+000
6741:-5.5435305259283867e+000
6742:-7.2916900927868307e+000
6743:-8.7327313917098213e+000
6744:-3.5431184693892086e+000
6745:-4.6071085460819354e+000
6746:-6.1099200126767563e+000
6747:-7.3754650372380812e+000
6748:-2.9136294674830823e+000
6749:-3.8046802460841795e+000
6750:-5.0870482808372053e+000
6751:-6.1915883245171148e+000
6752:-1.0485871273055107e+001
6753:-1.2097416272839093e+001
6754:-1.4176622698883923e+001
6755:-1.5743739453320176e+001
6756:-9.5386089791766722e+000
6757:-1.1069602532007163e+001
6758:-1.3092975351625569e+001
6759:-1.4664033635955359e+001
6760:-8.0939031873132929e+000
6761:-9.4845129798762375e+000
6762:-1.1392846563326470e+001
6763:-1.2943533933510828e+001
6764:-6.8283604024192215e+000
6765:-8.0840063300744305e+000
6766:-9.8724954906230593e+000
6767:-1.1389277302249187e+001
6768:-1.6566009857085170e+001
6769:-1.8050353402756638e+001
6770:-1.9818018564001477e+001
6771:-2.1004367281188461e+001
6772:-1.5507665797863023e+001
6773:-1.7076346664718582e+001
6774:-1.9040169641375762e+001
6775:-2.0441170627500799e+001
6776:-1.3804896846062574e+001
6777:-1.5472789100525363e+001
6778:-1.7696064585354254e+001
6779:-1.9394449560176852e+001
6780:-1.2257324280194975e+001
6781:-1.3994018077872191e+001
6782:-1.6419048118127350e+001
6783:-1.8357986210609894e+001
6784:-2.1561708796683067e+001
6785:-2.2361106777195605e+001
6786:-2.2850091276185164e+001
6787:-2.2758192608916008e+001
6788:-2.1135087952136754e+001
6789:-2.2223593844154582e+001
6790:-2.3126325843186152e+001
6791:-2.3357626603288956e+001
6792:-2.0281535120140497e+001
6793:-2.1790380136125908e+001
6794:-2.3315870985300389e+001
6795:-2.4049763764968521e+001
6796:-1.9404025228856323e+001
6797:-2.1267109899780156e+001
6798:-2.3332362201728223e+001
6799:-2.4512656676726600e+001
6800:-2.2530396755387770e+001
6801:-2.1720175276931407e+001
6802:-1.9902994368579684e+001
6803:-1.7926823750594114e+001
6804:-2.3298319686704996e+001
6805:-2.2787401098392078e+001
6806:-2.1304226389906976e+001
6807:-1.9521877838144530e+001
6808:-2.4259009244769086e+001
6809:-2.4241977672685874e+001
6810:-2.3339204220600188e+001
6811:-2.1916018755048828e+001
6812:-2.4964554387615138e+001
6813:-2.5402913189260669e+001
6814:-2.5049863288691927e+001
6815:-2.3976788380357174e+001
6816:-1.6674834917405658e+001
6817:-1.4111779117668361e+001
6818:-1.0449847252506837e+001
6819:-7.4583655929034540e+000
6820:-1.8345250301940560e+001
6821:-1.5858108548164104e+001
6822:-1.2186646904879524e+001
6823:-9.1234974981999848e+000
6824:-2.0888970725974719e+001
6825:-1.8575593422486538e+001
6826:-1.4946103603649892e+001
6827:-1.1798920154531872e+001
6828:-2.3099600371527764e+001
6829:-2.0970788148394071e+001
6830:-1.7411277447691106e+001
6831:-1.4206686605495843e+001
6832:-5.8238697737161358e+000
6833:-2.8655229159108595e+000
6834:6.9747914738941663e-001
6835:3.1596057300041918e+000
6836:-7.4321960290310578e+000
6837:-4.3243619841212748e+000
6838:-5.0468385853603448e-001
6839:2.1798669875496430e+000
6840:-1.0027160841413561e+001
6841:-6.6908356010027088e+000
6842:-2.4642675680224628e+000
6843:5.7527034086790396e-001
6844:-1.2369239149947262e+001
6845:-8.8365854597996325e+000
6846:-4.2542812777743109e+000
6847:-9.0563239066430234e-001
6848:4.3648020389499935e+000
6849:6.4117347769648321e+000
6850:8.6565649327974352e+000
6851:1.0047663902259719e+001
6852:3.5060606364862061e+000
6853:5.7662951053011655e+000
6854:8.2526341863400496e+000
6855:9.7946667500726576e+000
6856:2.0939712744502774e+000
6857:4.6943716337913459e+000
6858:7.5613232712626290e+000
6859:9.3311290408642105e+000
6860:7.7924686262979637e-001
6861:3.6731600275652689e+000
6862:6.8638612693731700e+000
6863:8.8185905510980493e+000
6864:1.0669524115294584e+001
6865:1.1584548246337359e+001
6866:1.2306740766196834e+001
6867:1.2523426523599447e+001
6868:1.0482752919177768e+001
6869:1.1489260601827407e+001
6870:1.2279439784094569e+001
6871:1.2521143698194342e+001
6872:1.0113177363140426e+001
6873:1.1238539349372472e+001
6874:1.2095524666921554e+001
6875:1.2342841229645030e+001
6876:9.6716962278700276e+000
6877:1.0877826989640591e+001
6878:1.1761761421218742e+001
6879:1.1990892916757273e+001
6880:1.2525070420315215e+001
6881:1.2296977092635377e+001
6882:1.1545897911982017e+001
6883:1.0626714894794857e+001
6884:1.2529401989523985e+001
6885:1.2295232149372785e+001
6886:1.1504567935410670e+001
6887:1.0536343126647569e+001
6888:1.2343538902515881e+001
6889:1.2073524606217328e+001
6890:1.1208730984239882e+001
6891:1.0177159200478140e+001
6892:1.1973800940616451e+001
6893:1.1658618852006921e+001
6894:1.0730124938673441e+001
6895:9.6623809602651622e+000
6896:1.0024256230081679e+001
6897:8.8282947266020440e+000
6898:7.1804141283163876e+000
6899:5.8600636981611141e+000
6900:9.9037784736120145e+000
6901:8.6646788119531735e+000
6902:6.9911839451853837e+000
6903:5.6750554784474012e+000
6904:9.5134698637093571e+000
6905:8.2396768827390421e+000
6906:6.5696953717131619e+000
6907:5.2927158430669596e+000
6908:8.9885482080547501e+000
6909:7.7171879442968558e+000
6910:6.0909272080591474e+000
6911:4.8769173541914288e+000
6912:5.1468632754808938e+000
6913:3.9358040267155459e+000
6914:2.6366357986066942e+000
6915:1.8577167040760905e+000
6916:4.9719598947141561e+000
6917:3.7819415913364534e+000
6918:2.5103159587975070e+000
6919:1.7513627021381730e+000
6920:4.6219771106929546e+000
6921:3.4926307519680129e+000
6922:2.2926100079412794e+000
6923:1.5800393209623564e+000
6924:4.2486646884576231e+000
6925:3.1959369992593230e+000
6926:2.0825361197815457e+000
6927:1.4232613866679527e+000
6928:1.5178200451759791e+000
6929:9.8495087936433845e-001
6930:4.9153408286688438e-001
6931:2.7115757806454482e-001
6932:1.4214889878692620e+000
6933:9.0837746787649565e-001
6934:4.4314177930502141e-001
6935:2.4625764628303465e-001
6936:1.2714242990470273e+000
6937:7.9661735012797474e-001
6938:3.7824667125721001e-001
6939:2.1389955298033056e-001
6940:1.1379534978600276e+000
6941:7.0273357230543076e-001
6942:3.2740461782011782e-001
6943:1.8793057198025506e-001
6944:2.0709781052589021e-001
6945:1.2501964969948579e-001
6946:7.2877319641161259e-002
6947:6.8820208151308598e-002
6948:1.9489374489568784e-001
6949:1.2786412538595426e-001
6950:7.6071244544783187e-002
6951:5.7331403148987325e-002
6952:1.7795504830872816e-001
6953:1.2840077865305882e-001
6954:7.6129050426282263e-002
6955:3.9879964260737241e-002
6956:1.6186778856112441e-001
6957:1.2330065255857496e-001
6958:7.1626287741499095e-002
6959:2.6450271304302834e-002
6960:4.3776645744980269e-001
6961:-4.0338790381798539e-001
6962:-1.4094536101460564e+000
6963:-2.1561726179684193e+000
6964:3.3869596650646600e-001
6965:-2.7464682708041172e-001
6966:-1.0123853617129659e+000
6967:-1.5620214090145224e+000
6968:1.9998826424115848e-001
6969:-1.0244051804484566e-001
6970:-4.6767030946217181e-001
6971:-7.4182530600665919e-001
6972:8.6986033375932359e-002
6973:3.4100297119313921e-002
6974:-2.9549078806988725e-002
6975:-8.0618749007810686e-002
6976:-2.5572697815807586e+000
6977:-3.3483281976326551e+000
6978:-4.5018535360227121e+000
6979:-5.5110408814519660e+000
6980:-1.8578613495827789e+000
6981:-2.4492201085708971e+000
6982:-3.3419332885271058e+000
6983:-4.1541480239317172e+000
6984:-8.9053805417245002e-001
6985:-1.1998239086284634e+000
6986:-1.7151301923226443e+000
6987:-2.2332622989535991e+000
6988:-1.1045678191739658e-001
6989:-1.8851342515096942e-001
6990:-3.8576419859707828e-001
6991:-6.4838092721634577e-001
6992:-6.0989350909914855e+000
6993:-7.2727421935642891e+000
6994:-8.9860310047373222e+000
6995:-1.0478258346167150e+001
6996:-4.6393332801615594e+000
6997:-5.6379827105025759e+000
6998:-7.1820904698892596e+000
6999:-8.6081211896340193e+000
7000:-2.5614752147697133e+000
7001:-3.2879185207389767e+000
7002:-4.5570962644164830e+000
7003:-5.8595794814947073e+000
7004:-8.3746600928347725e-001
7005:-1.3210351256684743e+000
7006:-2.3400340261168888e+000
7007:-3.5230360706875454e+000
7008:-1.1347417671591717e+001
7009:-1.3117955518557519e+001
7010:-1.5650849377888079e+001
7011:-1.7721829418966543e+001
7012:-9.4693917978030804e+000
7013:-1.1285717511713099e+001
7014:-1.4003838439641873e+001
7015:-1.6317377594653518e+001
7016:-6.6925495745118360e+000
7017:-8.5350091291561991e+000
7018:-1.1459524718791801e+001
7019:-1.4076465217350473e+001
7020:-4.3230620430810429e+000
7021:-6.1636473633666631e+000
7022:-9.2223343808337201e+000
7023:-1.2062751121385800e+001
7024:-1.8856118350142719e+001
7025:-2.0918902674661151e+001
7026:-2.3293640387571259e+001
7027:-2.4733475242106572e+001
7028:-1.7618388403586049e+001
7029:-2.0068893026890336e+001
7030:-2.3060969938622922e+001
7031:-2.5028995330425708e+001
7032:-1.5595362661604428e+001
7033:-1.8574274272831751e+001
7034:-2.2440818658010183e+001
7035:-2.5177284069425006e+001
7036:-1.3749030010831826e+001
7037:-1.7150252327875663e+001
7038:-2.1739688130597298e+001
7039:-2.5125426055438098e+001
7040:-2.5327741895544737e+001
7041:-2.6035607343646472e+001
7042:-2.6011344332218250e+001
7043:-2.5149849349933980e+001
7044:-2.5916466747401675e+001
7045:-2.7184812333608640e+001
7046:-2.7854762500196227e+001
7047:-2.7449365251515768e+001
7048:-2.6497657307503651e+001
7049:-2.8600282253755065e+001
7050:-3.0315955333080428e+001
7051:-3.0608742812043246e+001
7052:-2.6815645016691221e+001
7053:-2.9632202923963838e+001
7054:-3.2243890402931193e+001
7055:-3.3136038759593674e+001
7056:-2.4364103106851907e+001
7057:-2.2350876323159017e+001
7058:-1.8841993320421931e+001
7059:-1.5609871445104369e+001
7060:-2.6865449039361938e+001
7061:-2.5122359624447849e+001
7062:-2.1765406419011178e+001
7063:-1.8510836720053028e+001
7064:-3.0339759885874859e+001
7065:-2.9042865136499994e+001
7066:-2.5988952597593755e+001
7067:-2.2761363002748233e+001
7068:-3.3138680486628537e+001
7069:-3.2240183086500281e+001
7070:-2.9483389307428197e+001
7071:-2.6311072483115563e+001
7072:-1.3736471829783486e+001
7073:-1.0093307203983587e+001
7074:-5.3093967476117010e+000
7075:-1.7865451731575279e+000
7076:-1.6579143260501681e+001
7077:-1.2734584029897471e+001
7078:-7.5645507173267807e+000
7079:-3.7021298179868536e+000
7080:-2.0772245486980744e+001
7081:-1.6680490493484729e+001
7082:-1.1001226483086738e+001
7083:-6.6818157181967184e+000
7084:-2.4288874273636051e+001
7085:-2.0016880129829588e+001
7086:-1.3946571426343453e+001
7087:-9.2738872413389597e+000
7088:-8.7155232354132386e-003
7089:3.0492923922421791e+000
7090:6.4191103857537737e+000
7091:8.4725524142334692e+000
7092:-1.7419622319323236e+000
7093:1.6426235272179555e+000
7094:5.3732561611607963e+000
7095:7.6244884547622442e+000
7096:-4.4750548858023045e+000
7097:-6.4121708313493309e-001
7098:3.5897349111760115e+000
7099:6.1077364475751210e+000
7100:-6.8772159876472303e+000
7101:-2.6943158553641990e+000
7102:1.9217776533025255e+000
7103:4.6319313253369021e+000
7104:9.3613788756546885e+000
7105:1.0604365788667725e+001
7106:1.1492391951845876e+001
7107:1.1703620861380308e+001
7108:8.5831981259748407e+000
7109:9.8970173962077475e+000
7110:1.0789035990776016e+001
7111:1.0959679267257606e+001
7112:7.1541613693642363e+000
7113:8.5461626106394508e+000
7114:9.4120314629949586e+000
7115:9.4961809965163564e+000
7116:5.7318928209158919e+000
7117:7.1516901387938256e+000
7118:7.9451502592826353e+000
7119:7.9151651063268229e+000
7120:1.1672992567947468e+001
7121:1.1328599787494218e+001
7122:1.0366688567245323e+001
7123:9.2874341232160340e+000
7124:1.0898762872001369e+001
7125:1.0493204581435256e+001
7126:9.4714033010841714e+000
7127:8.3852428055321742e+000
7128:9.3754265996769703e+000
7129:8.8641384688913281e+000
7130:7.7661082521162799e+000
7131:6.7071564264179857e+000
7132:7.7214231012728138e+000
7133:7.0945185868464220e+000
7134:5.9346110846554430e+000
7135:4.9308039697233212e+000
7136:8.6151683843100884e+000
7137:7.3587859629051264e+000
7138:5.7736531772686348e+000
7139:4.6067163800167670e+000
7140:7.7286515716336659e+000
7141:6.5229433905022391e+000
7142:5.0421055668987691e+000
7143:3.9848134114774005e+000
7144:6.1030342124380237e+000
7145:5.0203530234612685e+000
7146:3.7434955259502862e+000
7147:2.8815259125212100e+000
7148:4.3980762230450798e+000
7149:3.4660188604924547e+000
7150:2.4134905630902557e+000
7151:1.7530260895695140e+000
7152:4.0081688274779994e+000
7153:3.0082929412216513e+000
7154:1.9537546496353044e+000
7155:1.3300069431630570e+000
7156:3.4541360348151606e+000
7157:2.5765102339939663e+000
7158:1.6607884185717579e+000
7159:1.1222942463977434e+000
7160:2.4686885525935844e+000
7161:1.8070119711540189e+000
7162:1.1442364308807946e+000
7163:7.6681657646709478e-001
7164:1.4590624830474828e+000
7165:1.0176591855166732e+000
7166:6.1894780454274023e-001
7167:4.1490478986984947e-001
7168:1.0599378786438014e+000
7169:6.4982035358351653e-001
7170:2.9997153220571671e-001
7171:1.7338000560594335e-001
7172:8.8912088210050289e-001
7173:5.3855773139462804e-001
7174:2.4586791707910227e-001
7175:1.4459808167175262e-001
7176:6.0527868255866824e-001
7177:3.6722633407219429e-001
7178:1.7436132834261947e-001
7179:1.0879071812580163e-001
7180:3.3241703716770710e-001
7181:2.1591500586856494e-001
7182:1.2424557764185977e-001
7183:8.7846820456150915e-002
7184:1.5161312146450626e-001
7185:1.1786704544091790e-001
7186:6.7359514651036442e-002
7187:1.9925407935168102e-002
7188:1.2946975965650218e-001
7189:1.0353879618573252e-001
7190:5.7432526782835544e-002
7191:1.0279283124282780e-002
7192:9.8259914192666206e-002
7193:7.8245844581648530e-002
7194:4.1342511239675528e-002
7195:3.7972634665219751e-003
7196:7.6300723493417308e-002
7197:5.5363631990194409e-002
7198:2.6833473499593290e-002
7199:3.8178690159940275e-003
