label=Stress xy
num_items=18

0:-3.7309930780290440e-18
1:3.8767555817208639e-18
2:4.9242970976054469e-17
3:-1.5654972823130595e-17
4:4.8757730772983710e-17
5:6.6657678249240175e-17
6:-6.1460270458404168e-17
7:6.9921783441126157e-17
8:1.3574139530493818e-16
9:0.0000000000000000e+00
10:0.0000000000000000e+00
11:0.0000000000000000e+00
12:0.0000000000000000e+00
13:0.0000000000000000e+00
14:0.0000000000000000e+00
15:0.0000000000000000e+00
16:0.0000000000000000e+00
17:0.0000000000000000e+00
