label=Stress xy
num_items=360

0:-4.2851470985029000e-01
1:-5.8599094621565539e-02
2:1.3704492649377822e-01
3:-2.9479410359184322e-01
4:-9.4907985323544608e-02
5:3.0083711548218671e-02
6:-2.0460292236843219e-01
7:-1.4966553608218972e-01
8:-7.0245398475635920e-02
9:1.1325102026617966e-01
10:-3.8255609803654979e-02
11:-1.6898272158191499e-01
12:3.7824973125222372e-02
13:-4.1101962068982478e-02
14:-1.6477294776088591e-01
15:-2.5285599986909307e-02
16:-3.7182754672077087e-02
17:-1.5934752864421620e-01
18:-1.5439577304122029e-01
19:-2.8924627018252227e-02
20:3.1525679276799161e-02
21:-1.7979012008873854e-01
22:-1.0040361015820022e-01
23:-5.4418093589791182e-02
24:-2.0602674766995505e-01
25:-1.7424700444169156e-01
26:-1.4424840820974877e-01
27:6.5247538444588818e-02
28:8.8566345537189436e-02
29:-2.8892315467177561e-03
30:-1.2984530368646134e-02
31:3.0147989529055667e-02
32:-4.2643005364571544e-02
33:-9.3835283890646271e-02
34:-2.5009940401622879e-02
35:-7.3257242318740173e-02
36:-4.8978118410643368e-02
37:-5.2825431332459011e-02
38:-7.3722175412410398e-02
39:-8.1269672735471102e-02
40:-7.8491376216504163e-02
41:-9.4459534639215720e-02
42:-1.0422032634222719e-01
43:-1.0000354595988768e-01
44:-1.1623024430276492e-01
45:-5.4658505987409241e-02
46:-2.9713727694389777e-03
47:-2.2124377762962541e-02
48:-7.0323989234356052e-02
49:-1.6610064803475773e-02
50:-5.1659681515587391e-02
51:-8.8322338544884554e-02
52:-3.1860271954110821e-02
53:-8.2085149437906069e-02
54:-1.4816554077281942e-02
55:2.2016565043411398e-02
56:-2.3505857733937412e-02
57:-6.3238368844203363e-02
58:-4.4581947575742117e-02
59:-7.8442796725309058e-02
60:-1.1202377137399054e-01
61:-1.1045582346730129e-01
62:-1.3156687449868035e-01
63:-4.2257719302978822e-02
64:-2.9716861375885365e-02
65:-5.0795392658394035e-02
66:-7.7058020824668602e-02
67:-4.3551896783739753e-02
68:-7.0484837038705742e-02
69:-1.0925629016696654e-01
70:-5.3161145064692251e-02
71:-8.4324739344706176e-02
72:-3.3028417875376706e-02
73:1.1736765253087684e-02
74:-3.5009880394594593e-02
75:-6.7674987430578801e-02
76:-4.6039508808610873e-02
77:-1.0800893602212788e-01
78:-9.7051756825176111e-02
79:-1.0216201591603633e-01
80:-1.8297025790172494e-01
81:-4.9534482491414053e-02
82:-2.5009663514443264e-02
83:-4.9096647651467359e-02
84:-1.2677723890011655e-01
85:-1.0749425668814690e-01
86:-1.3802723322776753e-01
87:-2.0717294080377086e-01
88:-1.9360752145399493e-01
89:-2.3106221649345776e-01
90:-1.6261471174388814e-01
91:-1.6555589799828707e-01
92:-1.1306519859068034e-01
93:-1.0682256675548700e-01
94:-1.6526824561850531e-01
95:-1.6130276908136987e-01
96:-9.1939866470375872e-02
97:-1.8321670702372431e-01
98:-2.0510312243876963e-01
99:-6.0853600923346234e-02
100:-4.8099310216069627e-02
101:-1.5679961174011520e-01
102:-1.2184202924626827e-01
103:-9.1406006051290137e-02
104:-1.5534494566886595e-01
105:-1.7341176189580274e-01
106:-1.3084852760861387e-01
107:-1.5558062671522355e-01
108:-2.0373104446460505e-01
109:-1.8299852893859747e-01
110:-1.7014662112635656e-01
111:-1.7022632193531737e-01
112:-1.3553586820770125e-01
113:-1.6130661452558015e-01
114:-1.3852603744811617e-01
115:-8.4715196635350556e-02
116:-1.4394614819980517e-01
117:-1.2798492373925946e-01
118:-5.7843077654262352e-02
119:-9.1468491867922885e-02
120:-1.5784570588651184e-01
121:-1.1787914180009218e-01
122:-1.3480686226809371e-01
123:-1.8003323490119505e-01
124:-1.7831582009713479e-01
125:-1.8661971410326533e-01
126:-1.1336944254330565e-01
127:-1.0632588303651302e-01
128:-1.2763395369943198e-01
129:-1.3329470107522376e-01
130:-1.0919304695273603e-01
131:-1.3892229580506316e-01
132:-1.6159416294483145e-01
133:-1.1201594207642296e-01
134:-1.4174789698793647e-01
135:-1.0232362167945018e-01
136:-4.5120571635676086e-02
137:-9.5407781519952689e-02
138:-1.2470004621646680e-01
139:-7.0945566258808643e-02
140:-1.0951853153916406e-01
141:-1.3741777625726276e-01
142:-9.1420454019268002e-02
143:-1.2258776232922386e-01
144:-1.2741428373772354e-01
145:-1.3077387630210657e-01
146:-1.5433710108974991e-01
147:-1.3108823113123161e-01
148:-1.3385318728980525e-01
149:-1.7815347004839599e-01
150:-1.3445958579406386e-01
151:-1.3486063267223591e-01
152:-1.9812870052718565e-01
153:-1.3113068576899367e-01
154:-7.0767453754074047e-02
155:-9.7143609909377801e-02
156:-1.7356680304424402e-01
157:-1.2421949910175155e-01
158:-1.3300716212748068e-01
159:-2.1256929397838978e-01
160:-1.7740760305463646e-01
161:-1.7177645789704118e-01
162:-1.0876152240914497e-01
163:-1.1625090164402672e-01
164:-2.0109260440263704e-01
165:-1.2468009512398356e-01
166:-1.0845491701948561e-01
167:-1.8317411317516233e-01
168:-1.4315977692947843e-01
169:-9.8866023084630772e-02
170:-1.5910869423640467e-01
171:-2.2677977423258927e-01
172:-2.1411474797520880e-01
173:-2.5386457360352432e-01
174:-2.0753760229061108e-01
175:-1.9398922538181662e-01
176:-2.3644454851400531e-01
177:-1.8180435319334434e-01
178:-1.7054397733579457e-01
179:-2.1887614967444868e-01
180:-1.0002580035348412e-01
181:-1.9387031211274622e-01
182:-2.1407919786378649e-01
183:-1.3847117258293679e-01
184:-2.1181067424949668e-01
185:-2.0390522220585053e-01
186:-2.1128130991870242e-01
187:-2.4686832020927188e-01
188:-1.9360104908765005e-01
189:-1.8132332460460818e-01
190:-1.3812296963235215e-01
191:-1.6005414844394375e-01
192:-1.5971757785261895e-01
193:-1.2293816056328963e-01
194:-1.7093402713472669e-01
195:-1.3299364427951046e-01
196:-1.0274146205225958e-01
197:-1.7690831376269850e-01
198:-1.3929470450306286e-01
199:-7.8764643558893857e-02
200:-1.3408790554432834e-01
201:-1.6978184551952433e-01
202:-1.1018334391566229e-01
203:-1.2351937424161029e-01
204:-1.9610180880822706e-01
205:-1.3986612387926403e-01
206:-1.1364617988031056e-01
207:-1.7068476726638282e-01
208:-1.7275590245489744e-01
209:-1.8476137159116451e-01
210:-1.2201484864769936e-01
211:-9.2905519828569968e-02
212:-1.2030461231089568e-01
213:-7.4414613916659933e-02
214:-1.2980003918816383e-02
215:-5.4627902576150113e-02
216:-1.6001431075003192e-01
217:-1.1013452089866470e-01
218:-1.4326257487018065e-01
219:-1.1963740495561041e-01
220:-9.8806300504252306e-02
221:-1.4821077251030515e-01
222:-7.7335208152914808e-02
223:-8.4273709332788993e-02
224:-1.4867551960459011e-01
225:-1.4369136290942910e-01
226:-1.0396014780538813e-01
227:-1.3472442580599084e-01
228:-1.5599864688772583e-01
229:-1.2851868423430093e-01
230:-1.6377859408492496e-01
231:-1.6401656345223958e-01
232:-1.5073389808539900e-01
233:-1.9243548462195392e-01
234:-1.4295428316671560e-01
235:-1.3716991661892505e-01
236:-1.9676572321246047e-01
237:-1.6922831325738077e-01
238:-1.4620586451087567e-01
239:-1.7586832101566358e-01
240:-1.9590219820309551e-01
241:-1.5643496195366949e-01
242:-1.5695736306548624e-01
243:-2.1085476652497517e-01
244:-1.7665271077560052e-01
245:-1.7216354980865289e-01
246:-1.6918201563778235e-01
247:-1.2058232681897549e-01
248:-1.3092659486059324e-01
249:-1.2906667360272220e-01
250:-6.3801680458230356e-02
251:-8.6711706252047729e-02
252:-1.4299345006178837e-01
253:-9.4191372571192297e-02
254:-1.4783924380165636e-01
255:-1.1966527504275332e-01
256:-8.5302623873336966e-02
257:-1.3262771234148296e-01
258:-9.2272445042476434e-02
259:-7.0882382680788461e-02
260:-1.1041785087316927e-01
261:-1.6726513861983086e-01
262:-1.5001372197964574e-01
263:-1.8817801433178233e-01
264:-1.4466164687032537e-01
265:-1.1015070364831733e-01
266:-1.1311294811965043e-01
267:-1.1808784630826821e-01
268:-7.8189983643034353e-02
269:-5.7822787371944601e-02
270:-2.5337838966853848e-01
271:-2.2987473907658429e-01
272:-1.5459910483183170e-01
273:-3.2724867655988182e-01
274:-1.3535784750994956e-01
275:-2.6737369978903937e-02
276:-4.3860405212947562e-01
277:-5.6314629990633094e-02
278:1.0766210545763941e-01
279:-1.0542086127206891e-01
280:-9.8376607693044377e-02
281:-1.7384559028087357e-01
282:-3.3968253833690204e-02
283:-1.0567645681028535e-01
284:-1.6497505424465619e-01
285:4.7905277095924584e-02
286:-1.1122227134005082e-01
287:-1.6301737252474183e-01
288:-1.8435366465993500e-01
289:-1.1688968784226510e-01
290:-8.8397467425430212e-02
291:-1.2496539454731397e-01
292:-8.9110657315825820e-03
293:-5.5245569060984054e-03
294:-7.2725398486444937e-02
295:9.9777153270556182e-02
296:8.5915821447892893e-02
297:-5.2066146887450676e-02
298:2.4213645151495537e-03
299:-4.6931553966782828e-02
300:-1.5934089303304318e-02
301:-2.1012625218311941e-02
302:-8.5962093657801983e-02
303:2.9867248405745811e-02
304:-3.8848837009437913e-02
305:-1.2346635758903041e-01
306:-7.1900978841183752e-02
307:-7.4622160411852018e-02
308:-1.2892464613111282e-01
309:-9.6777094338458464e-02
310:-5.8839083732190739e-02
311:-6.5041183631064675e-02
312:-1.2166224546272497e-01
313:-4.4269625293182333e-02
314:-3.5759219852536279e-03
315:-1.3918097473146243e-01
316:-1.2675165938924360e-01
317:-1.7617074508624045e-01
318:-4.9902669429333871e-02
319:-2.3340445734138487e-02
320:-8.9970835026952592e-02
321:3.7333597133926560e-02
322:8.0525989773200968e-02
323:-8.1844252426470365e-04
324:-1.8543668783511369e-01
325:-1.4910921626706397e-01
326:-1.4558165371809284e-01
327:-1.1999227256116562e-01
328:-1.0979315581021971e-01
329:-1.2038177438877380e-01
330:-5.0600844351160107e-02
331:-6.5609647251683181e-02
332:-8.9394011792180400e-02
333:-1.1215312308275727e-01
334:-4.0410297767465353e-02
335:-6.2825475376241141e-02
336:-8.9760176036802530e-02
337:-1.5704153667993350e-02
338:-2.7135546792635114e-02
339:-6.2131404052274776e-02
340:1.1420236354961076e-02
341:8.1550486993850445e-03
342:-6.9592322010676527e-02
343:-4.9091916513480445e-02
344:-8.9690595644110499e-02
345:-2.2283335994137211e-02
346:7.7783050796464423e-03
347:-4.4617764687272854e-02
348:2.4073648378683313e-02
349:6.4614863167218720e-02
350:1.3397409021088226e-03
351:-1.0433970788857892e-01
352:-7.2680549825115001e-02
353:-3.7980725486902851e-02
354:-8.5758164375234786e-02
355:-8.1064853426830757e-02
356:-1.3707200735347737e-02
357:-6.6444155754485562e-02
358:-9.0158096824873690e-02
359:8.4159793160087266e-03
