x	y	stress_yy
 1.000000000000000e+00	 0.000000000000000e+00	 2.341202250345229e+01
 9.997942136041430e-01	 2.028591802679378e-02	 2.339670600647218e+01
 9.991701517322812e-01	 4.073043895732996e-02	 2.333331367271339e+01
 9.981179738659461e-01	 6.132242709398375e-02	 2.322130958498684e+01
 9.966281528999331e-01	 8.205016480108969e-02	 2.306052971415702e+01
 9.946915115410935e-01	 1.029013581149163e-01	 2.285119996101696e+01
 9.922992591451227e-01	 1.238631447915628e-01	 2.259395269547543e+01
 9.894430288203904e-01	 1.449221048859623e-01	 2.228984155621206e+01
 9.861149146151664e-01	 1.660642739430359e-01	 2.194035427353569e+01
 9.823075085927058e-01	 1.872751588682954e-01	 2.154742328089958e+01
 9.780139375877577e-01	 2.085397565298897e-01	 2.111343388662801e+01
 1.014285762337685e+00	 0.000000000000000e+00	 2.267936336587034e+01
 1.014077036126061e+00	 2.057571783397239e-02	 2.266557064489600e+01
 1.013444059054001e+00	 4.131230433435238e-02	 2.260677955233500e+01
 1.012376850023818e+00	 6.219846472164651e-02	 2.250256228725695e+01
 1.010865745828442e+00	 8.322231396489504e-02	 2.235284016653338e+01
 1.008901438070191e+00	 1.043713824717894e-01	 2.215790001888346e+01
 1.006475010523806e+00	 1.256326242515389e-01	 2.191840915113244e+01
 1.003577976770334e+00	 1.469924276450039e-01	 2.163542866705994e+01
 1.000202317915604e+00	 1.684366287042941e-01	 2.131042491908611e+01
 9.963405201949547e-01	 1.899505272900958e-01	 2.094527887589013e+01
 9.919856122548429e-01	 2.115189059394628e-01	 2.054229319510702e+01
 1.028571613012482e+00	 0.000000000000000e+00	 2.200094464240329e+01
 1.028359946966947e+00	 2.086551943237181e-02	 2.198867011056296e+01
 1.027718054639657e+00	 4.189417330796975e-02	 2.193424652831366e+01
 1.026635814352820e+00	 6.307450776443697e-02	 2.183735287807209e+01
 1.025103426796637e+00	 8.439447037447290e-02	 2.169799562849273e+01
 1.023111452468066e+00	 1.058414159160936e-01	 2.151652354276784e+01
 1.020650849560097e+00	 1.274021146504702e-01	 2.129364112993304e+01
 1.017713012125696e+00	 1.490627632031908e-01	 2.103042053592610e+01
 1.014289808327531e+00	 1.708089981323072e-01	 2.072831167130222e+01
 1.010373618572351e+00	 1.926259122523858e-01	 2.038915037549112e+01
 1.005957373317689e+00	 2.144980737680448e-01	 2.001516442350095e+01
 1.042857540357000e+00	 0.000000000000000e+00	 2.137179322349180e+01
 1.042642934461810e+00	 2.115532258538498e-02	 2.136102525828571e+01
 1.041992126831531e+00	 4.247604540310704e-02	 2.131074179791790e+01
 1.040894855207496e+00	 6.395055550708173e-02	 2.122072731065412e+01
 1.039341184176433e+00	 8.556663307275812e-02	 2.109107321689127e+01
 1.037321543129217e+00	 1.073114572475230e-01	 2.092219117232239e+01
 1.034826764676397e+00	 1.291716145435108e-01	 2.071482506091242e+01
 1.031848123342196e+00	 1.511331098699965e-01	 2.047006150996329e+01
 1.028377374345500e+00	 1.731813802898896e-01	 2.018933873998017e+01
 1.024406792263879e+00	 1.953013115705125e-01	 1.987445356517195e+01
 1.019929209365398e+00	 2.174772575828835e-01	 1.952756636643227e+01
 1.057143532703853e+00	 0.000000000000000e+00	 2.078719518751194e+01
 1.056925986945660e+00	 2.144512705640483e-02	 2.077791720202358e+01
 1.056266263971905e+00	 4.305792014468924e-02	 2.073155323452719e+01
 1.055153960942393e+00	 6.482660723430732e-02	 2.064799197013370e+01
 1.053579006339744e+00	 8.673880110268559e-02	 2.052740957049915e+01
 1.051531698448141e+00	 1.087815052657716e-01	 2.037028149113021e+01
 1.049002744295102e+00	 1.309411224858152e-01	 2.017739307143191e+01
 1.045983298875552e+00	 1.532034659548943e-01	 1.994984872447396e+01
 1.042465004464060e+00	 1.755537732398562e-01	 1.968907955415628e+01
 1.038440029808523e+00	 1.979767230598238e-01	 1.939684923072329e+01
 1.033901108987072e+00	 2.204564549512274e-01	 1.907525796160206e+01
 1.071429578385649e+00	 0.000000000000000e+00	 2.024267852598391e+01
 1.071209092753505e+00	 2.173493260882433e-02	 2.023487000276588e+01
 1.070540454403061e+00	 4.363979705764136e-02	 2.019221208039430e+01
 1.069413119912057e+00	 6.570266223084026e-02	 2.011469641368648e+01
 1.067816881658486e+00	 8.791097350719018e-02	 2.000258368015874e+01
 1.065741906819336e+00	 1.102515587705330e-01	 1.985641398954607e+01
 1.063178776838613e+00	 1.327106370325378e-01	 1.967701612522531e+01
 1.060118527181483e+00	 1.552738297673575e-01	 1.946551545839015e+01
 1.056552687177763e+00	 1.779261750450211e-01	 1.922334037679453e+01
 1.052473319745267e+00	 2.006521445356669e-01	 1.895222707330436e+01
 1.047873060771812e+00	 2.234356634403244e-01	 1.865422254555725e+01
 1.085715665735001e+00	 0.000000000000000e+00	 1.973399723154598e+01
 1.085492240220354e+00	 2.202473900603640e-02	 1.972763472208818e+01
 1.084814686467279e+00	 4.422167566688838e-02	 1.968847700460424e+01
 1.083672320471032e+00	 6.657871978140713e-02	 1.961661747198137e+01
 1.082054798504573e+00	 8.908314932920679e-02	 1.951240107295127e+01
 1.079952156637299e+00	 1.117216165615015e-01	 1.937643337082093e+01
 1.077354850729328e+00	 1.344801567388329e-01	 1.920958848959447e+01
 1.074253796715706e+00	 1.573441996168596e-01	 1.901301580138514e+01
 1.070640410981159e+00	 1.802985837681990e-01	 1.878814521024196e+01
 1.066506650613095e+00	 2.033275738133893e-01	 1.853669089110038e+01
 1.061845053308720e+00	 2.264148806174227e-01	 1.826065334868250e+01
 1.100001783084519e+00	 0.000000000000000e+00	 1.925711662490843e+01
 1.099775417681215e+00	 2.231454601143399e-02	 1.925217471733166e+01
 1.099088948506841e+00	 4.480355549735529e-02	 1.921631940222250e+01
 1.097931550973866e+00	 6.745477917073454e-02	 1.914974458828631e+01
 1.096292745249919e+00	 9.025532761167027e-02	 1.905287922737937e+01
 1.094162436296527e+00	 1.131916774383708e-01	 1.892639507849094e+01
 1.091530954389646e+00	 1.362496801598548e-01	 1.877121341101903e+01
 1.088389095933940e+00	 1.594145738128738e-01	 1.858851051347181e+01
 1.084728164368799e+00	 1.826709974722041e-01	 1.837972187520175e+01
 1.080540010950993e+00	 2.060030087083387e-01	 1.814654491253417e+01
 1.075817075186898e+00	 2.293941040497704e-01	 1.789094011684723e+01
 1.114287918766816e+00	 0.000000000000000e+00	 1.880819980968799e+01
 1.114058613471097e+00	 2.260435338841005e-02	 1.880465206706800e+01
 1.113363228864028e+00	 4.538543607396710e-02	 1.877190982333345e+01
 1.112190799775103e+00	 6.833083968354900e-02	 1.871026628424847e+01
 1.110530710266440e+00	 9.142750739751551e-02	 1.862023410917753e+01
 1.108372734191518e+00	 1.146617402008348e-01	 1.850255193551667e+01
 1.105707076241964e+00	 1.380192058507579e-01	 1.835818989081768e+01
 1.102524413291903e+00	 1.614849506648735e-01	 1.818835397015322e+01
 1.098815935835233e+00	 1.850434142198511e-01	 1.799448915798972e+01
 1.094573389297943e+00	 2.086784470358625e-01	 1.777828117776610e+01
 1.089789114995448e+00	 2.323733313046157e-01	 1.754165675867518e+01
 1.128574061114501e+00	 0.000000000000000e+00	 1.838359515526489e+01
 1.128341815925009e+00	 2.289416090035752e-02	 1.838141502677850e+01
 1.127637515881123e+00	 4.596731692164878e-02	 1.835160543193162e+01
 1.126450055229290e+00	 6.920690060457710e-02	 1.829455765259523e+01
 1.124768681926050e+00	 9.259968772967736e-02	 1.821086772853160e+01
 1.122583038716770e+00	 1.161318036485876e-01	 1.810134179673951e+01
 1.119883204708684e+00	 1.397887323666966e-01	 1.796700046346295e+01
 1.116659737245314e+00	 1.635553284823320e-01	 1.780908209701051e+01
 1.112903713875012e+00	 1.874158320739545e-01	 1.762904493148825e+01
 1.108606774192931e+00	 2.113538866113081e-01	 1.742856787566653e+01
 1.103761161323472e+00	 2.353525599492068e-01	 1.720954992762670e+01
 1.142860198460186e+00	 0.000000000000000e+00	 1.797982471778192e+01
 1.142625013377961e+00	 2.318396831066934e-02	 1.797898642467451e+01
 1.141911797900406e+00	 4.654919756532534e-02	 1.795193840462400e+01
 1.140709305690971e+00	 7.008296121854536e-02	 1.789916878697039e+01
 1.139006648600664e+00	 9.377186765109072e-02	 1.782135662940308e+01
 1.136793338266779e+00	 1.176018665813230e-01	 1.771937612605741e+01
 1.134059328212202e+00	 1.415582582628251e-01	 1.759429988988374e+01
 1.130795056249892e+00	 1.656257055747228e-01	 1.744740120721710e+01
 1.126991486982686e+00	 1.897882490973286e-01	 1.728015516466190e+01
 1.122640154174940e+00	 2.140293252500230e-01	 1.709423855271865e+01
 1.117733202760072e+00	 2.383317875507917e-01	 1.689152845715741e+01
 9.780139375877577e-01	 2.085397565298897e-01	 2.111343388662801e+01
 9.732282518626567e-01	 2.298410867697774e-01	 2.063676127075073e+01
 9.679444735972303e-01	 2.511647027528097e-01	 2.011529238090191e+01
 9.621575490304195e-01	 2.724942383587359e-01	 1.955139737878251e+01
 9.558630981313170e-01	 2.938129209596946e-01	 1.894781979261181e+01
 9.490574463164518e-01	 3.151036037782406e-01	 1.830767677029857e+01
 9.417376544619561e-01	 3.363488008802307e-01	 1.763445688507269e+01
 9.339015469729997e-01	 3.575307247119079e-01	 1.693201538970182e+01
 9.255477376767898e-01	 3.786313260672552e-01	 1.620456683721483e+01
 9.166756533117869e-01	 3.996323363483558e-01	 1.545667501005993e+01
 9.072855543946887e-01	 4.205153119584039e-01	 1.469324012549823e+01
 9.919856122548429e-01	 2.115189059394628e-01	 2.054229319510702e+01
 9.871315593611463e-01	 2.331245419199243e-01	 2.009944336224070e+01
 9.817722982959256e-01	 2.547527820123112e-01	 1.961426395812123e+01
 9.759027031012107e-01	 2.763870262938928e-01	 1.908905852369569e+01
 9.695183311739304e-01	 2.980102625270567e-01	 1.852647095086445e+01
 9.626154554363000e-01	 3.196050989795959e-01	 1.792948488002197e+01
 9.551910947767374e-01	 3.411537999174934e-01	 1.730142085864375e+01
 9.472430425202908e-01	 3.626383236782532e-01	 1.664593117364156e+01
 9.387698926915390e-01	 3.840403632092170e-01	 1.596699229063856e+01
 9.297710638393701e-01	 4.053413889316473e-01	 1.526889485564048e+01
 9.202468202020646e-01	 4.265226937679250e-01	 1.455623123847905e+01
 1.005957373317689e+00	 2.144980737680448e-01	 2.001516442350095e+01
 1.001034952832426e+00	 2.364080173708703e-01	 1.960393647611713e+01
 9.956002085003419e-01	 2.583408834563891e-01	 1.915265150568555e+01
 9.896479421661309e-01	 2.802798382979371e-01	 1.866355097935359e+01
 9.831736486541901e-01	 3.022076300466622e-01	 1.813918563345184e+01
 9.761735483921198e-01	 3.241066220140731e-01	 1.758241406573858e+01
 9.686446182803863e-01	 3.459588286647269e-01	 1.699639928490236e+01
 9.605846205637468e-01	 3.677459542258090e-01	 1.638460314573775e+01
 9.519921294640535e-01	 3.894494337964183e-01	 1.575077861758573e+01
 9.428665553405939e-01	 4.110504768153739e-01	 1.509895985441636e+01
 9.332081661532802e-01	 4.325301127226065e-01	 1.443345005699951e+01
 1.019929209365398e+00	 2.174772575828835e-01	 1.952756636643227e+01
 1.014938420921470e+00	 2.396915104413310e-01	 1.914587546794930e+01
 1.009428192917151e+00	 2.619290041549622e-01	 1.872622081318588e+01
 1.003393254999425e+00	 2.841726711919193e-01	 1.827078626433386e+01
 9.968290394198431e-01	 3.064050200908186e-01	 1.778203574495870e+01
 9.897317141111275e-01	 3.286081692055633e-01	 1.726271107564275e+01
 9.820982139855879e-01	 3.507638831979374e-01	 1.671582795095681e+01
 9.739262702075439e-01	 3.728536121834381e-01	 1.614467000099227e+01
 9.652144371960356e-01	 3.948585334115306e-01	 1.555278089872971e+01
 9.559621171207264e-01	 4.167595953371833e-01	 1.494395449389800e+01
 9.461695816632008e-01	 4.385375639164554e-01	 1.432222297436522e+01
 1.033901108987072e+00	 2.204564549512274e-01	 1.907525796160207e+01
 1.028841952273254e+00	 2.429750184500217e-01	 1.872112975024968e+01
 1.023256240253020e+00	 2.655171411779492e-01	 1.833096581109922e+01
 1.017138630375336e+00	 2.880655217968899e-01	 1.790689679415171e+01
 1.010484492318634e+00	 3.106024292318331e-01	 1.745130602076333e+01
 1.003289941520539e+00	 3.331097368779573e-01	 1.696682660982119e+01
 9.955518709050284e-01	 3.555689595931317e-01	 1.645633691738922e+01
 9.872679805558595e-01	 3.779612933800034e-01	 1.592295424702380e+01
 9.784368050891872e-01	 4.002676576372252e-01	 1.537002680498952e+01
 9.690577384850337e-01	 4.224687398347229e-01	 1.480112389271312e+01
 9.591310561466906e-01	 4.445450424434799e-01	 1.422002434766443e+01
 1.047873060771812e+00	 2.234356634403244e-01	 1.865422254555725e+01
 1.042745535532752e+00	 2.462585387156576e-01	 1.832578793537036e+01
 1.037084339214621e+00	 2.691052915952691e-01	 1.796309365399728e+01
 1.030884057068108e+00	 2.919583869338995e-01	 1.756822145789357e+01
 1.024139996198312e+00	 3.147998540420133e-01	 1.714348014991695e+01
 1.016848219547572e+00	 3.376113213551462e-01	 1.669140204168268e+01
 1.009005578051392e+00	 3.603740539263159e-01	 1.621473788979207e+01
 1.000609740712870e+00	 3.830689936443673e-01	 1.571645027627916e+01
 9.916592223452112e-01	 4.056768020561739e-01	 1.519970541975705e+01
 9.821534087387838e-01	 4.281779056456405e-01	 1.466786342072040e+01
 9.720925790186141e-01	 4.505525433976866e-01	 1.412446696192288e+01
 1.061845053308720e+00	 2.264148806174227e-01	 1.826065334868250e+01
 1.056649159344938e+00	 2.495420685569542e-01	 1.795614368653752e+01
 1.050912478508621e+00	 2.726934524768401e-01	 1.761901097657617e+01
 1.044629523851985e+00	 2.958512634239984e-01	 1.725129232813468e+01
 1.037795539906621e+00	 3.189972910936670e-01	 1.685522798758067e+01
 1.030406537119441e+00	 3.421129189610210e-01	 1.643325718107502e+01
 1.022459324437366e+00	 3.651791622734971e-01	 1.598801258004242e+01
 1.013951539782750e+00	 3.881767088053925e-01	 1.552231337204086e+01
 1.004881678165811e+00	 4.110859622510484e-01	 1.503915693508988e+01
 9.952491171872442e-01	 4.338870881075838e-01	 1.454170912949238e+01
 9.850541396938364e-01	 4.565600618730836e-01	 1.403329323740837e+01
 1.075817075186898e+00	 2.293941040497704e-01	 1.789094011684723e+01
 1.070552812354785e+00	 2.528256052926267e-01	 1.760868266727779e+01
 1.064740646841691e+00	 2.762816208925815e-01	 1.729531121596907e+01
 1.058375019501212e+00	 2.997441480882371e-01	 1.695282240119439e+01
 1.051451112291307e+00	 3.231947369591011e-01	 1.658339375804399e+01
 1.043964883163363e+00	 3.466145260194731e-01	 1.618937898446132e+01
 1.035913099075635e+00	 3.699842807106812e-01	 1.577330196740572e+01
 1.027293366869678e+00	 3.932844346919420e-01	 1.533784956340382e+01
 1.018104161752687e+00	 4.164951338045200e-01	 1.488586314247764e+01
 1.008344853135681e+00	 4.395962825582002e-01	 1.442032891955192e+01
 9.980157275872219e-01	 4.625675929636779e-01	 1.394436711257585e+01
 1.089789114995448e+00	 2.323733313046157e-01	 1.754165675867518e+01
 1.084456483207269e+00	 2.561091462413904e-01	 1.728007049073821e+01
 1.078568832920501e+00	 2.798697939124116e-01	 1.698876290472209e+01
 1.072120532790033e+00	 3.036370377476662e-01	 1.666969427533232e+01
 1.065106702200117e+00	 3.273921882106234e-01	 1.632498515949397e+01
 1.057523246606553e+00	 3.511161388543931e-01	 1.595691112722605e+01
 1.049366890978884e+00	 3.747894053138751e-01	 1.556789637877447e+01
 1.040635211077830e+00	 3.983921671328784e-01	 1.516050625308748e+01
 1.031326662307544e+00	 4.219043122992608e-01	 1.473743864692529e+01
 1.021440605889363e+00	 4.453054843351376e-01	 1.430151437829123e+01
 1.010977332113635e+00	 4.685751317634770e-01	 1.385566654206078e+01
 1.103761161323472e+00	 2.353525599492068e-01	 1.720954992762670e+01
 1.098360160547363e+00	 2.593926887219608e-01	 1.696714158036744e+01
 1.092397025451718e+00	 2.834579686062492e-01	 1.669629884848856e+01
 1.085866052492690e+00	 3.075299292233358e-01	 1.639894968383739e+01
 1.078762298480797e+00	 3.315896414205411e-01	 1.607716329069029e+01
 1.071081616376229e+00	 3.556177537896724e-01	 1.573314436177533e+01
 1.062820689159799e+00	 3.795945321590852e-01	 1.536922631551293e+01
 1.053977061511382e+00	 4.034999019570644e-01	 1.498786354965314e+01
 1.044549169032083e+00	 4.273134933179419e-01	 1.459162274030714e+01
 1.034536364753556e+00	 4.510146887760432e-01	 1.418317322918643e+01
 1.023938942687942e+00	 4.745826733664884e-01	 1.376527655526128e+01
 1.117733202760072e+00	 2.383317875507917e-01	 1.689152845715741e+01
 1.112263833020041e+00	 2.626762300530532e-01	 1.666688886227190e+01
 1.106225213142014e+00	 2.870461420440131e-01	 1.641500611108536e+01
 1.099611567383429e+00	 3.114228193362967e-01	 1.613777980826095e+01
 1.092417889981094e+00	 3.357870931611621e-01	 1.583723332768202e+01
 1.084639981399607e+00	 3.601193671492018e-01	 1.551550759272356e+01
 1.076274482631064e+00	 3.843996573223178e-01	 1.517485396162527e+01
 1.067318907274511e+00	 4.086076349933625e-01	 1.481762624253412e+01
 1.057771671128008e+00	 4.327226724432351e-01	 1.444627187634625e+01
 1.047632119033529e+00	 4.567238912185653e-01	 1.406332233885736e+01
 1.036900548725005e+00	 4.805902128667193e-01	 1.367138282649008e+01
 9.072855543946887e-01	 4.205153119584039e-01	 1.469324012549823e+01
 8.973778426309759e-01	 4.412631267957646e-01	 1.391743848252118e+01
 8.869551416254857e-01	 4.618556531118257e-01	 1.313164463459689e+01
 8.760203156838144e-01	 4.822741974000463e-01	 1.233967897182484e+01
 8.645771165329884e-01	 5.025000860247010e-01	 1.154540582394338e+01
 8.526301882742356e-01	 5.225147171506273e-01	 1.075271959649690e+01
 8.401850687269298e-01	 5.422996134099225e-01	 9.965530654982558e+00
 8.272481870752481e-01	 5.618364750149920e-01	 9.187751047629057e+00
 8.138268577557128e-01	 5.811072330167580e-01	 8.423280157435352e+00
 7.999292705517563e-01	 6.000941023989975e-01	 7.675990372740380e+00
 7.855644768903997e-01	 6.187796346948449e-01	 6.949712863051101e+00
 9.202468202020646e-01	 4.265226937679250e-01	 1.455623123847904e+01
 9.101975692236983e-01	 4.475669069570152e-01	 1.383118826088718e+01
 8.996259719893256e-01	 4.684536132100533e-01	 1.309525452447840e+01
 8.885349337233767e-01	 4.891638519694764e-01	 1.235207629735195e+01
 8.769282597492056e-01	 5.096786828324061e-01	 1.160533535868325e+01
 8.648106605126151e-01	 5.299792382222528e-01	 1.085873568731426e+01
 8.521877529449992e-01	 5.500467768077960e-01	 1.011598998150801e+01
 8.390660580763807e-01	 5.698627373749913e-01	 9.380806098530114e+00
 8.254529948356356e-01	 5.894087928460177e-01	 8.656873501433374e+00
 8.113568700035452e-01	 6.086669041321033e-01	 7.947849797765413e+00
 7.967868643137184e-01	 6.276193735016999e-01	 7.257347451044219e+00
 9.332081661532802e-01	 4.325301127226065e-01	 1.443345005699951e+01
 9.230173750848367e-01	 4.538707260961631e-01	 1.375553222345995e+01
 9.122968807007574e-01	 4.750516141051551e-01	 1.306588691846698e+01
 9.010496291445451e-01	 4.960535491393559e-01	 1.236799443318672e+01
 8.892794793361982e-01	 5.168573240270957e-01	 1.166536258027517e+01
 8.769912080664878e-01	 5.374438054487242e-01	 1.096151391811255e+01
 8.641905113793015e-01	 5.577939881080805e-01	 1.025997288623396e+01
 8.508840021510615e-01	 5.778890493630670e-01	 9.564252938784215e+00
 8.370792038036242e-01	 5.977104040055304e-01	 8.877843760286897e+00
 8.227845401158297e-01	 6.172397588725924e-01	 8.204198644066144e+00
 8.080093211286548e-01	 6.364591669664901e-01	 7.546722108455833e+00
 9.461695816632008e-01	 4.385375639164554e-01	 1.432222297436522e+01
 9.358372497448788e-01	 4.601745790651598e-01	 1.368804563320541e+01
 9.249678574118883e-01	 4.816496504088444e-01	 1.304136768042111e+01
 9.135643917270120e-01	 5.029432832831962e-01	 1.238551149860148e+01
 9.016307652071653e-01	 5.240360037463283e-01	 1.172381942604211e+01
 8.891718209884329e-01	 5.449084127341139e-01	 1.105964149955527e+01
 8.761933342276051e-01	 5.655412409840438e-01	 1.039632318550325e+01
 8.627020096479817e-01	 5.859154044245705e-01	 9.737193184211282e+00
 8.487054751649490e-01	 6.060120597158355e-01	 9.085551389147573e+00
 8.342122715560167e-01	 6.258126596194977e-01	 8.444657077008637e+00
 8.192318381702112e-01	 6.452990078702501e-01	 7.817717398315287e+00
 9.591310561466906e-01	 4.445450424434799e-01	 1.422002434766443e+01
 9.486571827343125e-01	 4.664784607159566e-01	 1.362643864101449e+01
 9.376388917748257e-01	 4.882477167328359e-01	 1.301964436115253e+01
 9.260792112504684e-01	 5.098330487745076e-01	 1.240281397860299e+01
 9.139821072753082e-01	 5.312147161276637e-01	 1.177913276327866e+01
 9.013524893310293e-01	 5.523730539824955e-01	 1.115178702847480e+01
 8.881962116876772e-01	 5.732885291089520e-01	 1.052395243724375e+01
 8.745200709158348e-01	 5.939417960048561e-01	 9.898782454820489e+00
 8.603317994248791e-01	 6.143137531974732e-01	 9.279397025782144e+00
 8.456400549915140e-01	 6.343855993718516e-01	 8.668871548073138e+00
 8.304544062733887e-01	 6.541388889940141e-01	 8.070226208162254e+00
 9.720925790186141e-01	 4.505525433976866e-01	 1.412446696192288e+01
 9.614771635836250e-01	 4.727823659005054e-01	 1.356854762027648e+01
 9.503099734416771e-01	 4.948458076888435e-01	 1.299877841110179e+01
 9.385940774946075e-01	 5.167228399868020e-01	 1.241818982225462e+01
 9.263334954538255e-01	 5.383934553086599e-01	 1.182981838056415e+01
 9.135332031468566e-01	 5.598377230979411e-01	 1.123669537925337e+01
 9.001991339572849e-01	 5.810358461560730e-01	 1.064183573916134e+01
 8.863381763033108e-01	 6.019682175492752e-01	 1.004822708616202e+01
 8.719581670886848e-01	 6.226154776709827e-01	 9.458819120967313e+00
 8.570678810897280e-01	 6.429585711286867e-01	 8.876513349650093e+00
 8.416770162731901e-01	 6.629788031188170e-01	 8.304153234011169e+00
 9.850541396938364e-01	 4.565600618730836e-01	 1.403329323740837e+01
 9.742971818233045e-01	 4.790862894707577e-01	 1.351232717532724e+01
 9.629810920645498e-01	 5.014439178885809e-01	 1.297693799703950e+01
 9.511089802391205e-01	 5.236126512935901e-01	 1.243002207461923e+01
 9.386849196559177e-01	 5.455722154268761e-01	 1.187447544175637e+01
 9.257139524884940e-01	 5.673024139845242e-01	 1.131318298643618e+01
 9.122020912341964e-01	 5.887831857986734e-01	 1.074900784624178e+01
 8.981563161591034e-01	 6.099946625031818e-01	 1.018478108762551e+01
 8.835845686616357e-01	 6.309172263569027e-01	 9.623291743069617e+00
 8.684957405180675e-01	 6.515315678890363e-01	 9.067277270902567e+00
 8.528996590046160e-01	 6.718187430256928e-01	 8.519414491957150e+00
 9.980157275872219e-01	 4.625675929636779e-01	 1.394436711257585e+01
 9.871172269838395e-01	 4.853902262786652e-01	 1.345584276255506e+01
 9.756522372955513e-01	 5.080420419437623e-01	 1.295239136792029e+01
 9.636239092636995e-01	 5.305024770683828e-01	 1.243678299384451e+01
 9.510363697947843e-01	 5.527509906198712e-01	 1.191178136063113e+01
 9.378947274085201e-01	 5.747671205463175e-01	 1.138013348303394e+01
 9.242050737161785e-01	 5.965305417100195e-01	 1.084455957855250e+01
 9.099744808319042e-01	 6.180211243119278e-01	 1.030774332524750e+01
 8.952109946490014e-01	 6.392189924757736e-01	 9.772322540980229e+00
 8.799236239439386e-01	 6.601045826519328e-01	 9.240880345508142e+00
 8.641223253026681e-01	 6.806587014956761e-01	 8.715936854906225e+00
 1.010977332113635e+00	 4.685751317634770e-01	 1.385566654206078e+01
 9.999372885957171e-01	 4.916941711761795e-01	 1.339726386922026e+01
 9.883233987867889e-01	 5.146401744661019e-01	 1.292350072064102e+01
 9.761388543480359e-01	 5.373923116846914e-01	 1.243702860988160e+01
 9.633878357836249e-01	 5.599297750252039e-01	 1.194048705844281e+01
 9.500755179595148e-01	 5.822318366873941e-01	 1.143649366261347e+01
 9.362080716009995e-01	 6.042779075633790e-01	 1.092763449330497e+01
 9.217926606704047e-01	 6.260475964208664e-01	 1.041645490888972e+01
 9.068374355560521e-01	 6.475207692481345e-01	 9.905450851199340e+00
 8.913515220347494e-01	 6.686776084164091e-01	 9.397060683034896e+00
 8.753450060023480e-01	 6.894986713098015e-01	 8.893657612171378e+00
 1.023938942687942e+00	 4.745826733664884e-01	 1.376527655526129e+01
 1.012757356189425e+00	 4.979981190152524e-01	 1.333485770060464e+01
 1.000994566190370e+00	 5.212383100673136e-01	 1.288871652143678e+01
 9.886538052718223e-01	 5.442821495160268e-01	 1.242939368573008e+01
 9.757393075356403e-01	 5.671085627804335e-01	 1.195941257049688e+01
 9.622563141940571e-01	 5.896965563118266e-01	 1.148126973650328e+01
 9.482110750864265e-01	 6.120252770320186e-01	 1.099742579777696e+01
 9.336108460232977e-01	 6.340740722753503e-01	 1.051029676568837e+01
 9.184638818880571e-01	 6.558225498945245e-01	 1.002224593630195e+01
 9.027794254579075e-01	 6.772506381814980e-01	 9.535576376541089e+00
 8.865676919386577e-01	 6.983386452491029e-01	 9.052524049903843e+00
 1.036900548725005e+00	 4.805902128667193e-01	 1.367138282649008e+01
 1.025577419295452e+00	 5.043020646478357e-01	 1.326698333104159e+01
 1.013665729158402e+00	 5.278364433591113e-01	 1.284657224307285e+01
 1.001168751814751e+00	 5.511719849359001e-01	 1.241258704601174e+01
 9.880907749640296e-01	 5.742873480231188e-01	 1.196744297121554e+01
 9.744371061647262e-01	 5.971612733236881e-01	 1.151352386030718e+01
 9.602140743702269e-01	 6.197726437892053e-01	 1.105317348202975e+01
 9.454290272392749e-01	 6.421005453207324e-01	 1.058868738348366e+01
 9.300903241502864e-01	 6.641243276354837e-01	 1.012230534329353e+01
 9.142073248808197e-01	 6.858236649462323e-01	 9.656204479730178e+00
 8.977903739465982e-01	 7.071786160946152e-01	 9.192493050533303e+00
 7.855644768903997e-01	 6.187796346948449e-01	 6.949712863051101e+00
 7.707423701765810e-01	 6.371467715387087e-01	 6.250169961625280e+00
 7.554736580333883e-01	 6.551789005581102e-01	 5.581960880136465e+00
 7.397698440641727e-01	 6.728598994536507e-01	 4.946921929211040e+00
 7.236432017326105e-01	 6.901741818186914e-01	 4.346527721918116e+00
 7.071067426773200e-01	 7.071067426773202e-01	 3.781892715805866e+00
 6.901741818186911e-01	 7.236432017326108e-01	 3.253775461106279e+00
 6.728598994536503e-01	 7.397698440641729e-01	 2.762585460308393e+00
 6.551789005581099e-01	 7.554736580333886e-01	 2.308392515299952e+00
 6.371467715387082e-01	 7.707423701765813e-01	 1.890938412250955e+00
 6.187796346948450e-01	 7.855644768903999e-01	 1.509650771768339e+00
 7.967868643137184e-01	 6.276193735016999e-01	 7.257347451044219e+00
 7.817530125059616e-01	 6.462488988974351e-01	 6.590091066285284e+00
 7.662661751699099e-01	 6.645386306264414e-01	 5.949836514398049e+00
 7.503380202466319e-01	 6.824722160700080e-01	 5.338455754015357e+00
 7.339809965355638e-01	 7.000338461578212e-01	 4.757492106509877e+00
 7.172083015564744e-01	 7.172083015564746e-01	 4.208161038138999e+00
 7.000338461578210e-01	 7.339809965355644e-01	 3.691353398925330e+00
 6.824722160700076e-01	 7.503380202466323e-01	 3.207641030177359e+00
 6.645386306264410e-01	 7.662661751699100e-01	 2.757284626210210e+00
 6.462488988974350e-01	 7.817530125059619e-01	 2.340243712383914e+00
 6.276193735016997e-01	 7.967868643137183e-01	 1.956188581470640e+00
 8.080093211286548e-01	 6.364591669664901e-01	 7.546722108455833e+00
 7.927637229176385e-01	 6.553510825365715e-01	 6.909254278896270e+00
 7.770587590399142e-01	 6.738984185681055e-01	 6.294807912793860e+00
 7.609062617752941e-01	 6.920845921216349e-01	 5.705280188134783e+00
 7.443188552600679e-01	 7.098935714617837e-01	 5.142270300623508e+00
 7.273099228963158e-01	 7.273099228963160e-01	 4.607079592013789e+00
 7.098935714617833e-01	 7.443188552600681e-01	 4.100713903394628e+00
 6.920845921216348e-01	 7.609062617752944e-01	 3.623888070689560e+00
 6.738984185681052e-01	 7.770587590399144e-01	 3.177032455704359e+00
 6.553510825365713e-01	 7.927637229176391e-01	 2.760301385035386e+00
 6.364591669664900e-01	 8.080093211286546e-01	 2.373583351429724e+00
 8.192318381702112e-01	 6.452990078702501e-01	 7.817717398315287e+00
 8.037744924195520e-01	 6.644533150228601e-01	 7.207791434013317e+00
 7.878514008294942e-01	 6.832582567394534e-01	 6.617239751490940e+00
 7.714745600194860e-01	 7.016970197585825e-01	 6.047974946738064e+00
 7.546567694636207e-01	 7.197533496786044e-01	 5.501639956597441e+00
 7.374115984472948e-01	 7.374115984472950e-01	 4.979607636822478e+00
 7.197533496786042e-01	 7.546567694636210e-01	 4.482982350585309e+00
 7.016970197585820e-01	 7.714745600194864e-01	 4.012603488696899e+00
 6.832582567394535e-01	 7.878514008294947e-01	 3.569050821085020e+00
 6.644533150228599e-01	 8.037744924195523e-01	 3.152651560300478e+00
 6.452990078702502e-01	 8.192318381702113e-01	 2.763489002328619e+00
 8.304544062733887e-01	 6.541388889940141e-01	 8.070226208162254e+00
 8.147853120196392e-01	 6.735555889230431e-01	 7.485833194088376e+00
 7.986440917247423e-01	 6.926181374968372e-01	 6.917483005247165e+00
 7.820429063485358e-01	 7.113094911309020e-01	 6.367094446962993e+00
 7.649947307037208e-01	 7.296131727563099e-01	 5.836342726054490e+00
 7.475133199598645e-01	 7.475133199598647e-01	 5.326658579803606e+00
 7.296131727563093e-01	 7.649947307037210e-01	 4.839229217800427e+00
 7.113094911309018e-01	 7.820429063485362e-01	 4.375001000577535e+00
 6.926181374968368e-01	 7.986440917247424e-01	 3.934683759246088e+00
 6.735555889230430e-01	 8.147853120196393e-01	 3.518756643625797e+00
 6.541388889940140e-01	 8.304544062733888e-01	 3.127475372958908e+00
 8.416770162731901e-01	 6.629788031188170e-01	 8.304153234011169e+00
 8.257961727258398e-01	 6.826578968038631e-01	 7.743509432082807e+00
 8.094368229117508e-01	 7.019780531966077e-01	 7.195876164687312e+00
 7.926112921317704e-01	 7.209219983886453e-01	 6.663169798161768e+00
 7.753327305378668e-01	 7.394730326429256e-01	 6.147086963957801e+00
 7.576150791844760e-01	 7.576150791844760e-01	 5.649103337526730e+00
 7.394730326429252e-01	 7.753327305378670e-01	 5.170474049107320e+00
 7.209219983886449e-01	 7.926112921317705e-01	 4.712235651652694e+00
 7.019780531966074e-01	 8.094368229117511e-01	 4.275209553223620e+00
 6.826578968038631e-01	 8.257961727258399e-01	 3.860006806342789e+00
 6.629788031188169e-01	 8.416770162731901e-01	 3.467034135346961e+00
 8.528996590046160e-01	 6.718187430256928e-01	 8.519414491957150e+00
 8.368070655460915e-01	 6.917602312320627e-01	 7.980949570775535e+00
 8.202295855766129e-01	 7.113379961951165e-01	 7.452746344448811e+00
 8.031797087385171e-01	 7.305345336818637e-01	 6.936710622124600e+00
 7.856707605235562e-01	 7.493329212864773e-01	 6.434550206491698e+00
 7.677168678715804e-01	 7.677168678715806e-01	 5.947773419560550e+00
 7.493329212864771e-01	 7.856707605235564e-01	 5.477689095689147e+00
 7.305345336818633e-01	 8.031797087385171e-01	 5.025407967073583e+00
 7.113379961951160e-01	 8.202295855766131e-01	 4.591845350610817e+00
 6.917602312320622e-01	 8.368070655460919e-01	 4.177725031912528e+00
 6.718187430256928e-01	 8.528996590046158e-01	 3.783584232591250e+00
 8.641223253026681e-01	 6.806587014956761e-01	 8.715936854906225e+00
 8.478179814883333e-01	 7.008625847743832e-01	 8.198282882694407e+00
 8.310223709054203e-01	 7.206979588487149e-01	 7.688410292101474e+00
 8.137481475381034e-01	 7.401470891606081e-01	 7.188206718719710e+00
 7.960088122182878e-01	 7.591928306349918e-01	 6.699381443303214e+00
 7.778186777716302e-01	 7.778186777716304e-01	 6.223463759554711e+00
 7.591928306349911e-01	 7.960088122182879e-01	 5.761802660546058e+00
 7.401470891606079e-01	 8.137481475381038e-01	 5.315567767645953e+00
 7.206979588487147e-01	 8.310223709054209e-01	 4.885751410902641e+00
 7.008625847743831e-01	 8.478179814883339e-01	 4.473171758231575e+00
 6.806587014956762e-01	 8.641223253026682e-01	 4.078476882758867e+00
 8.753450060023480e-01	 6.894986713098015e-01	 8.893657612171378e+00
 8.588289115605043e-01	 7.099649499975681e-01	 8.395638754195140e+00
 8.418151700842661e-01	 7.300579335137545e-01	 7.903175306734029e+00
 8.243165998998565e-01	 7.497596569749305e-01	 7.418129590803837e+00
 8.063468771795593e-01	 7.690527526364938e-01	 6.942203202540286e+00
 7.879205006350769e-01	 7.879205006350771e-01	 6.476935316376584e+00
 7.690527526364935e-01	 8.063468771795599e-01	 6.023702174049935e+00
 7.497596569749301e-01	 8.243165998998571e-01	 5.583717680632446e+00
 7.300579335137545e-01	 8.418151700842664e-01	 5.158035015038684e+00
 7.099649499975680e-01	 8.588289115605047e-01	 4.747549152215853e+00
 6.894986713098015e-01	 8.753450060023480e-01	 4.353000187744836e+00
 8.865676919386577e-01	 6.983386452491029e-01	 9.052524049903843e+00
 8.698398467705425e-01	 7.190673194683591e-01	 8.573146916857079e+00
 8.526079742992425e-01	 7.394179125465868e-01	 8.097340075199195e+00
 8.348850571931041e-01	 7.593722292748818e-01	 7.626933840858537e+00
 8.166849469648699e-01	 7.789126792390103e-01	 7.163613465253464e+00
 7.980223282123721e-01	 7.980223282123723e-01	 6.708917465657647e+00
 7.789126792390099e-01	 8.166849469648703e-01	 6.264237024177665e+00
 7.593722292748820e-01	 8.348850571931049e-01	 5.830816372531546e+00
 7.394179125465867e-01	 8.526079742992427e-01	 5.409754067044974e+00
 7.190673194683589e-01	 8.698398467705428e-01	 5.002005049211401e+00
 6.983386452491031e-01	 8.865676919386576e-01	 4.608383382065525e+00
 8.977903739465982e-01	 7.071786160946152e-01	 9.192493050533303e+00
 8.808507781263871e-01	 7.281696857534988e-01	 8.730937649047519e+00
 8.634007747364419e-01	 7.487778883035630e-01	 8.271195433211515e+00
 8.454535107871739e-01	 7.689847982105142e-01	 7.815058450561195e+00
 8.270230131317176e-01	 7.887726023905666e-01	 7.364187424076195e+00
 8.081241522539677e-01	 8.081241522539679e-01	 6.920110200068395e+00
 7.887726023905661e-01	 8.270230131317177e-01	 6.484221162865792e+00
 7.689847982105142e-01	 8.454535107871741e-01	 6.057781528136418e+00
 7.487778883035625e-01	 8.634007747364423e-01	 5.641920414690889e+00
 7.281696857534985e-01	 8.808507781263871e-01	 5.237636586532161e+00
 7.071786160946154e-01	 8.977903739465983e-01	 4.845800753060004e+00
 6.187796346948450e-01	 7.855644768903999e-01	 1.509650771768339e+00
 6.000941023989972e-01	 7.999292705517564e-01	 1.165774347812319e+00
 5.811072330167577e-01	 8.138268577557130e-01	 8.606751366382651e-01
 5.618364750149918e-01	 8.272481870752482e-01	 5.934288783187613e-01
 5.422996134099223e-01	 8.401850687269302e-01	 3.627157693554773e-01
 5.225147171506268e-01	 8.526301882742356e-01	 1.668403777676394e-01
 5.025000860247008e-01	 8.645771165329886e-01	 3.753709657615894e-03
 4.822741974000460e-01	 8.760203156838146e-01	-1.289228142124022e-01
 4.618556531118254e-01	 8.869551416254861e-01	-2.338717204740647e-01
 4.412631267957642e-01	 8.973778426309756e-01	-3.140524364159347e-01
 4.205153119584038e-01	 9.072855543946884e-01	-3.726730879820151e-01
 6.276193735016997e-01	 7.967868643137183e-01	 1.956188581470640e+00
 6.086669041321032e-01	 8.113568700035455e-01	 1.606213081490429e+00
 5.894087928460172e-01	 8.254529948356357e-01	 1.291511267338162e+00
 5.698627373749912e-01	 8.390660580763810e-01	 1.011414048612331e+00
 5.500467768077957e-01	 8.521877529449993e-01	 7.648902795279946e-01
 5.299792382222526e-01	 8.648106605126152e-01	 5.505640088713328e-01
 5.096786828324057e-01	 8.769282597492060e-01	 3.667336665210802e-01
 4.891638519694760e-01	 8.885349337233771e-01	 2.113929761136925e-01
 4.684536132100530e-01	 8.996259719893257e-01	 8.225337826569490e-02
 4.475669069570151e-01	 9.101975692236984e-01	-2.323225363044856e-02
 4.265226937679250e-01	 9.202468202020646e-01	-1.078448229750026e-01
 6.364591669664900e-01	 8.080093211286546e-01	 2.373583351429724e+00
 6.172397588725922e-01	 8.227845401158298e-01	 2.017849213591625e+00
 5.977104040055301e-01	 8.370792038036247e-01	 1.694152187138408e+00
 5.778890493630665e-01	 8.508840021510616e-01	 1.402056064678200e+00
 5.577939881080803e-01	 8.641905113793019e-01	 1.140794140606135e+00
 5.374438054487238e-01	 8.769912080664877e-01	 9.092839796396341e-01
 5.168573240270954e-01	 8.892794793361983e-01	 7.061439147422530e-01
 4.960535491393556e-01	 9.010496291445454e-01	 5.297110930563860e-01
 4.750516141051547e-01	 9.122968807007577e-01	 3.780608853572252e-01
 4.538707260961629e-01	 9.230173750848369e-01	 2.490274737270235e-01
 4.325301127226065e-01	 9.332081661532802e-01	 1.402254332847817e-01
 6.452990078702502e-01	 8.192318381702113e-01	 2.763489002328619e+00
 6.258126596194972e-01	 8.342122715560167e-01	 2.402435968538112e+00
 6.060120597158354e-01	 8.487054751649494e-01	 2.070432836777057e+00
 5.859154044245704e-01	 8.627020096479822e-01	 1.767254961138185e+00
 5.655412409840435e-01	 8.761933342276053e-01	 1.492376895277561e+00
 5.449084127341138e-01	 8.891718209884333e-01	 1.244984858074931e+00
 5.240360037463283e-01	 9.016307652071658e-01	 1.023990728809820e+00
 5.029432832831956e-01	 9.135643917270121e-01	 8.280474175649049e-01
 4.816496504088442e-01	 9.249678574118884e-01	 6.555654555425144e-01
 4.601745790651594e-01	 9.358372497448788e-01	 5.047306508302482e-01
 4.385375639164554e-01	 9.461695816632008e-01	 3.735226574530830e-01
 6.541388889940140e-01	 8.304544062733888e-01	 3.127475372958908e+00
 6.343855993718511e-01	 8.456400549915137e-01	 2.761636878568762e+00
 6.143137531974726e-01	 8.603317994248791e-01	 2.422093769155508e+00
 5.939417960048556e-01	 8.745200709158348e-01	 2.108812552169820e+00
 5.732885291089519e-01	 8.881962116876773e-01	 1.821486841262166e+00
 5.523730539824951e-01	 9.013524893310296e-01	 1.559547692772719e+00
 5.312147161276634e-01	 9.139821072753086e-01	 1.322175278759436e+00
 5.098330487745073e-01	 9.260792112504685e-01	 1.108311767439687e+00
 4.882477167328355e-01	 9.376388917748257e-01	 9.166752830397563e-01
 4.664784607159561e-01	 9.486571827343124e-01	 7.457748196055494e-01
 4.445450424434799e-01	 9.591310561466907e-01	 5.939259869097897e-01
 6.629788031188169e-01	 8.416770162731901e-01	 3.467034135346961e+00
 6.429585711286866e-01	 8.570678810897284e-01	 3.097032073261336e+00
 6.226154776709821e-01	 8.719581670886849e-01	 2.750787751735447e+00
 6.019682175492749e-01	 8.863381763033110e-01	 2.428439288547986e+00
 5.810358461560727e-01	 9.001991339572852e-01	 2.129878088292560e+00
 5.598377230979409e-01	 9.135332031468568e-01	 1.854757218877629e+00
 5.383934553086593e-01	 9.263334954538254e-01	 1.602500938071722e+00
 5.167228399868015e-01	 9.385940774946077e-01	 1.372315264254982e+00
 4.948458076888431e-01	 9.503099734416774e-01	 1.163199488834361e+00
 4.727823659005049e-01	 9.614771635836251e-01	 9.739585321350828e-01
 4.505525433976866e-01	 9.720925790186141e-01	 8.032160495316516e-01
 6.718187430256928e-01	 8.528996590046158e-01	 3.783584232591250e+00
 6.515315678890360e-01	 8.684957405180677e-01	 3.410124062762180e+00
 6.309172263569022e-01	 8.835845686616357e-01	 3.058085838524632e+00
 6.099946625031814e-01	 8.981563161591033e-01	 2.727760564774270e+00
 5.887831857986729e-01	 9.122020912341966e-01	 2.419217050016591e+00
 5.673024139845239e-01	 9.257139524884941e-01	 2.132308487822587e+00
 5.455722154268757e-01	 9.386849196559177e-01	 1.866680007934269e+00
 5.236126512935897e-01	 9.511089802391208e-01	 1.621777112605928e+00
 5.014439178885804e-01	 9.629810920645500e-01	 1.396854919299244e+00
 4.790862894707573e-01	 9.742971818233048e-01	 1.190988137083196e+00
 4.565600618730836e-01	 9.850541396938363e-01	 1.003081710505060e+00
 6.806587014956762e-01	 8.641223253026682e-01	 4.078476882758867e+00
 6.601045826519327e-01	 8.799236239439389e-01	 3.702343060706962e+00
 6.392189924757733e-01	 8.952109946490019e-01	 3.345482959824432e+00
 6.180211243119271e-01	 9.099744808319040e-01	 3.008322526239835e+00
 5.965305417100188e-01	 9.242050737161785e-01	 2.691088422141897e+00
 5.747671205463171e-01	 9.378947274085204e-01	 2.393812973188361e+00
 5.527509906198709e-01	 9.510363697947847e-01	 2.116339910876163e+00
 5.305024770683824e-01	 9.636239092636996e-01	 1.858330845057989e+00
 5.080420419437620e-01	 9.756522372955512e-01	 1.619272409610485e+00
 4.853902262786647e-01	 9.871172269838395e-01	 1.398484032454505e+00
 4.625675929636779e-01	 9.980157275872220e-01	 1.195126289126952e+00
 6.894986713098015e-01	 8.753450060023480e-01	 4.353000187744836e+00
 6.686776084164091e-01	 8.913515220347497e-01	 3.975051888099683e+00
 6.475207692481341e-01	 9.068374355560523e-01	 3.614403072975636e+00
 6.260475964208662e-01	 9.217926606704049e-01	 3.271597421245767e+00
 6.042779075633788e-01	 9.362080716009999e-01	 2.947000692886720e+00
 5.822318366873939e-01	 9.500755179595155e-01	 2.640804199650991e+00
 5.599297750252037e-01	 9.633878357836254e-01	 2.353028901347375e+00
 5.373923116846910e-01	 9.761388543480363e-01	 2.083530080700455e+00
 5.146401744661016e-01	 9.883233987867890e-01	 1.832002559942361e+00
 4.916941711761791e-01	 9.999372885957171e-01	 1.597986432535220e+00
 4.685751317634771e-01	 1.010977332113636e+00	 1.380873293114304e+00
 6.983386452491031e-01	 8.865676919386576e-01	 4.608383382065525e+00
 6.772506381814979e-01	 9.027794254579073e-01	 4.229550495247122e+00
 6.558225498945240e-01	 9.184638818880573e-01	 3.866203912963888e+00
 6.340740722753500e-01	 9.336108460232978e-01	 3.518988538173438e+00
 6.120252770320183e-01	 9.482110750864269e-01	 3.188391227137005e+00
 5.896965563118265e-01	 9.622563141940575e-01	 2.874742937236435e+00
 5.671085627804331e-01	 9.757393075356404e-01	 2.578221336008072e+00
 5.442821495160265e-01	 9.886538052718229e-01	 2.298853840362963e+00
 5.212383100673131e-01	 1.000994566190370e+00	 2.036521067575837e+00
 4.979981190152521e-01	 1.012757356189425e+00	 1.790960692020646e+00
 4.745826733664884e-01	 1.023938942687942e+00	 1.561771713134290e+00
 7.071786160946154e-01	 8.977903739465983e-01	 4.845800753060004e+00
 6.858236649462317e-01	 9.142073248808196e-01	 4.467080135134557e+00
 6.641243276354835e-01	 9.300903241502866e-01	 4.102181377863500e+00
 6.421005453207319e-01	 9.454290272392751e-01	 3.751834764068275e+00
 6.197726437892049e-01	 9.602140743702273e-01	 3.416630961577205e+00
 5.971612733236877e-01	 9.744371061647262e-01	 3.097021998882028e+00
 5.742873480231185e-01	 9.880907749640297e-01	 2.793322542215499e+00
 5.511719849358999e-01	 1.001168751814751e+00	 2.505711457251063e+00
 5.278364433591108e-01	 1.013665729158402e+00	 2.234233653738053e+00
 5.043020646478351e-01	 1.025577419295452e+00	 1.978802226042526e+00
 4.805902128667193e-01	 1.036900548725006e+00	 1.739200916000615e+00
 4.205153119584038e-01	 9.072855543946884e-01	-3.726730879820151e-01
 3.996323363483559e-01	 9.166756533117867e-01	-4.135232819083142e-01
 3.786313260672554e-01	 9.255477376767897e-01	-4.388278033725321e-01
 3.575307247119081e-01	 9.339015469729992e-01	-4.497552332441889e-01
 3.363488008802308e-01	 9.417376544619560e-01	-4.476626064700979e-01
 3.151036037782408e-01	 9.490574463164519e-01	-4.340820690016127e-01
 2.938129209596947e-01	 9.558630981313170e-01	-4.107066044415191e-01
 2.724942383587361e-01	 9.621575490304196e-01	-3.793749401095716e-01
 2.511647027528098e-01	 9.679444735972303e-01	-3.420557484155688e-01
 2.298410867697775e-01	 9.732282518626566e-01	-3.008312650517637e-01
 2.085397565298897e-01	 9.780139375877577e-01	-2.578804504047763e-01
 4.265226937679250e-01	 9.202468202020646e-01	-1.078448229749988e-01
 4.053413889316475e-01	 9.297710638393700e-01	-1.749244101872962e-01
 3.840403632092172e-01	 9.387698926915389e-01	-2.264275772488290e-01
 3.626383236782533e-01	 9.472430425202908e-01	-2.633454933507591e-01
 3.411537999174936e-01	 9.551910947767371e-01	-2.868491122955139e-01
 3.196050989795961e-01	 9.626154554363000e-01	-2.982775468208201e-01
 2.980102625270569e-01	 9.695183311739305e-01	-2.991255110368189e-01
 2.763870262938931e-01	 9.759027031012107e-01	-2.910299206384115e-01
 2.547527820123113e-01	 9.817722982959253e-01	-2.757557478906660e-01
 2.331245419199244e-01	 9.871315593611459e-01	-2.551812354363641e-01
 2.115189059394629e-01	 9.919856122548431e-01	-2.312825795514160e-01
 4.325301127226065e-01	 9.332081661532802e-01	 1.402254332847792e-01
 4.110504768153741e-01	 9.428665553405938e-01	 4.873401139512823e-02
 3.894494337964184e-01	 9.519921294640534e-01	-2.715198282366038e-02
 3.677459542258094e-01	 9.605846205637468e-01	-8.825936851387461e-02
 3.459588286647271e-01	 9.686446182803863e-01	-1.355866997082689e-01
 3.241066220140734e-01	 9.761735483921200e-01	-1.702942755182544e-01
 3.022076300466623e-01	 9.831736486541902e-01	-1.936932162315583e-01
 2.802798382979372e-01	 9.896479421661311e-01	-2.072336753959176e-01
 2.583408834563892e-01	 9.956002085003419e-01	-2.124922663947795e-01
 2.364080173708705e-01	 1.001034952832426e+00	-2.111587904876049e-01
 2.144980737680448e-01	 1.005957373317689e+00	-2.050223615162849e-01
 4.385375639164554e-01	 9.461695816632008e-01	 3.735226574530832e-01
 4.167595953371834e-01	 9.559621171207261e-01	 2.594107112382915e-01
 3.948585334115307e-01	 9.652144371960353e-01	 1.609244649817998e-01
 3.728536121834383e-01	 9.739262702075441e-01	 7.738898060360788e-02
 3.507638831979376e-01	 9.820982139855879e-01	 7.965042767898778e-03
 3.286081692055634e-01	 9.897317141111275e-01	-4.834240980906523e-02
 3.064050200908187e-01	 9.968290394198429e-01	-9.267491626333957e-02
 2.841726711919194e-01	 1.003393254999424e+00	-1.263102395768720e-01
 2.619290041549625e-01	 1.009428192917151e+00	-1.506512870378676e-01
 2.396915104413312e-01	 1.014938420921471e+00	-1.672142753924799e-01
 2.174772575828835e-01	 1.019929209365398e+00	-1.776162207826064e-01
 4.445450424434799e-01	 9.591310561466907e-01	 5.939259869097897e-01
 4.224687398347230e-01	 9.690577384850336e-01	 4.589594880278667e-01
 4.002676576372253e-01	 9.784368050891873e-01	 3.396236049350889e-01
 3.779612933800036e-01	 9.872679805558595e-01	 2.353833785427799e-01
 3.555689595931318e-01	 9.955518709050283e-01	 1.455464646136255e-01
 3.331097368779574e-01	 1.003289941520539e+00	 6.927007989370404e-02
 3.106024292318333e-01	 1.010484492318635e+00	 5.568888121991522e-03
 2.880655217968901e-01	 1.017138630375336e+00	-4.667620609514445e-02
 2.655171411779494e-01	 1.023256240253020e+00	-8.870839810982778e-02
 2.429750184500218e-01	 1.028841952273254e+00	-1.218845125160732e-01
 2.204564549512274e-01	 1.033901108987071e+00	-1.476637861433012e-01
 4.505525433976866e-01	 9.720925790186141e-01	 8.032160495316538e-01
 4.281779056456406e-01	 9.821534087387839e-01	 6.491364698794313e-01
 4.056768020561741e-01	 9.916592223452112e-01	 5.106707918346955e-01
 3.830689936443673e-01	 1.000609740712869e+00	 3.874126761971828e-01
 3.603740539263162e-01	 1.009005578051392e+00	 2.788047507582654e-01
 3.376113213551464e-01	 1.016848219547572e+00	 1.841441406811641e-01
 3.147998540420135e-01	 1.024139996198311e+00	 1.025889421420647e-01
 2.919583869338996e-01	 1.030884057068108e+00	 3.316562578455895e-02
 2.691052915952692e-01	 1.037084339214621e+00	-2.522265501807808e-02
 2.462585387156577e-01	 1.042745535532752e+00	-7.378688862750482e-02
 2.234356634403244e-01	 1.047873060771812e+00	-1.138422129541119e-01
 4.565600618730836e-01	 9.850541396938363e-01	 1.003081710505065e+00
 4.338870881075840e-01	 9.952491171872442e-01	 8.316067966491272e-01
 4.110859622510485e-01	 1.004881678165811e+00	 6.757014901813565e-01
 3.881767088053927e-01	 1.013951539782750e+00	 5.350772333459535e-01
 3.651791622734972e-01	 1.022459324437367e+00	 4.093002722058667e-01
 3.421129189610211e-01	 1.030406537119440e+00	 2.977958369145004e-01
 3.189972910936670e-01	 1.037795539906620e+00	 1.998532688132661e-01
 2.958512634239985e-01	 1.044629523851985e+00	 1.146320992323118e-01
 2.726934524768403e-01	 1.050912478508621e+00	 4.116907232846434e-02
 2.495420685569543e-01	 1.056649159344938e+00	-2.161390953141296e-02
 2.264148806174227e-01	 1.061845053308720e+00	-7.490095401837915e-02
 4.625675929636779e-01	 9.980157275872220e-01	 1.195126289126957e+00
 4.395962825582002e-01	 1.008344853135681e+00	 1.007950777801676e+00
 4.164951338045202e-01	 1.018104161752687e+00	 8.362673508271721e-01
 3.932844346919422e-01	 1.027293366869678e+00	 6.798948933061815e-01
 3.699842807106814e-01	 1.035913099075635e+00	 5.385124395071379e-01
 3.466145260194732e-01	 1.043964883163362e+00	 4.116620650004046e-01
 3.231947369591013e-01	 1.051451112291306e+00	 2.987527292550745e-01
 2.997441480882373e-01	 1.058375019501212e+00	 1.990650917037342e-01
 2.762816208925816e-01	 1.064740646841691e+00	 1.117573107816832e-01
 2.528256052926268e-01	 1.070552812354785e+00	 3.587182034970238e-02
 2.293941040497705e-01	 1.075817075186899e+00	-2.965693835318461e-02
 4.685751317634771e-01	 1.010977332113636e+00	 1.380873293114304e+00
 4.453054843351376e-01	 1.021440605889363e+00	 1.179669572856436e+00
 4.219043122992610e-01	 1.031326662307544e+00	 9.938418169593051e-01
 3.983921671328786e-01	 1.040635211077830e+00	 8.233064952430544e-01
 3.747894053138752e-01	 1.049366890978884e+00	 6.678451036524917e-01
 3.511161388543932e-01	 1.057523246606553e+00	 5.271058266636122e-01
 3.273921882106235e-01	 1.065106702200117e+00	 4.006061537408716e-01
 3.036370377476663e-01	 1.072120532790032e+00	 2.877364908263933e-01
 2.798697939124116e-01	 1.078568832920500e+00	 1.877647934324205e-01
 2.561091462413906e-01	 1.084456483207268e+00	 9.984223154561223e-02
 2.323733313046157e-01	 1.089789114995448e+00	 2.300987873433291e-02
 4.745826733664884e-01	 1.023938942687942e+00	 1.561771713134287e+00
 4.510146887760434e-01	 1.034536364753556e+00	 1.348190436675487e+00
 4.273134933179420e-01	 1.044549169032083e+00	 1.149825301083753e+00
 4.034999019570645e-01	 1.053977061511382e+00	 9.666809650656871e-01
 3.795945321590853e-01	 1.062820689159798e+00	 7.986315444503094e-01
 3.556177537896725e-01	 1.071081616376229e+00	 6.454210998004117e-01
 3.315896414205414e-01	 1.078762298480797e+00	 5.066650814963778e-01
 3.075299292233359e-01	 1.085866052492690e+00	 3.818527911445833e-01
 2.834579686062493e-01	 1.092397025451718e+00	 2.703509028775191e-01
 2.593926887219610e-01	 1.098360160547363e+00	 1.714080705071532e-01
 2.353525599492068e-01	 1.103761161323472e+00	 8.416062713267403e-02
 4.805902128667193e-01	 1.036900548725006e+00	 1.739200916000613e+00
 4.567238912185655e-01	 1.047632119033528e+00	 1.514871567635538e+00
 4.327226724432352e-01	 1.057771671128007e+00	 1.305549970512373e+00
 4.086076349933627e-01	 1.067318907274511e+00	 1.111320021749706e+00
 3.843996573223180e-01	 1.076274482631064e+00	 9.321390824546685e-01
 3.601193671492018e-01	 1.084639981399606e+00	 7.678373420920808e-01
 3.357870931611622e-01	 1.092417889981094e+00	 6.181181434493370e-01
 3.114228193362970e-01	 1.099611567383429e+00	 4.825593448690506e-01
 2.870461420440134e-01	 1.106225213142014e+00	 3.606157802878844e-01
 2.626762300530535e-01	 1.112263833020041e+00	 2.516228587991927e-01
 2.383317875507918e-01	 1.117733202760072e+00	 1.548013245611342e-01
 2.085397565298897e-01	 9.780139375877577e-01	-2.578804504047758e-01
 1.872751588682954e-01	 9.823075085927059e-01	-2.170412340290420e-01
 1.660642739430359e-01	 9.861149146151665e-01	-1.804868482765078e-01
 1.449221048859622e-01	 9.894430288203904e-01	-1.479783394424095e-01
 1.238631447915627e-01	 9.922992591451227e-01	-1.193103966268168e-01
 1.029013581149162e-01	 9.946915115410935e-01	-9.430970728602883e-02
 8.205016480108950e-02	 9.966281528999332e-01	-7.283273717811234e-02
 6.132242709398352e-02	 9.981179738659459e-01	-5.476299565816856e-02
 4.073043895732970e-02	 9.991701517322813e-01	-4.000785550068642e-02
 2.028591802679350e-02	 9.997942136041430e-01	-2.849500277630090e-02
 0.000000000000000e+00	 1.000000000000000e+00	-2.016859669128879e-02
 2.115189059394629e-01	 9.919856122548431e-01	-2.312825795514164e-01
 1.899505272900958e-01	 9.963405201949547e-01	-2.074772807581025e-01
 1.684366287042940e-01	 1.000202317915604e+00	-1.857357971100249e-01
 1.469924276450038e-01	 1.003577976770333e+00	-1.659559221791520e-01
 1.256326242515388e-01	 1.006475010523806e+00	-1.480779208440755e-01
 1.043713824717892e-01	 1.008901438070191e+00	-1.320815448222357e-01
 8.322231396489484e-02	 1.010865745828442e+00	-1.179824668968621e-01
 6.219846472164627e-02	 1.012376850023818e+00	-1.058282050575023e-01
 4.131230433435212e-02	 1.013444059054000e+00	-9.569361585877489e-02
 2.057571783397211e-02	 1.014077036126061e+00	-8.767604237091708e-02
 0.000000000000000e+00	 1.014285762337685e+00	-8.189020609275177e-02
 2.144980737680448e-01	 1.005957373317689e+00	-2.050223615162823e-01
 1.926259122523858e-01	 1.010373618572351e+00	-1.971417394265487e-01
 1.708089981323071e-01	 1.014289808327531e+00	-1.893150505209662e-01
 1.490627632031907e-01	 1.017713012125696e+00	-1.815452776808062e-01
 1.274021146504700e-01	 1.020650849560097e+00	-1.738866806256567e-01
 1.058414159160934e-01	 1.023111452468066e+00	-1.664407023908119e-01
 8.439447037447267e-02	 1.025103426796637e+00	-1.593512725785833e-01
 6.307450776443674e-02	 1.026635814352820e+00	-1.527995879213879e-01
 4.189417330796949e-02	 1.027718054639657e+00	-1.469984588941231e-01
 2.086551943237152e-02	 1.028359946966948e+00	-1.421863171781057e-01
 0.000000000000000e+00	 1.028571613012482e+00	-1.386209826285230e-01
 2.174772575828835e-01	 1.019929209365398e+00	-1.776162207826109e-01
 1.953013115705126e-01	 1.024406792263879e+00	-1.846117782774979e-01
 1.731813802898896e-01	 1.028377374345500e+00	-1.898514532473219e-01
 1.511331098699964e-01	 1.031848123342196e+00	-1.934131658744342e-01
 1.291716145435107e-01	 1.034826764676397e+00	-1.954349005948672e-01
 1.073114572475229e-01	 1.037321543129217e+00	-1.961097297897516e-01
 8.556663307275791e-02	 1.039341184176433e+00	-1.956801962793544e-01
 6.395055550708149e-02	 1.040894855207496e+00	-1.944321435286165e-01
 4.247604540310677e-02	 1.041992126831532e+00	-1.926880910668922e-01
 2.115532258538469e-02	 1.042642934461811e+00	-1.908002589360347e-01
 0.000000000000000e+00	 1.042857540357000e+00	-1.891433489371188e-01
 2.204564549512274e-01	 1.033901108987071e+00	-1.476637861432990e-01
 1.979767230598238e-01	 1.038440029808523e+00	-1.685447265645232e-01
 1.755537732398562e-01	 1.042465004464060e+00	-1.860495006344882e-01
 1.532034659548942e-01	 1.045983298875552e+00	-2.003019432233657e-01
 1.309411224858151e-01	 1.049002744295103e+00	-2.114947279362145e-01
 1.087815052657713e-01	 1.051531698448141e+00	-2.198837299218512e-01
 8.673880110268536e-02	 1.053579006339744e+00	-2.257816936089903e-01
 6.482660723430707e-02	 1.055153960942393e+00	-2.295513017133644e-01
 4.305792014468898e-02	 1.056266263971905e+00	-2.315977511193337e-01
 2.144512705640454e-02	 1.056925986945661e+00	-2.323609480628317e-01
 0.000000000000000e+00	 1.057143532703853e+00	-2.323074393408517e-01
 2.234356634403244e-01	 1.047873060771812e+00	-1.138422129541119e-01
 2.006521445356669e-01	 1.052473319745267e+00	-1.476726163968201e-01
 1.779261750450211e-01	 1.056552687177763e+00	-1.766860641828985e-01
 1.552738297673574e-01	 1.060118527181483e+00	-2.010244409610591e-01
 1.327106370325377e-01	 1.063178776838613e+00	-2.209072371439567e-01
 1.102515587705329e-01	 1.065741906819336e+00	-2.366254686917961e-01
 8.791097350718997e-02	 1.067816881658486e+00	-2.485348321653165e-01
 6.570266223083999e-02	 1.069413119912057e+00	-2.570481979043344e-01
 4.363979705764108e-02	 1.070540454403061e+00	-2.626275543829930e-01
 2.173493260882402e-02	 1.071209092753505e+00	-2.657755243838906e-01
 0.000000000000000e+00	 1.071429578385649e+00	-2.670265785264143e-01
 2.264148806174227e-01	 1.061845053308720e+00	-7.490095401837915e-02
 2.033275738133893e-01	 1.066506650613095e+00	-1.207971556926573e-01
 1.802985837681989e-01	 1.070640410981159e+00	-1.606055335533159e-01
 1.573441996168595e-01	 1.074253796715706e+00	-1.944592476051512e-01
 1.344801567388328e-01	 1.077354850729328e+00	-2.225778289665254e-01
 1.117216165615013e-01	 1.079952156637298e+00	-2.452608707282067e-01
 8.908314932920657e-02	 1.082054798504573e+00	-2.628808687543827e-01
 6.657871978140689e-02	 1.083672320471033e+00	-2.758753208731064e-01
 4.422167566688809e-02	 1.084814686467279e+00	-2.847382043100646e-01
 2.202473900603610e-02	 1.085492240220354e+00	-2.900109598388387e-01
 0.000000000000000e+00	 1.085715665735001e+00	-2.922731168479702e-01
 2.293941040497705e-01	 1.075817075186899e+00	-2.965693835318928e-02
 2.060030087083387e-01	 1.080540010950993e+00	-8.678509308745719e-02
 1.826709974722041e-01	 1.084728164368799e+00	-1.367153371995466e-01
 1.594145738128737e-01	 1.088389095933940e+00	-1.795463590296762e-01
 1.362496801598547e-01	 1.091530954389646e+00	-2.154719877410503e-01
 1.131916774383706e-01	 1.094162436296527e+00	-2.447748658837374e-01
 9.025532761167007e-02	 1.096292745249919e+00	-2.678191709900866e-01
 6.745477917073431e-02	 1.097931550973866e+00	-2.850424993348872e-01
 4.480355549735500e-02	 1.099088948506841e+00	-2.969470378744403e-01
 2.231454601143368e-02	 1.099775417681214e+00	-3.040901602886119e-01
 0.000000000000000e+00	 1.100001783084519e+00	-3.070745898593168e-01
 2.323733313046157e-01	 1.089789114995448e+00	 2.300987873433291e-02
 2.086784470358625e-01	 1.094573389297943e+00	-4.456393965067940e-02
 1.850434142198511e-01	 1.098815935835233e+00	-1.039818076814614e-01
 1.614849506648734e-01	 1.102524413291903e+00	-1.552831631370457e-01
 1.380192058507578e-01	 1.105707076241965e+00	-1.986113649834576e-01
 1.146617402008347e-01	 1.108372734191518e+00	-2.342075550614959e-01
 9.142750739751529e-02	 1.110530710266440e+00	-2.624034523937258e-01
 6.833083968354876e-02	 1.112190799775103e+00	-2.836131970200149e-01
 4.538543607396681e-02	 1.113363228864028e+00	-2.983243749038842e-01
 2.260435338840974e-02	 1.114058613471097e+00	-3.070883669113869e-01
 0.000000000000000e+00	 1.114287918766816e+00	-3.105101730011832e-01
 2.353525599492068e-01	 1.103761161323472e+00	 8.416062713267403e-02
 2.113538866113081e-01	 1.108606774192931e+00	 6.881984177468325e-03
 1.874158320739543e-01	 1.112903713875012e+00	-6.142636114106326e-02
 1.635553284823320e-01	 1.116659737245314e+00	-1.207207295085133e-01
 1.397887323666964e-01	 1.119883204708684e+00	-1.710701603482425e-01
 1.161318036485874e-01	 1.122583038716770e+00	-2.126506670956496e-01
 9.259968772967715e-02	 1.124768681926050e+00	-2.457382932379719e-01
 6.920690060457686e-02	 1.126450055229290e+00	-2.707010889030153e-01
 4.596731692164848e-02	 1.127637515881123e+00	-2.879901444339814e-01
 2.289416090035721e-02	 1.128341815925009e+00	-2.981298306640512e-01
 0.000000000000000e+00	 1.128574061114501e+00	-3.017074053118585e-01
 2.383317875507918e-01	 1.117733202760072e+00	 1.548013245611364e-01
 2.140293252500230e-01	 1.122640154174940e+00	 6.851520485923301e-02
 1.897882490973285e-01	 1.126991486982686e+00	-8.121963478213257e-03
 1.656257055747226e-01	 1.130795056249892e+00	-7.496037736957906e-02
 1.415582582628250e-01	 1.134059328212202e+00	-1.319717739620792e-01
 1.176018665813229e-01	 1.136793338266780e+00	-1.792442812403992e-01
 9.377186765109050e-02	 1.139006648600664e+00	-2.169759221526704e-01
 7.008296121854513e-02	 1.140709305690971e+00	-2.454668940100320e-01
 4.654919756532504e-02	 1.141911797900406e+00	-2.651107638657229e-01
 2.318396831066902e-02	 1.142625013377961e+00	-2.763847359342648e-01
 0.000000000000000e+00	 1.142860198460186e+00	-2.798391586404281e-01
 1.142860198460186e+00	 0.000000000000000e+00	 1.797982471778192e+01
 1.142625013377961e+00	 2.318396831066934e-02	 1.797898642467451e+01
 1.141911797900406e+00	 4.654919756532534e-02	 1.795193840462400e+01
 1.140709305690971e+00	 7.008296121854536e-02	 1.789916878697039e+01
 1.139006648600664e+00	 9.377186765109072e-02	 1.782135662940308e+01
 1.136793338266779e+00	 1.176018665813230e-01	 1.771937612605741e+01
 1.134059328212202e+00	 1.415582582628251e-01	 1.759429988988374e+01
 1.130795056249892e+00	 1.656257055747228e-01	 1.744740120721710e+01
 1.126991486982686e+00	 1.897882490973286e-01	 1.728015516466190e+01
 1.122640154174940e+00	 2.140293252500230e-01	 1.709423855271865e+01
 1.117733202760072e+00	 2.383317875507917e-01	 1.689152845715741e+01
 1.157145321350848e+00	 0.000000000000000e+00	 1.759862069699925e+01
 1.156907196584657e+00	 2.347375514173351e-02	 1.759910590062692e+01
 1.156185066306537e+00	 4.713103688965983e-02	 1.757468038979504e+01
 1.154967543606921e+00	 7.095895962352061e-02	 1.752592689860704e+01
 1.153243604240946e+00	 9.494396433618384e-02	 1.745360599540405e+01
 1.151002628747150e+00	 1.190718251251996e-01	 1.735865921482365e+01
 1.148234445072978e+00	 1.433276585053856e-01	 1.724221130325513e+01
 1.144929371509318e+00	 1.676959356502721e-01	 1.710557148460966e+01
 1.141078259721515e+00	 1.921604976561825e-01	 1.695023365572727e+01
 1.136672537650634e+00	 2.167045739068282e-01	 1.677787542525273e+01
 1.131704252046085e+00	 2.413108035985782e-01	 1.659035591656026e+01
 1.171430429241259e+00	 0.000000000000000e+00	 1.724248089558669e+01
 1.171189364794196e+00	 2.376354166844703e-02	 1.724426958100208e+01
 1.170458319724889e+00	 4.771287560295061e-02	 1.722234972327744e+01
 1.169225766550903e+00	 7.183495710857876e-02	 1.717739545461856e+01
 1.167480544931648e+00	 9.611605979047652e-02	 1.711024625444863e+01
 1.165211904307037e+00	 1.205417821255611e-01	 1.702190906190503e+01
 1.162409547049214e+00	 1.450970568900730e-01	 1.691355953922945e+01
 1.159063671927114e+00	 1.697661635521416e-01	 1.678654240119442e+01
 1.155165017668707e+00	 1.945327437243049e-01	 1.664237072831363e+01
 1.150704906391885e+00	 2.193798197548161e-01	 1.648272418628482e+01
 1.145675286662146e+00	 2.442898165186466e-01	 1.630944608104274e+01
 1.185715523798227e+00	 0.000000000000000e+00	 1.690935274818507e+01
 1.185471519673041e+00	 2.405332792465459e-02	 1.691241353031543e+01
 1.184731559820883e+00	 4.829471377313913e-02	 1.689287779826199e+01
 1.183483976186579e+00	 7.271095377599275e-02	 1.685150791292963e+01
 1.181717472333943e+00	 9.728815415079030e-02	 1.678921968330783e+01
 1.179421166604382e+00	 1.220117377539762e-01	 1.670708351547170e+01
 1.176584635794853e+00	 1.468664536233805e-01	 1.660632474836672e+01
 1.173197959152453e+00	 1.718363895219076e-01	 1.648832309897433e+01
 1.169251762467883e+00	 1.969049875784915e-01	 1.635461114224074e+01
 1.164737262035952e+00	 2.220550631061160e-01	 1.620687175604216e+01
 1.159646308238343e+00	 2.472688266585502e-01	 1.604693446857990e+01
 1.200000606688556e+00	 0.000000000000000e+00	 1.659727306730593e+01
 1.199753662887650e+00	 2.434311394420089e-02	 1.660156468969985e+01
 1.199004788259937e+00	 4.887655146816672e-02	 1.658428806284117e+01
 1.197742174177614e+00	 7.358694972803567e-02	 1.654629063643617e+01
 1.195954388109006e+00	 9.846024755394681e-02	 1.648856197896887e+01
 1.193630417297124e+00	 1.234816921820130e-01	 1.641223401895639e+01
 1.190759712963843e+00	 1.486358489118020e-01	 1.631858050728849e+01
 1.187332234834512e+00	 1.739066138011468e-01	 1.620901562992304e+01
 1.183338495762656e+00	 1.992772294955378e-01	 1.608509170315862e+01
 1.178769606220092e+00	 2.247303042728567e-01	 1.594849588878080e+01
 1.173617318404766e+00	 2.502478343658425e-01	 1.580104587370576e+01
 1.214285679579051e+00	 0.000000000000000e+00	 1.630436278562600e+01
 1.214035796104490e+00	 2.463289976093064e-02	 1.630983556075505e+01
 1.213278006707471e+00	 4.945838875597484e-02	 1.629469066256947e+01
 1.212000362187669e+00	 7.446294506698058e-02	 1.625985751173053e+01
 1.210191293918011e+00	 9.963234013676772e-02	 1.620639687122915e+01
 1.207839658043205e+00	 1.249516455812401e-01	 1.613550023542035e+01
 1.204934780210126e+00	 1.504052429618308e-01	 1.604848847286370e+01
 1.201466500622466e+00	 1.759768366314353e-01	 1.594680965812785e+01
 1.197425219196647e+00	 2.016494697522397e-01	 1.583203603081325e+01
 1.192801940581567e+00	 2.274055435671674e-01	 1.570586002530536e+01
 1.187588318791500e+00	 2.532268399880767e-01	 1.557008932231893e+01
 1.228570744136519e+00	 0.000000000000000e+00	 1.602882206512649e+01
 1.228317920990019e+00	 2.492268540868854e-02	 1.603541926029744e+01
 1.227551216828906e+00	 5.004022570450483e-02	 1.602227745673509e+01
 1.226258541880407e+00	 7.533893989510042e-02	 1.599040494308175e+01
 1.224428191422134e+00	 1.008044320360747e-01	 1.594093111080386e+01
 1.222048890500565e+00	 1.264215981232256e-01	 1.587510504639282e+01
 1.219109839187650e+00	 1.521746359799606e-01	 1.579429340852097e+01
 1.215600758165490e+00	 1.780470582543500e-01	 1.569997753039902e+01
 1.211511934413471e+00	 2.040217086253930e-01	 1.559374969080593e+01
 1.206834266757633e+00	 2.300807813011770e-01	 1.547730850270221e+01
 1.201559311028636e+00	 2.562058438728060e-01	 1.535245337612387e+01
 1.242855802027764e+00	 0.000000000000000e+00	 1.576892574355776e+01
 1.242600039210701e+00	 2.521247092131928e-02	 1.577658491616545e+01
 1.241824420289660e+00	 5.062206238169809e-02	 1.576531737827115e+01
 1.240516714919490e+00	 7.621493431466822e-02	 1.573620719147419e+01
 1.238665082282548e+00	 1.019765233886893e-01	 1.569044980272998e+01
 1.236258116327144e+00	 1.278915499795382e-01	 1.562934989505107e+01
 1.233284891550360e+00	 1.539440281726847e-01	 1.555431855274270e+01
 1.229735009112759e+00	 1.801172789114669e-01	 1.546686968569548e+01
 1.225598643056746e+00	 2.063939463917933e-01	 1.536861566059650e+01
 1.220866586385550e+00	 2.327560177870144e-01	 1.526126209254167e+01
 1.215530296746261e+00	 2.591848463675837e-01	 1.514660175857312e+01
 1.257140854919592e+00	 0.000000000000000e+00	 1.552301909139324e+01
 1.256882152432996e+00	 2.550225633266756e-02	 1.553167337694691e+01
 1.256097618755154e+00	 5.120389885549600e-02	 1.552215210996800e+01
 1.254774882968583e+00	 7.709092842795702e-02	 1.549561203125433e+01
 1.252901968160429e+00	 1.031486143314331e-01	 1.545331205759732e+01
 1.250467337180882e+00	 1.293615013217461e-01	 1.539661044634756e+01
 1.247459938952200e+00	 1.557134197464967e-01	 1.532696130251966e+01
 1.243869255113450e+00	 1.821874988443626e-01	 1.524591037641331e+01
 1.239685346770091e+00	 2.087661833282363e-01	 1.515509010316092e+01
 1.234898901102576e+00	 2.354312533368090e-01	 1.505621384141895e+01
 1.229501277574464e+00	 2.621638478199633e-01	 1.495106927673438e+01
 1.271425904478810e+00	 0.000000000000000e+00	 1.528951385484959e+01
 1.271164262323368e+00	 2.579204167657809e-02	 1.529909321093600e+01
 1.270370813890807e+00	 5.178573519383996e-02	 1.529119205210691e+01
 1.269033047691344e+00	 7.796692233723983e-02	 1.526703669940214e+01
 1.267138850716951e+00	 1.043207050011279e-01	 1.522794693560636e+01
 1.264676554719722e+00	 1.308314523214177e-01	 1.517533253915313e+01
 1.261634983047117e+00	 1.574828109078902e-01	 1.511068918699123e+01
 1.258003497816736e+00	 1.842577182946137e-01	 1.503559367700601e+01
 1.253772047197120e+00	 2.111384197115177e-01	 1.495169842410283e+01
 1.248931212545972e+00	 2.381064882626895e-01	 1.486072519005218e+01
 1.243472255143333e+00	 2.651428485774981e-01	 1.476445801580557e+01
 1.285710952372222e+00	 0.000000000000000e+00	 1.506688456272075e+01
 1.285446370548278e+00	 2.608182698689557e-02	 1.507731697182108e+01
 1.284644007362039e+00	 5.236757146467139e-02	 1.507091255884616e+01
 1.283291210751439e+00	 7.884291614478972e-02	 1.504896411466553e+01
 1.281375731613288e+00	 1.054927955345953e-01	 1.501284966067517e+01
 1.278885770601601e+00	 1.323014031501213e-01	 1.496402840770210e+01
 1.275810025489054e+00	 1.592522018633586e-01	 1.490403610869941e+01
 1.272137738871795e+00	 1.863279375037966e-01	 1.483447975758660e+01
 1.267858745981453e+00	 2.135106558184332e-01	 1.475703159017137e+01
 1.262963522352994e+00	 2.407817228767851e-01	 1.467342234926982e+01
 1.257443231082956e+00	 2.681218489877413e-01	 1.458543378506992e+01
 1.117733202760072e+00	 2.383317875507917e-01	 1.689152845715741e+01
 1.112263833020041e+00	 2.626762300530532e-01	 1.666688886227190e+01
 1.106225213142014e+00	 2.870461420440131e-01	 1.641500611108536e+01
 1.099611567383429e+00	 3.114228193362967e-01	 1.613777980826094e+01
 1.092417889981094e+00	 3.357870931611621e-01	 1.583723332768202e+01
 1.084639981399607e+00	 3.601193671492018e-01	 1.551550759272356e+01
 1.076274482631064e+00	 3.843996573223178e-01	 1.517485396162527e+01
 1.067318907274511e+00	 4.086076349933625e-01	 1.481762624253412e+01
 1.057771671128008e+00	 4.327226724432351e-01	 1.444627187634625e+01
 1.047632119033529e+00	 4.567238912185653e-01	 1.406332233885735e+01
 1.036900548725005e+00	 4.805902128667193e-01	 1.367138282649008e+01
 1.131704252046085e+00	 2.413108035985782e-01	 1.659035591656026e+01
 1.126166518197095e+00	 2.659595382211787e-01	 1.638226937473117e+01
 1.120052418896942e+00	 2.906340606870188e-01	 1.614804720618885e+01
 1.113356106209475e+00	 3.153154330166911e-01	 1.588956344897771e+01
 1.106072511802234e+00	 3.399842468424100e-01	 1.560879960119309e+01
 1.098197383647950e+00	 3.646206608509515e-01	 1.530783797596035e+01
 1.089727320752985e+00	 3.892044412755066e-01	 1.498885425671848e+01
 1.080659805637753e+00	 4.137150053315430e-01	 1.465410928625460e+01
 1.070993234298678e+00	 4.381314674648408e-01	 1.430594013635520e+01
 1.060726943388633e+00	 4.624326882528711e-01	 1.394675051800712e+01
 1.049861234363075e+00	 4.865973257739606e-01	 1.357900060433066e+01
 1.145675286662146e+00	 2.442898165186466e-01	 1.630944608104274e+01
 1.140069188776074e+00	 2.692428429421195e-01	 1.611687563474269e+01
 1.133879610133148e+00	 2.942219755630260e-01	 1.589920266121532e+01
 1.127100630603702e+00	 3.192080426101740e-01	 1.565827722202491e+01
 1.119727119286068e+00	 3.441813961169891e-01	 1.539604134130769e+01
 1.111754771661164e+00	 3.691219498266913e-01	 1.511452195753149e+01
 1.103180144749660e+00	 3.940092201840262e-01	 1.481582316442378e+01
 1.094000689993370e+00	 4.188223703073470e-01	 1.450211778307228e+01
 1.084214783587100e+00	 4.435402568075890e-01	 1.417563832057903e+01
 1.073821753994628e+00	 4.681414792933418e-01	 1.383866738350856e+01
 1.062821906392927e+00	 4.926044323741732e-01	 1.349352762621981e+01
 1.159646308238343e+00	 2.472688266585502e-01	 1.604693446857990e+01
 1.153971846379076e+00	 2.725261445989176e-01	 1.586889747999613e+01
 1.147706788463904e+00	 2.978098870906049e-01	 1.566672170292576e+01
 1.140845142169716e+00	 3.231006485708565e-01	 1.544223476233111e+01
 1.133381714025693e+00	 3.483785414745347e-01	 1.519734154347588e+01
 1.125312147020986e+00	 3.736232346015354e-01	 1.493401676184401e+01
 1.116632956190610e+00	 3.988139946083936e-01	 1.465429690472399e+01
 1.107341561897807e+00	 4.239297305165887e-01	 1.436027159471518e+01
 1.097436320535780e+00	 4.489490411024549e-01	 1.405407443884923e+01
 1.086916552379217e+00	 4.738502650059465e-01	 1.373787343978237e+01
 1.075782566326606e+00	 4.986115333681203e-01	 1.341386105706992e+01
 1.173617318404766e+00	 2.502478343658425e-01	 1.580104587370576e+01
 1.167874492628195e+00	 2.758094435746150e-01	 1.563661215320957e+01
 1.161533955502484e+00	 3.013977956883258e-01	 1.544893880686710e+01
 1.154589642511129e+00	 3.269932513528491e-01	 1.523983251389286e+01
 1.147036297614210e+00	 3.525756834046819e-01	 1.501116329165960e+01
 1.138869511309155e+00	 3.781245157005969e-01	 1.476485670446841e+01
 1.130085756645355e+00	 4.036187651091258e-01	 1.450288552007603e+01
 1.120682422907506e+00	 4.290370865550829e-01	 1.422726087219603e+01
 1.110657846687221e+00	 4.543578209804138e-01	 1.394002300079710e+01
 1.100011340070105e+00	 4.795590460566533e-01	 1.364323165479647e+01
 1.088743215676155e+00	 5.046186294565644e-01	 1.333895625312412e+01
 1.187588318791500e+00	 2.532268399880767e-01	 1.557008932231893e+01
 1.181777129145528e+00	 2.790927402522532e-01	 1.541837937543997e+01
 1.175361112862159e+00	 3.049857017747593e-01	 1.524426890375513e+01
 1.168334133231548e+00	 3.308858514102632e-01	 1.504954508382834e+01
 1.160690871644718e+00	 3.567728223970656e-01	 1.483604527462873e+01
 1.152426866107410e+00	 3.826257936489898e-01	 1.460564888516415e+01
 1.143538547683417e+00	 4.084235322467395e-01	 1.436026875950614e+01
 1.134023274578911e+00	 4.341444390186439e-01	 1.410184214510876e+01
 1.123879363583928e+00	 4.597665970724412e-01	 1.383232132420776e+01
 1.113106118594998e+00	 4.852678231114311e-01	 1.355366400099332e+01
 1.101703855953616e+00	 5.106257213402688e-01	 1.326782354856321e+01
 1.201559311028636e+00	 2.562058438728060e-01	 1.535245337612387e+01
 1.195679757553171e+00	 2.823760350148740e-01	 1.521263676028346e+01
 1.189188262156201e+00	 3.085736057684754e-01	 1.505120291695399e+01
 1.182078615934583e+00	 3.347784491972097e-01	 1.486992091668868e+01
 1.174345437710318e+00	 3.609699589413216e-01	 1.467059761063785e+01
 1.165984212997487e+00	 3.871270689718281e-01	 1.445506917638112e+01
 1.156991330874316e+00	 4.132282965817519e-01	 1.422519224426634e+01
 1.147364118468464e+00	 4.392517885030855e-01	 1.398283467758059e+01
 1.137100872768407e+00	 4.651753700095123e-01	 1.372986609416008e+01
 1.126200889481598e+00	 4.909765968362484e-01	 1.346814823019894e+01
 1.114664488671034e+00	 5.166328097199970e-01	 1.319952525839130e+01
 1.215530296746261e+00	 2.591848463675837e-01	 1.514660175857312e+01
 1.209582379473220e+00	 2.856593282455194e-01	 1.501789554153524e+01
 1.203015404997883e+00	 3.121615080880448e-01	 1.486830360441005e+01
 1.195823092223842e+00	 3.386710451677993e-01	 1.469957826325700e+01
 1.187999997404107e+00	 3.651670935270845e-01	 1.451349795566873e+01
 1.179541553561126e+00	 3.916283421942254e-01	 1.431185848346179e+01
 1.170444107787571e+00	 4.180330586746797e-01	 1.409646389239564e+01
 1.160704956132611e+00	 4.443591356042226e-01	 1.386911706942336e+01
 1.150322375783163e+00	 4.705841404226023e-01	 1.363161015277301e+01
 1.139295654257610e+00	 4.966853678970743e-01	 1.338571486368639e+01
 1.127625115340454e+00	 5.226398952965117e-01	 1.313317288019654e+01
 1.229501277574464e+00	 2.621638478199633e-01	 1.495106927673438e+01
 1.223484996527770e+00	 2.889426203272313e-01	 1.483273658937252e+01
 1.216842543000477e+00	 3.157494091520374e-01	 1.469420168081984e+01
 1.209567563702936e+00	 3.425636397761434e-01	 1.453720142040797e+01
 1.201654552319188e+00	 3.693642266439899e-01	 1.436348787268110e+01
 1.193098889380065e+00	 3.961296138412951e-01	 1.417481925492875e+01
 1.183896879992705e+00	 4.228378190860399e-01	 1.397295058158971e+01
 1.174045789127792e+00	 4.494664809178695e-01	 1.375962408297749e+01
 1.163543874170699e+00	 4.759929089426868e-01	 1.353655950121294e+01
 1.152390414450741e+00	 5.023941369598771e-01	 1.330544438027739e+01
 1.140585737473918e+00	 5.286469787705758e-01	 1.306792447896657e+01
 1.243472255143333e+00	 2.651428485774981e-01	 1.476445801580557e+01
 1.237387610338918e+00	 2.922259116430513e-01	 1.465580669236585e+01
 1.230669677777256e+00	 3.193373093790241e-01	 1.452759219798966e+01
 1.223312031975472e+00	 3.464562334763527e-01	 1.438153722070669e+01
 1.215309104048657e+00	 3.735613587816728e-01	 1.421936944134064e+01
 1.206656222036041e+00	 4.006308844381515e-01	 1.404281222318757e+01
 1.197349649059237e+00	 4.276425783763493e-01	 1.385357503163428e+01
 1.187386619010453e+00	 4.545738250398405e-01	 1.365334367789695e+01
 1.176765369473521e+00	 4.814016762007408e-01	 1.344377049726615e+01
 1.165485171588693e+00	 5.081029046906257e-01	 1.322646458690545e+01
 1.153546356583469e+00	 5.346540608429523e-01	 1.300298224055981e+01
 1.257443231082956e+00	 2.681218489877413e-01	 1.458543378506992e+01
 1.251290222528759e+00	 2.955092025760216e-01	 1.448581508464149e+01
 1.244496810941490e+00	 3.229252091875747e-01	 1.436723116330331e+01
 1.237056498645061e+00	 3.503488267225385e-01	 1.423139175232138e+01
 1.228963654185617e+00	 3.777584904297682e-01	 1.408000208951916e+01
 1.220213553110794e+00	 4.051321545099082e-01	 1.391475335772137e+01
 1.210802416556687e+00	 4.324473371061250e-01	 1.373731288932376e+01
 1.200727447337036e+00	 4.596811685659496e-01	 1.354931423769990e+01
 1.189986863234135e+00	 4.868104428277399e-01	 1.335234723326476e+01
 1.178579927199173e+00	 5.138116717552889e-01	 1.314794815744752e+01
 1.166506974181152e+00	 5.406611422144046e-01	 1.293759018071416e+01
 1.036900548725005e+00	 4.805902128667193e-01	 1.367138282649008e+01
 1.025577419295452e+00	 5.043020646478357e-01	 1.326698333104159e+01
 1.013665729158402e+00	 5.278364433591113e-01	 1.284657224307285e+01
 1.001168751814751e+00	 5.511719849359001e-01	 1.241258704601174e+01
 9.880907749640296e-01	 5.742873480231188e-01	 1.196744297121554e+01
 9.744371061647262e-01	 5.971612733236881e-01	 1.151352386030718e+01
 9.602140743702269e-01	 6.197726437892053e-01	 1.105317348202975e+01
 9.454290272392749e-01	 6.421005453207324e-01	 1.058868738348366e+01
 9.300903241502864e-01	 6.641243276354837e-01	 1.012230534329353e+01
 9.142073248808197e-01	 6.858236649462323e-01	 9.656204479730178e+00
 8.977903739465982e-01	 7.071786160946152e-01	 9.192493050533303e+00
 1.049861234363075e+00	 4.865973257739606e-01	 1.357900060433066e+01
 1.038396572053436e+00	 5.106055626397865e-01	 1.319886720221069e+01
 1.026335992351761e+00	 5.344341081201812e-01	 1.280248473056719e+01
 1.013682809675893e+00	 5.580613311114565e-01	 1.239219303765801e+01
 1.000441365319234e+00	 5.814656235033427e-01	 1.197030497530350e+01
 9.866170331818169e-01	 6.046254602692555e-01	 1.153909763223577e+01
 9.722162213254484e-01	 6.275194604093164e-01	 1.110080408077473e+01
 9.572463692505458e-01	 6.501264484098677e-01	 1.065760571712316e+01
 9.417159408231383e-01	 6.724255158709614e-01	 1.021162526200149e+01
 9.256344128128366e-01	 6.943960829442236e-01	 9.764920472410402e+00
 9.090122590360994e-01	 7.160179592177930e-01	 9.319478597510180e+00
 1.062821906392927e+00	 4.926044323741732e-01	 1.349352762621981e+01
 1.051215711351843e+00	 5.169090540135580e-01	 1.313607838674000e+01
 1.039006242241894e+00	 5.410317659542637e-01	 1.276217286686585e+01
 1.026196854397831e+00	 5.649506700538356e-01	 1.237405671161978e+01
 1.012791942706873e+00	 5.886438914470942e-01	 1.197394392465084e+01
 9.987969474105339e-01	 6.120896393782246e-01	 1.156400845967245e+01
 9.842183556789587e-01	 6.352662688961455e-01	 1.114637638426611e+01
 9.690636988541473e-01	 6.581523430727501e-01	 1.072311869714289e+01
 9.533415452896359e-01	 6.807266953911941e-01	 1.029624486508716e+01
 9.370614887469668e-01	 7.029684919422192e-01	 9.867697128412317e+00
 9.202341323432031e-01	 7.248572930607246e-01	 9.439345604371645e+00
 1.075782566326606e+00	 4.986115333681203e-01	 1.341386105706992e+01
 1.064034838686197e+00	 5.232125395044800e-01	 1.307761267575259e+01
 1.051676480306948e+00	 5.476294176309935e-01	 1.272473093559716e+01
 1.038710887440483e+00	 5.718400025666855e-01	 1.235737068358120e+01
 1.025142508567791e+00	 5.958221526917139e-01	 1.197765057636586e+01
 1.010976850271808e+00	 6.195538115212763e-01	 1.158764501622368e+01
 9.962204788309452e-01	 6.430130701533314e-01	 1.118937671869736e+01
 9.808810174287035e-01	 6.661782302455649e-01	 1.078480999427720e+01
 9.649671389060314e-01	 6.890278671644737e-01	 1.037584481018171e+01
 9.484885540162959e-01	 7.115408929401473e-01	 9.964311679411932e+00
 9.314559951770458e-01	 7.336966186544741e-01	 9.551967403201800e+00
 1.088743215676155e+00	 5.046186294565644e-01	 1.333895625312412e+01
 1.076853955552018e+00	 5.295160198478809e-01	 1.302251965071686e+01
 1.064346708025067e+00	 5.542270639200044e-01	 1.268930258344726e+01
 1.051224910263766e+00	 5.787293294536553e-01	 1.234137248250868e+01
 1.037493064342832e+00	 6.030004080745422e-01	 1.198075613248256e+01
 1.023156743186568e+00	 6.270179775690913e-01	 1.160943193743071e+01
 1.008222592181596e+00	 6.507598650845137e-01	 1.122932287850414e+01
 9.926983263528391e-01	 6.742041108644978e-01	 1.084229024697881e+01
 9.765927230285766e-01	 6.973290321590903e-01	 1.045012821904349e+01
 9.599156099539082e-01	 7.201132869379340e-01	 1.005455931817133e+01
 9.426778488467652e-01	 7.425359370301068e-01	 9.657230788120437e+00
 1.101703855953616e+00	 5.106257213402688e-01	 1.326782354856321e+01
 1.089673063444831e+00	 5.358194957790912e-01	 1.296989972276326e+01
 1.077016926874399e+00	 5.608247055909321e-01	 1.265507811341710e+01
 1.063738924327598e+00	 5.856186515183933e-01	 1.232534209907574e+01
 1.049843611472838e+00	 6.101786584329199e-01	 1.198263004476352e+01
 1.035336627575747e+00	 6.344821383923496e-01	 1.162882788312479e+01
 1.020224697131097e+00	 6.585066545933308e-01	 1.126576244739360e+01
 1.004515627005178e+00	 6.822299858657340e-01	 1.089519564217218e+01
 9.882182990135243e-01	 7.056301913433348e-01	 1.051881951899429e+01
 9.713426578928895e-01	 7.286856749355066e-01	 1.013825230150780e+01
 9.538996946614974e-01	 7.513752492186879e-01	 9.755035380504722e+00
 1.114664488671034e+00	 5.166328097199970e-01	 1.319952525839130e+01
 1.102492163860158e+00	 5.421229680334391e-01	 1.291890137010702e+01
 1.089687138333090e+00	 5.674223434134106e-01	 1.262129195795437e+01
 1.076252931091896e+00	 5.925079695645479e-01	 1.230859969568102e+01
 1.062194151398654e+00	 6.173569046041871e-01	 1.198267796276843e+01
 1.047516504860274e+00	 6.419462948617327e-01	 1.164532372468376e+01
 1.032226795079638e+00	 6.662534395834214e-01	 1.129827122588109e+01
 1.016332920764344e+00	 6.902558561854591e-01	 1.094318658410032e+01
 9.998438682171271e-01	 7.139313456854990e-01	 1.058166335402591e+01
 9.827696991663241e-01	 7.372580579327912e-01	 1.021521910450878e+01
 9.651215339303795e-01	 7.602145562512814e-01	 9.845293027044043e+00
 1.127625115340454e+00	 5.226398952965117e-01	 1.313317288019654e+01
 1.115311258293522e+00	 5.484264373462548e-01	 1.286871855763601e+01
 1.102357343879284e+00	 5.740199781570746e-01	 1.258722031748782e+01
 1.088766932016580e+00	 5.993972843957679e-01	 1.229050346505691e+01
 1.074544685561123e+00	 6.245351474256848e-01	 1.198033981366079e+01
 1.059696376461081e+00	 6.494104478479209e-01	 1.165844084713939e+01
 1.044228887427404e+00	 6.740002209584247e-01	 1.132645175676438e+01
 1.028150209008962e+00	 6.982817227598582e-01	 1.098594644417754e+01
 1.011469431995637e+00	 7.222324961538733e-01	 1.063842355997022e+01
 9.941967351072980e-01	 7.458304369297156e-01	 1.028530362186964e+01
 9.763433679625483e-01	 7.690538591589523e-01	 9.927927227986238e+00
 1.140585737473918e+00	 5.286469787705758e-01	 1.306792447896657e+01
 1.128130348240445e+00	 5.547299044528674e-01	 1.281858832417236e+01
 1.115027544991130e+00	 5.806176105915594e-01	 1.255217895120493e+01
 1.101280928561567e+00	 6.062865968157012e-01	 1.227044762564816e+01
 1.086895215401089e+00	 6.317133877347538e-01	 1.197508800327269e+01
 1.071876243799097e+00	 6.568745982215950e-01	 1.166772955699966e+01
 1.056230975574584e+00	 6.817469996219793e-01	 1.134993194074472e+01
 1.039967493117655e+00	 7.063075865251172e-01	 1.102318038540352e+01
 1.023094991705307e+00	 7.305336437167493e-01	 1.068888219863774e+01
 1.005623767048896e+00	 7.544028129262060e-01	 1.034836441260557e+01
 9.875651980671412e-01	 7.778931589727657e-01	 1.000287259317392e+01
 1.153546356583469e+00	 5.346540608429523e-01	 1.300298224055981e+01
 1.140949435196451e+00	 5.610333700886062e-01	 1.276778852421926e+01
 1.127697743146772e+00	 5.872152414864988e-01	 1.251552110809866e+01
 1.113794922186774e+00	 6.131759076279970e-01	 1.224786054300269e+01
 1.099245742359396e+00	 6.388916263687342e-01	 1.196642572889001e+01
 1.084056108295254e+00	 6.643387468534362e-01	 1.167276758747055e+01
 1.068233060921365e+00	 6.894937764777240e-01	 1.136836373510342e+01
 1.051784774469049e+00	 7.143334484174210e-01	 1.105461425547434e+01
 1.034720548702388e+00	 7.388347893424174e-01	 1.073283864628573e+01
 1.017050796324203e+00	 7.629751869221899e-01	 1.040427398472684e+01
 9.987870255532937e-01	 7.867324567237854e-01	 1.007007432368531e+01
 1.166506974181152e+00	 5.406611422144046e-01	 1.293759018071416e+01
 1.153768520657062e+00	 5.673368349888009e-01	 1.271563571217615e+01
 1.140367939824356e+00	 5.938128716115278e-01	 1.247663558737242e+01
 1.126308914352119e+00	 6.200652176363033e-01	 1.222220296737316e+01
 1.111596267876887e+00	 6.460698641649667e-01	 1.195388539506828e+01
 1.096235971370482e+00	 6.718028946141243e-01	 1.167315869350135e+01
 1.080235144867935e+00	 6.972405524292983e-01	 1.138142192897481e+01
 1.063602054441766e+00	 7.223593093729551e-01	 1.107999354324751e+01
 1.046346104343134e+00	 7.471359339991690e-01	 1.077010873219087e+01
 1.028477824266305e+00	 7.715475599175938e-01	 1.045291811676841e+01
 1.010008851730144e+00	 7.955717534430776e-01	 1.012948771708825e+01
 8.977903739465982e-01	 7.071786160946152e-01	 9.192493050533303e+00
 8.808507781263871e-01	 7.281696857534988e-01	 8.730937649047519e+00
 8.634007747364419e-01	 7.487778883035630e-01	 8.271195433211515e+00
 8.454535107871739e-01	 7.689847982105142e-01	 7.815058450561197e+00
 8.270230131317176e-01	 7.887726023905666e-01	 7.364187424076197e+00
 8.081241522539677e-01	 8.081241522539679e-01	 6.920110200068397e+00
 7.887726023905661e-01	 8.270230131317177e-01	 6.484221162865792e+00
 7.689847982105142e-01	 8.454535107871741e-01	 6.057781528136418e+00
 7.487778883035625e-01	 8.634007747364423e-01	 5.641920414690889e+00
 7.281696857534985e-01	 8.808507781263871e-01	 5.237636586532158e+00
 7.071786160946154e-01	 8.977903739465983e-01	 4.845800753060010e+00
 9.090122590360994e-01	 7.160179592177930e-01	 9.319478597510180e+00
 8.918609276001876e-01	 7.372714056836830e-01	 8.874814757371443e+00
 8.741928087810674e-01	 7.581371994127891e-01	 8.430381688771211e+00
 8.560212139195389e-01	 7.785966845617895e-01	 7.987929381623699e+00
 8.373603451966737e-01	 7.986318253931607e-01	 7.549088955934071e+00
 8.182252589692260e-01	 8.182252589692263e-01	 7.115371289071149e+00
 7.986318253931602e-01	 8.373603451966736e-01	 6.688166518637665e+00
 7.785966845617891e-01	 8.560212139195389e-01	 6.268744326412978e+00
 7.581371994127888e-01	 8.741928087810675e-01	 5.858254897435661e+00
 7.372714056836827e-01	 8.918609276001878e-01	 5.457730441094823e+00
 7.160179592177931e-01	 9.090122590360992e-01	 5.068087158373564e+00
 9.202341323432031e-01	 7.248572930607246e-01	 9.439345604371645e+00
 9.028710655139545e-01	 7.463731160581214e-01	 9.010488607797965e+00
 8.849848314947354e-01	 7.674965006957747e-01	 8.580405858688563e+00
 8.665889059565564e-01	 7.882085608215773e-01	 8.150803771719232e+00
 8.476976664082401e-01	 8.084910380445101e-01	 7.723281678084030e+00
 8.283263550791978e-01	 8.283263550791981e-01	 7.299330666506027e+00
 8.084910380445095e-01	 8.476976664082403e-01	 6.880333214612838e+00
 7.882085608215771e-01	 8.665889059565568e-01	 6.467563509039055e+00
 7.674965006957744e-01	 8.849848314947356e-01	 6.062188341707564e+00
 7.463731160581211e-01	 9.028710655139547e-01	 5.665268463319507e+00
 7.248572930607247e-01	 9.202341323432032e-01	 5.277760273432733e+00
 9.314559951770458e-01	 7.336966186544741e-01	 9.551967403201800e+00
 9.138811931521120e-01	 7.554748179384909e-01	 9.137925805104953e+00
 8.957768441364098e-01	 7.768557932442529e-01	 8.721322747539036e+00
 8.771565881310048e-01	 7.978204281110890e-01	 8.303819663116364e+00
 8.580349779723025e-01	 8.183502414946923e-01	 7.886982035621489e+00
 8.384274417621956e-01	 8.384274417621959e-01	 7.472278489214304e+00
 8.183502414946922e-01	 8.580349779723029e-01	 7.061080588753092e+00
 7.978204281110886e-01	 8.771565881310051e-01	 6.654663241736305e+00
 7.768557932442528e-01	 8.957768441364100e-01	 6.254205581824531e+00
 7.554748179384908e-01	 9.138811931521124e-01	 5.860792208175168e+00
 7.336966186544741e-01	 9.314559951770459e-01	 5.475414654177502e+00
 9.426778488467652e-01	 7.425359370301068e-01	 9.657230788120437e+00
 9.248913117990835e-01	 7.645765123864678e-01	 9.257102033230803e+00
 9.065688479650544e-01	 7.862150781499597e-01	 8.853192078904565e+00
 8.877242616756615e-01	 8.074322875515353e-01	 8.447116073581666e+00
 8.683722810947471e-01	 8.282094368937868e-01	 8.040403715024352e+00
 8.485285201965314e-01	 8.485285201965317e-01	 7.634498622312208e+00
 8.282094368937866e-01	 8.683722810947477e-01	 7.230758345746819e+00
 8.074322875515352e-01	 8.877242616756618e-01	 6.830454896521571e+00
 7.862150781499594e-01	 9.065688479650545e-01	 6.434775667740293e+00
 7.645765123864676e-01	 9.248913117990837e-01	 6.044824613226197e+00
 7.425359370301071e-01	 9.426778488467653e-01	 5.661623550865793e+00
 9.538996946614974e-01	 7.513752492186879e-01	 9.755035380504722e+00
 9.359014227392927e-01	 7.736782004637299e-01	 9.368001676911785e+00
 9.173608442396334e-01	 7.955743565046290e-01	 8.976078361331950e+00
 8.982919278233042e-01	 8.170441402641271e-01	 8.580833094902113e+00
 8.787095769814606e-01	 8.380686253918720e-01	 8.183757963855783e+00
 8.586295915605159e-01	 8.586295915605164e-01	 7.786269169106766e+00
 8.380686253918719e-01	 8.787095769814610e-01	 7.389707286617330e+00
 8.170441402641268e-01	 8.982919278233045e-01	 6.995337970973996e+00
 7.955743565046286e-01	 9.173608442396336e-01	 6.604352964452724e+00
 7.736782004637297e-01	 9.359014227392930e-01	 6.217871269213130e+00
 7.513752492186877e-01	 9.538996946614970e-01	 5.836940341436771e+00
 9.651215339303795e-01	 7.602145562512814e-01	 9.845293027044043e+00
 9.469115272571633e-01	 7.827798832319531e-01	 9.470617458209027e+00
 9.281528342191102e-01	 8.049336293999959e-01	 9.090050752144208e+00
 9.088595878067111e-01	 8.266559873700755e-01	 8.705111973105263e+00
 8.890468668383286e-01	 8.479278081390260e-01	 8.317253876867545e+00
 8.687306570324631e-01	 8.687306570324635e-01	 7.927862952935824e+00
 8.479278081390258e-01	 8.890468668383289e-01	 7.538259976571572e+00
 8.266559873700748e-01	 9.088595878067113e-01	 7.149700932808870e+00
 8.049336293999955e-01	 9.281528342191108e-01	 6.763378164498114e+00
 7.827798832319527e-01	 9.469115272571639e-01	 6.380421592169183e+00
 7.602145562512813e-01	 9.651215339303794e-01	 6.001899855483728e+00
 9.763433679625483e-01	 7.690538591589523e-01	 9.927927227986238e+00
 9.579216266371187e-01	 7.918815617528144e-01	 9.564950086727537e+00
 9.389448191624499e-01	 8.142928979277946e-01	 9.195182919278192e+00
 9.194272428586596e-01	 8.362678299905909e-01	 8.820095171852152e+00
 8.993841518712374e-01	 8.577869862853280e-01	 8.441098651206088e+00
 8.788317177906830e-01	 8.788317177906835e-01	 8.059547954801932e+00
 8.577869862853276e-01	 8.993841518712375e-01	 7.676741356057843e+00
 8.362678299905906e-01	 9.194272428586597e-01	 7.293921995769542e+00
 8.142928979277942e-01	 9.389448191624503e-01	 6.912279220527241e+00
 7.918815617528140e-01	 9.579216266371190e-01	 6.532949904996679e+00
 7.690538591589523e-01	 9.763433679625483e-01	 6.157019597639717e+00
 9.875651980671412e-01	 7.778931589727657e-01	 1.000287259317392e+01
 9.689317221635829e-01	 8.009832370879902e-01	 9.651007922438438e+00
 9.497368003286156e-01	 8.236521631797603e-01	 9.291552901306073e+00
 9.299948942119269e-01	 8.458796692468847e-01	 8.925926420341021e+00
 9.097214332860737e-01	 8.676461609808563e-01	 8.555497813182031e+00
 8.889327750134892e-01	 8.889327750134896e-01	 8.181587710317135e+00
 8.676461609808558e-01	 9.097214332860740e-01	 7.805469299551868e+00
 8.458796692468844e-01	 9.299948942119275e-01	 7.428369832301570e+00
 8.236521631797599e-01	 9.497368003286158e-01	 7.051472204320872e+00
 8.009832370879897e-01	 9.689317221635830e-01	 6.675916435707694e+00
 7.778931589727656e-01	 9.875651980671409e-01	 6.302800878378770e+00
 9.987870255532937e-01	 7.867324567237854e-01	 1.007007432368531e+01
 9.799418151209793e-01	 8.100849102991579e-01	 9.728806650113821e+00
 9.605287789765713e-01	 8.330114262476276e-01	 9.379242965783652e+00
 9.405625430992914e-01	 8.554915062601673e-01	 9.022750746941071e+00
 9.200587122887236e-01	 8.775053333756896e-01	 8.660655418838710e+00
 8.990338298791927e-01	 8.990338298791930e-01	 8.294241669159849e+00
 8.775053333756889e-01	 9.200587122887238e-01	 7.924755126183291e+00
 8.554915062601672e-01	 9.405625430992921e-01	 7.553404227982547e+00
 8.330114262476271e-01	 9.605287789765714e-01	 7.181362098031700e+00
 8.100849102991573e-01	 9.799418151209796e-01	 6.809768238883127e+00
 7.867324567237856e-01	 9.987870255532937e-01	 6.439729859515881e+00
 1.010008851730144e+00	 7.955717534430776e-01	 1.012948771708825e+01
 9.909519067937320e-01	 8.191865824479939e-01	 9.798368964470630e+00
 9.713207563652808e-01	 8.423706882231309e-01	 9.458339466056559e+00
 9.511301907535311e-01	 8.651033421516505e-01	 9.110714499666713e+00
 9.303959900850729e-01	 8.873645046199061e-01	 8.756774230358848e+00
 9.091348835661056e-01	 9.091348835661061e-01	 8.397765519959886e+00
 8.873645046199057e-01	 9.303959900850729e-01	 8.034904065949021e+00
 8.651033421516500e-01	 9.511301907535311e-01	 7.669376682238715e+00
 8.423706882231307e-01	 9.713207563652815e-01	 7.302343522924865e+00
 8.191865824479935e-01	 9.909519067937324e-01	 6.934940046324520e+00
 7.955717534430776e-01	 1.010008851730144e+00	 6.568278521041123e+00
 7.071786160946154e-01	 8.977903739465983e-01	 4.845800753060010e+00
 6.858236649462317e-01	 9.142073248808196e-01	 4.467080135134556e+00
 6.641243276354835e-01	 9.300903241502866e-01	 4.102181377863502e+00
 6.421005453207319e-01	 9.454290272392751e-01	 3.751834764068275e+00
 6.197726437892049e-01	 9.602140743702273e-01	 3.416630961577205e+00
 5.971612733236877e-01	 9.744371061647262e-01	 3.097021998882028e+00
 5.742873480231185e-01	 9.880907749640297e-01	 2.793322542215503e+00
 5.511719849358999e-01	 1.001168751814751e+00	 2.505711457251061e+00
 5.278364433591108e-01	 1.013665729158402e+00	 2.234233653738055e+00
 5.043020646478351e-01	 1.025577419295452e+00	 1.978802226042526e+00
 4.805902128667193e-01	 1.036900548725006e+00	 1.739200916000615e+00
 7.160179592177931e-01	 9.090122590360992e-01	 5.068087158373564e+00
 6.943960829442232e-01	 9.256344128128371e-01	 4.690009237087560e+00
 6.724255158709611e-01	 9.417159408231384e-01	 4.324223251054868e+00
 6.501264484098671e-01	 9.572463692505462e-01	 3.971531635446931e+00
 6.275194604093159e-01	 9.722162213254483e-01	 3.632614406362298e+00
 6.046254602692551e-01	 9.866170331818170e-01	 3.308029093130746e+00
 5.814656235033423e-01	 1.000441365319234e+00	 2.998210815678909e+00
 5.580613311114559e-01	 1.013682809675893e+00	 2.703472502833194e+00
 5.344341081201810e-01	 1.026335992351761e+00	 2.424005265140267e+00
 5.106055626397861e-01	 1.038396572053436e+00	 2.159878952804189e+00
 4.865973257739606e-01	 1.049861234363075e+00	 1.911042944844371e+00
 7.248572930607247e-01	 9.202341323432032e-01	 5.277760273432733e+00
 7.029684919422190e-01	 9.370614887469674e-01	 4.900378641953603e+00
 6.807266953911937e-01	 9.533415452896362e-01	 4.533880897833695e+00
 6.581523430727497e-01	 9.690636988541473e-01	 4.179130905717054e+00
 6.352662688961452e-01	 9.842183556789591e-01	 3.836886271631958e+00
 6.120896393782242e-01	 9.987969474105339e-01	 3.507797339436945e+00
 5.886438914470936e-01	 1.012791942706873e+00	 3.192406178244512e+00
 5.649506700538351e-01	 1.026196854397832e+00	 2.891145568029574e+00
 5.410317659542635e-01	 1.039006242241895e+00	 2.604338011023621e+00
 5.169090540135576e-01	 1.051215711351843e+00	 2.332194815991266e+00
 4.926044323741732e-01	 1.062821906392927e+00	 2.074815320187741e+00
 7.336966186544741e-01	 9.314559951770459e-01	 5.475414654177502e+00
 7.115408929401470e-01	 9.484885540162963e-01	 5.098829551003791e+00
 6.890278671644734e-01	 9.649671389060314e-01	 4.731833283950768e+00
 6.661782302455646e-01	 9.808810174287038e-01	 4.375340861862796e+00
 6.430130701533312e-01	 9.962204788309453e-01	 4.030176199350664e+00
 6.195538115212760e-01	 1.010976850271808e+00	 3.697070283080222e+00
 5.958221526917136e-01	 1.025142508567791e+00	 3.376659176907431e+00
 5.718400025666852e-01	 1.038710887440483e+00	 3.069481883060767e+00
 5.476294176309930e-01	 1.051676480306948e+00	 2.775978099751427e+00
 5.232125395044795e-01	 1.064034838686197e+00	 2.496485937690645e+00
 4.986115333681203e-01	 1.075782566326606e+00	 2.231239678025946e+00
 7.425359370301071e-01	 9.426778488467653e-01	 5.661623550865793e+00
 7.201132869379336e-01	 9.599156099539083e-01	 5.285979440059900e+00
 6.973290321590896e-01	 9.765927230285767e-01	 4.918733617250089e+00
 6.742041108644973e-01	 9.926983263528394e-01	 4.560842365957416e+00
 6.507598650845134e-01	 1.008222592181596e+00	 4.213185081810398e+00
 6.270179775690907e-01	 1.023156743186568e+00	 3.876561712750990e+00
 6.030004080745418e-01	 1.037493064342832e+00	 3.551689887591649e+00
 5.787293294536551e-01	 1.051224910263766e+00	 3.239201758775748e+00
 5.542270639200043e-01	 1.064346708025068e+00	 2.939640611271333e+00
 5.295160198478805e-01	 1.076853955552018e+00	 2.653457314353536e+00
 5.046186294565644e-01	 1.088743215676154e+00	 2.381006715544196e+00
 7.513752492186877e-01	 9.538996946614970e-01	 5.836940341436771e+00
 7.286856749355062e-01	 9.713426578928899e-01	 5.462423639786875e+00
 7.056301913433345e-01	 9.882182990135246e-01	 5.095211051861614e+00
 6.822299858657339e-01	 1.004515627005178e+00	 4.736290661329055e+00
 6.585066545933304e-01	 1.020224697131098e+00	 4.386586949028937e+00
 6.344821383923491e-01	 1.035336627575747e+00	 4.046957609710894e+00
 6.101786584329194e-01	 1.049843611472838e+00	 3.718189907945365e+00
 5.856186515183930e-01	 1.063738924327598e+00	 3.400996606369759e+00
 5.608247055909317e-01	 1.077016926874399e+00	 3.096011528518131e+00
 5.358194957790905e-01	 1.089673063444831e+00	 2.803784846177378e+00
 5.106257213402690e-01	 1.101703855953616e+00	 2.524778206349530e+00
 7.602145562512813e-01	 9.651215339303794e-01	 6.001899855483728e+00
 7.372580579327910e-01	 9.827696991663243e-01	 5.628736796807977e+00
 7.139313456854985e-01	 9.998438682171275e-01	 5.261872265063789e+00
 6.902558561854589e-01	 1.016332920764344e+00	 4.902317044793827e+00
 6.662534395834212e-01	 1.032226795079638e+00	 4.551030717076621e+00
 6.419462948617320e-01	 1.047516504860274e+00	 4.208917954110683e+00
 6.173569046041869e-01	 1.062194151398654e+00	 3.876824204793280e+00
 5.925079695645477e-01	 1.076252931091897e+00	 3.555530810421109e+00
 5.674223434134104e-01	 1.089687138333090e+00	 3.245749621853698e+00
 5.421229680334386e-01	 1.102492163860158e+00	 2.948117220185258e+00
 5.166328097199971e-01	 1.114664488671035e+00	 2.663188870891627e+00
 7.690538591589523e-01	 9.763433679625483e-01	 6.157019597639717e+00
 7.458304369297151e-01	 9.941967351072982e-01	 5.785474225232434e+00
 7.222324961538731e-01	 1.011469431995637e+00	 5.419302917061677e+00
 6.982817227598579e-01	 1.028150209008962e+00	 5.059530415734943e+00
 6.740002209584242e-01	 1.044228887427404e+00	 4.707141808524607e+00
 6.494104478479207e-01	 1.059696376461081e+00	 4.363078399962408e+00
 6.245351474256845e-01	 1.074544685561123e+00	 4.028232827940125e+00
 5.993972843957676e-01	 1.088766932016580e+00	 3.703443467048879e+00
 5.740199781570746e-01	 1.102357343879285e+00	 3.389488198368424e+00
 5.484264373462544e-01	 1.115311258293522e+00	 3.087077658776840e+00
 5.226398952965116e-01	 1.127625115340454e+00	 2.796848113726616e+00
 7.778931589727656e-01	 9.875651980671409e-01	 6.302800878378770e+00
 7.544028129262057e-01	 1.005623767048896e+00	 5.933173157315468e+00
 7.305336437167487e-01	 1.023094991705307e+00	 5.568069002996856e+00
 7.063075865251167e-01	 1.039967493117656e+00	 5.208518711826298e+00
 6.817469996219788e-01	 1.056230975574584e+00	 4.855523655186624e+00
 6.568745982215948e-01	 1.071876243799097e+00	 4.510051829214104e+00
 6.317133877347535e-01	 1.086895215401090e+00	 4.173032500960901e+00
 6.062865968157010e-01	 1.101280928561567e+00	 3.845349997925014e+00
 5.806176105915590e-01	 1.115027544991130e+00	 3.527836726797454e+00
 5.547299044528670e-01	 1.128130348240445e+00	 3.221265544453569e+00
 5.286469787705758e-01	 1.140585737473918e+00	 2.926341638216799e+00
 7.867324567237856e-01	 9.987870255532937e-01	 6.439729859515881e+00
 7.629751869221895e-01	 1.017050796324203e+00	 6.072353901184629e+00
 7.388347893424171e-01	 1.034720548702388e+00	 5.708718105665869e+00
 7.143334484174205e-01	 1.051784774469049e+00	 5.349850240316502e+00
 6.894937764777238e-01	 1.068233060921365e+00	 4.996759092416104e+00
 6.643387468534357e-01	 1.084056108295254e+00	 4.650429794438307e+00
 6.388916263687338e-01	 1.099245742359396e+00	 4.311818098652421e+00
 6.131759076279966e-01	 1.113794922186774e+00	 3.981843649904235e+00
 5.872152414864982e-01	 1.127697743146772e+00	 3.661382347835832e+00
 5.610333700886059e-01	 1.140949435196451e+00	 3.351257930459234e+00
 5.346540608429523e-01	 1.153546356583469e+00	 3.052232948309171e+00
 7.955717534430776e-01	 1.010008851730144e+00	 6.568278521041123e+00
 7.715475599175932e-01	 1.028477824266305e+00	 6.203520912862546e+00
 7.471359339991688e-01	 1.046346104343135e+00	 5.841780556672404e+00
 7.223593093729547e-01	 1.063602054441766e+00	 5.484074912999198e+00
 6.972405524292978e-01	 1.080235144867935e+00	 5.131411653392106e+00
 6.718028946141240e-01	 1.096235971370482e+00	 4.784783858799456e+00
 6.460698641649665e-01	 1.111596267876887e+00	 4.445164019964650e+00
 6.200652176363031e-01	 1.126308914352119e+00	 4.113496889171373e+00
 5.938128716115273e-01	 1.140367939824357e+00	 3.790691278767588e+00
 5.673368349888005e-01	 1.153768520657062e+00	 3.477610946210206e+00
 5.406611422144048e-01	 1.166506974181152e+00	 3.175064746176389e+00
 4.805902128667193e-01	 1.036900548725006e+00	 1.739200916000610e+00
 4.567238912185655e-01	 1.047632119033528e+00	 1.514871567635536e+00
 4.327226724432352e-01	 1.057771671128007e+00	 1.305549970512373e+00
 4.086076349933627e-01	 1.067318907274511e+00	 1.111320021749706e+00
 3.843996573223180e-01	 1.076274482631064e+00	 9.321390824546685e-01
 3.601193671492018e-01	 1.084639981399606e+00	 7.678373420920808e-01
 3.357870931611622e-01	 1.092417889981094e+00	 6.181181434493370e-01
 3.114228193362970e-01	 1.099611567383429e+00	 4.825593448690484e-01
 2.870461420440134e-01	 1.106225213142014e+00	 3.606157802878827e-01
 2.626762300530535e-01	 1.112263833020041e+00	 2.516228587991949e-01
 2.383317875507918e-01	 1.117733202760072e+00	 1.548013245611342e-01
 4.865973257739606e-01	 1.049861234363075e+00	 1.911042944844371e+00
 4.624326882528714e-01	 1.060726943388633e+00	 1.677123908020645e+00
 4.381314674648409e-01	 1.070993234298677e+00	 1.457973860044212e+00
 4.137150053315431e-01	 1.080659805637752e+00	 1.253750586919038e+00
 3.892044412755069e-01	 1.089727320752985e+00	 1.064489180323397e+00
 3.646206608509516e-01	 1.098197383647950e+00	 8.901002937567168e-01
 3.399842468424103e-01	 1.106072511802235e+00	 7.303693613962963e-01
 3.153154330166913e-01	 1.113356106209476e+00	 5.849568744853020e-01
 2.906340606870190e-01	 1.120052418896942e+00	 4.533997931096057e-01
 2.659595382211789e-01	 1.126166518197095e+00	 3.351141511955260e-01
 2.413108035985782e-01	 1.131704252046085e+00	 2.293988901140749e-01
 4.926044323741732e-01	 1.062821906392927e+00	 2.074815320187741e+00
 4.681414792933423e-01	 1.073821753994628e+00	 1.831994997800687e+00
 4.435402568075893e-01	 1.084214783587100e+00	 1.603695462743368e+00
 4.188223703073470e-01	 1.094000689993370e+00	 1.390146491667626e+00
 3.940092201840263e-01	 1.103180144749659e+00	 1.191459093627654e+00
 3.691219498266916e-01	 1.111754771661164e+00	 1.007622637328520e+00
 3.441813961169894e-01	 1.119727119286067e+00	 8.385029414899414e-01
 3.192080426101743e-01	 1.127100630603701e+00	 6.838414420013523e-01
 2.942219755630262e-01	 1.133879610133147e+00	 5.432555317609797e-01
 2.692428429421198e-01	 1.140069188776074e+00	 4.162401478509052e-01
 2.442898165186467e-01	 1.145675286662146e+00	 3.021706566732181e-01
 4.986115333681203e-01	 1.075782566326606e+00	 2.231239678025946e+00
 4.738502650059467e-01	 1.086916552379217e+00	 1.980189692756152e+00
 4.489490411024551e-01	 1.097436320535780e+00	 1.743402332396320e+00
 4.239297305165890e-01	 1.107341561897807e+00	 1.521177656692489e+00
 3.988139946083938e-01	 1.116632956190609e+00	 1.313700977270896e+00
 3.736232346015355e-01	 1.125312147020986e+00	 1.121038833477329e+00
 3.483785414745348e-01	 1.133381714025693e+00	 9.431359299120055e-01
 3.231006485708565e-01	 1.140845142169716e+00	 7.798131689253041e-01
 2.978098870906050e-01	 1.147706788463904e+00	 6.307668927601568e-01
 2.725261445989179e-01	 1.153971846379076e+00	 4.955694275529481e-01
 2.472688266585503e-01	 1.159646308238343e+00	 3.736709957740556e-01
 5.046186294565644e-01	 1.088743215676154e+00	 2.381006715544196e+00
 4.795590460566536e-01	 1.100011340070106e+00	 2.122382185140363e+00
 4.543578209804141e-01	 1.110657846687220e+00	 1.877751643950397e+00
 4.290370865550832e-01	 1.120682422907506e+00	 1.647483914925371e+00
 4.036187651091259e-01	 1.130085756645355e+00	 1.431837193075952e+00
 3.781245157005970e-01	 1.138869511309155e+00	 1.230953845562623e+00
 3.525756834046820e-01	 1.147036297614210e+00	 1.044856170104720e+00
 3.269932513528492e-01	 1.154589642511129e+00	 8.734432653426658e-01
 3.013977956883261e-01	 1.161533955502484e+00	 7.164891474207458e-01
 2.758094435746151e-01	 1.167874492628195e+00	 5.736422233479614e-01
 2.502478343658426e-01	 1.173617318404765e+00	 4.444262044232907e-01
 5.106257213402690e-01	 1.101703855953616e+00	 2.524778206349532e+00
 4.852678231114312e-01	 1.113106118594997e+00	 2.259217998229687e+00
 4.597665970724414e-01	 1.123879363583928e+00	 2.007372165503289e+00
 4.341444390186440e-01	 1.134023274578911e+00	 1.769676959291803e+00
 4.084235322467397e-01	 1.143538547683417e+00	 1.546462231871090e+00
 3.826257936489901e-01	 1.152426866107410e+00	 1.337945034841133e+00
 3.567728223970658e-01	 1.160690871644718e+00	 1.144224170146991e+00
 3.308858514102634e-01	 1.168334133231548e+00	 9.652758687688769e-01
 3.049857017747594e-01	 1.175361112862159e+00	 8.009507517616128e-01
 2.790927402522533e-01	 1.181777129145528e+00	 6.509722033671701e-01
 2.532268399880767e-01	 1.187588318791500e+00	 5.149362569868408e-01
 5.166328097199971e-01	 1.114664488671035e+00	 2.663188870891627e+00
 4.909765968362486e-01	 1.126200889481598e+00	 2.391315837988534e+00
 4.651753700095125e-01	 1.137100872768407e+00	 2.132866089440005e+00
 4.392517885030857e-01	 1.147364118468464e+00	 1.888342151740273e+00
 4.132282965817521e-01	 1.156991330874316e+00	 1.658144499038013e+00
 3.871270689718284e-01	 1.165984212997487e+00	 1.442563921381264e+00
 3.609699589413218e-01	 1.174345437710318e+00	 1.241774838114624e+00
 3.347784491972099e-01	 1.182078615934583e+00	 1.055829753279154e+00
 3.085736057684756e-01	 1.189188262156202e+00	 8.846550289810744e-01
 2.823760350148741e-01	 1.195679757553171e+00	 7.280481264828542e-01
 2.562058438728059e-01	 1.201559311028636e+00	 5.856764341301874e-01
 5.226398952965116e-01	 1.127625115340454e+00	 2.796848113726617e+00
 4.966853678970744e-01	 1.139295654257610e+00	 2.519269313348552e+00
 4.705841404226027e-01	 1.150322375783162e+00	 2.254810734052940e+00
 4.443591356042228e-01	 1.160704956132610e+00	 2.004040204705031e+00
 4.180330586746799e-01	 1.170444107787572e+00	 1.767427974509207e+00
 3.916283421942255e-01	 1.179541553561126e+00	 1.545337821490908e+00
 3.651670935270849e-01	 1.187999997404108e+00	 1.338019096048972e+00
 3.386710451677995e-01	 1.195823092223842e+00	 1.145599919354032e+00
 3.121615080880449e-01	 1.203015404997883e+00	 9.680817347527619e-01
 2.856593282455197e-01	 1.209582379473220e+00	 8.053353828668166e-01
 2.591848463675838e-01	 1.215530296746261e+00	 6.570988387046928e-01
 5.286469787705758e-01	 1.140585737473918e+00	 2.926341638216797e+00
 5.023941369598772e-01	 1.152390414450741e+00	 2.643648535554318e+00
 4.759929089426871e-01	 1.163543874170699e+00	 2.373760125948792e+00
 4.494664809178697e-01	 1.174045789127792e+00	 2.117308745151388e+00
 4.228378190860402e-01	 1.183896879992705e+00	 1.874833757203814e+00
 3.961296138412954e-01	 1.193098889380064e+00	 1.646771371482754e+00
 3.693642266439901e-01	 1.201654552319188e+00	 1.433445382191612e+00
 3.425636397761436e-01	 1.209567563702935e+00	 1.235059073932852e+00
 3.157494091520378e-01	 1.216842543000477e+00	 1.051688514663498e+00
 2.889426203272316e-01	 1.223484996527770e+00	 8.832774286097140e-01
 2.621638478199633e-01	 1.229501277574464e+00	 7.296338075741693e-01
 5.346540608429523e-01	 1.153546356583469e+00	 3.052232948309171e+00
 5.081029046906258e-01	 1.165485171588693e+00	 2.765001606089152e+00
 4.814016762007410e-01	 1.176765369473521e+00	 2.490246472620673e+00
 4.545738250398405e-01	 1.187386619010453e+00	 2.228663770440209e+00
 4.276425783763496e-01	 1.197349649059237e+00	 1.980861502992154e+00
 4.006308844381519e-01	 1.206656222036041e+00	 1.747347946719379e+00
 3.735613587816729e-01	 1.215309104048657e+00	 1.528521050274845e+00
 3.464562334763529e-01	 1.223312031975472e+00	 1.324659009308945e+00
 3.193373093790243e-01	 1.230669677777255e+00	 1.135912262279420e+00
 2.922259116430516e-01	 1.237387610338918e+00	 9.622971227325803e-01
 2.651428485774981e-01	 1.243472255143333e+00	 8.036912275672072e-01
 5.406611422144048e-01	 1.166506974181152e+00	 3.175064746176392e+00
 5.138116717552891e-01	 1.178579927199173e+00	 2.883856001848425e+00
 4.868104428277401e-01	 1.189986863234134e+00	 2.604781533729716e+00
 4.596811685659499e-01	 1.200727447337036e+00	 2.338601004428284e+00
 4.324473371061253e-01	 1.210802416556687e+00	 2.085990764471788e+00
 4.051321545099085e-01	 1.220213553110794e+00	 1.847530984084087e+00
 3.777584904297684e-01	 1.228963654185617e+00	 1.623693673875780e+00
 3.503488267225386e-01	 1.237056498645061e+00	 1.414831888738514e+00
 3.229252091875749e-01	 1.244496810941490e+00	 1.221170385569756e+00
 2.955092025760218e-01	 1.251290222528759e+00	 1.042797974185105e+00
 2.681218489877413e-01	 1.257443231082956e+00	 8.796617630139270e-01
 2.383317875507918e-01	 1.117733202760072e+00	 1.548013245611319e-01
 2.140293252500230e-01	 1.122640154174940e+00	 6.851520485922880e-02
 1.897882490973285e-01	 1.126991486982686e+00	-8.121963478217920e-03
 1.656257055747226e-01	 1.130795056249892e+00	-7.496037736957906e-02
 1.415582582628250e-01	 1.134059328212202e+00	-1.319717739620814e-01
 1.176018665813229e-01	 1.136793338266780e+00	-1.792442812404014e-01
 9.377186765109050e-02	 1.139006648600664e+00	-2.169759221526681e-01
 7.008296121854513e-02	 1.140709305690971e+00	-2.454668940100342e-01
 4.654919756532504e-02	 1.141911797900406e+00	-2.651107638657251e-01
 2.318396831066902e-02	 1.142625013377961e+00	-2.763847359342579e-01
 0.000000000000000e+00	 1.142860198460186e+00	-2.798391586404259e-01
 2.413108035985782e-01	 1.131704252046085e+00	 2.293988901140771e-01
 2.167045739068282e-01	 1.136672537650634e+00	 1.346991611921191e-01
 1.921604976561824e-01	 1.141078259721515e+00	 5.023978059542555e-02
 1.676959356502720e-01	 1.144929371509319e+00	-2.371621585121519e-02
 1.433276585053855e-01	 1.148234445072978e+00	-8.703604035171475e-02
 1.190718251251994e-01	 1.151002628747150e+00	-1.397126933173818e-01
 9.494396433618364e-02	 1.153243604240947e+00	-1.818590021851478e-01
 7.095895962352035e-02	 1.154967543606920e+00	-2.137002820595155e-01
 4.713103688965951e-02	 1.156185066306537e+00	-2.355657627830043e-01
 2.347375514173319e-02	 1.156907196584657e+00	-2.478789446327772e-01
 0.000000000000000e+00	 1.157145321350848e+00	-2.511470583453286e-01
 2.442898165186467e-01	 1.145675286662146e+00	 3.021706566732205e-01
 2.193798197548161e-01	 1.150704906391885e+00	 1.995662126122526e-01
 1.945327437243048e-01	 1.155165017668707e+00	 1.077515107865465e-01
 1.697661635521415e-01	 1.159063671927113e+00	 2.709486259536864e-02
 1.450970568900728e-01	 1.162409547049214e+00	-4.217413643306234e-02
 1.205417821255609e-01	 1.165211904307037e+00	-9.996082614670443e-02
 9.611605979047631e-02	 1.167480544931648e+00	-1.463000449331560e-01
 7.183495710857847e-02	 1.169225766550903e+00	-1.813491609662923e-01
 4.771287560295031e-02	 1.170458319724889e+00	-2.053797199153877e-01
 2.376354166844671e-02	 1.171189364794196e+00	-2.187678773943396e-01
 0.000000000000000e+00	 1.171430429241259e+00	-2.219837999733985e-01
 2.472688266585503e-01	 1.159646308238343e+00	 3.736709957740556e-01
 2.220550631061160e-01	 1.164737262035951e+00	 2.636584010577989e-01
 1.969049875784914e-01	 1.169251762467882e+00	 1.649457245721426e-01
 1.718363895219076e-01	 1.173197959152453e+00	 7.799898744103162e-02
 1.468664536233803e-01	 1.176584635794853e+00	 3.137245324805527e-03
 1.220117377539760e-01	 1.179421166604382e+00	-5.946430202890984e-02
 9.728815415079008e-02	 1.181717472333943e+00	-1.097693895329122e-01
 7.271095377599250e-02	 1.183483976186580e+00	-1.478740792696613e-01
 4.829471377313882e-02	 1.184731559820883e+00	-1.739986187850000e-01
 2.405332792465427e-02	 1.185471519673041e+00	-1.884779394660085e-01
 0.000000000000000e+00	 1.185715523798227e+00	-1.917509869542637e-01
 2.502478343658426e-01	 1.173617318404765e+00	 4.444262044232929e-01
 2.247303042728567e-01	 1.178769606220092e+00	 3.274899283547170e-01
 1.992772294955377e-01	 1.183338495762656e+00	 2.223272414741568e-01
 1.739066138011467e-01	 1.187332234834512e+00	 1.294946887681623e-01
 1.486358489118018e-01	 1.190759712963842e+00	 4.939379722269455e-02
 1.234816921820129e-01	 1.193630417297124e+00	-1.772647906456348e-02
 9.846024755394656e-02	 1.195954388109006e+00	-7.176534605542928e-02
 7.358694972803545e-02	 1.197742174177615e+00	-1.127639155108298e-01
 4.887655146816643e-02	 1.199004788259937e+00	-1.408972648305875e-01
 2.434311394420056e-02	 1.199753662887651e+00	-1.564649912526976e-01
 0.000000000000000e+00	 1.200000606688556e+00	-1.598804605033788e-01
 2.532268399880767e-01	 1.187588318791500e+00	 5.149362569868408e-01
 2.274055435671674e-01	 1.192801940581567e+00	 3.915488812010237e-01
 2.016494697522397e-01	 1.197425219196647e+00	 2.803749054771578e-01
 1.759768366314353e-01	 1.201466500622466e+00	 1.820545823516717e-01
 1.504052429618307e-01	 1.204934780210126e+00	 9.706527016418676e-02
 1.249516455812398e-01	 1.207839658043205e+00	 2.572321834745428e-02
 9.963234013676746e-02	 1.210191293918011e+00	-3.181252262308920e-02
 7.446294506698030e-02	 1.212000362187670e+00	-7.553419349790613e-02
 4.945838875597452e-02	 1.213278006707471e+00	-1.055775796321421e-01
 2.463289976093031e-02	 1.214035796104490e+00	-1.222126116342432e-01
 0.000000000000000e+00	 1.214285679579051e+00	-1.258325215267886e-01
 2.562058438728059e-01	 1.201559311028636e+00	 5.856764341301852e-01
 2.300807813011770e-01	 1.206834266757633e+00	 4.562988352515231e-01
 2.040217086253929e-01	 1.211511934413471e+00	 3.395431682648387e-01
 1.780470582543499e-01	 1.215600758165490e+00	 2.361269368829908e-01
 1.521746359799605e-01	 1.219109839187650e+00	 1.465970305071762e-01
 1.264215981232255e-01	 1.222048890500565e+00	 7.133085240269055e-02
 1.008044320360744e-01	 1.224428191422134e+00	 1.053973067761182e-02
 7.533893989510013e-02	 1.226258541880407e+00	-3.572551516084266e-02
 5.004022570450450e-02	 1.227551216828906e+00	-6.756701417344524e-02
 2.492268540868820e-02	 1.228317920990019e+00	-8.523048246702580e-02
 0.000000000000000e+00	 1.228570744136519e+00	-8.909427659697822e-02
 2.591848463675838e-01	 1.215530296746261e+00	 6.570988387046903e-01
 2.327560177870145e-01	 1.220866586385550e+00	 5.221803480326213e-01
 2.063939463917933e-01	 1.225598643056747e+00	 4.002635628654534e-01
 1.801172789114668e-01	 1.229735009112759e+00	 2.921371328220226e-01
 1.539440281726846e-01	 1.233284891550360e+00	 1.984115093477203e-01
 1.278915499795380e-01	 1.236258116327144e+00	 1.195194175555123e-01
 1.019765233886890e-01	 1.238665082282548e+00	 5.571877048508478e-02
 7.621493431466794e-02	 1.240516714919491e+00	 7.097898465149299e-03
 5.062206238169776e-02	 1.241824420289660e+00	-2.641707156464701e-02
 2.521247092131893e-02	 1.242600039210701e+00	-4.505288451856937e-02
 0.000000000000000e+00	 1.242855802027764e+00	-4.917809801616446e-02
 2.621638478199633e-01	 1.229501277574464e+00	 7.296338075741666e-01
 2.354312533368090e-01	 1.234898901102576e+00	 5.896123495321735e-01
 2.087661833282362e-01	 1.239685346770091e+00	 4.629460764248183e-01
 1.821874988443625e-01	 1.243869255113449e+00	 3.504890214978182e-01
 1.557134197464966e-01	 1.247459938952200e+00	 2.529095527942098e-01
 1.293615013217458e-01	 1.250467337180882e+00	 1.706901874887041e-01
 1.031486143314329e-01	 1.252901968160429e+00	 1.041300099970275e-01
 7.709092842795674e-02	 1.254774882968582e+00	 5.334956673037605e-02
 5.120389885549568e-02	 1.256097618755154e+00	 1.829806948386259e-02
 2.550225633266721e-02	 1.256882152432997e+00	-1.237295970963892e-03
 0.000000000000000e+00	 1.257140854919592e+00	-5.620188890046673e-03
 2.651428485774981e-01	 1.243472255143333e+00	 8.036912275672048e-01
 2.381064882626895e-01	 1.248931212545972e+00	 6.589934385124077e-01
 2.111384197115176e-01	 1.253772047197120e+00	 5.279804300413971e-01
 1.842577182946136e-01	 1.258003497816736e+00	 4.115661923048115e-01
 1.574828109078901e-01	 1.261634983047117e+00	 3.104716810196115e-01
 1.308314523214175e-01	 1.264676554719722e+00	 2.252239711495378e-01
 1.043207050011277e-01	 1.267138850716951e+00	 1.561581777273877e-01
 7.796692233723956e-02	 1.269033047691344e+00	 1.034220171652165e-01
 5.178573519383965e-02	 1.270370813890807e+00	 6.698283836200769e-02
 2.579204167657773e-02	 1.271164262323368e+00	 4.663691457685859e-02
 0.000000000000000e+00	 1.271425904478810e+00	 4.202075504706615e-02
 2.681218489877413e-01	 1.257443231082956e+00	 8.796617630139247e-01
 2.407817228767851e-01	 1.262963522352994e+00	 7.307030918809270e-01
 2.135106558184331e-01	 1.267858745981453e+00	 5.957372728947246e-01
 1.863279375037964e-01	 1.272137738871794e+00	 4.757331551446973e-01
 1.592522018633585e-01	 1.275810025489055e+00	 3.714592631882438e-01
 1.323014031501211e-01	 1.278885770601601e+00	 2.834822849275629e-01
 1.054927955345951e-01	 1.281375731613288e+00	 2.121684922696294e-01
 7.884291614478943e-02	 1.283291210751440e+00	 1.576879687089963e-01
 5.236757146467105e-02	 1.284644007362039e+00	 1.200214706539517e-01
 2.608182698689521e-02	 1.285446370548278e+00	 9.896970795640958e-02
 0.000000000000000e+00	 1.285710952372222e+00	 9.416479438279102e-02
 1.285710952372222e+00	 0.000000000000000e+00	 1.506688456272075e+01
 1.285446370548278e+00	 2.608182698689557e-02	 1.507731697182108e+01
 1.284644007362039e+00	 5.236757146467139e-02	 1.507091255884616e+01
 1.283291210751439e+00	 7.884291614478972e-02	 1.504896411466554e+01
 1.281375731613288e+00	 1.054927955345953e-01	 1.501284966067517e+01
 1.278885770601601e+00	 1.323014031501213e-01	 1.496402840770210e+01
 1.275810025489054e+00	 1.592522018633586e-01	 1.490403610869941e+01
 1.272137738871795e+00	 1.863279375037966e-01	 1.483447975758660e+01
 1.267858745981453e+00	 2.135106558184332e-01	 1.475703159017138e+01
 1.262963522352994e+00	 2.407817228767851e-01	 1.467342234926983e+01
 1.257443231082956e+00	 2.681218489877413e-01	 1.458543378506991e+01
 1.299996999436575e+00	 0.000000000000000e+00	 1.485582745921230e+01
 1.299729477738514e+00	 2.637163256653116e-02	 1.486706388664854e+01
 1.298918199175054e+00	 5.294944843254041e-02	 1.486206203632414e+01
 1.297550371102010e+00	 7.971897122437951e-02	 1.484217893830344e+01
 1.295613608311512e+00	 1.066649680506882e-01	 1.480884890562012e+01
 1.293095980350323e+00	 1.337714567953443e-01	 1.476357895717099e+01
 1.289986059407558e+00	 1.610217165797057e-01	 1.470794365804533e+01
 1.286272968549540e+00	 1.883983015152832e-01	 1.464357933071320e+01
 1.281946430063098e+00	 2.158830578522009e-01	 1.457217759413662e+01
 1.276996813653051e+00	 2.434571446109328e-01	 1.449547819424588e+01
 1.271415184225567e+00	 2.711010577649079e-01	 1.441526109849892e+01
 1.314283043168385e+00	 0.000000000000000e+00	 1.465743216830288e+01
 1.314012581596891e+00	 2.666143807874816e-02	 1.466944766197183e+01
 1.313192387658288e+00	 5.353132526498397e-02	 1.466578247952793e+01
 1.311809528126306e+00	 8.059502609999267e-02	 1.464785647294940e+01
 1.309851481688423e+00	 1.078371402937551e-01	 1.461715892076294e+01
 1.307306186784182e+00	 1.352415100980420e-01	 1.457524343781363e+01
 1.304162090019159e+00	 1.627912308836290e-01	 1.452372232533052e+01
 1.300408194929890e+00	 1.904686650441013e-01	 1.446426031524020e+01
 1.296034110858418e+00	 2.182554593327631e-01	 1.439856766637991e+01
 1.291030101679448e+00	 2.461325657211033e-01	 1.432839257685568e+01
 1.285387134108794e+00	 2.740802658471492e-01	 1.425551288644467e+01
 1.328569080234105e+00	 0.000000000000000e+00	 1.447078708691417e+01
 1.328295678790551e+00	 2.695124345587626e-02	 1.448355823208092e+01
 1.327466569480965e+00	 5.411320182614768e-02	 1.448116704169670e+01
 1.326068678497057e+00	 8.147108056711237e-02	 1.446509466855969e+01
 1.324089348421717e+00	 1.090093119901755e-01	 1.443688392428197e+01
 1.321516386587330e+00	 1.367115627150887e-01	 1.439813369984553e+01
 1.318338114015990e+00	 1.645607443621364e-01	 1.435049284849187e+01
 1.314543414714499e+00	 1.925390276070737e-01	 1.429565348486296e+01
 1.310121785080170e+00	 2.206278597064844e-01	 1.423534365806982e+01
 1.305063383157637e+00	 2.488079855829751e-01	 1.417131936319106e+01
 1.299359077472413e+00	 2.770594725392778e-01	 1.410535586577186e+01
 1.342855107300192e+00	 0.000000000000000e+00	 1.429501191506384e+01
 1.342578765986636e+00	 2.724104863024519e-02	 1.430851789302279e+01
 1.341740741312307e+00	 5.469507798017722e-02	 1.430734220626492e+01
 1.340327818886993e+00	 8.234713442122177e-02	 1.429302568111310e+01
 1.338327205189094e+00	 1.101814828663293e-01	 1.426716312171267e+01
 1.335726576443923e+00	 1.381816143033586e-01	 1.423139726635081e+01
 1.332514128090181e+00	 1.663302566022357e-01	 1.418741222728499e+01
 1.328678624605023e+00	 1.946093887210235e-01	 1.413692636737374e+01
 1.324209449441108e+00	 2.230002584197293e-01	 1.408168457062344e+01
 1.319096654813073e+00	 2.514834035722265e-01	 1.402344987084135e+01
 1.313331011056197e+00	 2.800386771461065e-01	 1.396399441310418e+01
 1.357141121033102e+00	 0.000000000000000e+00	 1.412925600886599e+01
 1.356861839852286e+00	 2.753085353418463e-02	 1.414347962624401e+01
 1.356014899821536e+00	 5.527695359121823e-02	 1.414346608393650e+01
 1.354586945968846e+00	 8.322318745780412e-02	 1.413081414588394e+01
 1.352565048668249e+00	 1.113536526485962e-01	 1.410716895815868e+01
 1.349936753038114e+00	 1.396516645197259e-01	 1.407421556713917e+01
 1.346690128933866e+00	 1.680997671909346e-01	 1.403367194145855e+01
 1.342813821303118e+00	 1.966797479027739e-01	 1.398728144978330e+01
 1.338297100653986e+00	 2.253726549188626e-01	 1.393680475035943e+01
 1.333129913371210e+00	 2.541588190645365e-01	 1.388401105561063e+01
 1.327302931599920e+00	 2.830178789724484e-01	 1.383066874608231e+01
 1.371427118099289e+00	 0.000000000000000e+00	 1.397269683646576e+01
 1.371144897054645e+00	 2.782065810002433e-02	 1.398762552697597e+01
 1.370289041677873e+00	 5.585882852341631e-02	 1.398872681609273e+01
 1.368846056415343e+00	 8.409923947234267e-02	 1.397765555842230e+01
 1.366802875536880e+00	 1.125258210633557e-01	 1.395610547936931e+01
 1.364146913054058e+00	 1.411217130210649e-01	 1.392580228241506e+01
 1.360866113239175e+00	 1.698692757152409e-01	 1.388849627947619e+01
 1.356949001510443e+00	 1.987501046691477e-01	 1.384595449451968e+01
 1.352384735431563e+00	 2.277450486502488e-01	 1.379995219455615e+01
 1.347163155557500e+00	 2.568342314355833e-01	 1.375226380977193e+01
 1.341274835843357e+00	 2.859970773231161e-01	 1.370465321610077e+01
 1.385713095165209e+00	 0.000000000000000e+00	 1.382453852948213e+01
 1.385427934260852e+00	 2.811046226009398e-02	 1.384016532980589e+01
 1.384563163550541e+00	 5.644070264091715e-02	 1.384234107686179e+01
 1.383105146899215e+00	 8.497529026032054e-02	 1.383277475547120e+01
 1.381040682472682e+00	 1.136979878369877e-01	 1.381320679382832e+01
 1.378357053175909e+00	 1.425917594642498e-01	 1.378540178833541e+01
 1.375042077698239e+00	 1.716387817621623e-01	 1.375114076980980e+01
 1.371084161928650e+00	 2.008204585369682e-01	 1.371221295868938e+01
 1.366472350486590e+00	 2.301174390602525e-01	 1.367040696087626e+01
 1.361196378097397e+00	 2.595096400610455e-01	 1.362750136381033e+01
 1.355246720526281e+00	 2.889762715029223e-01	 1.358525470448012e+01
 1.399999048897318e+00	 0.000000000000000e+00	 1.368401052313833e+01
 1.399710948138050e+00	 2.840026594672332e-02	 1.370033502449346e+01
 1.398837262108762e+00	 5.702257580786636e-02	 1.370355266680416e+01
 1.397364214093191e+00	 8.585133961722100e-02	 1.369542448868299e+01
 1.395278466153354e+00	 1.148701526958717e-01	 1.367773562864066e+01
 1.392567170087822e+00	 1.440618035061548e-01	 1.365228769717998e+01
 1.389218019003189e+00	 1.734082849187067e-01	 1.362089070747880e+01
 1.385219299259398e+00	 2.028908090230583e-01	 1.358535450904076e+01
 1.380559942531825e+00	 2.324898255952382e-01	 1.354747967277603e+01
 1.375229577716355e+00	 2.621850443166021e-01	 1.350904778426422e+01
 1.369218582388467e+00	 2.919554608166800e-01	 1.347181111468734e+01
 1.414284975962072e+00	 0.000000000000000e+00	 1.355036627881096e+01
 1.413993935353380e+00	 2.869006909224202e-02	 1.356739555565362e+01
 1.413111334021757e+00	 5.760444788840961e-02	 1.357163119173777e+01
 1.411623254670002e+00	 8.672738733852720e-02	 1.356488408457535e+01
 1.409516223256593e+00	 1.160423153663875e-01	 1.354898197258583e+01
 1.406777260473951e+00	 1.455318448036542e-01	 1.352576148544519e+01
 1.403393933846157e+00	 1.751777847718817e-01	 1.349705976910196e+01
 1.399354410204343e+00	 2.049611556442411e-01	 1.346470562586359e+01
 1.394647508280022e+00	 2.348622077015706e-01	 1.343051011411334e+01
 1.389262751139827e+00	 2.648604435779312e-01	 1.339625656087068e+01
 1.383190418169687e+00	 2.949346445692019e-01	 1.336368995381390e+01
 1.428570873025926e+00	 0.000000000000000e+00	 1.342288208322989e+01
 1.428276892573984e+00	 2.897987162897983e-02	 1.344063160043624e+01
 1.427385375958749e+00	 5.818631874669251e-02	 1.344587082074397e+01
 1.425882265302377e+00	 8.760343321972237e-02	 1.344045818469074e+01
 1.423753950460095e+00	 1.172144755749147e-01	 1.342626180023753e+01
 1.420987321018450e+00	 1.470018830136220e-01	 1.340515120370813e+01
 1.417569818919275e+00	 1.769472809086952e-01	 1.337898871026668e+01
 1.413489491465139e+00	 2.070314979173397e-01	 1.334962028960028e+01
 1.408735044443936e+00	 2.372345848256141e-01	 1.331886590671110e+01
 1.403295895093266e+00	 2.675358372207115e-01	 1.328850927676454e+01
 1.397162224609719e+00	 2.979138220653008e-01	 1.326028699706449e+01
 1.257443231082956e+00	 2.681218489877413e-01	 1.458543378506992e+01
 1.251290222528759e+00	 2.955092025760216e-01	 1.448581508464149e+01
 1.244496810941490e+00	 3.229252091875747e-01	 1.436723116330331e+01
 1.237056498645061e+00	 3.503488267225385e-01	 1.423139175232138e+01
 1.228963654185617e+00	 3.777584904297682e-01	 1.408000208951916e+01
 1.220213553110794e+00	 4.051321545099082e-01	 1.391475335772137e+01
 1.210802416556687e+00	 4.324473371061250e-01	 1.373731288932376e+01
 1.200727447337036e+00	 4.596811685659496e-01	 1.354931423769990e+01
 1.189986863234135e+00	 4.868104428277399e-01	 1.335234723326476e+01
 1.178579927199173e+00	 5.138116717552889e-01	 1.314794815744752e+01
 1.166506974181152e+00	 5.406611422144046e-01	 1.293759018071416e+01
 1.271415184225567e+00	 2.711010577649079e-01	 1.441526109849892e+01
 1.265193807139827e+00	 2.987927231594999e-01	 1.432412337890264e+01
 1.258324911247501e+00	 3.265133599524971e-01	 1.421458119925565e+01
 1.250801926674242e+00	 3.542416922368836e-01	 1.408833108982743e+01
 1.242619159392876e+00	 3.819559156469745e-01	 1.394705632310188e+01
 1.233771832455774e+00	 4.096337394237550e-01	 1.379241712456317e+01
 1.224256125010580e+00	 4.372524319055254e-01	 1.362604067890443e+01
 1.214069208790389e+00	 4.647888693259974e-01	 1.344951103865462e+01
 1.203209281774577e+00	 4.922195877717347e-01	 1.326435906036693e+01
 1.191675598724702e+00	 5.195208381204919e-01	 1.307205250985600e+01
 1.179468498311525e+00	 5.466686437519975e-01	 1.287398649157678e+01
 1.285387134108794e+00	 2.740802658471492e-01	 1.425551288644467e+01
 1.279097388507421e+00	 3.020762429769924e-01	 1.417238195386021e+01
 1.272153008327603e+00	 3.301015098803087e-01	 1.407137417977334e+01
 1.264547351496750e+00	 3.581345568429810e-01	 1.395417121106938e+01
 1.256274661414386e+00	 3.861533398848383e-01	 1.382243340163736e+01
 1.247330108637632e+00	 4.141353232872624e-01	 1.367778982591096e+01
 1.237709830325688e+00	 4.420575255837422e-01	 1.352182811021817e+01
 1.227410967131020e+00	 4.698965688942291e-01	 1.335608419492685e+01
 1.216431697230087e+00	 4.976287314535489e-01	 1.318203215969870e+01
 1.204771267194819e+00	 5.252300031534775e-01	 1.300107426156248e+01
 1.192430019417744e+00	 5.526761438877230e-01	 1.281453134998202e+01
 1.299359077472413e+00	 2.770594725392778e-01	 1.410535586577186e+01
 1.293000963387279e+00	 3.053597612623208e-01	 1.402977244023992e+01
 1.285981098955156e+00	 3.336896581337637e-01	 1.393681001265837e+01
 1.278292769905249e+00	 3.620274196324957e-01	 1.382813366756961e+01
 1.269930157063807e+00	 3.903507621639695e-01	 1.370537988471903e+01
 1.260888378492727e+00	 4.186369050500763e-01	 1.357014638484279e+01
 1.251163529362787e+00	 4.468626170196096e-01	 1.342398180859881e+01
 1.240752719245839e+00	 4.750042660788752e-01	 1.326837534734469e+01
 1.229654106515436e+00	 5.030378726110815e-01	 1.310474646511453e+01
 1.217866929553885e+00	 5.309391655221452e-01	 1.293443486974549e+01
 1.205391534475478e+00	 5.586836412198746e-01	 1.275869090657667e+01
 1.313331011056197e+00	 2.800386771461065e-01	 1.396399441310418e+01
 1.306904528535139e+00	 3.086432772493075e-01	 1.389551418995014e+01
 1.299809179903525e+00	 3.372778038756168e-01	 1.381012618546785e+01
 1.292038178692406e+00	 3.659202796970923e-01	 1.370947724626961e+01
 1.283585643154801e+00	 3.945481815049779e-01	 1.359517902110687e+01
 1.274446638857422e+00	 4.231384836618436e-01	 1.346879766747178e+01
 1.264617218982655e+00	 4.516677050919606e-01	 1.333184339947368e+01
 1.254094462021758e+00	 4.801119596881671e-01	 1.318576000115433e+01
 1.242876506545394e+00	 5.084470099822318e-01	 1.303191445152611e+01
 1.230962582746256e+00	 5.366483238943943e-01	 1.287158682757040e+01
 1.218353040460395e+00	 5.646911343467459e-01	 1.270596066806511e+01
 1.327302931599920e+00	 2.830178789724484e-01	 1.383066874608231e+01
 1.320808080706736e+00	 3.119267901717745e-01	 1.376886245726662e+01
 1.313637247946070e+00	 3.408659462686223e-01	 1.369059595506604e+01
 1.305783574650884e+00	 3.698131361284366e-01	 1.359749617602772e+01
 1.297241116501029e+00	 3.987455969284732e-01	 1.349114898085911e+01
 1.288004886568078e+00	 4.276400580722102e-01	 1.337308874947987e+01
 1.278070896046066e+00	 4.564727886796287e-01	 1.324478781811607e+01
 1.267436192345687e+00	 4.852196485303354e-01	 1.310764588782210e+01
 1.256098894234734e+00	 5.138561423048991e-01	 1.296297955756284e+01
 1.244058223716290e+00	 5.423574769381242e-01	 1.281201215645807e+01
 1.231314534348166e+00	 5.706986218666309e-01	 1.265586406773682e+01
 1.341274835843357e+00	 2.859970773231161e-01	 1.370465321610077e+01
 1.334711616657808e+00	 3.152102992635437e-01	 1.364910669107009e+01
 1.327465299856153e+00	 3.444540844755349e-01	 1.357752664724783e+01
 1.319528954573350e+00	 3.737059880181925e-01	 1.349151844264700e+01
 1.310896573916152e+00	 4.029430074550651e-01	 1.339264119389076e+01
 1.301563118461056e+00	 4.321416272308228e-01	 1.328239728641346e+01
 1.291524557413797e+00	 4.612778666614478e-01	 1.316222171993486e+01
 1.280777907104539e+00	 4.903273314136110e-01	 1.303347142359329e+01
 1.269321266498228e+00	 5.192652683169821e-01	 1.289741470066111e+01
 1.257153849408346e+00	 5.480666233212343e-01	 1.275522098591538e+01
 1.244276013114461e+00	 5.767061023778234e-01	 1.260795111816245e+01
 1.355246720526281e+00	 2.889762715029223e-01	 1.358525470448012e+01
 1.348615133144092e+00	 3.184938037584375e-01	 1.353556893012379e+01
 1.341293332407137e+00	 3.480422176591090e-01	 1.347025805849158e+01
 1.333274315252469e+00	 3.775988344580257e-01	 1.339090420460265e+01
 1.324552012213832e+00	 4.071404121053632e-01	 1.329903878728037e+01
 1.315121331372720e+00	 4.366431900873275e-01	 1.319613198025431e+01
 1.304978199946625e+00	 4.660829379162514e-01	 1.308358198404674e+01
 1.294119603185224e+00	 4.954350071462250e-01	 1.296270425782675e+01
 1.282543620250645e+00	 5.246743867563800e-01	 1.283472087791325e+01
 1.270249456766781e+00	 5.537757617116242e-01	 1.270075021461007e+01
 1.257237473734949e+00	 5.827135744786170e-01	 1.256179714012974e+01
 1.369218582388467e+00	 2.919554608166800e-01	 1.347181111468734e+01
 1.362518626921326e+00	 3.217773028902779e-01	 1.342760229403186e+01
 1.355121342372383e+00	 3.516303449820993e-01	 1.336816095254730e+01
 1.347019653480905e+00	 3.814916745396009e-01	 1.329504430227688e+01
 1.338207428207729e+00	 4.113378098999778e-01	 1.320975511427221e+01
 1.328679522139431e+00	 4.411447455913710e-01	 1.311373113538982e+01
 1.318431820505326e+00	 4.708880013228729e-01	 1.300833430346987e+01
 1.307461277474655e+00	 5.005426745364082e-01	 1.289483990469366e+01
 1.295765952406758e+00	 5.300834963609923e-01	 1.277442584655188e+01
 1.283345042735955e+00	 5.594848907771932e-01	 1.264816224688742e+01
 1.270198913185301e+00	 5.887210367673057e-01	 1.251700156237459e+01
 1.383190418169687e+00	 2.949346445692019e-01	 1.336368995381390e+01
 1.376422094745246e+00	 3.250607958928871e-01	 1.332458956311459e+01
 1.368949326525253e+00	 3.552184656072601e-01	 1.327063564515576e+01
 1.360764966051325e+00	 3.853845073545832e-01	 1.320335885409079e+01
 1.351862818711506e+00	 4.155351998595181e-01	 1.312423236849176e+01
 1.342237687597551e+00	 4.456462926925998e-01	 1.303466129766269e+01
 1.331885415950674e+00	 4.756930557601458e-01	 1.293597185581454e+01
 1.320802926859741e+00	 5.056503323923917e-01	 1.282940045234728e+01
 1.308988259881339e+00	 5.354925958687178e-01	 1.271608287843975e+01
 1.296440604260223e+00	 5.651940091858410e-01	 1.259704379939646e+01
 1.283160328441186e+00	 5.947284878421828e-01	 1.247318678710309e+01
 1.397162224609719e+00	 2.979138220653008e-01	 1.326028699706449e+01
 1.390325533371589e+00	 3.283442820000868e-01	 1.322594184097676e+01
 1.382777281639109e+00	 3.588065786973459e-01	 1.317711067073005e+01
 1.374510249756393e+00	 3.892773319946374e-01	 1.311529593345132e+01
 1.365518180538822e+00	 4.197325810045940e-01	 1.304194027741018e+01
 1.355795824583439e+00	 4.501478303406597e-01	 1.295841597068519e+01
 1.345338983143448e+00	 4.804981001069037e-01	 1.286601404883756e+01
 1.334144548227396e+00	 5.107579795224063e-01	 1.276593334414157e+01
 1.322210539589158e+00	 5.409016840174555e-01	 1.265926958338591e+01
 1.309536138283946e+00	 5.709031156054665e-01	 1.254700477291808e+01
 1.296121716478273e+00	 6.007359263015425e-01	 1.242999711669973e+01
 1.166506974181152e+00	 5.406611422144046e-01	 1.293759018071416e+01
 1.153768520657062e+00	 5.673368349888009e-01	 1.271563571217615e+01
 1.140367939824356e+00	 5.938128716115278e-01	 1.247663558737242e+01
 1.126308914352119e+00	 6.200652176363033e-01	 1.222220296737316e+01
 1.111596267876887e+00	 6.460698641649667e-01	 1.195388539506828e+01
 1.096235971370482e+00	 6.718028946141243e-01	 1.167315869350135e+01
 1.080235144867935e+00	 6.972405524292983e-01	 1.138142192897481e+01
 1.063602054441766e+00	 7.223593093729551e-01	 1.107999354324751e+01
 1.046346104343134e+00	 7.471359339991690e-01	 1.077010873219087e+01
 1.028477824266305e+00	 7.715475599175938e-01	 1.045291811676841e+01
 1.010008851730144e+00	 7.955717534430776e-01	 1.012948771708825e+01
 1.179468498311525e+00	 5.466686437519975e-01	 1.287398649157678e+01
 1.166588502750832e+00	 5.736407407856797e-01	 1.266443907764659e+01
 1.153039022721013e+00	 6.004109632086184e-01	 1.243789096223921e+01
 1.138823781810755e+00	 6.269550095182069e-01	 1.219589104222920e+01
 1.123947657253940e+00	 6.532486040438356e-01	 1.193991878123313e+01
 1.108416686368234e+00	 6.792675644554069e-01	 1.167137831198056e+01
 1.092238068302214e+00	 7.049878702298854e-01	 1.139159366843524e+01
 1.075420160976023e+00	 7.303857316980992e-01	 1.110180525749087e+01
 1.057972473135199e+00	 7.554376592802553e-01	 1.080316765134692e+01
 1.039905651473637e+00	 7.801205325084171e-01	 1.049674874804617e+01
 1.021231462819311e+00	 8.044116684278025e-01	 1.018353031012571e+01
 1.192430019417744e+00	 5.526761438877230e-01	 1.281453134998202e+01
 1.179408481853434e+00	 5.799446451114831e-01	 1.261661307234997e+01
 1.165710102661214e+00	 6.070090532659372e-01	 1.240174488701337e+01
 1.151338646349358e+00	 6.338447997922180e-01	 1.217141434572546e+01
 1.136299043749081e+00	 6.604273422473320e-01	 1.192703598111422e+01
 1.120597398523876e+00	 6.867322325545433e-01	 1.166994558955532e+01
 1.104240988935844e+00	 7.127351862223222e-01	 1.140139570874588e+01
 1.087238264752729e+00	 7.384121521499232e-01	 1.112255240601091e+01
 1.069598839214424e+00	 7.637393826237479e-01	 1.083449346283621e+01
 1.051333476014421e+00	 7.886935030983319e-01	 1.053820800529406e+01
 1.032454071289771e+00	 8.132515813493250e-01	 1.023459758997997e+01
 1.205391534475478e+00	 5.586836412198746e-01	 1.275869090657667e+01
 1.192228454973575e+00	 5.862485464953506e-01	 1.257167034619010e+01
 1.178381176688414e+00	 6.136071402439868e-01	 1.236775698404987e+01
 1.163853505047840e+00	 6.407345868507840e-01	 1.214837992861673e+01
 1.148650424480370e+00	 6.676060771004909e-01	 1.191489190632383e+01
 1.132778104995295e+00	 6.941968971698589e-01	 1.166856370023608e+01
 1.116243903968200e+00	 7.204824985989908e-01	 1.141057984847477e+01
 1.099056363014386e+00	 7.464385688556906e-01	 1.114203572539216e+01
 1.081225199868051e+00	 7.720411020926786e-01	 1.086393609606231e+01
 1.062761295222229e+00	 7.972664696870837e-01	 1.057719519654123e+01
 1.043676674522985e+00	 8.220914901451046e-01	 1.028263834966604e+01
 1.218353040460395e+00	 5.646911343467459e-01	 1.270596066806511e+01
 1.205048419119958e+00	 5.925524434664220e-01	 1.252915111290660e+01
 1.191052241846069e+00	 6.202052226032716e-01	 1.233551259629163e+01
 1.176368354986110e+00	 6.476243690863536e-01	 1.212641867323321e+01
 1.161001796565867e+00	 6.747848069283466e-01	 1.190316337062837e+01
 1.144958802940378e+00	 7.016615565596794e-01	 1.166695575573838e+01
 1.128246810598658e+00	 7.282298055522725e-01	 1.141891582975840e+01
 1.110874453003497e+00	 7.544649799426657e-01	 1.116007187719908e+01
 1.092851552383325e+00	 7.803428157500798e-01	 1.089135936744491e+01
 1.074189106430633e+00	 8.058394302744172e-01	 1.061362146435871e+01
 1.054899269900412e+00	 8.309313927526036e-01	 1.032761115437057e+01
 1.231314534348166e+00	 5.706986218666309e-01	 1.265586406773682e+01
 1.217868371301289e+00	 5.988563345538357e-01	 1.248862180448240e+01
 1.203723295177632e+00	 6.268032988042951e-01	 1.230462152821480e+01
 1.188883193244080e+00	 6.545141448913745e-01	 1.210518412359730e+01
 1.173353157123633e+00	 6.819635300559350e-01	 1.189154801182913e+01
 1.157139489517013e+00	 7.091262089823308e-01	 1.166486382166038e+01
 1.140249706026590e+00	 7.359771052745493e-01	 1.142619045122878e+01
 1.122692531962562e+00	 7.624913835381123e-01	 1.117649266000756e+01
 1.104477894047487e+00	 7.886445216589838e-01	 1.091664029379006e+01
 1.085616906973206e+00	 8.144123828600778e-01	 1.064740920266518e+01
 1.066121854803511e+00	 8.397712871092807e-01	 1.036948386362857e+01
 1.244276013114461e+00	 5.767061023778234e-01	 1.260795111816245e+01
 1.230688308526272e+00	 6.051602182867322e-01	 1.244967380199460e+01
 1.216394333726560e+00	 6.334013673075607e-01	 1.227471685735082e+01
 1.201398016901661e+00	 6.614039126582948e-01	 1.208435138011726e+01
 1.185704503271726e+00	 6.891422448082904e-01	 1.187976327209320e+01
 1.169320161883087e+00	 7.165908526961383e-01	 1.166204798586488e+01
 1.152252587451375e+00	 7.437243959582033e-01	 1.143220672679128e+01
 1.134510597134084e+00	 7.705177777692943e-01	 1.119114426083305e+01
 1.116104222147779e+00	 7.969462178824213e-01	 1.093966843851581e+01
 1.097044694183519e+00	 8.229853254438096e-01	 1.067849149976689e+01
 1.077344426613743e+00	 8.486111711525988e-01	 1.040823317304788e+01
 1.257237473734949e+00	 5.827135744786170e-01	 1.256179714012974e+01
 1.243508227803614e+00	 6.114640931942510e-01	 1.241192223739274e+01
 1.229065354536308e+00	 6.399994265735724e-01	 1.224545381129377e+01
 1.213912823038762e+00	 6.682936707795627e-01	 1.206361605419805e+01
 1.198055832128207e+00	 6.963209495104473e-01	 1.186754543251657e+01
 1.181500817196487e+00	 7.240554859594283e-01	 1.165828547529955e+01
 1.164255452072385e+00	 7.514716757956159e-01	 1.143678308694457e+01
 1.146328645760561e+00	 7.785441607634755e-01	 1.120388654311347e+01
 1.127730533971447e+00	 8.052479024834258e-01	 1.096034528836131e+01
 1.108472465395146e+00	 8.315582560253585e-01	 1.070681160573949e+01
 1.088566982712566e+00	 8.574510428200165e-01	 1.044384417417195e+01
 1.270198913185301e+00	 5.887210367673057e-01	 1.251700156237459e+01
 1.256328126142018e+00	 6.177679578055311e-01	 1.237500486113985e+01
 1.241736354650330e+00	 6.465974750628333e-01	 1.221650870551571e+01
 1.226427608735296e+00	 6.751834176476261e-01	 1.204269327849132e+01
 1.210407140811137e+00	 7.034996424874411e-01	 1.185464869804773e+01
 1.193681452615102e+00	 7.315201070305257e-01	 1.165336981779666e+01
 1.176258297088996e+00	 7.592189429791690e-01	 1.143975261960553e+01
 1.158146675084499e+00	 7.865705306479199e-01	 1.121459236863655e+01
 1.139356826805732e+00	 8.135495735250283e-01	 1.097858365840409e+01
 1.119900217941657e+00	 8.401311726044689e-01	 1.073232242241362e+01
 1.099789520481441e+00	 8.662909000489963e-01	 1.047630993118543e+01
 1.283160328441186e+00	 5.947284878421828e-01	 1.247318678710309e+01
 1.269148000550189e+00	 6.240718106497122e-01	 1.233858097106050e+01
 1.254407331112081e+00	 6.531955112358475e-01	 1.218757793769267e+01
 1.238942371071173e+00	 6.820731516549332e-01	 1.202131676885100e+01
 1.222758426438575e+00	 7.106783220643063e-01	 1.184084432921131e+01
 1.205862065296819e+00	 7.389847141677566e-01	 1.164711004567286e+01
 1.188261119700584e+00	 7.669661957012448e-01	 1.144096234764698e+01
 1.169964682348398e+00	 7.945968855498918e-01	 1.122314695101273e+01
 1.150983097937877e+00	 8.218512290702613e-01	 1.099430712338432e+01
 1.131327949156626e+00	 8.487040731808860e-01	 1.075498601436712e+01
 1.111012037301826e+00	 8.751307407769980e-01	 1.050563107327278e+01
 1.296121716478273e+00	 6.007359263015425e-01	 1.242999711669973e+01
 1.281967848036833e+00	 6.303756502559339e-01	 1.230233039811201e+01
 1.267078280965017e+00	 6.597935335531179e-01	 1.215837703458536e+01
 1.251457107126304e+00	 6.889628711939321e-01	 1.199923793437655e+01
 1.235109686128581e+00	 7.178569865660782e-01	 1.182591981735706e+01
 1.218042652399525e+00	 7.464493056294462e-01	 1.163932993820429e+01
 1.200263917106523e+00	 7.747134321542246e-01	 1.144027254057849e+01
 1.181782664794757e+00	 8.026232235966543e-01	 1.122944723848621e+01
 1.162609344655126e+00	 8.301528671821563e-01	 1.100744947349578e+01
 1.142755656373624e+00	 8.572769557543545e-01	 1.077477313945413e+01
 1.122234530555182e+00	 8.839705629414819e-01	 1.053181540153509e+01
 1.010008851730144e+00	 7.955717534430776e-01	 1.012948771708825e+01
 9.909519067937320e-01	 8.191865824479939e-01	 9.798368964470630e+00
 9.713207563652808e-01	 8.423706882231309e-01	 9.458339466056556e+00
 9.511301907535311e-01	 8.651033421516505e-01	 9.110714499666713e+00
 9.303959900850729e-01	 8.873645046199061e-01	 8.756774230358852e+00
 9.091348835661056e-01	 9.091348835661061e-01	 8.397765519959886e+00
 8.873645046199057e-01	 9.303959900850729e-01	 8.034904065949023e+00
 8.651033421516500e-01	 9.511301907535311e-01	 7.669376682238715e+00
 8.423706882231307e-01	 9.713207563652815e-01	 7.302343522924861e+00
 8.191865824479935e-01	 9.909519067937324e-01	 6.934940046324520e+00
 7.955717534430776e-01	 1.010008851730144e+00	 6.568278521041124e+00
 1.021231462819311e+00	 8.044116684278025e-01	 1.018353031012571e+01
 1.001962768568945e+00	 8.282888912141637e-01	 9.862065473743694e+00
 9.821134886003536e-01	 8.517306048331553e-01	 9.531151912574222e+00
 9.616985775632909e-01	 8.747158503440156e-01	 9.192051844065247e+00
 9.407339909236229e-01	 8.972243654649650e-01	 8.845998717249916e+00
 9.192366437724240e-01	 9.192366437724245e-01	 8.494199554403618e+00
 8.972243654649645e-01	 9.407339909236231e-01	 8.137837593726443e+00
 8.747158503440153e-01	 9.616985775632912e-01	 7.778075030921237e+00
 8.517306048331549e-01	 9.821134886003540e-01	 7.416055645356760e+00
 8.282888912141635e-01	 1.001962768568945e+00	 7.052907092570916e+00
 8.044116684278024e-01	 1.021231462819310e+00	 6.689742649695368e+00
 1.032454071289771e+00	 8.132515813493250e-01	 1.023459758997997e+01
 1.012973627774809e+00	 8.373911978559143e-01	 9.922232696235314e+00
 9.929062183169185e-01	 8.610905192586760e-01	 9.599943647217055e+00
 9.722669619068304e-01	 8.843283562929767e-01	 9.268938652389457e+00
 9.510719893496478e-01	 9.070842240089515e-01	 8.930402876675771e+00
 9.293384016212816e-01	 9.293384016212820e-01	 8.585501349838736e+00
 9.070842240089511e-01	 9.510719893496479e-01	 8.235382156130299e+00
 8.843283562929766e-01	 9.722669619068307e-01	 7.881179686464844e+00
 8.610905192586757e-01	 9.929062183169186e-01	 7.524017722308415e+00
 8.373911978559138e-01	 1.012973627774809e+00	 7.165012116233139e+00
 8.132515813493250e-01	 1.032454071289771e+00	 6.805272839208614e+00
 1.043676674522985e+00	 8.220914901451046e-01	 1.028263834966604e+01
 1.023984481842198e+00	 8.464935002494818e-01	 9.978867080173195e+00
 1.003698942996750e+00	 8.704504293158198e-01	 9.664755092675787e+00
 9.828353413182764e-01	 8.939408577557190e-01	 9.341455687421501e+00
 9.614099829510372e-01	 9.169440779513309e-01	 9.010104231696420e+00
 9.394401547556949e-01	 9.394401547556951e-01	 8.671821673149440e+00
 9.169440779513307e-01	 9.614099829510375e-01	 8.327718320347344e+00
 8.939408577557187e-01	 9.828353413182769e-01	 7.978897656227282e+00
 8.704504293158194e-01	 1.003698942996750e+00	 7.626459935998376e+00
 8.464935002494810e-01	 1.023984481842198e+00	 7.271505316346449e+00
 8.220914901451046e-01	 1.043676674522985e+00	 6.915136268115210e+00
 1.054899269900412e+00	 8.309313927526036e-01	 1.032761115437057e+01
 1.034995328201983e+00	 8.555957962711013e-01	 1.003197285659241e+01
 1.014491660121622e+00	 8.798103328207122e-01	 9.725632616641153e+00
 9.934037133317563e-01	 9.035533524894270e-01	 9.409687967796042e+00
 9.717479693156805e-01	 9.268039249915691e-01	 9.085223016829515e+00
 9.495419008186826e-01	 9.495419008186831e-01	 8.753312598155343e+00
 9.268039249915688e-01	 9.717479693156811e-01	 8.415026690047871e+00
 9.035533524894268e-01	 9.934037133317566e-01	 8.071434841010635e+00
 8.798103328207117e-01	 1.014491660121623e+00	 7.723610339023473e+00
 8.555957962711011e-01	 1.034995328201983e+00	 7.372633851097093e+00
 8.309313927526035e-01	 1.054899269900412e+00	 7.019596265976672e+00
 1.066121854803511e+00	 8.397712871092807e-01	 1.036948386362857e+01
 1.046006164285036e+00	 8.646980837970097e-01	 1.008156166450388e+01
 1.025284367173309e+00	 8.891702275894792e-01	 9.782628253462933e+00
 1.003972075481396e+00	 9.131658382512866e-01	 9.473724579778594e+00
 9.820859460314676e-01	 9.366637628291313e-01	 9.155882073724168e+00
 9.596436374532621e-01	 9.596436374532625e-01	 8.830127479123334e+00
 9.366637628291312e-01	 9.820859460314681e-01	 8.497487950863897e+00
 9.131658382512862e-01	 1.003972075481397e+00	 8.158996146836149e+00
 8.891702275894789e-01	 1.025284367173310e+00	 7.815695026980473e+00
 8.646980837970095e-01	 1.046006164285037e+00	 7.468642066079252e+00
 8.397712871092808e-01	 1.066121854803511e+00	 7.118912592315855e+00
 1.077344426613743e+00	 8.486111711525988e-01	 1.040823317304788e+01
 1.057016987522231e+00	 8.738003607034422e-01	 1.012765218912891e+01
 1.036077061633586e+00	 8.985301114382472e-01	 9.835799432856012e+00
 1.014540425301325e+00	 9.227783127984828e-01	 9.533658490524763e+00
 9.924239106862870e-01	 9.465235891634832e-01	 9.222206743193707e+00
 9.697453623024501e-01	 9.697453623024505e-01	 8.902420915947786e+00
 9.465235891634829e-01	 9.924239106862874e-01	 8.575282903261733e+00
 9.227783127984824e-01	 1.014540425301325e+00	 8.241785580240116e+00
 8.985301114382468e-01	 1.036077061633587e+00	 7.902938291120528e+00
 8.738003607034417e-01	 1.057016987522231e+00	 7.559771699459860e+00
 8.486111711525989e-01	 1.077344426613743e+00	 7.213341689679696e+00
 1.088566982712566e+00	 8.574510428200165e-01	 1.044384417417195e+01
 1.068027795344438e+00	 8.829026248666350e-01	 1.017026981225769e+01
 1.046869740984227e+00	 9.078899821831418e-01	 9.885208715144929e+00
 1.025108760325667e+00	 9.323907738882006e-01	 9.589586362714423e+00
 1.002761860868029e+00	 9.563834016940903e-01	 9.284324753870109e+00
 9.798470730092648e-01	 9.798470730092651e-01	 8.970348711600140e+00
 9.563834016940901e-01	 1.002761860868029e+00	 8.648592483717705e+00
 9.323907738881999e-01	 1.025108760325668e+00	 8.320006328280634e+00
 9.078899821831412e-01	 1.046869740984227e+00	 7.985562752476588e+00
 8.829026248666343e-01	 1.068027795344438e+00	 7.646262065719073e+00
 8.574510428200167e-01	 1.088566982712566e+00	 7.303136912698570e+00
 1.099789520481441e+00	 8.662909000489963e-01	 1.047630993118543e+01
 1.079038585182531e+00	 8.920048741628237e-01	 1.020944627386647e+01
 1.057662402707005e+00	 9.172498376402886e-01	 9.930923532580747e+00
 1.035677078088552e+00	 9.420032192776239e-01	 9.641608370462494e+00
 1.013099794164582e+00	 9.662431981204184e-01	 9.342366107722501e+00
 9.899487672167233e-01	 9.899487672167239e-01	 9.034067822399852e+00
 9.662431981204176e-01	 1.013099794164582e+00	 8.717597775033598e+00
 9.420032192776238e-01	 1.035677078088552e+00	 8.393860824346383e+00
 9.172498376402882e-01	 1.057662402707005e+00	 8.063789478787529e+00
 8.920048741628231e-01	 1.079038585182531e+00	 7.728350219495023e+00
 8.662909000489962e-01	 1.099789520481441e+00	 7.388548734855078e+00
 1.111012037301826e+00	 8.751307407769980e-01	 1.050563107327278e+01
 1.090049354467381e+00	 9.011071064682441e-01	 1.024521934419732e+01
 1.068455044283696e+00	 9.266096756258143e-01	 9.973015936301518e+00
 1.046245376124105e+00	 9.516156467239397e-01	 9.689828016417110e+00
 1.023437708163836e+00	 9.761029761419320e-01	 9.396462962660930e+00
 1.000050442567844e+00	 1.000050442567844e+00	 9.093736301615133e+00
 9.761029761419314e-01	 1.023437708163836e+00	 8.782480006558902e+00
 9.516156467239396e-01	 1.046245376124105e+00	 8.463550800771994e+00
 9.266096756258143e-01	 1.068455044283696e+00	 8.137838085434765e+00
 9.011071064682435e-01	 1.090049354467381e+00	 7.806271100940089e+00
 8.751307407769979e-01	 1.111012037301826e+00	 7.469824934539136e+00
 1.122234530555182e+00	 8.839705629414819e-01	 1.053181540153509e+01
 1.101060100629861e+00	 9.102093196591319e-01	 1.027763250557001e+01
 1.079247663196073e+00	 9.359694939558444e-01	 1.001156234854134e+01
 1.056813651966454e+00	 9.612280539843321e-01	 9.734351949962157e+00
 1.033775600453680e+00	 9.859627334580974e-01	 9.446749512430731e+00
 1.010152096705643e+00	 1.010152096705644e+00	 9.149513236860516e+00
 9.859627334580970e-01	 1.033775600453680e+00	 8.843420545027387e+00
 9.612280539843319e-01	 1.056813651966455e+00	 8.529277329183161e+00
 9.359694939558441e-01	 1.079247663196073e+00	 8.207926821510977e+00
 9.102093196591318e-01	 1.101060100629861e+00	 7.880257663882741e+00
 8.839705629414819e-01	 1.122234530555182e+00	 7.547210761838492e+00
 7.955717534430776e-01	 1.010008851730144e+00	 6.568278521041124e+00
 7.715475599175932e-01	 1.028477824266305e+00	 6.203520912862546e+00
 7.471359339991688e-01	 1.046346104343135e+00	 5.841780556672402e+00
 7.223593093729547e-01	 1.063602054441766e+00	 5.484074912999198e+00
 6.972405524292978e-01	 1.080235144867935e+00	 5.131411653392105e+00
 6.718028946141240e-01	 1.096235971370482e+00	 4.784783858799459e+00
 6.460698641649665e-01	 1.111596267876887e+00	 4.445164019964650e+00
 6.200652176363031e-01	 1.126308914352119e+00	 4.113496889171373e+00
 5.938128716115273e-01	 1.140367939824357e+00	 3.790691278767586e+00
 5.673368349888005e-01	 1.153768520657062e+00	 3.477610946210212e+00
 5.406611422144048e-01	 1.166506974181152e+00	 3.175064746176387e+00
 8.044116684278024e-01	 1.021231462819310e+00	 6.689742649695368e+00
 7.801205325084165e-01	 1.039905651473637e+00	 6.327773978875644e+00
 7.554376592802551e-01	 1.057972473135200e+00	 5.968145738589379e+00
 7.303857316980990e-01	 1.075420160976023e+00	 5.611862185379170e+00
 7.049878702298847e-01	 1.092238068302214e+00	 5.259926682843862e+00
 6.792675644554065e-01	 1.108416686368235e+00	 4.913336822137692e+00
 6.532486040438353e-01	 1.123947657253940e+00	 4.573078194295586e+00
 6.269550095182067e-01	 1.138823781810756e+00	 4.240116863323682e+00
 6.004109632086180e-01	 1.153039022721013e+00	 3.915390638945987e+00
 5.736407407856794e-01	 1.166588502750832e+00	 3.599799296048518e+00
 5.466686437519976e-01	 1.179468498311525e+00	 3.294193932352700e+00
 8.132515813493250e-01	 1.032454071289771e+00	 6.805272839208614e+00
 7.886935030983315e-01	 1.051333476014421e+00	 6.446056775303012e+00
 7.637393826237476e-01	 1.069598839214425e+00	 6.088539541120003e+00
 7.384121521499227e-01	 1.087238264752729e+00	 5.733713949317575e+00
 7.127351862223218e-01	 1.104240988935844e+00	 5.382580965489019e+00
 6.867322325545427e-01	 1.120597398523877e+00	 5.036144752512287e+00
 6.604273422473316e-01	 1.136299043749081e+00	 4.695406211099569e+00
 6.338447997922178e-01	 1.151338646349359e+00	 4.361355064717590e+00
 6.070090532659367e-01	 1.165710102661214e+00	 4.034960591039540e+00
 5.799446451114828e-01	 1.179408481853434e+00	 3.717161154264343e+00
 5.526761438877230e-01	 1.192430019417744e+00	 3.408852741013016e+00
 8.220914901451046e-01	 1.043676674522985e+00	 6.915136268115210e+00
 7.972664696870834e-01	 1.062761295222229e+00	 6.558651386041402e+00
 7.720411020926780e-01	 1.081225199868052e+00	 6.203257719380766e+00
 7.464385688556904e-01	 1.099056363014387e+00	 5.849938351637038e+00
 7.204824985989899e-01	 1.116243903968200e+00	 5.499693726893352e+00
 6.941968971698584e-01	 1.132778104995295e+00	 5.153536621133055e+00
 6.676060771004905e-01	 1.148650424480371e+00	 4.812485448455521e+00
 6.407345868507837e-01	 1.163853505047840e+00	 4.477555949178713e+00
 6.136071402439864e-01	 1.178381176688415e+00	 4.149751365036847e+00
 5.862485464953503e-01	 1.192228454973575e+00	 3.830051263084270e+00
 5.586836412198745e-01	 1.205391534475477e+00	 3.519399222371387e+00
 8.309313927526035e-01	 1.054899269900412e+00	 7.019596265976672e+00
 8.058394302744167e-01	 1.074189106430634e+00	 6.665835296524110e+00
 7.803428157500795e-01	 1.092851552383325e+00	 6.312590700197491e+00
 7.544649799426653e-01	 1.110874453003498e+00	 5.960837499808300e+00
 7.282298055522719e-01	 1.128246810598657e+00	 5.611577460094218e+00
 7.016615565596791e-01	 1.144958802940378e+00	 5.265833990586354e+00
 6.747848069283462e-01	 1.161001796565867e+00	 4.924645216136680e+00
 6.476243690863530e-01	 1.176368354986110e+00	 4.589055260471927e+00
 6.202052226032713e-01	 1.191052241846069e+00	 4.260103850781841e+00
 5.925524434664214e-01	 1.205048419119958e+00	 3.938814412184698e+00
 5.646911343467459e-01	 1.218353040460394e+00	 3.626180877665825e+00
 8.397712871092808e-01	 1.066121854803511e+00	 7.118912592315855e+00
 8.144123828600772e-01	 1.085616906973206e+00	 6.767881720499402e+00
 7.886445216589832e-01	 1.104477894047487e+00	 6.416823955728673e+00
 7.624913835381121e-01	 1.122692531962563e+00	 6.066707881245918e+00
 7.359771052745488e-01	 1.140249706026591e+00	 5.718538389229792e+00
 7.091262089823306e-01	 1.157139489517013e+00	 5.373351521298316e+00
 6.819635300559345e-01	 1.173353157123633e+00	 5.032207303254371e+00
 6.545141448913742e-01	 1.188883193244081e+00	 4.696180617330204e+00
 6.268032988042945e-01	 1.203723295177632e+00	 4.366350222457959e+00
 5.988563345538354e-01	 1.217868371301289e+00	 4.043786098582714e+00
 5.706986218666309e-01	 1.231314534348166e+00	 3.729535352297455e+00
 8.486111711525989e-01	 1.077344426613743e+00	 7.213341689679696e+00
 8.229853254438093e-01	 1.097044694183519e+00	 6.865059898366594e+00
 7.969462178824207e-01	 1.116104222147780e+00	 6.516238346160766e+00
 7.705177777692939e-01	 1.134510597134084e+00	 6.167840749283616e+00
 7.437243959582027e-01	 1.152252587451375e+00	 5.820876897553127e+00
 7.165908526961383e-01	 1.169320161883087e+00	 5.476397440190137e+00
 6.891422448082899e-01	 1.185704503271726e+00	 5.135486486009000e+00
 6.614039126582941e-01	 1.201398016901660e+00	 4.799252058614801e+00
 6.334013673075602e-01	 1.216394333726560e+00	 4.468814519343989e+00
 6.051602182867317e-01	 1.230688308526273e+00	 4.145293141054263e+00
 5.767061023778234e-01	 1.244276013114461e+00	 3.829791081873637e+00
 8.574510428200167e-01	 1.088566982712566e+00	 7.303136912698570e+00
 8.315582560253580e-01	 1.108472465395146e+00	 6.957635369120535e+00
 8.052479024834253e-01	 1.127730533971447e+00	 6.611110433706142e+00
 7.785441607634748e-01	 1.146328645760561e+00	 6.264522478232301e+00
 7.514716757956155e-01	 1.164255452072385e+00	 5.918887922399443e+00
 7.240554859594279e-01	 1.181500817196488e+00	 5.575273974252273e+00
 6.963209495104469e-01	 1.198055832128208e+00	 5.234790998424210e+00
 6.682936707795624e-01	 1.213912823038763e+00	 4.898582549627446e+00
 6.399994265735720e-01	 1.229065354536308e+00	 4.567813185994652e+00
 6.114640931942503e-01	 1.243508227803614e+00	 4.243654252359334e+00
 5.827135744786168e-01	 1.257237473734950e+00	 3.927267894552394e+00
 8.662909000489962e-01	 1.099789520481441e+00	 7.388548734855078e+00
 8.401311726044686e-01	 1.119900217941657e+00	 7.045870217789709e+00
 8.135495735250280e-01	 1.139356826805732e+00	 6.701712769953136e+00
 7.865705306479197e-01	 1.158146675084499e+00	 6.357034889728575e+00
 7.592189429791690e-01	 1.176258297088997e+00	 6.012861319466683e+00
 7.315201070305251e-01	 1.193681452615102e+00	 5.670277751543125e+00
 7.034996424874408e-01	 1.210407140811137e+00	 5.330422968708643e+00
 6.751834176476257e-01	 1.226427608735297e+00	 4.994478452347564e+00
 6.465974750628329e-01	 1.241736354650330e+00	 4.663655574742953e+00
 6.177679578055304e-01	 1.256328126142018e+00	 4.339180572288117e+00
 5.887210367673058e-01	 1.270198913185302e+00	 4.022277572807464e+00
 8.751307407769979e-01	 1.111012037301826e+00	 7.469824934539136e+00
 8.487040731808854e-01	 1.131327949156626e+00	 7.130023300100199e+00
 8.218512290702609e-01	 1.150983097937878e+00	 6.788314158451779e+00
 7.945968855498914e-01	 1.169964682348398e+00	 6.445655552402652e+00
 7.669661957012445e-01	 1.188261119700584e+00	 6.103082198577804e+00
 7.389847141677560e-01	 1.205862065296819e+00	 5.761700171913651e+00
 7.106783220643060e-01	 1.222758426438575e+00	 5.422678823673920e+00
 6.820731516549328e-01	 1.238942371071174e+00	 5.087239962144709e+00
 6.531955112358470e-01	 1.254407331112081e+00	 4.756644413188556e+00
 6.240718106497117e-01	 1.269148000550190e+00	 4.432176164295106e+00
 5.947284878421829e-01	 1.283160328441185e+00	 4.115124377482726e+00
 8.839705629414819e-01	 1.122234530555182e+00	 7.547210761838492e+00
 8.572769557543541e-01	 1.142755656373625e+00	 7.210350445959078e+00
 8.301528671821561e-01	 1.162609344655126e+00	 6.871179894268026e+00
 8.026232235966541e-01	 1.181782664794758e+00	 6.530658056733397e+00
 7.747134321542239e-01	 1.200263917106523e+00	 6.189831232921009e+00
 7.464493056294456e-01	 1.218042652399525e+00	 5.849827749577207e+00
 7.178569865660778e-01	 1.235109686128581e+00	 5.511849663444128e+00
 6.889628711939315e-01	 1.251457107126304e+00	 5.177161513311559e+00
 6.597935335531173e-01	 1.267078280965017e+00	 4.847076239120122e+00
 6.303756502559335e-01	 1.281967848036833e+00	 4.522938478270512e+00
 6.007359263015425e-01	 1.296121716478273e+00	 4.206105536773824e+00
 5.406611422144048e-01	 1.166506974181152e+00	 3.175064746176392e+00
 5.138116717552891e-01	 1.178579927199173e+00	 2.883856001848425e+00
 4.868104428277401e-01	 1.189986863234134e+00	 2.604781533729716e+00
 4.596811685659499e-01	 1.200727447337036e+00	 2.338601004428280e+00
 4.324473371061253e-01	 1.210802416556687e+00	 2.085990764471788e+00
 4.051321545099085e-01	 1.220213553110794e+00	 1.847530984084089e+00
 3.777584904297684e-01	 1.228963654185617e+00	 1.623693673875785e+00
 3.503488267225386e-01	 1.237056498645061e+00	 1.414831888738519e+00
 3.229252091875749e-01	 1.244496810941490e+00	 1.221170385569754e+00
 2.955092025760218e-01	 1.251290222528759e+00	 1.042797974185103e+00
 2.681218489877413e-01	 1.257443231082956e+00	 8.796617630139292e-01
 5.466686437519976e-01	 1.179468498311525e+00	 3.294193932352700e+00
 5.195208381204921e-01	 1.191675598724702e+00	 2.999490262947353e+00
 4.922195877717349e-01	 1.203209281774577e+00	 2.716598921581803e+00
 4.647888693259978e-01	 1.214069208790389e+00	 2.446333154698532e+00
 4.372524319055254e-01	 1.224256125010579e+00	 2.189427715901639e+00
 4.096337394237552e-01	 1.233771832455774e+00	 1.946524687094809e+00
 3.819559156469748e-01	 1.242619159392876e+00	 1.718160165185822e+00
 3.542416922368837e-01	 1.250801926674242e+00	 1.504752134847317e+00
 3.265133599524975e-01	 1.258324911247501e+00	 1.306589823600523e+00
 2.987927231595001e-01	 1.265193807139827e+00	 1.123824803015305e+00
 2.711010577649079e-01	 1.271415184225567e+00	 9.564640602700933e-01
 5.526761438877230e-01	 1.192430019417744e+00	 3.408852741013011e+00
 5.252300031534778e-01	 1.204771267194820e+00	 3.111068956126014e+00
 4.976287314535490e-01	 1.216431697230087e+00	 2.824825669944111e+00
 4.698965688942295e-01	 1.227410967131020e+00	 2.550970875180869e+00
 4.420575255837426e-01	 1.237709830325687e+00	 2.290278565299814e+00
 4.141353232872625e-01	 1.247330108637632e+00	 2.043433377838638e+00
 3.861533398848386e-01	 1.256274661414386e+00	 1.811016072594847e+00
 3.581345568429812e-01	 1.264547351496750e+00	 1.593490191097440e+00
 3.301015098803090e-01	 1.272153008327602e+00	 1.391190219161476e+00
 3.020762429769927e-01	 1.279097388507421e+00	 1.204311540782190e+00
 2.740802658471492e-01	 1.285387134108794e+00	 1.032902430394296e+00
 5.586836412198745e-01	 1.205391534475477e+00	 3.519399222371389e+00
 5.309391655221455e-01	 1.217866929553885e+00	 3.218949919769572e+00
 5.030378726110818e-01	 1.229654106515435e+00	 2.929814050129201e+00
 4.750042660788756e-01	 1.240752719245839e+00	 2.652856319930259e+00
 4.468626170196098e-01	 1.251163529362787e+00	 2.388871621843499e+00
 4.186369050500766e-01	 1.260888378492727e+00	 2.138568628188849e+00
 3.903507621639697e-01	 1.269930157063807e+00	 1.902554181072812e+00
 3.620274196324958e-01	 1.278292769905249e+00	 1.681318851357461e+00
 3.336896581337639e-01	 1.285981098955156e+00	 1.475224013745869e+00
 3.053597612623210e-01	 1.293000963387279e+00	 1.284490750790435e+00
 2.770594725392778e-01	 1.299359077472413e+00	 1.109190855830855e+00
 5.646911343467459e-01	 1.218353040460394e+00	 3.626180877665825e+00
 5.366483238943944e-01	 1.230962582746256e+00	 3.323479965136627e+00
 5.084470099822319e-01	 1.242876506545394e+00	 3.031905029175235e+00
 4.801119596881672e-01	 1.254094462021757e+00	 2.752320233875384e+00
 4.516677050919607e-01	 1.264617218982655e+00	 2.485523824411696e+00
 4.231384836618437e-01	 1.274446638857421e+00	 2.232230793829059e+00
 3.945481815049780e-01	 1.283585643154801e+00	 1.993056300712162e+00
 3.659202796970926e-01	 1.292038178692406e+00	 1.768500235480148e+00
 3.372778038756170e-01	 1.299809179903525e+00	 1.558933308094231e+00
 3.086432772493077e-01	 1.306904528535139e+00	 1.364584994690294e+00
 2.800386771461065e-01	 1.313331011056197e+00	 1.185533636383376e+00
 5.706986218666309e-01	 1.231314534348166e+00	 3.729535352297455e+00
 5.423574769381242e-01	 1.244058223716290e+00	 3.424995595143041e+00
 5.138561423048991e-01	 1.256098894234734e+00	 3.131429002285351e+00
 4.852196485303356e-01	 1.267436192345687e+00	 2.849682688433126e+00
 4.564727886796288e-01	 1.278070896046066e+00	 2.580541471434580e+00
 4.276400580722104e-01	 1.288004886568077e+00	 2.324709730952077e+00
 3.987455969284734e-01	 1.297241116501029e+00	 2.082793964460421e+00
 3.698131361284367e-01	 1.305783574650884e+00	 1.855286463825374e+00
 3.408659462686225e-01	 1.313637247946070e+00	 1.642550510836767e+00
 3.119267901717747e-01	 1.320808080706736e+00	 1.444807454132534e+00
 2.830178789724484e-01	 1.327302931599920e+00	 1.262125984321270e+00
 5.767061023778234e-01	 1.244276013114461e+00	 3.829791081873637e+00
 5.480666233212343e-01	 1.257153849408346e+00	 3.523823674883166e+00
 5.192652683169823e-01	 1.269321266498228e+00	 3.228706476563705e+00
 4.903273314136112e-01	 1.280777907104539e+00	 2.945253768612261e+00
 4.612778666614481e-01	 1.291524557413797e+00	 2.674220902953842e+00
 4.321416272308229e-01	 1.301563118461056e+00	 2.416285466324862e+00
 4.029430074550653e-01	 1.310896573916152e+00	 2.172029080707354e+00
 3.737059880181927e-01	 1.319528954573350e+00	 1.941920288362027e+00
 3.444540844755351e-01	 1.327465299856153e+00	 1.726298945576264e+00
 3.152102992635440e-01	 1.334711616657808e+00	 1.525362512762529e+00
 2.859970773231161e-01	 1.341274835843357e+00	 1.339154581667877e+00
 5.827135744786168e-01	 1.257237473734950e+00	 3.927267894552394e+00
 5.537757617116243e-01	 1.270249456766782e+00	 3.620282057368434e+00
 5.246743867563802e-01	 1.282543620250645e+00	 3.324048709562261e+00
 4.954350071462251e-01	 1.294119603185224e+00	 3.039334215102901e+00
 4.660829379162515e-01	 1.304978199946625e+00	 2.766849138339153e+00
 4.366431900873278e-01	 1.315121331372720e+00	 2.507228824082850e+00
 4.071404121053634e-01	 1.324552012213832e+00	 2.261014543983189e+00
 3.775988344580258e-01	 1.333274315252468e+00	 2.028635683481376e+00
 3.480422176591093e-01	 1.341293332407137e+00	 1.810393419407997e+00
 3.184938037584378e-01	 1.348615133144092e+00	 1.606446301415224e+00
 2.889762715029223e-01	 1.355246720526281e+00	 1.416798102400638e+00
 5.887210367673058e-01	 1.270198913185302e+00	 4.022277572807464e+00
 5.594848907771935e-01	 1.283345042735955e+00	 3.714680167682598e+00
 5.300834963609925e-01	 1.295765952406758e+00	 3.417758305863416e+00
 5.005426745364085e-01	 1.307461277474654e+00	 3.132216024567263e+00
 4.708880013228732e-01	 1.318431820505326e+00	 2.858704472829205e+00
 4.411447455913715e-01	 1.328679522139431e+00	 2.597802012342282e+00
 4.113378098999779e-01	 1.338207428207729e+00	 2.349994806759609e+00
 3.814916745396011e-01	 1.347019653480905e+00	 2.115658399397449e+00
 3.516303449820996e-01	 1.355121342372383e+00	 1.895040755630735e+00
 3.217773028902782e-01	 1.362518626921326e+00	 1.688247209137609e+00
 2.919554608166801e-01	 1.369218582388467e+00	 1.495227702066034e+00
 5.947284878421829e-01	 1.283160328441185e+00	 4.115124377482728e+00
 5.651940091858411e-01	 1.296440604260224e+00	 3.807319548489938e+00
 5.354925958687180e-01	 1.308988259881339e+00	 3.510129774665829e+00
 5.056503323923919e-01	 1.320802926859741e+00	 3.224183011084940e+00
 4.756930557601460e-01	 1.331885415950674e+00	 2.950057035804684e+00
 4.456462926925999e-01	 1.342237687597550e+00	 2.688259172471916e+00
 4.155351998595183e-01	 1.351862818711506e+00	 2.439206415100271e+00
 3.853845073545833e-01	 1.360764966051325e+00	 2.203206480779167e+00
 3.552184656072604e-01	 1.368949326525253e+00	 1.980440293178912e+00
 3.250607958928872e-01	 1.376422094745246e+00	 1.770946362453742e+00
 2.949346445692019e-01	 1.383190418169688e+00	 1.574607477114019e+00
 6.007359263015425e-01	 1.296121716478273e+00	 4.206105536773826e+00
 5.709031156054668e-01	 1.309536138283946e+00	 3.898494369603231e+00
 5.409016840174559e-01	 1.322210539589158e+00	 3.601450051100258e+00
 5.107579795224065e-01	 1.334144548227396e+00	 3.315511331470907e+00
 4.804981001069039e-01	 1.345338983143447e+00	 3.041169313472641e+00
 4.501478303406600e-01	 1.355795824583440e+00	 2.778846893635362e+00
 4.197325810045943e-01	 1.365518180538823e+00	 2.528878510693009e+00
 3.892773319946376e-01	 1.374510249756393e+00	 2.291490753046756e+00
 3.588065786973464e-01	 1.382777281639109e+00	 2.066784355104689e+00
 3.283442820000870e-01	 1.390325533371589e+00	 1.854718075095057e+00
 2.979138220653007e-01	 1.397162224609720e+00	 1.655094896069432e+00
 2.681218489877413e-01	 1.257443231082956e+00	 8.796617630139292e-01
 2.407817228767851e-01	 1.262963522352994e+00	 7.307030918809270e-01
 2.135106558184331e-01	 1.267858745981453e+00	 5.957372728947270e-01
 1.863279375037964e-01	 1.272137738871794e+00	 4.757331551446995e-01
 1.592522018633585e-01	 1.275810025489055e+00	 3.714592631882438e-01
 1.323014031501211e-01	 1.278885770601601e+00	 2.834822849275629e-01
 1.054927955345951e-01	 1.281375731613288e+00	 2.121684922696294e-01
 7.884291614478943e-02	 1.283291210751440e+00	 1.576879687090011e-01
 5.236757146467105e-02	 1.284644007362039e+00	 1.200214706539495e-01
 2.608182698689521e-02	 1.285446370548278e+00	 9.896970795640969e-02
 0.000000000000000e+00	 1.285710952372222e+00	 9.416479438279568e-02
 2.711010577649079e-01	 1.271415184225567e+00	 9.564640602700911e-01
 2.434571446109329e-01	 1.276996813653051e+00	 8.034854328158467e-01
 2.158830578522008e-01	 1.281946430063098e+00	 6.647504152331458e-01
 1.883983015152831e-01	 1.286272968549541e+00	 5.412935738221880e-01
 1.610217165797056e-01	 1.289986059407557e+00	 4.339417435467563e-01
 1.337714567953441e-01	 1.293095980350324e+00	 3.433117393178559e-01
 1.066649680506879e-01	 1.295613608311512e+00	 2.698111760153047e-01
 7.971897122437922e-02	 1.297550371102009e+00	 2.136422728465258e-01
 5.294944843254006e-02	 1.298918199175053e+00	 1.748084668309585e-01
 2.637163256653081e-02	 1.299729477738514e+00	 1.531236155876874e-01
 0.000000000000000e+00	 1.299996999436575e+00	 1.482235319545328e-01
 2.740802658471492e-01	 1.285387134108794e+00	 1.032902430394296e+00
 2.461325657211033e-01	 1.291030101679448e+00	 8.759684601846485e-01
 2.182554593327630e-01	 1.296034110858418e+00	 7.334381870097997e-01
 1.904686650441012e-01	 1.300408194929889e+00	 6.064380236624118e-01
 1.627912308836288e-01	 1.304162090019158e+00	 4.958789425552556e-01
 1.352415100980418e-01	 1.307306186784182e+00	 4.024531964124107e-01
 1.078371402937548e-01	 1.309851481688423e+00	 3.266343417959513e-01
 8.059502609999235e-02	 1.311809528126306e+00	 2.686804435609228e-01
 5.353132526498362e-02	 1.313192387658288e+00	 2.286402836892524e-01
 2.666143807874780e-02	 1.314012581596891e+00	 2.063623497748127e-01
 0.000000000000000e+00	 1.314283043168385e+00	 2.015063375521413e-01
 2.770594725392778e-01	 1.299359077472413e+00	 1.109190855830855e+00
 2.488079855829751e-01	 1.305063383157637e+00	 9.483516538670560e-01
 2.206278597064843e-01	 1.310121785080170e+00	 8.019914467327203e-01
 1.925390276070735e-01	 1.314543414714498e+00	 6.713539589673032e-01
 1.645607443621362e-01	 1.318338114015989e+00	 5.574594587905985e-01
 1.367115627150885e-01	 1.321516386587330e+00	 4.611002755323805e-01
 1.090093119901753e-01	 1.324089348421717e+00	 3.828398321556079e-01
 8.147108056711205e-02	 1.326068678497057e+00	 3.230150744974231e-01
 5.411320182614732e-02	 1.327466569480965e+00	 2.817421200478090e-01
 2.695124345587590e-02	 1.328295678790551e+00	 2.589248970157378e-01
 0.000000000000000e+00	 1.328569080234105e+00	 2.542665000114557e-01
 2.800386771461065e-01	 1.313331011056197e+00	 1.185533636383376e+00
 2.514834035722265e-01	 1.319096654813073e+00	 1.020825000755887e+00
 2.230002584197293e-01	 1.324209449441108e+00	 8.705915525050637e-01
 1.946093887210234e-01	 1.328678624605022e+00	 7.362191660774973e-01
 1.663302566022356e-01	 1.332514128090182e+00	 6.188619318591683e-01
 1.381816143033584e-01	 1.335726576443923e+00	 5.194362588270854e-01
 1.101814828663291e-01	 1.338327205189094e+00	 4.386187227323407e-01
 8.234713442122146e-02	 1.340327818886994e+00	 3.768475460303884e-01
 5.469507798017686e-02	 1.341740741312307e+00	 3.343275324583740e-01
 2.724104863024481e-02	 1.342578765986636e+00	 3.110382228755914e-01
 0.000000000000000e+00	 1.342855107300192e+00	 3.067449907106123e-01
 2.830178789724484e-01	 1.327302931599920e+00	 1.262125984321272e+00
 2.541588190645365e-01	 1.333129913371210e+00	 1.093569569703892e+00
 2.253726549188625e-01	 1.338297100653986e+00	 9.394109269782374e-01
 1.966797479027737e-01	 1.342813821303118e+00	 8.012023267732861e-01
 1.680997671909344e-01	 1.346690128933866e+00	 6.802556109827057e-01
 1.396516645197257e-01	 1.349936753038114e+00	 5.776346700942053e-01
 1.113536526485959e-01	 1.352565048668249e+00	 4.941519147079488e-01
 8.322318745780383e-02	 1.354586945968846e+00	 4.303686331142889e-01
 5.527695359121787e-02	 1.356014899821536e+00	 3.865990586419875e-01
 2.753085353418426e-02	 1.356861839852286e+00	 3.629179096505635e-01
 0.000000000000000e+00	 1.357141121033102e+00	 3.591711126028604e-01
 2.859970773231161e-01	 1.341274835843357e+00	 1.339154581667879e+00
 2.568342314355833e-01	 1.347163155557500e+00	 1.166758050068741e+00
 2.277450486502487e-01	 1.352384735431563e+00	 1.008613586657185e+00
 1.987501046691476e-01	 1.356949001510443e+00	 8.664635462314471e-01
 1.698692757152408e-01	 1.360866113239175e+00	 7.418008878970473e-01
 1.411217130210647e-01	 1.364146913054058e+00	 6.358598173373343e-01
 1.125258210633554e-01	 1.366802875536879e+00	 5.496106901881029e-01
 8.409923947234235e-02	 1.368846056415343e+00	 4.837590751317663e-01
 5.585882852341595e-02	 1.370289041677874e+00	 4.387488019676010e-01
 2.782065810002395e-02	 1.371144897054644e+00	 4.147687541921132e-01
 0.000000000000000e+00	 1.371427118099289e+00	 4.117631087014820e-01
 2.889762715029223e-01	 1.355246720526281e+00	 1.416798102400636e+00
 2.595096400610456e-01	 1.361196378097397e+00	 1.240555256482237e+00
 2.301174390602524e-01	 1.366472350486590e+00	 1.078355638130718e+00
 2.008204585369680e-01	 1.371084161928650e+00	 9.321548480930736e-01
 1.716387817621622e-01	 1.375042077698238e+00	 8.036497966398041e-01
 1.425917594642496e-01	 1.378357053175909e+00	 6.942673016757140e-01
 1.136979878369874e-01	 1.381040682472682e+00	 6.051572331865789e-01
 8.497529026032022e-02	 1.383105146899215e+00	 5.371901104810507e-01
 5.644070264091678e-02	 1.384563163550541e+00	 4.909589797813853e-01
 2.811046226009360e-02	 1.385427934260852e+00	 4.667853287662641e-01
 0.000000000000000e+00	 1.385713095165209e+00	 4.647287329412186e-01
 2.919554608166801e-01	 1.369218582388467e+00	 1.495227702066032e+00
 2.621850443166021e-01	 1.375229577716355e+00	 1.315118602256642e+00
 2.324898255952381e-01	 1.380559942531825e+00	 1.148785743587245e+00
 2.028908090230582e-01	 1.385219299259399e+00	 9.984206389925265e-01
 1.734082849187065e-01	 1.389218019003189e+00	 8.659464825896401e-01
 1.440618035061546e-01	 1.392567170087822e+00	 7.530044950093655e-01
 1.148701526958714e-01	 1.395278466153354e+00	 6.609451186697817e-01
 8.585133961722070e-02	 1.397364214093191e+00	 5.908239784209166e-01
 5.702257580786600e-02	 1.398837262108762e+00	 5.434024381709063e-01
 2.840026594672293e-02	 1.399710948138050e+00	 5.191525075873459e-01
 0.000000000000000e+00	 1.399999048897318e+00	 5.182657861038552e-01
 2.949346445692019e-01	 1.383190418169688e+00	 1.574607477114019e+00
 2.648604435779311e-01	 1.389262751139826e+00	 1.390598543642229e+00
 2.348622077015705e-01	 1.394647508280022e+00	 1.220045557787830e+00
 2.049611556442410e-01	 1.399354410204343e+00	 1.065398144704250e+00
 1.751777847718815e-01	 1.403393933846157e+00	 9.288276429318186e-01
 1.455318448036539e-01	 1.406777260473951e+00	 8.122109886477880e-01
 1.160423153663872e-01	 1.409516223256593e+00	 7.171197719189978e-01
 8.672738733852689e-02	 1.411623254670002e+00	 6.448143904862533e-01
 5.760444788840924e-02	 1.413111334021757e+00	 5.962431355338556e-01
 2.869006909224163e-02	 1.413993935353380e+00	 5.720459614521859e-01
 0.000000000000000e+00	 1.414284975962072e+00	 5.725626192765193e-01
 2.979138220653007e-01	 1.397162224609720e+00	 1.655094896069428e+00
 2.675358372207115e-01	 1.403295895093266e+00	 1.467138996977988e+00
 2.372345848256142e-01	 1.408735044443937e+00	 1.292270138492029e+00
 2.070314979173397e-01	 1.413489491465140e+00	 1.133217819894595e+00
 1.769472809086950e-01	 1.417569818919275e+00	 9.924229405481237e-01
 1.470018830136218e-01	 1.420987321018450e+00	 8.720190149350628e-01
 1.172144755749144e-01	 1.423753950460095e+00	 7.738189002880319e-01
 8.760343321972207e-02	 1.425882265302377e+00	 6.993069736051526e-01
 5.818631874669211e-02	 1.427385375958748e+00	 6.496365971365858e-01
 2.897987162897944e-02	 1.428276892573984e+00	 6.256326227079470e-01
 0.000000000000000e+00	 1.428570873025926e+00	 6.277986071157040e-01
 1.428570873025926e+00	 0.000000000000000e+00	 1.342288208322989e+01
 1.428276892573984e+00	 2.897987162897983e-02	 1.344063160043624e+01
 1.427385375958749e+00	 5.818631874669251e-02	 1.344587082074397e+01
 1.425882265302377e+00	 8.760343321972237e-02	 1.344045818469074e+01
 1.423753950460095e+00	 1.172144755749147e-01	 1.342626180023753e+01
 1.420987321018450e+00	 1.470018830136220e-01	 1.340515120370813e+01
 1.417569818919275e+00	 1.769472809086952e-01	 1.337898871026668e+01
 1.413489491465139e+00	 2.070314979173397e-01	 1.334962028960028e+01
 1.408735044443936e+00	 2.372345848256141e-01	 1.331886590671110e+01
 1.403295895093266e+00	 2.675358372207115e-01	 1.328850927676454e+01
 1.397162224609719e+00	 2.979138220653008e-01	 1.326028699706449e+01
 1.442856738422074e+00	 0.000000000000000e+00	 1.330191319871147e+01
 1.442559818133399e+00	 2.926967352309299e-02	 1.332038001133857e+01
 1.441659386254313e+00	 5.876818831477279e-02	 1.332661213355233e+01
 1.440141244326646e+00	 8.847947715852847e-02	 1.332250863888700e+01
 1.437991646102674e+00	 1.183866331846208e-01	 1.330996915045521e+01
 1.435197350063360e+00	 1.484719179644717e-01	 1.329088519469994e+01
 1.431745672568570e+00	 1.787167731226271e-01	 1.326713113955877e+01
 1.427624541392580e+00	 2.091018356007429e-01	 1.324055577557653e+01
 1.422822549379909e+00	 2.396069566905304e-01	 1.321300245690511e+01
 1.417329007939364e+00	 2.702112249327637e-01	 1.318626404709702e+01
 1.411134000078413e+00	 3.008929929573673e-01	 1.316206658359826e+01
 1.457142577150667e+00	 0.000000000000000e+00	 1.318791943516814e+01
 1.456842717030744e+00	 2.955947487604390e-02	 1.320707332784420e+01
 1.455933369904449e+00	 5.935005679635650e-02	 1.321423971734983e+01
 1.454400196733541e+00	 8.935551946162226e-02	 1.321136315354989e+01
 1.452229315167604e+00	 1.195587886058234e-01	 1.320038175731549e+01
 1.449407352582267e+00	 1.499419501707724e-01	 1.318321797422500e+01
 1.445921499755661e+00	 1.804862620330460e-01	 1.316176892515059e+01
 1.441759564933990e+00	 2.111721694191012e-01	 1.313789638924305e+01
 1.436910028018618e+00	 2.419793241266670e-01	 1.311341646162208e+01
 1.431362094589756e+00	 2.728866076504773e-01	 1.309008893525145e+01
 1.425105749465931e+00	 3.038721582881034e-01	 1.306961781981839e+01
 1.471428395878593e+00	 0.000000000000000e+00	 1.308037155649935e+01
 1.471125595931537e+00	 2.984927582312151e-02	 1.310021328180708e+01
 1.470207333570505e+00	 5.993192446306174e-02	 1.310828264413825e+01
 1.468659129177392e+00	 9.023156053791931e-02	 1.310657030443728e+01
 1.466466964299278e+00	 1.207309423856280e-01	 1.309705318436970e+01
 1.463617335206642e+00	 1.514119803186326e-01	 1.308168459894116e+01
 1.460097307096061e+00	 1.822557484657932e-01	 1.306238399981225e+01
 1.455894568685836e+00	 2.132425003386314e-01	 1.304102637040844e+01
 1.450997486934333e+00	 2.443516882411687e-01	 1.301943132097740e+01
 1.445395161593315e+00	 2.755619866223831e-01	 1.299935193912941e+01
 1.439077479292515e+00	 3.068513194477887e-01	 1.298246345905259e+01
 1.485714201272741e+00	 0.000000000000000e+00	 1.297876226129264e+01
 1.485408461501291e+00	 3.013907649961475e-02	 1.299932257900569e+01
 1.484481283913834e+00	 6.051379158650658e-02	 1.300829183676013e+01
 1.482918048312531e+00	 9.110760079633509e-02	 1.300770743426094e+01
 1.480704600142087e+00	 1.219030950711400e-01	 1.299958539629216e+01
 1.477827304567958e+00	 1.528820090941604e-01	 1.298590986349644e+01
 1.474273101205284e+00	 1.840252332467092e-01	 1.296862220897284e+01
 1.470029559244577e+00	 2.153128293255499e-01	 1.294960982764206e+01
 1.465084932701314e+00	 2.467240501411799e-01	 1.293069465263711e+01
 1.459428215498915e+00	 2.782373630970129e-01	 1.291362146057538e+01
 1.453049196078406e+00	 3.098304778267026e-01	 1.290004603538496e+01
 1.500000000000000e+00	 0.000000000000000e+00	 1.288260513637429e+01
 1.499691320405524e+00	 3.042887704081255e-02	 1.290394374767008e+01
 1.498755227595788e+00	 6.109565843830920e-02	 1.291383703738734e+01
 1.497176960793287e+00	 9.198364064578519e-02	 1.291436976499337e+01
 1.494942229340423e+00	 1.230752472094650e-01	 1.290759736018480e+01
 1.492037267297686e+00	 1.543520371834642e-01	 1.289553475133147e+01
 1.488448888698843e+00	 1.857947172016354e-01	 1.288014483615282e+01
 1.484164543206676e+00	 2.173831573460732e-01	 1.286332664768298e+01
 1.479172371893830e+00	 2.490964109338453e-01	 1.284690327614931e+01
 1.473461262855428e+00	 2.809127383228979e-01	 1.283260961519774e+01
 1.467020906343844e+00	 3.128096348151254e-01	 1.282208000887402e+01
 1.514285798727260e+00	 0.000000000000000e+00	 1.279143367106528e+01
 1.513974179309750e+00	 3.071867758200388e-02	 1.281363819891572e+01
 1.513029171277717e+00	 6.167752529008763e-02	 1.282450591116433e+01
 1.511435873273994e+00	 9.285968049518506e-02	 1.282616954174647e+01
 1.509179858538677e+00	 1.242473993477081e-01	 1.282072422672001e+01
 1.506247230027299e+00	 1.558220652726523e-01	 1.281021565012869e+01
 1.502624676192253e+00	 1.875642011564123e-01	 1.279662784978318e+01
 1.498299527168598e+00	 2.194534853664177e-01	 1.278187074237763e+01
 1.493259811086144e+00	 2.514687717263093e-01	 1.276776743519004e+01
 1.487494310211727e+00	 2.835881135485694e-01	 1.275604139963329e+01
 1.480992616609070e+00	 3.157887918033364e-01	 1.274830359005143e+01
 1.528571604121408e+00	 0.000000000000000e+00	 1.270480032676987e+01
 1.528257044879485e+00	 3.100847825847763e-02	 1.272798533992153e+01
 1.527303121620974e+00	 6.225939241346007e-02	 1.273990320017864e+01
 1.525694792408982e+00	 9.373572075345028e-02	 1.274273522473239e+01
 1.523417494381241e+00	 1.254195520329751e-01	 1.273861655729281e+01
 1.520457199388268e+00	 1.572920940478329e-01	 1.272962361136864e+01
 1.516800470301028e+00	 1.893336859368810e-01	 1.271776119239987e+01
 1.512434517726803e+00	 2.215238143527999e-01	 1.270494936477606e+01
 1.507347256852522e+00	 2.538411336257166e-01	 1.269301013786590e+01
 1.501527364116686e+00	 2.862634900225589e-01	 1.268365405341047e+01
 1.494964333394326e+00	 3.187679501816155e-01	 1.267846676490769e+01
 1.542857422849333e+00	 0.000000000000000e+00	 1.262227565830791e+01
 1.542539923780245e+00	 3.129827920552281e-02	 1.264658173643050e+01
 1.541577085286909e+00	 6.284126008004454e-02	 1.265964992449383e+01
 1.539953724852582e+00	 9.461176182949638e-02	 1.266371072618739e+01
 1.537655143512507e+00	 1.265917058123711e-01	 1.266093959419773e+01
 1.534667182012065e+00	 1.587621241951145e-01	 1.265344365113246e+01
 1.530976277640682e+00	 1.911031723688825e-01	 1.264324810946405e+01
 1.526569521477754e+00	 2.235941452714363e-01	 1.263228246339093e+01
 1.521434715767229e+00	 2.562134977392117e-01	 1.262236653386999e+01
 1.515560431119178e+00	 2.889388689933976e-01	 1.261519645650779e+01
 1.508936063219851e+00	 3.217471113402418e-01	 1.261233071041523e+01
 1.557143261577926e+00	 0.000000000000000e+00	 1.254344748366461e+01
 1.556822822677546e+00	 3.158808055842829e-02	 1.256904032140261e+01
 1.555851068936875e+00	 6.342312856145918e-02	 1.258338262721972e+01
 1.554212677259125e+00	 9.548780413223884e-02	 1.258875468936919e+01
 1.551892812576865e+00	 1.277638612330018e-01	 1.258737257106480e+01
 1.548877184530161e+00	 1.602321564006051e-01	 1.258137408949898e+01
 1.545152104826728e+00	 1.928726612782576e-01	 1.257280451526111e+01
 1.540704545017914e+00	 2.256644790885435e-01	 1.256360207216581e+01
 1.535522194404530e+00	 2.585858651739392e-01	 1.255558332612211e+01
 1.529593517768076e+00	 2.916142517096169e-01	 1.255042856031274e+01
 1.522907812605887e+00	 3.247262766694958e-01	 1.254966724250613e+01
 1.571429126974074e+00	 0.000000000000000e+00	 1.246792009907445e+01
 1.571105748236902e+00	 3.187788245248305e-02	 1.249498964688095e+01
 1.570125079232222e+00	 6.400499812932213e-02	 1.251075266081550e+01
 1.568471656282942e+00	 9.636384807059326e-02	 1.251753980694719e+01
 1.566130508218708e+00	 1.289360188419724e-01	 1.251760806099019e+01
 1.563087213574030e+00	 1.617021913504133e-01	 1.251312592607822e+01
 1.559327958474683e+00	 1.946421534908473e-01	 1.250615839351669e+01
 1.554839594943744e+00	 2.277348167703377e-01	 1.249865173387820e+01
 1.549609699338691e+00	 2.609582370370436e-01	 1.249241821469659e+01
 1.543626630612252e+00	 2.942896394197481e-01	 1.248912084985345e+01
 1.536879588072675e+00	 3.277054475596566e-01	 1.249025829443658e+01
 1.397162224609719e+00	 2.979138220653008e-01	 1.326028699706449e+01
 1.390325533371589e+00	 3.283442820000868e-01	 1.322594184097676e+01
 1.382777281639109e+00	 3.588065786973459e-01	 1.317711067073005e+01
 1.374510249756393e+00	 3.892773319946374e-01	 1.311529593345132e+01
 1.365518180538822e+00	 4.197325810045940e-01	 1.304194027741018e+01
 1.355795824583439e+00	 4.501478303406597e-01	 1.295841597068519e+01
 1.345338983143448e+00	 4.804981001069037e-01	 1.286601404883756e+01
 1.334144548227396e+00	 5.107579795224063e-01	 1.276593334414157e+01
 1.322210539589158e+00	 5.409016840174555e-01	 1.265926958338591e+01
 1.309536138283946e+00	 5.709031156054665e-01	 1.254700477291808e+01
 1.296121716478273e+00	 6.007359263015425e-01	 1.242999711669973e+01
 1.411134000078413e+00	 3.008929929573673e-01	 1.316206658359826e+01
 1.404228941178191e+00	 3.316277608287755e-01	 1.313213321528645e+01
 1.396605206100602e+00	 3.623946838337244e-01	 1.308807472683394e+01
 1.388255502992416e+00	 3.931701480055892e-01	 1.303136426687085e+01
 1.379173512096488e+00	 4.239299528455067e-01	 1.296341333922096e+01
 1.369353931515263e+00	 4.546493580103738e-01	 1.288556124372055e+01
 1.358792520514022e+00	 4.853031338025658e-01	 1.279906420005672e+01
 1.347486140021065e+00	 5.158656153305728e-01	 1.270508431152185e+01
 1.335432789987597e+00	 5.463107601761635e-01	 1.260467856274688e+01
 1.322631643279300e+00	 5.766122093700307e-01	 1.249878807973106e+01
 1.309083075784400e+00	 6.067433514445451e-01	 1.238822790995462e+01
 1.425105749465931e+00	 3.038721582881034e-01	 1.306961781981839e+01
 1.418132323031283e+00	 3.349112335281558e-01	 1.304376839281263e+01
 1.410433104749542e+00	 3.659827822722144e-01	 1.300415122655360e+01
 1.402000730570267e+00	 3.970629567499074e-01	 1.295220961870892e+01
 1.392828818163903e+00	 4.281273168513230e-01	 1.288932362642225e+01
 1.382912013138390e+00	 4.591508772772685e-01	 1.281679952629962e+01
 1.372246032771167e+00	 4.901081585288932e-01	 1.273585890545424e+01
 1.360827706910340e+00	 5.209732416045713e-01	 1.264762754508630e+01
 1.348655015704478e+00	 5.517198262380337e-01	 1.255312429812991e+01
 1.335727123829745e+00	 5.823212924777389e-01	 1.245325019953500e+01
 1.322044410896074e+00	 6.127507653738173e-01	 1.234877807976944e+01
 1.439077479292515e+00	 3.068513194477887e-01	 1.298246345905259e+01
 1.432035685419194e+00	 3.381947016305061e-01	 1.296047867089862e+01
 1.424260984039027e+00	 3.695708756872476e-01	 1.292500475269384e+01
 1.415745938904460e+00	 4.009557600442207e-01	 1.287751911111032e+01
 1.406484105113612e+00	 4.323246749808002e-01	 1.281938008890021e+01
 1.396470075779993e+00	 4.636523902420470e-01	 1.275186088885384e+01
 1.385699526193253e+00	 4.949131765282328e-01	 1.267614866413183e+01
 1.374169255121346e+00	 5.260808607279711e-01	 1.259333330576569e+01
 1.361877222910231e+00	 5.571288847273165e-01	 1.250439617874716e+01
 1.348822586046562e+00	 5.880303675928577e-01	 1.241019905616257e+01
 1.335005727861969e+00	 6.187581708928535e-01	 1.231147353557384e+01
 1.453049196078406e+00	 3.098304778267026e-01	 1.290004603538496e+01
 1.445939034830253e+00	 3.414781666681055e-01	 1.288171398864298e+01
 1.438088850422154e+00	 3.731589657532558e-01	 1.285024626471417e+01
 1.429491134409508e+00	 4.048485597051586e-01	 1.280699637532603e+01
 1.420139379318163e+00	 4.365220291926967e-01	 1.275330838006664e+01
 1.410028125767245e+00	 4.681538990054123e-01	 1.269049164290475e+01
 1.399153007058650e+00	 4.997181900429310e-01	 1.261969971648999e+01
 1.387510790880210e+00	 5.311884750843423e-01	 1.254198706270243e+01
 1.375099417775286e+00	 5.625379381682628e-01	 1.245829824001534e+01
 1.361918036041029e+00	 5.937394373796537e-01	 1.236945663334564e+01
 1.347967032730759e+00	 6.247655708051465e-01	 1.227615364088639e+01
 1.467020906343844e+00	 3.128096348151254e-01	 1.282208000887402e+01
 1.459842377752788e+00	 3.447616301732324e-01	 1.280711352327222e+01
 1.451916710352021e+00	 3.767470541446709e-01	 1.277938270743148e+01
 1.443236323499923e+00	 4.087413575493496e-01	 1.274020490345995e+01
 1.433794647150103e+00	 4.407193814457703e-01	 1.269083041109604e+01
 1.423586169427317e+00	 4.726554056680671e-01	 1.263245366915718e+01
 1.412606481645731e+00	 5.045232013153349e-01	 1.256629338561205e+01
 1.400852320413059e+00	 5.362960870572544e-01	 1.249338884828435e+01
 1.388321606470075e+00	 5.679469890851228e-01	 1.241464853266250e+01
 1.375013479924427e+00	 5.994485045023932e-01	 1.233085835838226e+01
 1.360928331551120e+00	 6.307729679141900e-01	 1.224267061209025e+01
 1.480992616609070e+00	 3.157887918033364e-01	 1.274830359005143e+01
 1.473745720675130e+00	 3.480450936781657e-01	 1.273642802768966e+01
 1.465744570281727e+00	 3.803351425359247e-01	 1.271216177096600e+01
 1.456981512590223e+00	 4.126341553934235e-01	 1.267678592949154e+01
 1.447449914981977e+00	 4.449167336987789e-01	 1.263151156473560e+01
 1.437144213087383e+00	 4.771569123307148e-01	 1.257747294784315e+01
 1.426059956232863e+00	 5.093282125877910e-01	 1.251572545143265e+01
 1.414193849946018e+00	 5.414036990302772e-01	 1.244735264471355e+01
 1.401543795165028e+00	 5.733560400021475e-01	 1.237327852209787e+01
 1.388108923808035e+00	 6.051575716253428e-01	 1.229425251477379e+01
 1.373889630371724e+00	 6.367803650234781e-01	 1.221088894486769e+01
 1.494964333394326e+00	 3.187679501816155e-01	 1.267846676490769e+01
 1.487649070085608e+00	 3.513285587151836e-01	 1.266941958488554e+01
 1.479572436664370e+00	 3.839232326014490e-01	 1.264835779317748e+01
 1.470726708094918e+00	 4.165269550540093e-01	 1.261652620288927e+01
 1.461105189186332e+00	 4.491140879104804e-01	 1.257509662195671e+01
 1.450702263074612e+00	 4.816584210940578e-01	 1.252516119674496e+01
 1.439513437098418e+00	 5.141332261026461e-01	 1.246772601813120e+01
 1.427535385705215e+00	 5.465113133869804e-01	 1.240370580004602e+01
 1.414765990030577e+00	 5.787650934435867e-01	 1.233403251606406e+01
 1.401204373803133e+00	 6.108666414127690e-01	 1.225949968193624e+01
 1.386850935241248e+00	 6.427877649365041e-01	 1.218068486648227e+01
 1.508936063219851e+00	 3.217471113402418e-01	 1.261233071041523e+01
 1.501552432472550e+00	 3.546120268165655e-01	 1.260586104047339e+01
 1.493400315953049e+00	 3.875113260156757e-01	 1.258775543781185e+01
 1.484471916428524e+00	 4.204197583477359e-01	 1.255922235437615e+01
 1.474760476135717e+00	 4.533114460396327e-01	 1.252139432836545e+01
 1.464260325716179e+00	 4.861599340587995e-01	 1.247532141358396e+01
 1.452966930520765e+00	 5.189382441022472e-01	 1.242196488248808e+01
 1.440876933916774e+00	 5.516189325109339e-01	 1.236219127685376e+01
 1.427988197237152e+00	 5.841741519336919e-01	 1.229676711873697e+01
 1.414299836021000e+00	 6.165757165289386e-01	 1.222647220022932e+01
 1.399812252208365e+00	 6.487951704567616e-01	 1.215194581223256e+01
 1.522907812605887e+00	 3.247262766694958e-01	 1.254966724250613e+01
 1.515455814324286e+00	 3.578954995145896e-01	 1.254553546679020e+01
 1.507228214600859e+00	 3.910994244530367e-01	 1.253014917518082e+01
 1.498217144005554e+00	 4.243125670912325e-01	 1.250468039362472e+01
 1.488415782202676e+00	 4.575088100449939e-01	 1.247022237394459e+01
 1.477818407339255e+00	 4.906614533256427e-01	 1.242778310886720e+01
 1.466420442778276e+00	 5.237432688289406e-01	 1.237827913113069e+01
 1.454218500806824e+00	 5.567265587857070e-01	 1.232252967057384e+01
 1.441210422955184e+00	 5.895832179967133e-01	 1.226125124848902e+01
 1.427395316572917e+00	 6.222847996381182e-01	 1.219505365967626e+01
 1.412773587321749e+00	 6.548025843877445e-01	 1.212456992452299e+01
 1.536879588072675e+00	 3.277054475596566e-01	 1.249025829443658e+01
 1.529359222129145e+00	 3.611789783415347e-01	 1.248823565654971e+01
 1.521056139060902e+00	 3.946875295879635e-01	 1.247534279153845e+01
 1.511962397240521e+00	 4.282053831011283e-01	 1.245271523477057e+01
 1.502071113759757e+00	 4.617061818853215e-01	 1.242140693509456e+01
 1.491376514271011e+00	 4.951629809952903e-01	 1.238238385542653e+01
 1.479873980149320e+00	 5.285483025250732e-01	 1.233651786696316e+01
 1.467560092601489e+00	 5.618341945948696e-01	 1.228458101085137e+01
 1.454432673355103e+00	 5.949922941569014e-01	 1.222724020668098e+01
 1.440490821570163e+00	 6.279938934045739e-01	 1.216505249229703e+01
 1.425734946630075e+00	 6.608100095329462e-01	 1.209846557311189e+01
 1.296121716478273e+00	 6.007359263015425e-01	 1.242999711669973e+01
 1.281967848036833e+00	 6.303756502559339e-01	 1.230233039811201e+01
 1.267078280965017e+00	 6.597935335531179e-01	 1.215837703458536e+01
 1.251457107126304e+00	 6.889628711939321e-01	 1.199923793437655e+01
 1.235109686128581e+00	 7.178569865660782e-01	 1.182591981735706e+01
 1.218042652399525e+00	 7.464493056294462e-01	 1.163932993820429e+01
 1.200263917106523e+00	 7.747134321542246e-01	 1.144027254057849e+01
 1.181782664794757e+00	 8.026232235966543e-01	 1.122944723848621e+01
 1.162609344655126e+00	 8.301528671821563e-01	 1.100744947349578e+01
 1.142755656373624e+00	 8.572769557543545e-01	 1.077477313945413e+01
 1.122234530555182e+00	 8.839705629414819e-01	 1.053181540153509e+01
 1.309083075784400e+00	 6.067433514445451e-01	 1.238822790995463e+01
 1.294787667106306e+00	 6.366794758887820e-01	 1.226710076855339e+01
 1.279749202730872e+00	 6.663915412449152e-01	 1.212980350097470e+01
 1.263971815440652e+00	 6.958525754608674e-01	 1.197740032678920e+01
 1.247460918440193e+00	 7.250356351552959e-01	 1.181085937591551e+01
 1.230223212502171e+00	 7.539138805447811e-01	 1.163104732536973e+01
 1.212266687906508e+00	 7.824606514343239e-01	 1.143872583943993e+01
 1.193600621044838e+00	 8.106495438518657e-01	 1.123455002399506e+01
 1.174235565601107e+00	 8.384544868922558e-01	 1.101906905559790e+01
 1.154183338259446e+00	 8.658498193247729e-01	 1.079272908588060e+01
 1.133456998932246e+00	 8.928103655112042e-01	 1.055587845302806e+01
 1.322044410896074e+00	 6.127507653738173e-01	 1.234877807976944e+01
 1.307607462245575e+00	 6.429832897546267e-01	 1.223383212401196e+01
 1.292420100844492e+00	 6.729895366205751e-01	 1.210283556500584e+01
 1.276486500394384e+00	 7.027422668671673e-01	 1.195681601071920e+01
 1.259812127696359e+00	 7.322142703445174e-01	 1.179670303981577e+01
 1.242403749867965e+00	 7.613784415263900e-01	 1.162332272629303e+01
 1.224269436301516e+00	 7.902078562530934e-01	 1.143739404346111e+01
 1.205418555234924e+00	 8.186758491247561e-01	 1.123952737358437e+01
 1.185861764844993e+00	 8.467560911061389e-01	 1.103022529684356e+01
 1.165610998813772e+00	 8.744226668926508e-01	 1.080988576970550e+01
 1.144679446360872e+00	 9.016501515800983e-01	 1.057880773018325e+01
 1.335005727861969e+00	 6.187581708928535e-01	 1.231147353557384e+01
 1.320427239437255e+00	 6.492870947952859e-01	 1.220236773088179e+01
 1.305090981219005e+00	 6.795875227591991e-01	 1.207733316019391e+01
 1.289001167827722e+00	 7.096319486280581e-01	 1.193736097504519e+01
 1.272163319661003e+00	 7.393928954838045e-01	 1.178334231757122e+01
 1.254584270181177e+00	 7.688429920577627e-01	 1.161606270531324e+01
 1.236272167892840e+00	 7.979550502259156e-01	 1.143619837490383e+01
 1.217236472880059e+00	 8.267021431609495e-01	 1.124431482773082e+01
 1.197487947812345e+00	 8.550576836978963e-01	 1.104086776526053e+01
 1.177038643369505e+00	 8.829955024586523e-01	 1.082620653460433e+01
 1.155901878078191e+00	 9.104899252733928e-01	 1.060058012810580e+01
 1.347967032730759e+00	 6.247655708051465e-01	 1.227615364088639e+01
 1.333247004663966e+00	 6.555908939525751e-01	 1.217256369410301e+01
 1.317761849767537e+00	 6.861855027398904e-01	 1.205316844242027e+01
 1.301515823580887e+00	 7.165216239587651e-01	 1.191892281781761e+01
 1.284514500098049e+00	 7.465715139232197e-01	 1.177067972007656e+01
 1.266764779126081e+00	 7.763075356223882e-01	 1.160918423190405e+01
 1.248274888281778e+00	 8.057022369681759e-01	 1.143506987625464e+01
 1.229054379495284e+00	 8.347284297060696e-01	 1.124885717694581e+01
 1.209114119928721e+00	 8.633592685416175e-01	 1.105095472536219e+01
 1.188466277259546e+00	 8.915683300234398e-01	 1.084166288524354e+01
 1.167124299321332e+00	 9.193296907163157e-01	 1.062118018632657e+01
 1.360928331551120e+00	 6.307729679141900e-01	 1.224267061209025e+01
 1.346066763908323e+00	 6.618946901683121e-01	 1.214428837141987e+01
 1.330432712403213e+00	 6.927834796417507e-01	 1.203022521990112e+01
 1.314030473494097e+00	 7.234112960745130e-01	 1.190140019227166e+01
 1.296865674771423e+00	 7.537501290128256e-01	 1.175862822309979e+01
 1.278945282386943e+00	 7.837720757037558e-01	 1.160261416017469e+01
 1.260277603069626e+00	 8.134494200952568e-01	 1.143394890735194e+01
 1.240872280595642e+00	 8.427547125057406e-01	 1.125310797722650e+01
 1.220740286619681e+00	 8.716608495113923e-01	 1.106045267268947e+01
 1.199893905816797e+00	 9.001411535876770e-01	 1.085623404174056e+01
 1.178346715327428e+00	 9.281694520340954e-01	 1.064059966405582e+01
 1.373889630371724e+00	 6.367803650234781e-01	 1.221088894486769e+01
 1.358886523152945e+00	 6.681984863843136e-01	 1.211742181398181e+01
 1.343103575039161e+00	 6.993814565438822e-01	 1.200839840819295e+01
 1.326545123407574e+00	 7.303009681905276e-01	 1.188470227657978e+01
 1.309216849445051e+00	 7.609287441026844e-01	 1.174711075222360e+01
 1.291125785648038e+00	 7.912366157853546e-01	 1.159628872953603e+01
 1.272280317857678e+00	 8.211966032225428e-01	 1.143278466240002e+01
 1.252690181696174e+00	 8.507809953055863e-01	 1.125702908411806e+01
 1.232366453310785e+00	 8.799624304813104e-01	 1.106933588569134e+01
 1.211321534374162e+00	 9.087139771520272e-01	 1.086990651019106e+01
 1.189569131333609e+00	 9.370092133519605e-01	 1.065883713023405e+01
 1.386850935241248e+00	 6.427877649365041e-01	 1.218068486648228e+01
 1.371706288380448e+00	 6.745022855423962e-01	 1.209185523156289e+01
 1.355774443588506e+00	 7.059794365253866e-01	 1.198759350859606e+01
 1.339059779161538e+00	 7.371906435220346e-01	 1.186874826578893e+01
 1.321568029882856e+00	 7.681073625428583e-01	 1.173605968876552e+01
 1.303306294593635e+00	 7.987011593506748e-01	 1.159015308514570e+01
 1.284283038247231e+00	 8.289437899654170e-01	 1.143153470556578e+01
 1.264508088311923e+00	 8.588072818512308e-01	 1.126059020416732e+01
 1.243992625427591e+00	 8.882640153254620e-01	 1.107758599380752e+01
 1.222749168264542e+00	 9.172868047171535e-01	 1.088267366821090e+01
 1.200791552577006e+00	 9.458489787951391e-01	 1.067589756740924e+01
 1.399812252208365e+00	 6.487951704567616e-01	 1.215194581223256e+01
 1.384526065573450e+00	 6.808060905843768e-01	 1.206749048080240e+01
 1.368445323964375e+00	 7.125774226653668e-01	 1.196772610843720e+01
 1.351574446596209e+00	 7.440803252842588e-01	 1.185346688450298e+01
 1.333919221848763e+00	 7.752859876834094e-01	 1.172541639531560e+01
 1.315486814908005e+00	 8.061657098832048e-01	 1.158416081684773e+01
 1.296285769839580e+00	 8.366909839392637e-01	 1.143016452395275e+01
 1.276326005957931e+00	 8.668335758882978e-01	 1.126376846263853e+01
 1.255618808395660e+00	 8.965656079179360e-01	 1.108519156070126e+01
 1.234176812820839e+00	 9.258596402837190e-01	 1.089453536451691e+01
 1.212013984294751e+00	 9.546887524888598e-01	 1.069179198854255e+01
 1.412773587321749e+00	 6.548025843877445e-01	 1.212456992452299e+01
 1.397345860714569e+00	 6.871099044520724e-01	 1.204423957498658e+01
 1.381116222079894e+00	 7.191754180429248e-01	 1.194872140182482e+01
 1.364089131551809e+00	 7.509700166924258e-01	 1.183879591897619e+01
 1.346270431106699e+00	 7.824646228744004e-01	 1.171513075962907e+01
 1.327667352275420e+00	 8.136302708664346e-01	 1.157827351541725e+01
 1.308288518236020e+00	 8.444381887594662e-01	 1.142864709683334e+01
 1.288143940149242e+00	 8.748598811624115e-01	 1.126654798644488e+01
 1.267245007640550e+00	 9.048672121328237e-01	 1.109214768166653e+01
 1.245604473375955e+00	 9.344324878523876e-01	 1.090549753164260e+01
 1.223236431723973e+00	 9.635285385583509e-01	 1.070653706590965e+01
 1.425734946630075e+00	 6.608100095329462e-01	 1.209846557311189e+01
 1.410165679786421e+00	 6.934137300872995e-01	 1.202202421399920e+01
 1.393787143848190e+00	 7.257734257371631e-01	 1.193051372957263e+01
 1.376603839868557e+00	 7.578597209617606e-01	 1.182468176738036e+01
 1.358621663420585e+00	 7.896432714658930e-01	 1.170516075570456e+01
 1.339847912380150e+00	 8.210948457838531e-01	 1.157246034500650e+01
 1.320291289037849e+00	 8.521854080414092e-01	 1.142696248010295e+01
 1.299961896400895e+00	 8.828862014191952e-01	 1.126891950132445e+01
 1.278871228587822e+00	 9.131688318442138e-01	 1.109845559430557e+01
 1.257032155262793e+00	 9.430053514238217e-01	 1.091557181095063e+01
 1.234458900101805e+00	 9.723683411288404e-01	 1.072015477132538e+01
 1.122234530555182e+00	 8.839705629414819e-01	 1.053181540153509e+01
 1.101060100629861e+00	 9.102093196591319e-01	 1.027763250557001e+01
 1.079247663196073e+00	 9.359694939558444e-01	 1.001156234854134e+01
 1.056813651966454e+00	 9.612280539843321e-01	 9.734351949962157e+00
 1.033775600453680e+00	 9.859627334580974e-01	 9.446749512430731e+00
 1.010152096705643e+00	 1.010152096705644e+00	 9.149513236860516e+00
 9.859627334580970e-01	 1.033775600453680e+00	 8.843420545027387e+00
 9.612280539843319e-01	 1.056813651966455e+00	 8.529277329183161e+00
 9.359694939558441e-01	 1.079247663196073e+00	 8.207926821510977e+00
 9.102093196591318e-01	 1.101060100629861e+00	 7.880257663882741e+00
 8.839705629414819e-01	 1.122234530555182e+00	 7.547210761838492e+00
 1.133456998932246e+00	 8.928103655112042e-01	 1.055587845302806e+01
 1.112070822385416e+00	 9.193115126736295e-01	 1.030765261399398e+01
 1.090040258185034e+00	 9.453292915384648e-01	 1.004746301802394e+01
 1.067381904382676e+00	 9.708404399374153e-01	 9.775999071105659e+00
 1.044113469828073e+00	 9.958224689186665e-01	 9.493952325332639e+00
 1.020253728451648e+00	 1.020253728451648e+00	 9.202026184779772e+00
 9.958224689186663e-01	 1.044113469828074e+00	 8.900946069708416e+00
 9.708404399374146e-01	 1.067381904382677e+00	 8.591469633662918e+00
 9.453292915384641e-01	 1.090040258185035e+00	 8.274396598388950e+00
 9.193115126736290e-01	 1.112070822385416e+00	 7.950577757434435e+00
 8.928103655112043e-01	 1.133456998932246e+00	 7.620922702011597e+00
 1.144679446360872e+00	 9.016501515800983e-01	 1.057880773018325e+01
 1.123081523587785e+00	 9.284136886975023e-01	 1.033620551731217e+01
 1.100832833027974e+00	 9.546890716495984e-01	 1.008156767950659e+01
 1.077950137071642e+00	 9.804528079475135e-01	 9.815531586245216e+00
 1.054451319905255e+00	 1.005682185974534e+00	 9.538738265586840e+00
 1.030355341341413e+00	 1.030355341341414e+00	 9.251842984961121e+00
 1.005682185974534e+00	 1.054451319905255e+00	 8.955526341760738e+00
 9.804528079475129e-01	 1.077950137071642e+00	 8.650505432475336e+00
 9.546890716495977e-01	 1.100832833027974e+00	 8.337544636674917e+00
 9.284136886975021e-01	 1.123081523587786e+00	 8.017465536223217e+00
 9.016501515800985e-01	 1.144679446360873e+00	 7.691155492006787e+00
 1.155901878078191e+00	 9.104899252733928e-01	 1.060058012810580e+01
 1.134092209375281e+00	 9.375158519784222e-01	 1.036328285072958e+01
 1.111625392761407e+00	 9.640488386571276e-01	 1.011388518837128e+01
 1.088518354965175e+00	 9.900651625003817e-01	 9.852977870149676e+00
 1.064789155509534e+00	 1.015541889226881e+00	 9.581157323308416e+00
 1.040456940089006e+00	 1.040456940089006e+00	 9.299037115145373e+00
 1.015541889226881e+00	 1.064789155509535e+00	 9.007259957092590e+00
 9.900651625003815e-01	 1.088518354965175e+00	 8.706509813182608e+00
 9.640488386571272e-01	 1.111625392761407e+00	 8.397523619752386e+00
 9.375158519784218e-01	 1.134092209375281e+00	 8.081102105334224e+00
 9.104899252733929e-01	 1.155901878078191e+00	 7.758119200705545e+00
 1.167124299321332e+00	 9.193296907163157e-01	 1.062118018632657e+01
 1.145102884886215e+00	 9.466180067640608e-01	 1.038888334283151e+01
 1.122417942421851e+00	 9.734085969289363e-01	 1.014443085809697e+01
 1.099086562995096e+00	 9.996775080817737e-01	 9.888372042039766e+00
 1.075126981465220e+00	 1.025401583276890e+00	 9.621264446849523e+00
 1.050558529408490e+00	 1.050558529408490e+00	 9.343686158234355e+00
 1.025401583276890e+00	 1.075126981465220e+00	 9.056248702469304e+00
 9.996775080817734e-01	 1.099086562995096e+00	 8.759610084248894e+00
 9.734085969289358e-01	 1.122417942421852e+00	 8.454487431844228e+00
 9.466180067640603e-01	 1.145102884886215e+00	 8.141668706065570e+00
 9.193296907163158e-01	 1.167124299321332e+00	 7.822022929590762e+00
 1.178346715327428e+00	 9.281694520340954e-01	 1.064059966405582e+01
 1.156113555258898e+00	 9.557201573020899e-01	 1.041301241510303e+01
 1.133210487045824e+00	 9.827683508329064e-01	 1.017322608989893e+01
 1.109654766093226e+00	 1.009289849177444e+00	 9.921753630895317e+00
 1.085464802596620e+00	 1.035261272725742e+00	 9.659119248983131e+00
 1.060660114013930e+00	 1.060660114013931e+00	 9.385871554187844e+00
 1.035261272725741e+00	 1.085464802596620e+00	 9.102597357558739e+00
 1.009289849177443e+00	 1.109654766093227e+00	 8.809935631239723e+00
 9.827683508329058e-01	 1.133210487045824e+00	 8.508591071918008e+00
 9.557201573020896e-01	 1.156113555258899e+00	 8.199346690615393e+00
 9.281694520340955e-01	 1.178346715327428e+00	 7.883074850796589e+00
 1.189569131333609e+00	 9.370092133519605e-01	 1.065883713023405e+01
 1.167124225631645e+00	 9.648223078401814e-01	 1.043568179482867e+01
 1.144003031669840e+00	 9.921281047369207e-01	 1.020029801405094e+01
 1.120222969191389e+00	 1.018902190273145e+00	 9.953167250484329e+00
 1.095802623728044e+00	 1.045120962174616e+00	 9.694785720602022e+00
 1.070761698619392e+00	 1.070761698619392e+00	 9.425678357003076e+00
 1.045120962174616e+00	 1.095802623728045e+00	 9.146413499420422e+00
 1.018902190273145e+00	 1.120222969191389e+00	 8.857617772642447e+00
 9.921281047369205e-01	 1.144003031669840e+00	 8.559990564227588e+00
 9.648223078401810e-01	 1.167124225631645e+00	 8.254317490281460e+00
 9.370092133519605e-01	 1.189569131333609e+00	 7.941482235433112e+00
 1.200791552577006e+00	 9.458489787951391e-01	 1.067589756740924e+01
 1.178134901142766e+00	 9.739244626260072e-01	 1.045690914049478e+01
 1.154795581330418e+00	 1.001487863008863e+00	 1.022567914212363e+01
 1.130791177221405e+00	 1.028514535854631e+00	 9.982662283475950e+00
 1.106140449683802e+00	 1.054980656224697e+00	 9.728331951439529e+00
 1.080863287938940e+00	 1.080863287938940e+00	 9.463194996442549e+00
 1.054980656224697e+00	 1.106140449683802e+00	 9.187807309277291e+00
 1.028514535854631e+00	 1.130791177221405e+00	 8.902789615331299e+00
 1.001487863008862e+00	 1.154795581330418e+00	 8.608842865710042e+00
 9.739244626260068e-01	 1.178134901142766e+00	 8.306762577597667e+00
 9.458489787951390e-01	 1.200791552577005e+00	 7.997451472820948e+00
 1.212013984294751e+00	 9.546887524888598e-01	 1.069179198854255e+01
 1.189145586930573e+00	 9.830266259072385e-01	 1.047671767888200e+01
 1.165588141064074e+00	 1.010847630016615e+00	 1.024940702943019e+01
 1.141359395115096e+00	 1.038126890407658e+00	 1.001029257404655e+01
 1.116478285288201e+00	 1.064840359477164e+00	 9.759829857355204e+00
 1.090964886686639e+00	 1.090964886686639e+00	 9.498513044200720e+00
 1.064840359477164e+00	 1.116478285288201e+00	 9.226891381421101e+00
 1.038126890407658e+00	 1.141359395115096e+00	 8.945585909699371e+00
 1.010847630016614e+00	 1.165588141064074e+00	 8.655305770441377e+00
 9.830266259072381e-01	 1.189145586930573e+00	 8.356863422799750e+00
 9.546887524888599e-01	 1.212013984294750e+00	 8.051188081225359e+00
 1.223236431723973e+00	 9.635285385583509e-01	 1.070653706590965e+01
 1.200156288133378e+00	 9.921288019315477e-01	 1.049513585309497e+01
 1.176380715907324e+00	 1.020207410128059e+00	 1.027152394702078e+01
 1.151927627804283e+00	 1.047739258417978e+00	 1.003611612843111e+01
 1.126816135365550e+00	 1.074700076533199e+00	 9.789354913761754e+00
 1.101066499576554e+00	 1.101066499576555e+00	 9.531726984223003e+00
 1.074700076533199e+00	 1.126816135365550e+00	 9.263780534112243e+00
 1.047739258417978e+00	 1.151927627804284e+00	 8.986142904477399e+00
 1.020207410128059e+00	 1.176380715907324e+00	 8.699537811338580e+00
 9.921288019315472e-01	 1.200156288133379e+00	 8.404801444983093e+00
 9.635285385583509e-01	 1.223236431723973e+00	 8.102896710635093e+00
 1.234458900101805e+00	 9.723683411288404e-01	 1.072015477132538e+01
 1.211167009889495e+00	 1.001230994946606e+00	 1.051219698083044e+01
 1.187173310896686e+00	 1.029567207711080e+00	 1.029207656261620e+01
 1.162495880220790e+00	 1.057351644371346e+00	 1.006019482291272e+01
 1.137154004740159e+00	 1.084559811993984e+00	 9.816985894800224e+00
 1.111168131322751e+00	 1.111168131322752e+00	 9.562933986910569e+00
 1.084559811993984e+00	 1.137154004740160e+00	 9.298591622345917e+00
 1.057351644371345e+00	 1.162495880220790e+00	 9.024598201257609e+00
 1.029567207711079e+00	 1.187173310896686e+00	 8.741698159282230e+00
 1.001230994946606e+00	 1.211167009889495e+00	 8.450757958290907e+00
 9.723683411288406e-01	 1.234458900101806e+00	 8.152781138092131e+00
 8.839705629414819e-01	 1.122234530555182e+00	 7.547210761838492e+00
 8.572769557543541e-01	 1.142755656373625e+00	 7.210350445959078e+00
 8.301528671821561e-01	 1.162609344655126e+00	 6.871179894268026e+00
 8.026232235966541e-01	 1.181782664794758e+00	 6.530658056733397e+00
 7.747134321542239e-01	 1.200263917106523e+00	 6.189831232921009e+00
 7.464493056294456e-01	 1.218042652399525e+00	 5.849827749577207e+00
 7.178569865660778e-01	 1.235109686128581e+00	 5.511849663444128e+00
 6.889628711939315e-01	 1.251457107126304e+00	 5.177161513311559e+00
 6.597935335531173e-01	 1.267078280965017e+00	 4.847076239120122e+00
 6.303756502559335e-01	 1.281967848036833e+00	 4.522938478270512e+00
 6.007359263015425e-01	 1.296121716478273e+00	 4.206105536773824e+00
 8.928103655112043e-01	 1.133456998932246e+00	 7.620922702011597e+00
 8.658498193247725e-01	 1.154183338259446e+00	 7.287042426828591e+00
 8.384544868922551e-01	 1.174235565601107e+00	 6.950494315042852e+00
 8.106495438518655e-01	 1.193600621044838e+00	 6.612230245734729e+00
 7.824606514343235e-01	 1.212266687906508e+00	 6.273299734652708e+00
 7.539138805447808e-01	 1.230223212502172e+00	 5.934844714491808e+00
 7.250356351552953e-01	 1.247460918440193e+00	 5.598091127236085e+00
 6.958525754608671e-01	 1.263971815440653e+00	 5.264337345692972e+00
 6.663915412449148e-01	 1.279749202730872e+00	 4.934939541208507e+00
 6.366794758887817e-01	 1.294787667106307e+00	 4.611294213058757e+00
 6.067433514445451e-01	 1.309083075784400e+00	 4.294818188572088e+00
 9.016501515800985e-01	 1.144679446360873e+00	 7.691155492006787e+00
 8.744226668926504e-01	 1.165610998813773e+00	 7.360278691400357e+00
 8.467560911061386e-01	 1.185861764844994e+00	 7.026436276311630e+00
 8.186758491247558e-01	 1.205418555234924e+00	 6.690556120514922e+00
 7.902078562530926e-01	 1.224269436301516e+00	 6.353673013944263e+00
 7.613784415263897e-01	 1.242403749867965e+00	 6.016923748266333e+00
 7.322142703445168e-01	 1.259812127696359e+00	 5.681538799050349e+00
 7.027422668671670e-01	 1.276486500394385e+00	 5.348830612052780e+00
 6.729895366205746e-01	 1.292420100844493e+00	 5.020178607315541e+00
 6.429832897546265e-01	 1.307607462245575e+00	 4.697011119769609e+00
 6.127507653738173e-01	 1.322044410896074e+00	 4.380784595011630e+00
 9.104899252733929e-01	 1.155901878078191e+00	 7.758119200705545e+00
 8.829955024586520e-01	 1.177038643369505e+00	 7.430294404660762e+00
 8.550576836978958e-01	 1.197487947812345e+00	 7.099258268687057e+00
 8.267021431609489e-01	 1.217236472880060e+00	 6.765898228306233e+00
 7.979550502259154e-01	 1.236272167892840e+00	 6.431216942285343e+00
 7.688429920577622e-01	 1.254584270181178e+00	 6.096327885206154e+00
 7.393928954838040e-01	 1.272163319661003e+00	 5.762447318494603e+00
 7.096319486280576e-01	 1.289001167827722e+00	 5.430882635063312e+00
 6.795875227591985e-01	 1.305090981219005e+00	 5.103017185499121e+00
 6.492870947952851e-01	 1.320427239437256e+00	 4.780291805528070e+00
 6.187581708928535e-01	 1.335005727861969e+00	 4.464183371248698e+00
 9.193296907163158e-01	 1.167124299321332e+00	 7.822022929590762e+00
 8.915683300234393e-01	 1.188466277259546e+00	 7.497322785883034e+00
 8.633592685416168e-01	 1.209114119928721e+00	 7.169210129059926e+00
 8.347284297060690e-01	 1.229054379495284e+00	 6.838516000898851e+00
 8.057022369681752e-01	 1.248274888281779e+00	 6.506194035449669e+00
 7.763075356223875e-01	 1.266764779126081e+00	 6.173316759593124e+00
 7.465715139232193e-01	 1.284514500098049e+00	 5.841068050884287e+00
 7.165216239587646e-01	 1.301515823580887e+00	 5.510731732684444e+00
 6.861855027398900e-01	 1.317761849767538e+00	 5.183676406253062e+00
 6.555908939525746e-01	 1.333247004663966e+00	 4.861336738414598e+00
 6.247655708051463e-01	 1.347967032730759e+00	 4.545191537323023e+00
 9.281694520340955e-01	 1.178346715327428e+00	 7.883074850796589e+00
 9.001411535876764e-01	 1.199893905816797e+00	 7.561595204558659e+00
 8.716608495113920e-01	 1.220740286619682e+00	 7.236539181780072e+00
 8.427547125057401e-01	 1.240872280595642e+00	 6.908665929339700e+00
 8.134494200952562e-01	 1.260277603069626e+00	 6.578863650922071e+00
 7.837720757037553e-01	 1.278945282386944e+00	 6.248146816036124e+00
 7.537501290128253e-01	 1.296865674771424e+00	 5.917649301731598e+00
 7.234112960745126e-01	 1.314030473494097e+00	 5.588613429055865e+00
 6.927834796417501e-01	 1.330432712403214e+00	 5.262374983147703e+00
 6.618946901683117e-01	 1.346066763908323e+00	 4.940344432298884e+00
 6.307729679141899e-01	 1.360928331551119e+00	 4.623984682750632e+00
 9.370092133519605e-01	 1.189569131333609e+00	 7.941482235433112e+00
 9.087139771520266e-01	 1.211321534374162e+00	 7.623341263701731e+00
 8.799624304813101e-01	 1.232366453310785e+00	 7.301490365046966e+00
 8.507809953055858e-01	 1.252690181696174e+00	 6.976601722358872e+00
 8.211966032225422e-01	 1.272280317857678e+00	 6.649482168196324e+00
 7.912366157853544e-01	 1.291125785648038e+00	 6.321071502397399e+00
 7.609287441026841e-01	 1.309216849445050e+00	 5.992436514014765e+00
 7.303009681905274e-01	 1.326545123407575e+00	 5.664760648811451e+00
 6.993814565438816e-01	 1.343103575039162e+00	 5.339329397904723e+00
 6.681984863843131e-01	 1.358886523152945e+00	 5.017511617425788e+00
 6.367803650234780e-01	 1.373889630371725e+00	 4.700737118422545e+00
 9.458489787951390e-01	 1.200791552577005e+00	 7.997451472820948e+00
 9.172868047171532e-01	 1.222749168264542e+00	 7.682788871352844e+00
 8.882640153254612e-01	 1.243992625427591e+00	 7.364306343478336e+00
 8.588072818512302e-01	 1.264508088311923e+00	 7.042574449589910e+00
 8.289437899654166e-01	 1.284283038247231e+00	 6.718303153064042e+00
 7.987011593506743e-01	 1.303306294593636e+00	 6.392341446434564e+00
 7.681073625428576e-01	 1.321568029882856e+00	 6.065672449355746e+00
 7.371906435220340e-01	 1.339059779161539e+00	 5.739403895902656e+00
 7.059794365253862e-01	 1.355774443588507e+00	 5.414754070927078e+00
 6.745022855423957e-01	 1.371706288380448e+00	 5.093033397686314e+00
 6.427877649365041e-01	 1.386850935241248e+00	 4.775622016641995e+00
 9.546887524888599e-01	 1.212013984294750e+00	 8.051188081225359e+00
 9.258596402837188e-01	 1.234176812820839e+00	 7.740164301047230e+00
 8.965656079179358e-01	 1.255618808395660e+00	 7.425227607752468e+00
 8.668335758882972e-01	 1.276326005957932e+00	 7.106832670569554e+00
 8.366909839392632e-01	 1.296285769839580e+00	 6.785577506934588e+00
 8.061657098832041e-01	 1.315486814908005e+00	 6.462204617216102e+00
 7.752859876834088e-01	 1.333919221848763e+00	 6.137597354151211e+00
 7.440803252842582e-01	 1.351574446596210e+00	 5.812771417935101e+00
 7.125774226653666e-01	 1.368445323964376e+00	 5.488861518228077e+00
 6.808060905843761e-01	 1.384526065573451e+00	 5.167103395439232e+00
 6.487951704567616e-01	 1.399812252208365e+00	 4.848811540069289e+00
 9.635285385583509e-01	 1.223236431723973e+00	 8.102896710635093e+00
 9.344324878523871e-01	 1.245604473375955e+00	 7.795692241955877e+00
 9.048672121328234e-01	 1.267245007640551e+00	 7.484492562155175e+00
 8.748598811624111e-01	 1.288143940149242e+00	 7.169622550430949e+00
 8.444381887594662e-01	 1.308288518236021e+00	 6.851553602146982e+00
 8.136302708664341e-01	 1.327667352275421e+00	 6.530906472288331e+00
 7.824646228744000e-01	 1.346270431106699e+00	 6.208449111623105e+00
 7.509700166924256e-01	 1.364089131551809e+00	 5.885089356951276e+00
 7.191754180429246e-01	 1.381116222079895e+00	 5.561862495633784e+00
 6.871099044520719e-01	 1.397345860714569e+00	 5.239913884683287e+00
 6.548025843877445e-01	 1.412773587321749e+00	 4.920476960289257e+00
 9.723683411288406e-01	 1.234458900101806e+00	 8.152781138092131e+00
 9.430053514238215e-01	 1.257032155262794e+00	 7.849595839356526e+00
 9.131688318442132e-01	 1.278871228587822e+00	 7.542337600800961e+00
 8.828862014191952e-01	 1.299961896400895e+00	 7.231187963137581e+00
 8.521854080414087e-01	 1.320291289037849e+00	 6.916477404166372e+00
 8.210948457838527e-01	 1.339847912380151e+00	 6.598690091501353e+00
 7.896432714658925e-01	 1.358621663420585e+00	 6.278463380686778e+00
 7.578597209617604e-01	 1.376603839868557e+00	 5.956581887521742e+00
 7.257734257371627e-01	 1.393787143848190e+00	 5.633966131071038e+00
 6.934137300872991e-01	 1.410165679786422e+00	 5.311655913323495e+00
 6.608100095329461e-01	 1.425734946630075e+00	 4.990788766662703e+00
 6.007359263015425e-01	 1.296121716478273e+00	 4.206105536773826e+00
 5.709031156054668e-01	 1.309536138283946e+00	 3.898494369603231e+00
 5.409016840174559e-01	 1.322210539589158e+00	 3.601450051100258e+00
 5.107579795224065e-01	 1.334144548227396e+00	 3.315511331470907e+00
 4.804981001069039e-01	 1.345338983143447e+00	 3.041169313472641e+00
 4.501478303406600e-01	 1.355795824583440e+00	 2.778846893635362e+00
 4.197325810045943e-01	 1.365518180538823e+00	 2.528878510693009e+00
 3.892773319946376e-01	 1.374510249756393e+00	 2.291490753046756e+00
 3.588065786973464e-01	 1.382777281639109e+00	 2.066784355104689e+00
 3.283442820000870e-01	 1.390325533371589e+00	 1.854718075095057e+00
 2.979138220653007e-01	 1.397162224609720e+00	 1.655094896069432e+00
 6.067433514445451e-01	 1.309083075784400e+00	 4.294818188572083e+00
 5.766122093700309e-01	 1.322631643279299e+00	 3.987496793636506e+00
 5.463107601761639e-01	 1.335432789987598e+00	 3.690643348421236e+00
 5.158656153305731e-01	 1.347486140021065e+00	 3.404713161934791e+00
 4.853031338025660e-01	 1.358792520514021e+00	 3.130116662713175e+00
 4.546493580103738e-01	 1.369353931515262e+00	 2.867198491582732e+00
 4.239299528455069e-01	 1.379173512096489e+00	 2.616216802037715e+00
 3.931701480055894e-01	 1.388255502992416e+00	 2.377323347650698e+00
 3.623946838337248e-01	 1.396605206100602e+00	 2.150544914938097e+00
 3.316277608287758e-01	 1.404228941178191e+00	 1.935766622880730e+00
 3.008929929573673e-01	 1.411134000078413e+00	 1.732717558539523e+00
 6.127507653738173e-01	 1.322044410896074e+00	 4.380784595011630e+00
 5.823212924777392e-01	 1.335727123829746e+00	 4.073530654332886e+00
 5.517198262380341e-01	 1.348655015704478e+00	 3.776537429045316e+00
 5.209732416045715e-01	 1.360827706910340e+00	 3.490200687507912e+00
 4.901081585288934e-01	 1.372246032771167e+00	 3.214874734853621e+00
 4.591508772772688e-01	 1.382912013138390e+00	 2.950850929790981e+00
 4.281273168513232e-01	 1.392828818163903e+00	 2.698336308713589e+00
 3.970629567499076e-01	 1.402000730570267e+00	 2.457432926951140e+00
 3.659827822722146e-01	 1.410433104749542e+00	 2.228118506924785e+00
 3.349112335281559e-01	 1.418132323031283e+00	 2.010228945665530e+00
 3.038721582881034e-01	 1.425105749465931e+00	 1.803443181343787e+00
 6.187581708928535e-01	 1.335005727861969e+00	 4.464183371248700e+00
 5.880303675928579e-01	 1.348822586046562e+00	 4.156751448781608e+00
 5.571288847273168e-01	 1.361877222910231e+00	 3.859268449762122e+00
 5.260808607279712e-01	 1.374169255121346e+00	 3.572094014226852e+00
 4.949131765282329e-01	 1.385699526193252e+00	 3.295550396667115e+00
 4.636523902420471e-01	 1.396470075779993e+00	 3.029900180398785e+00
 4.323246749808004e-01	 1.406484105113612e+00	 2.775323997844389e+00
 4.009557600442210e-01	 1.415745938904460e+00	 2.531898899827119e+00
 3.695708756872477e-01	 1.424260984039027e+00	 2.299577997784387e+00
 3.381947016305064e-01	 1.432035685419194e+00	 2.078391282315371e+00
 3.068513194477885e-01	 1.439077479292515e+00	 1.869309249738176e+00
 6.247655708051463e-01	 1.347967032730759e+00	 4.545191537323023e+00
 5.937394373796542e-01	 1.361918036041030e+00	 4.237313547762719e+00
 5.625379381682628e-01	 1.375099417775286e+00	 3.938971726836781e+00
 5.311884750843425e-01	 1.387510790880210e+00	 3.650512534067930e+00
 4.997181900429311e-01	 1.399153007058650e+00	 3.372249792387160e+00
 4.681538990054125e-01	 1.410028125767245e+00	 3.104441374509181e+00
 4.365220291926969e-01	 1.420139379318163e+00	 2.847265792350700e+00
 4.048485597051587e-01	 1.429491134409507e+00	 2.600814881157823e+00
 3.731589657532560e-01	 1.438088850422154e+00	 2.366721757471656e+00
 3.414781666681058e-01	 1.445939034830253e+00	 2.145275861134365e+00
 3.098304778267026e-01	 1.453049196078406e+00	 1.935259751365678e+00
 6.307729679141899e-01	 1.360928331551119e+00	 4.623984682750634e+00
 5.994485045023934e-01	 1.375013479924427e+00	 4.315370342270282e+00
 5.679469890851232e-01	 1.388321606470075e+00	 4.015781871716986e+00
 5.362960870572546e-01	 1.400852320413059e+00	 3.725575055937748e+00
 5.045232013153351e-01	 1.412606481645730e+00	 3.445078474929754e+00
 4.726554056680674e-01	 1.423586169427317e+00	 3.174568937445620e+00
 4.407193814457706e-01	 1.433794647150102e+00	 2.914787026837931e+00
 4.087413575493499e-01	 1.443236323499923e+00	 2.668427886528072e+00
 3.767470541446711e-01	 1.451916710352021e+00	 2.434909508902924e+00
 3.447616301732327e-01	 1.459842377752788e+00	 2.213067818149305e+00
 3.128096348151254e-01	 1.467020906343844e+00	 2.001667490856976e+00
 6.367803650234780e-01	 1.373889630371725e+00	 4.700737118422545e+00
 6.051575716253430e-01	 1.388108923808035e+00	 4.391074378755333e+00
 5.733560400021477e-01	 1.401543795165028e+00	 4.089832916441587e+00
 5.414036990302774e-01	 1.414193849946018e+00	 3.797399926980196e+00
 5.093282125877912e-01	 1.426059956232863e+00	 3.514141527741300e+00
 4.771569123307149e-01	 1.437144213087382e+00	 3.241862817709399e+00
 4.449167336987791e-01	 1.447449914981977e+00	 2.983490319909502e+00
 4.126341553934238e-01	 1.456981512590223e+00	 2.738120813862688e+00
 3.803351425359250e-01	 1.465744570281728e+00	 2.504652650982735e+00
 3.480450936781660e-01	 1.473745720675131e+00	 2.281917899883882e+00
 3.157887918033364e-01	 1.480992616609070e+00	 2.068681901244510e+00
 6.427877649365041e-01	 1.386850935241248e+00	 4.775622016641995e+00
 6.108666414127693e-01	 1.401204373803133e+00	 4.464577483827413e+00
 5.787650934435871e-01	 1.414765990030577e+00	 4.161258429427552e+00
 5.465113133869809e-01	 1.427535385705215e+00	 3.866105144835002e+00
 5.141332261026464e-01	 1.439513437098417e+00	 3.581996796768411e+00
 4.816584210940583e-01	 1.450702263074612e+00	 3.311928855193317e+00
 4.491140879104806e-01	 1.461105189186332e+00	 3.054953755803182e+00
 4.165269550540095e-01	 1.470726708094918e+00	 2.810040735210316e+00
 3.839232326014494e-01	 1.479572436664371e+00	 2.576098191407306e+00
 3.513285587151840e-01	 1.487649070085608e+00	 2.351972703489173e+00
 3.187679501816154e-01	 1.494964333394326e+00	 2.136448317995535e+00
 6.487951704567616e-01	 1.399812252208365e+00	 4.848811540069289e+00
 6.165757165289388e-01	 1.414299836021000e+00	 4.536030879101254e+00
 5.841741519336923e-01	 1.427988197237152e+00	 4.230191622259118e+00
 5.516189325109340e-01	 1.440876933916775e+00	 3.934935483931329e+00
 5.189382441022474e-01	 1.452966930520765e+00	 3.653642965378236e+00
 4.861599340587998e-01	 1.464260325716178e+00	 3.385422189262874e+00
 4.533114460396329e-01	 1.474760476135716e+00	 3.129320516108312e+00
 4.204197583477361e-01	 1.484471916428524e+00	 2.884330654167210e+00
 3.875113260156759e-01	 1.493400315953048e+00	 2.649389107466941e+00
 3.546120268165657e-01	 1.501552432472550e+00	 2.423374832875135e+00
 3.217471113402418e-01	 1.508936063219851e+00	 2.205108137160060e+00
 6.548025843877445e-01	 1.412773587321749e+00	 4.920476960289257e+00
 6.222847996381184e-01	 1.427395316572917e+00	 4.605585286820649e+00
 5.895832179967134e-01	 1.441210422955183e+00	 4.300074580868017e+00
 5.567265587857072e-01	 1.454218500806824e+00	 4.008262291676815e+00
 5.237432688289408e-01	 1.466420442778276e+00	 3.729354730864477e+00
 4.906614533256430e-01	 1.477818407339254e+00	 3.462482760707114e+00
 4.575088100449941e-01	 1.488415782202676e+00	 3.206729797801509e+00
 4.243125670912327e-01	 1.498217144005554e+00	 2.961129648329747e+00
 3.910994244530369e-01	 1.507228214600860e+00	 2.724664491147673e+00
 3.578954995145898e-01	 1.515455814324286e+00	 2.496263046486593e+00
 3.247262766694958e-01	 1.522907812605887e+00	 2.274798965001405e+00
 6.608100095329461e-01	 1.425734946630075e+00	 4.990788766662705e+00
 6.279938934045742e-01	 1.440490821570162e+00	 4.676329970305800e+00
 5.949922941569017e-01	 1.454432673355103e+00	 4.375009271237521e+00
 5.618341945948699e-01	 1.467560092601490e+00	 4.086250142903257e+00
 5.285483025250735e-01	 1.479873980149320e+00	 3.809269810513502e+00
 4.951629809952906e-01	 1.491376514271011e+00	 3.543246565323412e+00
 4.617061818853219e-01	 1.502071113759757e+00	 3.287316946696213e+00
 4.282053831011286e-01	 1.511962397240521e+00	 3.040573004338771e+00
 3.946875295879637e-01	 1.521056139060901e+00	 2.802059686614258e+00
 3.611789783415348e-01	 1.529359222129144e+00	 2.570772397256236e+00
 3.277054475596566e-01	 1.536879588072675e+00	 2.345654759651215e+00
 2.979138220653007e-01	 1.397162224609720e+00	 1.655094896069428e+00
 2.675358372207115e-01	 1.403295895093266e+00	 1.467138996977988e+00
 2.372345848256142e-01	 1.408735044443937e+00	 1.292270138492029e+00
 2.070314979173397e-01	 1.413489491465140e+00	 1.133217819894595e+00
 1.769472809086950e-01	 1.417569818919275e+00	 9.924229405481237e-01
 1.470018830136218e-01	 1.420987321018450e+00	 8.720190149350628e-01
 1.172144755749144e-01	 1.423753950460095e+00	 7.738189002880319e-01
 8.760343321972207e-02	 1.425882265302377e+00	 6.993069736051526e-01
 5.818631874669211e-02	 1.427385375958748e+00	 6.496365971365858e-01
 2.897987162897944e-02	 1.428276892573984e+00	 6.256326227079470e-01
 0.000000000000000e+00	 1.428570873025926e+00	 6.277986071157040e-01
 3.008929929573673e-01	 1.411134000078413e+00	 1.732717558539521e+00
 2.702112249327637e-01	 1.417329007939364e+00	 1.540694797353513e+00
 2.396069566905304e-01	 1.422822549379909e+00	 1.361432554050234e+00
 2.091018356007427e-01	 1.427624541392580e+00	 1.197941415249717e+00
 1.787167731226268e-01	 1.431745672568571e+00	 1.053077658392397e+00
 1.484719179644715e-01	 1.435197350063360e+00	 9.293914371060631e-01
 1.183866331846205e-01	 1.437991646102674e+00	 8.286982355799877e-01
 8.847947715852815e-02	 1.440141244326646e+00	 7.525370556930993e-01
 5.876818831477241e-02	 1.441659386254313e+00	 7.021728164721056e-01
 2.926967352309260e-02	 1.442559818133399e+00	 6.785867918358681e-01
 0.000000000000000e+00	 1.442856738422074e+00	 6.824699015438440e-01
 3.038721582881034e-01	 1.425105749465931e+00	 1.803443181343787e+00
 2.728866076504773e-01	 1.431362094589756e+00	 1.607297371301490e+00
 2.419793241266670e-01	 1.436910028018619e+00	 1.424591500864225e+00
 2.111721694191012e-01	 1.441759564933991e+00	 1.258287893310542e+00
 1.804862620330458e-01	 1.445921499755662e+00	 1.110922720040241e+00
 1.499419501707722e-01	 1.449407352582267e+00	 9.848014575225784e-01
 1.195587886058231e-01	 1.452229315167604e+00	 8.819782975734950e-01
 8.935551946162196e-02	 1.454400196733541e+00	 8.042386581493758e-01
 5.935005679635611e-02	 1.455933369904449e+00	 7.530848016226771e-01
 2.955947487604350e-02	 1.456842717030745e+00	 7.297245360901778e-01
 0.000000000000000e+00	 1.457142577150667e+00	 7.350629460968190e-01
 3.068513194477885e-01	 1.439077479292515e+00	 1.869309249738176e+00
 2.755619866223831e-01	 1.445395161593315e+00	 1.671496942640590e+00
 2.443516882411685e-01	 1.450997486934333e+00	 1.486697770119156e+00
 2.132425003386314e-01	 1.455894568685836e+00	 1.317897295841668e+00
 1.822557484657930e-01	 1.460097307096061e+00	 1.167874069228399e+00
 1.514119803186323e-01	 1.463617335206642e+00	 1.039173695350875e+00
 1.207309423856277e-01	 1.466466964299278e+00	 9.340860996210770e-01
 9.023156053791902e-02	 1.468659129177393e+00	 8.546260385413691e-01
 5.993192446306135e-02	 1.470207333570505e+00	 8.025168723593387e-01
 2.984927582312111e-02	 1.471125595931537e+00	 7.791775821095263e-01
 0.000000000000000e+00	 1.471428395878593e+00	 7.857129824636860e-01
 3.098304778267026e-01	 1.453049196078406e+00	 1.935259751365681e+00
 2.782373630970130e-01	 1.459428215498915e+00	 1.735629602499648e+00
 2.467240501411798e-01	 1.465084932701314e+00	 1.548450028290736e+00
 2.153128293255497e-01	 1.470029559244577e+00	 1.376929848760828e+00
 1.840252332467091e-01	 1.474273101205284e+00	 1.224071414011263e+00
 1.528820090941602e-01	 1.477827304567958e+00	 1.092642484626019e+00
 1.219030950711398e-01	 1.480704600142087e+00	 9.851514316318037e-01
 9.110760079633477e-02	 1.482918048312530e+00	 9.038258180306753e-01
 6.051379158650618e-02	 1.484481283913834e+00	 8.505943866284338e-01
 3.013907649961434e-02	 1.485408461501292e+00	 8.270724436910818e-01
 0.000000000000000e+00	 1.485714201272741e+00	 8.345505951083234e-01
 3.128096348151254e-01	 1.467020906343844e+00	 2.001667490856976e+00
 2.809127383228978e-01	 1.473461262855427e+00	 1.799846155524732e+00
 2.490964109338452e-01	 1.479172371893830e+00	 1.609994751019426e+00
 2.173831573460730e-01	 1.484164543206676e+00	 1.435526831040902e+00
 1.857947172016352e-01	 1.488448888698843e+00	 1.279650528749745e+00
 1.543520371834640e-01	 1.492037267297686e+00	 1.145338336731278e+00
 1.230752472094646e-01	 1.494942229340423e+00	 1.035300321490610e+00
 9.198364064578483e-02	 1.497176960793287e+00	 9.519608451185904e-01
 6.109565843830880e-02	 1.498755227595788e+00	 8.974388277355481e-01
 3.042887704081213e-02	 1.499691320405524e+00	 8.735315474077506e-01
 0.000000000000000e+00	 1.500000000000000e+00	 8.817019396945689e-01
 3.157887918033364e-01	 1.480992616609070e+00	 2.068681901244512e+00
 2.835881135485694e-01	 1.487494310211727e+00	 1.864293232886248e+00
 2.514687717263093e-01	 1.493259811086144e+00	 1.671474369105894e+00
 2.194534853664175e-01	 1.498299527168598e+00	 1.493825620570263e+00
 1.875642011564121e-01	 1.502624676192253e+00	 1.334743423873832e+00
 1.558220652726521e-01	 1.506247230027299e+00	 1.197388108484010e+00
 1.242473993477078e-01	 1.509179858538677e+00	 1.084655203513629e+00
 9.285968049518474e-02	 1.511435873273994e+00	 9.991503674638271e-01
 6.167752529008724e-02	 1.513029171277717e+00	 9.431679834301601e-01
 3.071867758200346e-02	 1.513974179309750e+00	 9.186734237419463e-01
 0.000000000000000e+00	 1.514285798727260e+00	 9.272889518908711e-01
 3.187679501816154e-01	 1.494964333394326e+00	 2.136448317995537e+00
 2.862634900225589e-01	 1.501527364116686e+00	 1.929113459653700e+00
 2.538411336257165e-01	 1.507347256852522e+00	 1.733027434108692e+00
 2.215238143527998e-01	 1.512434517726803e+00	 1.551959857067093e+00
 1.893336859368808e-01	 1.516800470301028e+00	 1.389478506179737e+00
 1.572920940478327e-01	 1.520457199388267e+00	 1.248915160830108e+00
 1.254195520329748e-01	 1.523417494381241e+00	 1.133335077476478e+00
 9.373572075344996e-02	 1.525694792408982e+00	 1.045510194073603e+00
 6.225939241345967e-02	 1.527303121620974e+00	 9.878961149494413e-01
 3.100847825847722e-02	 1.528257044879485e+00	 9.626128874981641e-01
 0.000000000000000e+00	 1.528571604121408e+00	 9.714295444598511e-01
 3.217471113402418e-01	 1.508936063219851e+00	 2.205108137160060e+00
 2.889388689933977e-01	 1.515560431119178e+00	 1.994445613017008e+00
 2.562134977392116e-01	 1.521434715767229e+00	 1.794788774850332e+00
 2.235941452714363e-01	 1.526569521477754e+00	 1.610059596020481e+00
 1.911031723688823e-01	 1.530976277640682e+00	 1.443980730274208e+00
 1.587621241951142e-01	 1.534667182012064e+00	 1.300039508755443e+00
 1.265917058123708e-01	 1.537655143512507e+00	 1.181455658827749e+00
 9.461176182949604e-02	 1.539953724852582e+00	 1.091152848494207e+00
 6.284126008004413e-02	 1.541577085286909e+00	 1.031734116672911e+00
 3.129827920552237e-02	 1.542539923780245e+00	 1.005461208190327e+00
 0.000000000000000e+00	 1.542857422849333e+00	 1.014237793393264e+00
 3.247262766694958e-01	 1.522907812605887e+00	 2.274798965001400e+00
 2.916142517096169e-01	 1.529593517768076e+00	 2.060424771942426e+00
 2.585858651739391e-01	 1.535522194404530e+00	 1.856889645415600e+00
 2.256644790885433e-01	 1.540704545017914e+00	 1.668251454234154e+00
 1.928726612782574e-01	 1.545152104826729e+00	 1.498371741734943e+00
 1.602321564006049e-01	 1.548877184530161e+00	 1.350877962979605e+00
 1.277638612330015e-01	 1.551892812576865e+00	 1.229129520652402e+00
 9.548780413223854e-02	 1.554212677259125e+00	 1.136187713577270e+00
 6.342312856145879e-02	 1.555851068936875e+00	 1.074789666991170e+00
 3.158808055842786e-02	 1.556822822677546e+00	 1.047326271047581e+00
 0.000000000000000e+00	 1.557143261577926e+00	 1.055824113796267e+00
 3.277054475596566e-01	 1.536879588072675e+00	 2.345654759651212e+00
 2.942896394197481e-01	 1.543626630612252e+00	 2.127182458807978e+00
 2.609582370370435e-01	 1.549609699338690e+00	 1.919457865183277e+00
 2.277348167703377e-01	 1.554839594943745e+00	 1.726658747508303e+00
 1.946421534908471e-01	 1.559327958474682e+00	 1.552770012515276e+00
 1.617021913504131e-01	 1.563087213574030e+00	 1.401544263954761e+00
 1.289360188419721e-01	 1.566130508218708e+00	 1.276466227912802e+00
 9.636384807059289e-02	 1.568471656282942e+00	 1.180721168360610e+00
 6.400499812932171e-02	 1.570125079232223e+00	 1.117167370948162e+00
 3.187788245248261e-02	 1.571105748236902e+00	 1.088312729237013e+00
 0.000000000000000e+00	 1.571429126974074e+00	 1.096295426173645e+00
 1.571429126974074e+00	 0.000000000000000e+00	 1.246792009907445e+01
 1.571105748236902e+00	 3.187788245248305e-02	 1.249498964688095e+01
 1.570125079232222e+00	 6.400499812932213e-02	 1.251075266081550e+01
 1.568471656282942e+00	 9.636384807059326e-02	 1.251753980694719e+01
 1.566130508218708e+00	 1.289360188419724e-01	 1.251760806099019e+01
 1.563087213574030e+00	 1.617021913504133e-01	 1.251312592607822e+01
 1.559327958474683e+00	 1.946421534908473e-01	 1.250615839351669e+01
 1.554839594943744e+00	 2.277348167703377e-01	 1.249865173387820e+01
 1.549609699338691e+00	 2.609582370370436e-01	 1.249241821469659e+01
 1.543626630612252e+00	 2.942896394197481e-01	 1.248912084985345e+01
 1.536879588072675e+00	 3.277054475596566e-01	 1.249025829443658e+01
 1.585715024037928e+00	 0.000000000000000e+00	 1.239593679391303e+01
 1.585388705457436e+00	 3.216768498914990e-02	 1.242463454202530e+01
 1.584399121168951e+00	 6.458686898734099e-02	 1.244193742646457e+01
 1.582730666914771e+00	 9.723989395123972e-02	 1.245022533823507e+01
 1.580368235421320e+00	 1.301081790496063e-01	 1.245179480138402e+01
 1.577297274117268e+00	 1.631722295591160e-01	 1.244884342649936e+01
 1.573503843546176e+00	 1.964116496260304e-01	 1.244345413121208e+01
 1.568974676202594e+00	 2.298051590414821e-01	 1.243757922254111e+01
 1.563697235500412e+00	 2.633306141588864e-01	 1.243302444506372e+01
 1.557659774563367e+00	 2.969650330601948e-01	 1.243143310792308e+01
 1.550851394510401e+00	 3.306846250534405e-01	 1.243427041248628e+01
 1.600000951102682e+00	 0.000000000000000e+00	 1.232780844597715e+01
 1.599671692672685e+00	 3.245748813458729e-02	 1.235823613007799e+01
 1.598673193081649e+00	 6.516874106758157e-02	 1.237716031025337e+01
 1.596989707490964e+00	 9.811594167191688e-02	 1.238700726251294e+01
 1.594605992523555e+00	 1.312803417190980e-01	 1.239011008585954e+01
 1.591507364501976e+00	 1.646422708551649e-01	 1.238869240444443e+01
 1.587679758387314e+00	 1.981811494773362e-01	 1.238485186245373e+01
 1.583109787145346e+00	 2.318755056604247e-01	 1.238054351402323e+01
 1.577784801246143e+00	 2.657029962626958e-01	 1.237756321985851e+01
 1.571692947984227e+00	 2.996404323188487e-01	 1.237753117143303e+01
 1.564823230289037e+00	 3.336638088033086e-01	 1.238187567252972e+01
 1.614286904834791e+00	 0.000000000000000e+00	 1.226326122512528e+01
 1.613954706549798e+00	 3.274729182112748e-02	 1.229552712447077e+01
 1.612947291639554e+00	 6.575061423419915e-02	 1.231616062193855e+01
 1.611248774684285e+00	 9.899199102812814e-02	 1.232763162062908e+01
 1.608843776203160e+00	 1.324525065768599e-01	 1.233230690498776e+01
 1.605717481412379e+00	 1.661123148954807e-01	 1.233243310426002e+01
 1.601855699690321e+00	 1.999506526318325e-01	 1.233011947608205e+01
 1.597244924473770e+00	 2.339458561440600e-01	 1.232732061995152e+01
 1.591872393288765e+00	 2.680753827949168e-01	 1.232581923991682e+01
 1.585726147600425e+00	 3.023158365714738e-01	 1.232720908516228e+01
 1.578795092148498e+00	 3.366429981141584e-01	 1.233287820612873e+01
 1.628572881900711e+00	 0.000000000000000e+00	 1.220203234234995e+01
 1.628237743755919e+00	 3.303709598110283e-02	 1.223625108704703e+01
 1.627221413511901e+00	 6.633248835134901e-02	 1.225868832013314e+01
 1.625507865167491e+00	 9.986804181537659e-02	 1.227185489324922e+01
 1.623081583137882e+00	 1.336246733493043e-01	 1.227814846793936e+01
 1.619927621532703e+00	 1.675823613369837e-01	 1.227983575276503e+01
 1.616031664147422e+00	 2.017201586765867e-01	 1.227903458961597e+01
 1.611380084889633e+00	 2.360162100092826e-01	 1.227769600639917e+01
 1.605960008341164e+00	 2.704477732019947e-01	 1.227758636307427e+01
 1.599759370137554e+00	 3.049912451938342e-01	 1.228026972746388e+01
 1.592766976828704e+00	 3.396221922908876e-01	 1.228709062627267e+01
 1.642858878966899e+00	 0.000000000000000e+00	 1.214386956994664e+01
 1.642520800958195e+00	 3.332690054684562e-02	 1.218016195282008e+01
 1.641495555367929e+00	 6.691436328318649e-02	 1.220450354198261e+01
 1.639766975613346e+00	 1.007440938291657e-01	 1.221944353590607e+01
 1.637319410005468e+00	 1.347968417628436e-01	 1.222740774349130e+01
 1.634137781547173e+00	 1.690524098365947e-01	 1.223068010692558e+01
 1.630207648450840e+00	 2.034896671986659e-01	 1.223138410443471e+01
 1.625515265094705e+00	 2.380865667729873e-01	 1.223146415753912e+01
 1.620047643116225e+00	 2.728201669303749e-01	 1.223266717738203e+01
 1.613792612321206e+00	 3.076666575616935e-01	 1.223652439425561e+01
 1.606738881069569e+00	 3.426013906383932e-01	 1.224433362347764e+01
 1.657144892699808e+00	 0.000000000000000e+00	 1.208853078648253e+01
 1.656803874823768e+00	 3.361670545068816e-02	 1.212702357929626e+01
 1.655769713876872e+00	 6.749623889386683e-02	 1.215337615715878e+01
 1.654026102694607e+00	 1.016201468649986e-01	 1.217017353810108e+01
 1.651557253483665e+00	 1.359690115438903e-01	 1.217986702479432e+01
 1.648347958140016e+00	 1.705224600512339e-01	 1.218475502496742e+01
 1.644383649292800e+00	 2.052591777851378e-01	 1.218696378403485e+01
 1.639650461790754e+00	 2.401569259520683e-01	 1.218842816196537e+01
 1.634135294326828e+00	 2.751925634265019e-01	 1.219087259652966e+01
 1.627825870876976e+00	 3.103420730508160e-01	 1.219579240469893e+01
 1.620710801611011e+00	 3.455805924615732e-01	 1.220443558298903e+01
 1.671430919765895e+00	 0.000000000000000e+00	 1.203578354508253e+01
 1.671086962019786e+00	 3.390651062496277e-02	 1.207660931889445e+01
 1.670043885707968e+00	 6.807811504754545e-02	 1.210508534471790e+01
 1.668285243084035e+00	 1.024962007183786e-01	 1.212383000502028e+01
 1.665795110250220e+00	 1.371411824188566e-01	 1.213531751648086e+01
 1.662558147995456e+00	 1.719925116378220e-01	 1.214185805952465e+01
 1.658559663365526e+00	 2.070286900230698e-01	 1.214557785398315e+01
 1.653785671679549e+00	 2.422272870634203e-01	 1.214839932032648e+01
 1.648222958685861e+00	 2.775649621368212e-01	 1.215202147614812e+01
 1.641859142530455e+00	 3.130174910369654e-01	 1.215790072726947e+01
 1.634682735192946e+00	 3.485597970653249e-01	 1.216723222182584e+01
 1.685716956831615e+00	 0.000000000000000e+00	 1.198540466364984e+01
 1.685370059213394e+00	 3.419631600200176e-02	 1.202870161309238e+01
 1.684318067530453e+00	 6.865999160837752e-02	 1.205941919146690e+01
 1.682544393454392e+00	 1.033722551848091e-01	 1.208020676052338e+01
 1.680032976982881e+00	 1.383133541141549e-01	 1.209355894278847e+01
 1.676768347797721e+00	 1.734625642532795e-01	 1.210179507151833e+01
 1.672735687361242e+00	 2.087982034995292e-01	 1.210703862227900e+01
 1.667920891462859e+00	 2.442976496239379e-01	 1.211119677300803e+01
 1.662310632906206e+00	 2.799373625077780e-01	 1.211594024975431e+01
 1.655892424007237e+00	 3.156929108959058e-01	 1.212268362501015e+01
 1.648654678555294e+00	 3.515390037545457e-01	 1.213256624449047e+01
 1.700003000563425e+00	 0.000000000000000e+00	 1.193717983573164e+01
 1.699653163071738e+00	 3.448612151413742e-02	 1.198309160702260e+01
 1.698592256013564e+00	 6.924186844051838e-02	 1.201617431057372e+01
 1.696803550478436e+00	 1.042483100597932e-01	 1.203910597015565e+01
 1.694270850359394e+00	 1.394855263561977e-01	 1.205439917546391e+01
 1.690978554231035e+00	 1.749326175545268e-01	 1.206437986354615e+01
 1.686911717972173e+00	 2.105677178015834e-01	 1.207116611892656e+01
 1.682056117842452e+00	 2.463680131505156e-01	 1.207664714668543e+01
 1.676398313700747e+00	 2.823097639858172e-01	 1.208246258318310e+01
 1.669925712032915e+00	 3.183683320034011e-01	 1.208998231883977e+01
 1.662626628437969e+00	 3.545182118341332e-01	 1.210028701624691e+01
 1.714289047627778e+00	 0.000000000000000e+00	 1.189090326082625e+01
 1.713936270261961e+00	 3.477592709370207e-02	 1.193957878332575e+01
 1.712866447826537e+00	 6.982374540812339e-02	 1.197515547924131e+01
 1.711062710828929e+00	 1.051243651388343e-01	 1.200033778301512e+01
 1.708508727057505e+00	 1.406576988713972e-01	 1.201765388029411e+01
 1.705188763979623e+00	 1.764026711984846e-01	 1.202943383164621e+01
 1.701087751890541e+00	 2.123372325163000e-01	 1.203778775359687e+01
 1.696191347520097e+00	 2.484383771600481e-01	 1.204458421864703e+01
 1.690485997782368e+00	 2.846821660173839e-01	 1.205142904642913e+01
 1.683959003333080e+00	 3.210437537352151e-01	 1.205964466786397e+01
 1.676598581580888e+00	 3.574974206089848e-01	 1.207025025294322e+01
 1.536879588072675e+00	 3.277054475596566e-01	 1.249025829443658e+01
 1.529359222129145e+00	 3.611789783415347e-01	 1.248823565654971e+01
 1.521056139060902e+00	 3.946875295879635e-01	 1.247534279153845e+01
 1.511962397240521e+00	 4.282053831011283e-01	 1.245271523477057e+01
 1.502071113759757e+00	 4.617061818853215e-01	 1.242140693509456e+01
 1.491376514271011e+00	 4.951629809952903e-01	 1.238238385542653e+01
 1.479873980149320e+00	 5.285483025250732e-01	 1.233651786696316e+01
 1.467560092601489e+00	 5.618341945948696e-01	 1.228458101085137e+01
 1.454432673355103e+00	 5.949922941569014e-01	 1.222724020668098e+01
 1.440490821570163e+00	 6.279938934045739e-01	 1.216505249229703e+01
 1.425734946630075e+00	 6.608100095329462e-01	 1.209846557311189e+01
 1.550851394510401e+00	 3.306846250534405e-01	 1.243427041248628e+01
 1.543262660753379e+00	 3.644624644466162e-01	 1.243413496725793e+01
 1.534884094173004e+00	 3.982756426762859e-01	 1.242351633901695e+01
 1.525707680944315e+00	 4.320982077398996e-01	 1.240351280388500e+01
 1.515726475586372e+00	 4.659035630296869e-01	 1.237513825327919e+01
 1.504934651256828e+00	 4.996645186432699e-01	 1.233931588431121e+01
 1.493327547342673e+00	 5.333533468724031e-01	 1.229687219297005e+01
 1.480901713970360e+00	 5.669418417260944e-01	 1.224853134376995e+01
 1.467654953064725e+00	 6.004013823074373e-01	 1.219490999524563e+01
 1.453586355596186e+00	 6.337029998264971e-01	 1.213651266600791e+01
 1.438696334669837e+00	 6.668174479949772e-01	 1.207372773080906e+01
 1.564823230289037e+00	 3.336638088033086e-01	 1.238187567252972e+01
 1.557166128574940e+00	 3.677459574467969e-01	 1.238341238545360e+01
 1.548712078323922e+00	 4.018637632994254e-01	 1.237485546167942e+01
 1.539452993513331e+00	 4.359910405534110e-01	 1.235726447068905e+01
 1.529381866089396e+00	 4.701009529884128e-01	 1.233161178047466e+01
 1.518492816714911e+00	 5.041660657444060e-01	 1.229877634629707e+01
 1.506781142788726e+00	 5.381584013103312e-01	 1.225953781143274e+01
 1.494243363356876e+00	 5.720494995834654e-01	 1.221457099334287e+01
 1.480877260541402e+00	 6.058104818172241e-01	 1.216444083456130e+01
 1.466681917123116e+00	 6.394121182377791e-01	 1.210959790313501e+01
 1.451657749928804e+00	 6.728248990729171e-01	 1.205037453242813e+01
 1.578795092148498e+00	 3.366429981141584e-01	 1.233287820612873e+01
 1.571069622349703e+00	 3.710294565759766e-01	 1.233588247932672e+01
 1.562540088287140e+00	 4.054518906202006e-01	 1.232918508878586e+01
 1.553198331740336e+00	 4.398838806333745e-01	 1.231380548786047e+01
 1.543037282082569e+00	 4.742983507821346e-01	 1.229067309426943e+01
 1.532051007481672e+00	 5.086676212483482e-01	 1.226062118560735e+01
 1.520234763348278e+00	 5.429634647176710e-01	 1.222438111607829e+01
 1.507585037647940e+00	 5.771571669751688e-01	 1.218257692753556e+01
 1.494099592699866e+00	 6.112195914240948e-01	 1.213572043393770e+01
 1.479777503095249e+00	 6.451212473062344e-01	 1.208420686407527e+01
 1.464619189382567e+00	 6.788323613649613e-01	 1.202831115265061e+01
 1.592766976828704e+00	 3.396221922908876e-01	 1.228709062627267e+01
 1.584973138833540e+00	 3.743129610680547e-01	 1.229136793178521e+01
 1.576368120836146e+00	 4.090400238014308e-01	 1.228633789835799e+01
 1.566943692418100e+00	 4.437767270715023e-01	 1.227297849071755e+01
 1.556692720379632e+00	 4.784957554314885e-01	 1.225217478766807e+01
 1.545609220393526e+00	 5.131691841047462e-01	 1.222471299260271e+01
 1.533688405882126e+00	 5.477685359732344e-01	 1.219127477448235e+01
 1.520926733730455e+00	 5.822648427093915e-01	 1.215243201191130e+01
 1.507321946454855e+00	 6.166287098658830e-01	 1.210864201912950e+01
 1.492873110456881e+00	 6.508303856996788e-01	 1.206024333869715e+01
 1.477580650006715e+00	 6.848398334693059e-01	 1.200745219113038e+01
 1.606738881069569e+00	 3.426013906383932e-01	 1.224433362347764e+01
 1.598876674782327e+00	 3.775964701569309e-01	 1.224969914938123e+01
 1.590196172744423e+00	 4.126281620059348e-01	 1.224615393898417e+01
 1.580689072339393e+00	 4.476695789595059e-01	 1.223463313199188e+01
 1.570348177794325e+00	 4.826931659571098e-01	 1.221597611695846e+01
 1.559167452286884e+00	 5.176707532632487e-01	 1.219092066490700e+01
 1.547142067251067e+00	 5.525736139558342e-01	 1.216009740265534e+01
 1.534268448491324e+00	 5.873725255943198e-01	 1.212402469791642e+01
 1.520544318721103e+00	 6.220378358804218e-01	 1.208310403459702e+01
 1.505968736152310e+00	 6.565395320859273e-01	 1.203761596288935e+01
 1.490542128776837e+00	 6.908473139841474e-01	 1.198771671449600e+01
 1.620710801611011e+00	 3.455805924615732e-01	 1.220443558298903e+01
 1.612780226951937e+00	 3.808799830765046e-01	 1.221071389172160e+01
 1.604024240785459e+00	 4.162163043965318e-01	 1.220848027148910e+01
 1.594434468296982e+00	 4.515624353890975e-01	 1.219862573584365e+01
 1.584003651140387e+00	 4.868905813796344e-01	 1.218194266819421e+01
 1.572725699998159e+00	 5.221723276735052e-01	 1.215911908651347e+01
 1.560595744315899e+00	 5.573786975442835e-01	 1.213073325696367e+01
 1.547610178817450e+00	 5.924802144381413e-01	 1.209724872784278e+01
 1.533766706413343e+00	 6.274469682055448e-01	 1.205900986177034e+01
 1.519064377125835e+00	 6.622486851327958e-01	 1.201623795042192e+01
 1.503503622668521e+00	 6.968548015076813e-01	 1.196902800213761e+01
 1.634682735192946e+00	 3.485597970653249e-01	 1.216723222182584e+01
 1.626683792098246e+00	 3.841634990606757e-01	 1.217425692013792e+01
 1.617852321732738e+00	 4.198044501360408e-01	 1.217317062928083e+01
 1.608179877083639e+00	 4.554552954519889e-01	 1.216481896996940e+01
 1.597659137231561e+00	 4.910880007196983e-01	 1.214994604117977e+01
 1.586283960363763e+00	 5.266739062851653e-01	 1.212918882379623e+01
 1.574049433937420e+00	 5.621837856173943e-01	 1.210307194234952e+01
 1.560951921595736e+00	 5.975879080490416e-01	 1.207200285547002e+01
 1.546989106446313e+00	 6.328561055790852e-01	 1.203626755236044e+01
 1.532160030321749e+00	 6.679578435080992e-01	 1.199602683920435e+01
 1.516465128657361e+00	 7.028622946381038e-01	 1.195131330572196e+01
 1.648654678555294e+00	 3.515390037545457e-01	 1.213256624449047e+01
 1.640587366977126e+00	 3.874470173433434e-01	 1.214017966447471e+01
 1.631680412359747e+00	 4.233925983872808e-01	 1.214008509626794e+01
 1.621925295492131e+00	 4.593481582398919e-01	 1.213308153472971e+01
 1.611314632881585e+00	 4.952854229979368e-01	 1.211986354992059e+01
 1.599842230220112e+00	 5.311754880478783e-01	 1.210101583742541e+01
 1.587503132976426e+00	 5.669888770539796e-01	 1.207700813588350e+01
 1.574293673713085e+00	 6.026956052352079e-01	 1.204819058145856e+01
 1.560211515734747e+00	 6.382652467388765e-01	 1.201478957582534e+01
 1.545255692684351e+00	 6.736670058796529e-01	 1.197690425108741e+01
 1.529426643718942e+00	 7.088697919736108e-01	 1.193450362162208e+01
 1.662626628437969e+00	 3.545182118341332e-01	 1.210028701624691e+01
 1.654490948344454e+00	 3.907305371584074e-01	 1.210833990693043e+01
 1.645508509439972e+00	 4.269807483130709e-01	 1.210908980131411e+01
 1.635670720315228e+00	 4.632410228445187e-01	 1.210328786829644e+01
 1.624970134904200e+00	 4.994828472349860e-01	 1.209157793857066e+01
 1.613400506403614e+00	 5.356770719112931e-01	 1.207449120925094e+01
 1.600956838293715e+00	 5.717939707328521e-01	 1.205244132474889e+01
 1.587635432056398e+00	 6.078033048048268e-01	 1.202571990262653e+01
 1.573433931193380e+00	 6.436743904227519e-01	 1.199449258015966e+01
 1.558351361157939e+00	 6.793761709152729e-01	 1.195879566441293e+01
 1.542388164828857e+00	 7.148772921123988e-01	 1.191853347550235e+01
 1.676598581580888e+00	 3.574974206089848e-01	 1.207025025294322e+01
 1.668394532956103e+00	 3.940140577397678e-01	 1.207860148195760e+01
 1.659336609746896e+00	 4.305688990762300e-01	 1.208005662826623e+01
 1.649416148345699e+00	 4.671338883575807e-01	 1.207531786688589e+01
 1.638625640113148e+00	 5.036802724514817e-01	 1.206497711197418e+01
 1.626958785750686e+00	 5.401786568250593e-01	 1.204951088328268e+01
 1.614410546750085e+00	 5.765990655328240e-01	 1.202927555781645e+01
 1.600977193512580e+00	 6.129110055660848e-01	 1.200450307430114e+01
 1.586656349736946e+00	 6.490835353685447e-01	 1.197529716523078e+01
 1.571447032686810e+00	 6.850853372827735e-01	 1.194163019856858e+01
 1.555349688962692e+00	 7.208847936526629e-01	 1.190334071835104e+01
 1.425734946630075e+00	 6.608100095329462e-01	 1.209846557311189e+01
 1.410165679786421e+00	 6.934137300872995e-01	 1.202202421399920e+01
 1.393787143848190e+00	 7.257734257371631e-01	 1.193051372957263e+01
 1.376603839868557e+00	 7.578597209617606e-01	 1.182468176738036e+01
 1.358621663420585e+00	 7.896432714658930e-01	 1.170516075570456e+01
 1.339847912380150e+00	 8.210948457838531e-01	 1.157246034500650e+01
 1.320291289037849e+00	 8.521854080414092e-01	 1.142696248010295e+01
 1.299961896400895e+00	 8.828862014191952e-01	 1.126891950132445e+01
 1.278871228587822e+00	 9.131688318442138e-01	 1.109845559430557e+01
 1.257032155262793e+00	 9.430053514238217e-01	 1.091557181095063e+01
 1.234458900101805e+00	 9.723683411288404e-01	 1.072015477132538e+01
 1.438696334669837e+00	 6.668174479949772e-01	 1.207372773080906e+01
 1.422985527275958e+00	 6.997175696964119e-01	 1.200097213168868e+01
 1.406458093704091e+00	 7.323714480573985e-01	 1.191319804472722e+01
 1.389118575926604e+00	 7.647494405036754e-01	 1.181118383947183e+01
 1.370972923113356e+00	 7.968219359704288e-01	 1.169553041650306e+01
 1.352028499485387e+00	 8.285594372480739e-01	 1.156671329970022e+01
 1.332294086446027e+00	 8.599326444966284e-01	 1.142507736058847e+01
 1.311779878849165e+00	 8.909125394678691e-01	 1.127083471217461e+01
 1.290497475306639e+00	 9.214704699576771e-01	 1.110406611646783e+01
 1.268459862481026e+00	 9.515782339985250e-01	 1.092472614767076e+01
 1.245681393356093e+00	 9.812081632942572e-01	 1.073265223406870e+01
 1.451657749928804e+00	 6.728248990729171e-01	 1.205037453242813e+01
 1.435805401687458e+00	 7.060214225439064e-01	 1.198118966096458e+01
 1.419129070169253e+00	 7.389694842338115e-01	 1.189687929001591e+01
 1.401633338265831e+00	 7.716391745143251e-01	 1.179837458571787e+01
 1.383324208743967e+00	 8.040006155504626e-01	 1.168628103046209e+01
 1.364209112170008e+00	 8.360240443882061e-01	 1.156104691850294e+01
 1.344296909060183e+00	 8.676798972212709e-01	 1.142298723900856e+01
 1.323597886115254e+00	 8.989388943720311e-01	 1.127228128533313e+01
 1.302123746440581e+00	 9.297721255047077e-01	 1.110897394715224e+01
 1.279887593697410e+00	 9.601511345763568e-01	 1.093298094855660e+01
 1.256903910177548e+00	 9.900480040233278e-01	 1.074409816984413e+01
 1.464619189382567e+00	 6.788323613649613e-01	 1.202831115265061e+01
 1.448625300029533e+00	 7.123252871588173e-01	 1.196247327996819e+01
 1.431800070287028e+00	 7.455675327267967e-01	 1.188151356409614e+01
 1.414148123966046e+00	 7.785289213860510e-01	 1.178623141767225e+01
 1.395675517430381e+00	 8.111793085309283e-01	 1.167740695880505e+01
 1.376389747591809e+00	 8.434886654624829e-01	 1.155547371733826e+01
 1.356299754079610e+00	 8.754271644076367e-01	 1.142072394468370e+01
 1.335415915441594e+00	 9.069652642588758e-01	 1.127331145592195e+01
 1.313750039276837e+00	 9.380737965482800e-01	 1.111325273199844e+01
 1.291315346245472e+00	 9.687240511570182e-01	 1.094043216442669e+01
 1.268126447947593e+00	 9.988878612534782e-01	 1.075461159643038e+01
 1.477580650006715e+00	 6.848398334693059e-01	 1.200745219113038e+01
 1.461445219310796e+00	 7.186291620701782e-01	 1.194473228751164e+01
 1.444471091100772e+00	 7.521655919967494e-01	 1.186694082548078e+01
 1.426662930107062e+00	 7.854186795111947e-01	 1.177473845383458e+01
 1.408026846290560e+00	 8.183580132367593e-01	 1.166890853754237e+01
 1.388570402908588e+00	 8.509532987291373e-01	 1.155001141552177e+01
 1.368302618703605e+00	 8.831744442480259e-01	 1.141832370837463e+01
 1.347233964070615e+00	 9.149916472555970e-01	 1.127398103645491e+01
 1.325376351102590e+00	 9.463754811513688e-01	 1.111697885605029e+01
 1.302743117458739e+00	 9.772969817402075e-01	 1.094717764135553e+01
 1.279349004047656e+00	 1.007727732922136e+00	 1.076431258389086e+01
 1.490542128776837e+00	 6.908473139841474e-01	 1.198771671449600e+01
 1.474265156539857e+00	 7.249330458070223e-01	 1.192789722385558e+01
 1.457142129653841e+00	 7.587636605040647e-01	 1.185305848040269e+01
 1.439177753768686e+00	 7.923084472820973e-01	 1.176382393218329e+01
 1.420378192442467e+00	 8.255367279928895e-01	 1.166079173095403e+01
 1.400751075278142e+00	 8.584179424464018e-01	 1.154468260936971e+01
 1.380305500131459e+00	 8.909217349347384e-01	 1.141582685881837e+01
 1.359052029244751e+00	 9.230180414893885e-01	 1.127434913894154e+01
 1.337002679205026e+00	 9.546771773769483e-01	 1.112023119388575e+01
 1.314170904670738e+00	 9.858699243256250e-01	 1.095331690108647e+01
 1.290571575859161e+00	 1.016567616966727e+00	 1.077332206730407e+01
 1.503503622668521e+00	 6.968548015076813e-01	 1.196902800213761e+01
 1.487085108725331e+00	 7.312369368983842e-01	 1.191190244378461e+01
 1.469813182989592e+00	 7.653617367091381e-01	 1.183981366349262e+01
 1.451692592030731e+00	 7.991982230911011e-01	 1.175335397164747e+01
 1.432729553004065e+00	 8.327154511242526e-01	 1.165305881570558e+01
 1.412931761858268e+00	 8.658825948725100e-01	 1.153951445501508e+01
 1.392308395562468e+00	 8.986690346600738e-01	 1.141327752703159e+01
 1.370870108206433e+00	 9.310444450874450e-01	 1.127447790322060e+01
 1.348629020871332e+00	 9.629788832879940e-01	 1.112309086435401e+01
 1.325598705214996e+00	 9.944428769129717e-01	 1.095895092435607e+01
 1.301794160763533e+00	 1.025407511324678e+00	 1.078176166065064e+01
 1.516465128657361e+00	 7.028622946381038e-01	 1.195131330572196e+01
 1.499905072875827e+00	 7.375408338732975e-01	 1.189668589084455e+01
 1.482484248151378e+00	 7.719598190723639e-01	 1.182715665987603e+01
 1.464207441973005e+00	 8.060880053305461e-01	 1.174329081131084e+01
 1.445080925093318e+00	 8.398941809557829e-01	 1.164559847467565e+01
 1.425112459806761e+00	 8.733472542656954e-01	 1.153453835988142e+01
 1.404311302195926e+00	 9.064163416163323e-01	 1.141072335791712e+01
 1.382688198198093e+00	 9.390708561769601e-01	 1.127443223115138e+01
 1.360255373388692e+00	 9.712805969474798e-01	 1.112564098964488e+01
 1.337026516425042e+00	 1.003015837501946e+00	 1.096418193695710e+01
 1.313016756142200e+00	 1.034247413933416e+00	 1.078975347178842e+01
 1.529426643718942e+00	 7.088697919736108e-01	 1.193450362162208e+01
 1.512725045999958e+00	 7.438447352607953e-01	 1.188218888378814e+01
 1.495155322182557e+00	 7.785579060541381e-01	 1.181504070800109e+01
 1.476722300675319e+00	 8.129777923927746e-01	 1.173360112690593e+01
 1.457432305828187e+00	 8.470729158124134e-01	 1.163835932947636e+01
 1.437293166281423e+00	 8.808119188841904e-01	 1.152974921988703e+01
 1.416314217231126e+00	 9.141636539958131e-01	 1.140821522874176e+01
 1.394506296462164e+00	 9.470972728851270e-01	 1.127427952631653e+01
 1.371881734044294e+00	 9.795823164183801e-01	 1.112796645843462e+01
 1.348454335634401e+00	 1.011588804092248e+00	 1.096911319837862e+01
 1.324239359376585e+00	 1.043087322730367e+00	 1.079741991845246e+01
 1.542388164828857e+00	 7.148772921123988e-01	 1.191853347550235e+01
 1.525545025106338e+00	 7.501486395899122e-01	 1.186835591451103e+01
 1.507826402126483e+00	 7.851559961148554e-01	 1.180342181316984e+01
 1.489237165217485e+00	 8.198675826701277e-01	 1.172425390793727e+01
 1.469783692326635e+00	 8.542516540190780e-01	 1.163132474080057e+01
 1.449473878440046e+00	 8.882765869862278e-01	 1.152505407337608e+01
 1.428317137867365e+00	 9.219109699908171e-01	 1.140580697408240e+01
 1.406324400241078e+00	 9.551236933391417e-01	 1.127408943891356e+01
 1.383508100125322e+00	 9.878840397636706e-01	 1.113015369286990e+01
 1.359882160176601e+00	 1.020161774683578e+00	 1.097384879287268e+01
 1.335461967848114e+00	 1.051927235652958e+00	 1.080488354522069e+01
 1.555349688962692e+00	 7.208847936526629e-01	 1.190334071835104e+01
 1.538365007203576e+00	 7.564525453896814e-01	 1.185513445680903e+01
 1.520497485026512e+00	 7.917540877149108e-01	 1.179225857114885e+01
 1.501752032679311e+00	 8.267573745549470e-01	 1.171522029813519e+01
 1.482135081706625e+00	 8.614303939007104e-01	 1.162447974600732e+01
 1.461654593440430e+00	 8.957412568300415e-01	 1.152044713074507e+01
 1.440320061303935e+00	 9.296582877936430e-01	 1.140348061289416e+01
 1.418142506777267e+00	 9.631501156661962e-01	 1.127393361553314e+01
 1.395134468918961e+00	 9.961857650463246e-01	 1.113229041916678e+01
 1.371309987385168e+00	 1.028734747275635e+00	 1.097849342280780e+01
 1.346684578938213e+00	 1.060767150638615e+00	 1.081226684139011e+01
 1.234458900101805e+00	 9.723683411288404e-01	 1.072015477132538e+01
 1.211167009889495e+00	 1.001230994946606e+00	 1.051219698083044e+01
 1.187173310896686e+00	 1.029567207711080e+00	 1.029207656261620e+01
 1.162495880220790e+00	 1.057351644371346e+00	 1.006019482291272e+01
 1.137154004740159e+00	 1.084559811993984e+00	 9.816985894800224e+00
 1.111168131322751e+00	 1.111168131322752e+00	 9.562933986910569e+00
 1.084559811993984e+00	 1.137154004740160e+00	 9.298591622345917e+00
 1.057351644371345e+00	 1.162495880220790e+00	 9.024598201257609e+00
 1.029567207711079e+00	 1.187173310896686e+00	 8.741698159282230e+00
 1.001230994946606e+00	 1.211167009889495e+00	 8.450757958290907e+00
 9.723683411288406e-01	 1.234458900101806e+00	 8.152781138092131e+00
 1.245681393356093e+00	 9.812081632942572e-01	 1.073265223406870e+01
 1.222177756052655e+00	 1.010333208138176e+00	 1.052797191897161e+01
 1.197965929809548e+00	 1.038927026041595e+00	 1.031121852091461e+01
 1.173064156063485e+00	 1.066964051632084e+00	 1.008277548607145e+01
 1.147491897030265e+00	 1.094419569310411e+00	 9.843063497403023e+00
 1.121269785460785e+00	 1.121269785460785e+00	 9.592558618295049e+00
 1.094419569310411e+00	 1.147491897030266e+00	 9.331811510299673e+00
 1.066964051632084e+00	 1.173064156063485e+00	 9.061467023891923e+00
 1.038927026041595e+00	 1.197965929809549e+00	 8.782283395236560e+00
 1.010333208138175e+00	 1.222177756052656e+00	 8.495150242896507e+00
 9.812081632942573e-01	 1.245681393356094e+00	 8.201104548794657e+00
 1.256903910177548e+00	 9.900480040233278e-01	 1.074409816984413e+01
 1.233188525338287e+00	 1.019435440444377e+00	 1.054259958455414e+01
 1.208758571386796e+00	 1.048286864027678e+00	 1.032917242435623e+01
 1.183632454099435e+00	 1.076576479078796e+00	 1.010416953106192e+01
 1.157829811029820e+00	 1.104279347332226e+00	 9.867983688313736e+00
 1.131371460812173e+00	 1.131371460812174e+00	 9.621066809389662e+00
 1.104279347332226e+00	 1.157829811029820e+00	 9.363950304586091e+00
 1.076576479078796e+00	 1.183632454099436e+00	 9.097265889899278e+00
 1.048286864027677e+00	 1.208758571386797e+00	 8.821766027698086e+00
 1.019435440444377e+00	 1.233188525338288e+00	 8.538343147332093e+00
 9.900480040233277e-01	 1.256903910177548e+00	 8.248046781919278e+00
 1.268126447947593e+00	 9.988878612534782e-01	 1.075461159643038e+01
 1.244199315177236e+00	 1.028537689741422e+00	 1.055621919065195e+01
 1.219551233110184e+00	 1.057646719485435e+00	 1.034609147493798e+01
 1.194200771862754e+00	 1.086188924468655e+00	 1.012453824867901e+01
 1.168167744326701e+00	 1.114139143758882e+00	 9.891910263836046e+00
 1.141473155019926e+00	 1.141473155019926e+00	 9.648619606086807e+00
 1.114139143758882e+00	 1.168167744326702e+00	 9.395161382921058e+00
 1.086188924468655e+00	 1.194200771862755e+00	 9.132135940514102e+00
 1.057646719485435e+00	 1.219551233110185e+00	 8.860270754622196e+00
 1.028537689741422e+00	 1.244199315177236e+00	 8.580441093932764e+00
 9.988878612534781e-01	 1.268126447947593e+00	 8.293688540243327e+00
 1.279349004047656e+00	 1.007727732922136e+00	 1.076431258389086e+01
 1.255210123000349e+00	 1.037639953905520e+00	 1.056897028970227e+01
 1.230343912461471e+00	 1.067006590230976e+00	 1.036212874821967e+01
 1.204769106887557e+00	 1.095801385558832e+00	 1.014404257262446e+01
 1.178505694508791e+00	 1.123998956289837e+00	 9.915006654084110e+00
 1.151574865727051e+00	 1.151574865727052e+00	 9.675377885448656e+00
 1.123998956289837e+00	 1.178505694508792e+00	 9.425598341487284e+00
 1.095801385558832e+00	 1.204769106887557e+00	 9.166219094868191e+00
 1.067006590230976e+00	 1.230343912461471e+00	 8.897923764475182e+00
 1.037639953905520e+00	 1.255210123000350e+00	 8.621550841401461e+00
 1.007727732922135e+00	 1.279349004047656e+00	 8.338113821249626e+00
 1.290571575859161e+00	 1.016567616966727e+00	 1.077332206730407e+01
 1.266220946238475e+00	 1.046742230812884e+00	 1.058099261504235e+01
 1.241136606922412e+00	 1.076366474080407e+00	 1.037743705508050e+01
 1.215337456707958e+00	 1.105413860106501e+00	 1.016284295338942e+01
 1.188843659163968e+00	 1.133858782624547e+00	 9.937435801421145e+00
 1.161676590576559e+00	 1.161676590576559e+00	 9.701502231681085e+00
 1.133858782624547e+00	 1.188843659163969e+00	 9.455414861999477e+00
 1.105413860106501e+00	 1.215337456707958e+00	 9.199657902301372e+00
 1.076366474080407e+00	 1.241136606922412e+00	 8.934852568565205e+00
 1.046742230812883e+00	 1.266220946238475e+00	 8.661781292573709e+00
 1.016567616966727e+00	 1.290571575859161e+00	 8.381409696395302e+00
 1.301794160763533e+00	 1.025407511324678e+00	 1.078176166065064e+01
 1.277231782322459e+00	 1.055844518339723e+00	 1.059242592207523e+01
 1.251929313974762e+00	 1.085726368849838e+00	 1.039216880206690e+01
 1.225905818858070e+00	 1.115026345868833e+00	 1.018109923015587e+01
 1.199181635880113e+00	 1.143718620462467e+00	 9.959360036779994e+00
 1.171778327211458e+00	 1.171778327211458e+00	 9.727152810259835e+00
 1.143718620462467e+00	 1.199181635880114e+00	 9.484764577566128e+00
 1.115026345868833e+00	 1.225905818858070e+00	 9.232595394454254e+00
 1.085726368849838e+00	 1.251929313974763e+00	 8.971185834446768e+00
 1.055844518339723e+00	 1.277231782322459e+00	 8.701243304817428e+00
 1.025407511324678e+00	 1.301794160763533e+00	 8.423666094808134e+00
 1.313016756142200e+00	 1.034247413933416e+00	 1.078975347178842e+01
 1.288242628683150e+00	 1.064946814362249e+00	 1.060340982908730e+01
 1.262722031100280e+00	 1.095086272355376e+00	 1.040647585041724e+01
 1.236474190872010e+00	 1.124638840603001e+00	 1.019897050083597e+01
 1.209519622245105e+00	 1.153578467503053e+00	 9.980940953993397e+00
 1.181880073274757e+00	 1.181880073274757e+00	 9.752489240320102e+00
 1.153578467503053e+00	 1.209519622245105e+00	 9.513800937420404e+00
 1.124638840603001e+00	 1.236474190872010e+00	 9.265174937157205e+00
 1.095086272355376e+00	 1.262722031100281e+00	 9.007053220335754e+00
 1.064946814362248e+00	 1.288242628683150e+00	 8.740049502910614e+00
 1.034247413933416e+00	 1.313016756142199e+00	 8.464975591146716e+00
 1.324239359376585e+00	 1.043087322730367e+00	 1.079741991845246e+01
 1.299253482751394e+00	 1.074049116756672e+00	 1.061408365774003e+01
 1.273514755780722e+00	 1.104446182413130e+00	 1.042050937384318e+01
 1.247042570283890e+00	 1.134251342066178e+00	 1.021661499036120e+01
 1.219857615846823e+00	 1.163438321445762e+00	 1.000233928225337e+01
 1.191981826409463e+00	 1.191981826409464e+00	 9.777670465413749e+00
 1.163438321445762e+00	 1.219857615846824e+00	 9.542677070588880e+00
 1.134251342066178e+00	 1.247042570283891e+00	 9.297540082128162e+00
 1.104446182413130e+00	 1.273514755780723e+00	 9.042585210475334e+00
 1.074049116756672e+00	 1.299253482751395e+00	 8.778314094250696e+00
 1.043087322730367e+00	 1.324239359376585e+00	 8.505433197377858e+00
 1.335461967848114e+00	 1.051927235652958e+00	 1.080488354522069e+01
 1.310264341958040e+00	 1.083151423399203e+00	 1.062458627325537e+01
 1.284307485497844e+00	 1.113806096839209e+00	 1.043441971514108e+01
 1.257610954627826e+00	 1.143863848015535e+00	 1.023418991732516e+01
 1.230195614273149e+00	 1.173298179990049e+00	 1.002371475681021e+01
 1.202083584258589e+00	 1.202083584258589e+00	 9.802854622730580e+00
 1.173298179990048e+00	 1.230195614273149e+00	 9.571545648560946e+00
 1.143863848015536e+00	 1.257610954627827e+00	 9.329834418491419e+00
 1.113806096839208e+00	 1.284307485497845e+00	 9.077912951398162e+00
 1.083151423399203e+00	 1.310264341958040e+00	 8.816152686259356e+00
 1.051927235652957e+00	 1.335461967848114e+00	 8.545136158241709e+00
 1.346684578938213e+00	 1.060767150638615e+00	 1.081226684139011e+01
 1.321275203733934e+00	 1.092253732166055e+00	 1.063505592431464e+01
 1.295100217733402e+00	 1.123166013449718e+00	 1.044835624170392e+01
 1.268179341437932e+00	 1.153476356208247e+00	 1.025185135907701e+01
 1.240533615111960e+00	 1.183158040835369e+00	 1.004522598801534e+01
 1.212185344465141e+00	 1.212185344465141e+00	 9.828198910875400e+00
 1.183158040835369e+00	 1.240533615111961e+00	 9.600558747018143e+00
 1.153476356208246e+00	 1.268179341437933e+00	 9.362201424129289e+00
 1.123166013449718e+00	 1.295100217733403e+00	 9.113168089033223e+00
 1.092253732166054e+00	 1.321275203733934e+00	 8.853682105855473e+00
 1.060767150638615e+00	 1.346684578938213e+00	 8.584183750190386e+00
 9.723683411288406e-01	 1.234458900101806e+00	 8.152781138092131e+00
 9.430053514238215e-01	 1.257032155262794e+00	 7.849595839356526e+00
 9.131688318442132e-01	 1.278871228587822e+00	 7.542337600800961e+00
 8.828862014191952e-01	 1.299961896400895e+00	 7.231187963137581e+00
 8.521854080414087e-01	 1.320291289037849e+00	 6.916477404166372e+00
 8.210948457838527e-01	 1.339847912380151e+00	 6.598690091501353e+00
 7.896432714658925e-01	 1.358621663420585e+00	 6.278463380686778e+00
 7.578597209617604e-01	 1.376603839868557e+00	 5.956581887521742e+00
 7.257734257371627e-01	 1.393787143848190e+00	 5.633966131071038e+00
 6.934137300872991e-01	 1.410165679786422e+00	 5.311655913323495e+00
 6.608100095329461e-01	 1.425734946630075e+00	 4.990788766662703e+00
 9.812081632942573e-01	 1.245681393356094e+00	 8.201104548794657e+00
 9.515782339985246e-01	 1.268459862481026e+00	 7.901898166525552e+00
 9.214704699576766e-01	 1.290497475306639e+00	 7.598468424718083e+00
 8.909125394678685e-01	 1.311779878849166e+00	 7.290856772433979e+00
 8.599326444966280e-01	 1.332294086446028e+00	 6.979256811614992e+00
 8.285594372480736e-01	 1.352028499485388e+00	 6.664020987259438e+00
 7.968219359704285e-01	 1.370972923113356e+00	 6.345661762219967e+00
 7.647494405036750e-01	 1.389118575926605e+00	 6.024847071716075e+00
 7.323714480573981e-01	 1.406458093704092e+00	 5.702390029550054e+00
 6.997175696964111e-01	 1.422985527275958e+00	 5.379233037307744e+00
 6.668174479949773e-01	 1.438696334669837e+00	 5.058534573428669e+00
 9.900480040233277e-01	 1.256903910177548e+00	 8.248046781919278e+00
 9.601511345763564e-01	 1.279887593697410e+00	 7.952511840780762e+00
 9.297721255047072e-01	 1.302123746440582e+00	 7.652462620312820e+00
 8.989388943720305e-01	 1.323597886115255e+00	 7.347819870548030e+00
 8.676798972212705e-01	 1.344296909060183e+00	 7.038662013734950e+00
 8.360240443882055e-01	 1.364209112170008e+00	 6.725233631398428e+00
 8.040006155504622e-01	 1.383324208743968e+00	 6.407948153782613e+00
 7.716391745143246e-01	 1.401633338265832e+00	 6.087384513689321e+00
 7.389694842338108e-01	 1.419129070169253e+00	 5.764277713274807e+00
 7.060214225439060e-01	 1.435805401687458e+00	 5.440567299422231e+00
 6.728248990729170e-01	 1.451657749928804e+00	 5.125045148111029e+00
 9.988878612534781e-01	 1.268126447947593e+00	 8.293688540243327e+00
 9.687240511570175e-01	 1.291315346245473e+00	 8.001496444409112e+00
 9.380737965482796e-01	 1.313750039276837e+00	 7.704366619714464e+00
 9.069652642588754e-01	 1.335415915441594e+00	 7.402117883711723e+00
 8.754271644076362e-01	 1.356299754079611e+00	 7.094734529920988e+00
 8.434886654624822e-01	 1.376389747591809e+00	 6.782376477101006e+00
 8.111793085309278e-01	 1.395675517430381e+00	 6.465383316989245e+00
 7.785289213860508e-01	 1.414148123966047e+00	 6.144271989986324e+00
 7.455675327267963e-01	 1.431800070287028e+00	 5.819935046205419e+00
 7.123252871588168e-01	 1.448625300029533e+00	 5.500798152108324e+00
 6.788323613649613e-01	 1.464619189382567e+00	 5.190621911140179e+00
 1.007727732922135e+00	 1.279349004047656e+00	 8.338113821249626e+00
 9.772969817402068e-01	 1.302743117458739e+00	 8.048915705934883e+00
 9.463754811513685e-01	 1.325376351102590e+00	 7.754231550415446e+00
 9.149916472555962e-01	 1.347233964070615e+00	 7.453796395391783e+00
 8.831744442480255e-01	 1.368302618703605e+00	 7.147520827757246e+00
 8.509532987291364e-01	 1.388570402908589e+00	 6.835502663290034e+00
 8.183580132367586e-01	 1.408026846290560e+00	 6.518032202003210e+00
 7.854186795111944e-01	 1.426662930107062e+00	 6.195590753545577e+00
 7.521655919967490e-01	 1.444471091100773e+00	 5.873928372313015e+00
 7.186291620701775e-01	 1.461445219310796e+00	 5.560665242751920e+00
 6.848398334693059e-01	 1.477580650006715e+00	 5.255391952126472e+00
 1.016567616966727e+00	 1.290571575859161e+00	 8.381409696395302e+00
 9.858699243256248e-01	 1.314170904670739e+00	 8.094837256234793e+00
 9.546771773769478e-01	 1.337002679205027e+00	 7.802112981813320e+00
 9.230180414893882e-01	 1.359052029244751e+00	 7.502905695910510e+00
 8.909217349347384e-01	 1.380305500131460e+00	 7.197072087395983e+00
 8.584179424464011e-01	 1.400751075278142e+00	 6.884669804424947e+00
 8.255367279928891e-01	 1.420378192442468e+00	 6.565963772358856e+00
 7.923084472820969e-01	 1.439177753768687e+00	 6.243645553057655e+00
 7.587636605040642e-01	 1.457142129653841e+00	 5.928136288433857e+00
 7.249330458070220e-01	 1.474265156539858e+00	 5.620257628828082e+00
 6.908473139841474e-01	 1.490542128776837e+00	 5.319478310614553e+00
 1.025407511324678e+00	 1.301794160763533e+00	 8.423666094808134e+00
 9.944428769129710e-01	 1.325598705214997e+00	 8.139332390622839e+00
 9.629788832879937e-01	 1.348629020871333e+00	 7.848070678581764e+00
 9.310444450874443e-01	 1.370870108206433e+00	 7.549500539118290e+00
 8.986690346600733e-01	 1.392308395562468e+00	 7.243443972616427e+00
 8.658825948725094e-01	 1.412931761858267e+00	 6.929939786064792e+00
 8.327154511242522e-01	 1.432729553004066e+00	 6.609581979862551e+00
 7.991982230911002e-01	 1.451692592030731e+00	 6.292413734920871e+00
 7.653617367091377e-01	 1.469813182989592e+00	 5.982615108626701e+00
 7.312369368983839e-01	 1.487085108725331e+00	 5.679661484064522e+00
 6.968548015076812e-01	 1.503503622668521e+00	 5.383000089136771e+00
 1.034247413933416e+00	 1.313016756142199e+00	 8.464975591146716e+00
 1.003015837501945e+00	 1.337026516425043e+00	 8.182475836547724e+00
 9.712805969474790e-01	 1.360255373388693e+00	 7.892168360462547e+00
 9.390708561769592e-01	 1.382688198198093e+00	 7.593639905695401e+00
 9.064163416163318e-01	 1.404311302195926e+00	 7.286696408165852e+00
 8.733472542656946e-01	 1.425112459806762e+00	 6.971378565853472e+00
 8.398941809557823e-01	 1.445080925093319e+00	 6.653227034117254e+00
 8.060880053305455e-01	 1.464207441973005e+00	 6.341999183774073e+00
 7.719598190723636e-01	 1.482484248151379e+00	 6.037419223099619e+00
 7.375408338732968e-01	 1.499905072875827e+00	 5.738960159224987e+00
 7.028622946381037e-01	 1.516465128657361e+00	 5.446072561442055e+00
 1.043087322730367e+00	 1.324239359376585e+00	 8.505433197377858e+00
 1.011588804092248e+00	 1.348454335634402e+00	 8.224345526570572e+00
 9.795823164183798e-01	 1.371881734044294e+00	 7.934473468098640e+00
 9.470972728851269e-01	 1.394506296462165e+00	 7.635386772690439e+00
 9.141636539958126e-01	 1.416314217231127e+00	 7.326893363009151e+00
 8.808119188841896e-01	 1.437293166281423e+00	 7.010481447753819e+00
 8.470729158124131e-01	 1.457432305828188e+00	 6.698225867766362e+00
 8.129777923927742e-01	 1.476722300675320e+00	 6.392429753038810e+00
 7.785579060541377e-01	 1.495155322182557e+00	 6.092601116733972e+00
 7.438447352607950e-01	 1.512725045999959e+00	 5.798234240878091e+00
 7.088697919736107e-01	 1.529426643718942e+00	 5.508807276186461e+00
 1.051927235652957e+00	 1.335461967848114e+00	 8.545136158241709e+00
 1.020161774683578e+00	 1.359882160176601e+00	 8.265022376313569e+00
 9.878840397636699e-01	 1.383508100125321e+00	 7.975056934553193e+00
 9.551236933391410e-01	 1.406324400241079e+00	 7.674807888929935e+00
 9.219109699908166e-01	 1.428317137867365e+00	 7.364102639141452e+00
 8.882765869862271e-01	 1.449473878440046e+00	 7.051225496250524e+00
 8.542516540190774e-01	 1.469783692326635e+00	 6.744585156477553e+00
 8.198675826701273e-01	 1.489237165217485e+00	 6.443732112976060e+00
 7.851559961148549e-01	 1.507826402126484e+00	 6.148211387853820e+00
 7.501486395899116e-01	 1.525545025106338e+00	 5.857561608269123e+00
 7.148772921123988e-01	 1.542388164828856e+00	 5.571312156352397e+00
 1.060767150638615e+00	 1.346684578938213e+00	 8.584183750190386e+00
 1.028734747275635e+00	 1.371309987385168e+00	 8.304590067089960e+00
 9.961857650463243e-01	 1.395134468918961e+00	 8.013992962183936e+00
 9.631501156661958e-01	 1.418142506777268e+00	 7.711973555955952e+00
 9.296582877936426e-01	 1.440320061303935e+00	 7.400897547260285e+00
 8.957412568300408e-01	 1.461654593440431e+00	 7.093832543870680e+00
 8.614303939007100e-01	 1.482135081706625e+00	 6.792310921944127e+00
 8.267573745549465e-01	 1.501752032679311e+00	 6.495931738631246e+00
 7.917540877149102e-01	 1.520497485026513e+00	 6.204298767227254e+00
 7.564525453896809e-01	 1.538365007203576e+00	 5.917017488406497e+00
 7.208847936526629e-01	 1.555349688962692e+00	 5.633691594646400e+00
 6.608100095329461e-01	 1.425734946630075e+00	 4.990788766662705e+00
 6.279938934045742e-01	 1.440490821570162e+00	 4.676329970305800e+00
 5.949922941569017e-01	 1.454432673355103e+00	 4.375009271237521e+00
 5.618341945948699e-01	 1.467560092601490e+00	 4.086250142903257e+00
 5.285483025250735e-01	 1.479873980149320e+00	 3.809269810513502e+00
 4.951629809952906e-01	 1.491376514271011e+00	 3.543246565323412e+00
 4.617061818853219e-01	 1.502071113759757e+00	 3.287316946696213e+00
 4.282053831011286e-01	 1.511962397240521e+00	 3.040573004338771e+00
 3.946875295879637e-01	 1.521056139060901e+00	 2.802059686614258e+00
 3.611789783415348e-01	 1.529359222129144e+00	 2.570772397256236e+00
 3.277054475596566e-01	 1.536879588072675e+00	 2.345654759651215e+00
 6.668174479949773e-01	 1.438696334669837e+00	 5.058534573428669e+00
 6.337029998264974e-01	 1.453586355596186e+00	 4.748991272203186e+00
 6.004013823074378e-01	 1.467654953064726e+00	 4.451568793981785e+00
 5.669418417260947e-01	 1.480901713970360e+00	 4.165558973840568e+00
 5.333533468724034e-01	 1.493327547342673e+00	 3.890223706387027e+00
 4.996645186432702e-01	 1.504934651256828e+00	 3.624791578671080e+00
 4.659035630296873e-01	 1.515726475586372e+00	 3.368454507582919e+00
 4.320982077398997e-01	 1.525707680944315e+00	 3.120364436058600e+00
 3.982756426762863e-01	 1.534884094173004e+00	 2.879630138276093e+00
 3.644624644466165e-01	 1.543262660753379e+00	 2.645314180264441e+00
 3.306846250534405e-01	 1.550851394510401e+00	 2.416430079047719e+00
 6.728248990729170e-01	 1.451657749928804e+00	 5.125045148111029e+00
 6.394121182377791e-01	 1.466681917123116e+00	 4.820176049251928e+00
 6.058104818172244e-01	 1.480877260541401e+00	 4.526352467956244e+00
 5.720494995834655e-01	 1.494243363356876e+00	 4.242897426775253e+00
 5.381584013103314e-01	 1.506781142788726e+00	 3.969108455700495e+00
 5.041660657444063e-01	 1.518492816714911e+00	 3.704253839790926e+00
 4.701009529884130e-01	 1.529381866089396e+00	 3.447568852718348e+00
 4.359910405534112e-01	 1.539452993513330e+00	 3.198252033379370e+00
 4.018637632994256e-01	 1.548712078323922e+00	 2.955461558359871e+00
 3.677459574467972e-01	 1.557166128574941e+00	 2.718311759118940e+00
 3.336638088033086e-01	 1.564823230289037e+00	 2.485869829362359e+00
 6.788323613649613e-01	 1.464619189382567e+00	 5.190621911140179e+00
 6.451212473062347e-01	 1.479777503095249e+00	 4.890048916242304e+00
 6.112195914240951e-01	 1.494099592699866e+00	 4.599549713895600e+00
 5.771571669751691e-01	 1.507585037647940e+00	 4.318471420902895e+00
 5.429634647176713e-01	 1.520234763348278e+00	 4.046138440155636e+00
 5.086676212483486e-01	 1.532051007481673e+00	 3.781848454650643e+00
 4.742983507821348e-01	 1.543037282082569e+00	 3.524868396109277e+00
 4.398838806333749e-01	 1.553198331740336e+00	 3.274430446514570e+00
 4.054518906202008e-01	 1.562540088287140e+00	 3.029728126290638e+00
 3.710294565759769e-01	 1.571069622349703e+00	 2.789912518791144e+00
 3.366429981141584e-01	 1.578795092148498e+00	 2.554088677320510e+00
 6.848398334693059e-01	 1.477580650006715e+00	 5.255391952126470e+00
 6.508303856996792e-01	 1.492873110456881e+00	 4.958769261352156e+00
 6.166287098658833e-01	 1.507321946454855e+00	 4.671343963370969e+00
 5.822648427093918e-01	 1.520926733730455e+00	 4.392480409865853e+00
 5.477685359732346e-01	 1.533688405882126e+00	 4.121521374967193e+00
 5.131691841047463e-01	 1.545609220393526e+00	 3.857783925564802e+00
 4.784957554314886e-01	 1.556692720379631e+00	 3.600555262120333e+00
 4.437767270715026e-01	 1.566943692418100e+00	 3.349088587813327e+00
 4.090400238014310e-01	 1.576368120836146e+00	 3.102599059031823e+00
 3.743129610680549e-01	 1.584973138833540e+00	 2.860259866036786e+00
 3.396221922908876e-01	 1.592766976828704e+00	 2.621198489187265e+00
 6.908473139841474e-01	 1.490542128776837e+00	 5.319478310614553e+00
 6.565395320859277e-01	 1.505968736152311e+00	 5.026491413212309e+00
 6.220378358804222e-01	 1.520544318721102e+00	 4.741912862041707e+00
 5.873725255943202e-01	 1.534268448491324e+00	 4.465117608915208e+00
 5.525736139558346e-01	 1.547142067251067e+00	 4.195458548116696e+00
 5.176707532632490e-01	 1.559167452286884e+00	 3.932262391217219e+00
 4.826931659571100e-01	 1.570348177794324e+00	 3.674825515468175e+00
 4.476695789595063e-01	 1.580689072339393e+00	 3.422409841488443e+00
 4.126281620059352e-01	 1.590196172744423e+00	 3.174238790894544e+00
 3.775964701569311e-01	 1.598876674782327e+00	 2.929493370239502e+00
 3.426013906383933e-01	 1.606738881069568e+00	 2.687308424228569e+00
 6.968548015076812e-01	 1.503503622668521e+00	 5.383000089136771e+00
 6.622486851327958e-01	 1.519064377125835e+00	 5.093364800203713e+00
 6.274469682055451e-01	 1.533766706413344e+00	 4.811428463163192e+00
 5.924802144381417e-01	 1.547610178817451e+00	 4.536570210994189e+00
 5.573786975442838e-01	 1.560595744315900e+00	 4.268145047811156e+00
 5.221723276735055e-01	 1.572725699998159e+00	 4.005479854762596e+00
 4.868905813796346e-01	 1.584003651140387e+00	 3.747869379736040e+00
 4.515624353890979e-01	 1.594434468296983e+00	 3.494572262842247e+00
 4.162163043965322e-01	 1.604024240785459e+00	 3.244807144326656e+00
 3.808799830765049e-01	 1.612780226951937e+00	 2.997748897193842e+00
 3.455805924615731e-01	 1.620710801611011e+00	 2.752525023512560e+00
 7.028622946381037e-01	 1.516465128657361e+00	 5.446072561442055e+00
 6.679578435080994e-01	 1.532160030321748e+00	 5.159534102451206e+00
 6.328561055790856e-01	 1.546989106446313e+00	 4.880057411935303e+00
 5.975879080490418e-01	 1.560951921595736e+00	 4.607019592407431e+00
 5.621837856173949e-01	 1.574049433937420e+00	 4.339769978852095e+00
 5.266739062851655e-01	 1.586283960363764e+00	 4.077626400721204e+00
 4.910880007196984e-01	 1.597659137231560e+00	 3.819871445094837e+00
 4.554552954519890e-01	 1.608179877083638e+00	 3.565748767616548e+00
 4.198044501360410e-01	 1.617852321732738e+00	 3.314459492221880e+00
 3.841634990606759e-01	 1.626683792098246e+00	 3.065158736248971e+00
 3.485597970653248e-01	 1.634682735192947e+00	 2.816952294329706e+00
 7.088697919736107e-01	 1.529426643718942e+00	 5.508807276186464e+00
 6.736670058796532e-01	 1.545255692684351e+00	 5.225139396947278e+00
 6.382652467388765e-01	 1.560211515734747e+00	 4.947961121233026e+00
 6.026956052352083e-01	 1.574293673713084e+00	 4.676641508692154e+00
 5.669888770539799e-01	 1.587503132976426e+00	 4.410516668573187e+00
 5.311754880478785e-01	 1.599842230220111e+00	 4.148886401331550e+00
 4.952854229979372e-01	 1.611314632881585e+00	 3.891010865871105e+00
 4.593481582398922e-01	 1.621925295492131e+00	 3.636107312054582e+00
 4.233925983872811e-01	 1.631680412359747e+00	 3.383346912251949e+00
 3.874470173433437e-01	 1.640587366977126e+00	 3.131851721208089e+00
 3.515390037545456e-01	 1.648654678555294e+00	 2.880691790491102e+00
 7.148772921123988e-01	 1.542388164828856e+00	 5.571312156352397e+00
 6.793761709152731e-01	 1.558351361157939e+00	 5.290316296209879e+00
 6.436743904227521e-01	 1.573433931193380e+00	 5.015295939227780e+00
 6.078033048048269e-01	 1.587635432056398e+00	 4.745606281268667e+00
 5.717939707328523e-01	 1.600956838293715e+00	 4.480562862959047e+00
 5.356770719112932e-01	 1.613400506403615e+00	 4.219438712980266e+00
 4.994828472349865e-01	 1.624970134904201e+00	 3.961461548559328e+00
 4.632410228445188e-01	 1.635670720315228e+00	 3.705811064219624e+00
 4.269807483130713e-01	 1.645508509439972e+00	 3.451616333690912e+00
 3.907305371584079e-01	 1.654490948344454e+00	 3.197953345349916e+00
 3.545182118341331e-01	 1.662626628437968e+00	 2.943842688748286e+00
 7.208847936526629e-01	 1.555349688962692e+00	 5.633691594646402e+00
 6.850853372827741e-01	 1.571447032686810e+00	 5.355196080851973e+00
 6.490835353685449e-01	 1.586656349736946e+00	 5.082213309371880e+00
 6.129110055660850e-01	 1.600977193512580e+00	 4.814078975407581e+00
 5.765990655328243e-01	 1.614410546750085e+00	 4.550080913519403e+00
 5.401786568250596e-01	 1.626958785750686e+00	 4.289456863288741e+00
 5.036802724514819e-01	 1.638625640113148e+00	 4.031392330835656e+00
 4.671338883575810e-01	 1.649416148345699e+00	 3.775018567080981e+00
 4.305688990762302e-01	 1.659336609746896e+00	 3.519410677169584e+00
 3.940140577397680e-01	 1.668394532956102e+00	 3.263585870915546e+00
 3.574974206089847e-01	 1.676598581580888e+00	 3.006501861560235e+00
 3.277054475596566e-01	 1.536879588072675e+00	 2.345654759651212e+00
 2.942896394197481e-01	 1.543626630612252e+00	 2.127182458807978e+00
 2.609582370370435e-01	 1.549609699338690e+00	 1.919457865183277e+00
 2.277348167703377e-01	 1.554839594943745e+00	 1.726658747508303e+00
 1.946421534908471e-01	 1.559327958474682e+00	 1.552770012515276e+00
 1.617021913504131e-01	 1.563087213574030e+00	 1.401544263954761e+00
 1.289360188419721e-01	 1.566130508218708e+00	 1.276466227912802e+00
 9.636384807059289e-02	 1.568471656282942e+00	 1.180721168360610e+00
 6.400499812932171e-02	 1.570125079232223e+00	 1.117167370948162e+00
 3.187788245248261e-02	 1.571105748236902e+00	 1.088312729237013e+00
 0.000000000000000e+00	 1.571429126974074e+00	 1.096295426173645e+00
 3.306846250534405e-01	 1.550851394510401e+00	 2.416430079047719e+00
 2.969650330601949e-01	 1.557659774563367e+00	 2.193787941643331e+00
 2.633306141588863e-01	 1.563697235500412e+00	 1.981834030519061e+00
 2.298051590414819e-01	 1.568974676202594e+00	 1.784835828553469e+00
 1.964116496260302e-01	 1.573503843546176e+00	 1.606873080126119e+00
 1.631722295591158e-01	 1.577297274117268e+00	 1.451796792141504e+00
 1.301081790496060e-01	 1.580368235421320e+00	 1.323192148801076e+00
 9.723989395123935e-02	 1.582730666914771e+00	 1.224345474341629e+00
 6.458686898734058e-02	 1.584399121168951e+00	 1.158215331100938e+00
 3.216768498914947e-02	 1.585388705457435e+00	 1.127407795482578e+00
 0.000000000000000e+00	 1.585715024037928e+00	 1.134155911993785e+00
 3.336638088033086e-01	 1.564823230289037e+00	 2.485869829362359e+00
 2.996404323188487e-01	 1.571692947984227e+00	 2.259279629958722e+00
 2.657029962626957e-01	 1.577784801246143e+00	 2.043311157617024e+00
 2.318755056604246e-01	 1.583109787145346e+00	 1.842277685671873e+00
 1.981811494773361e-01	 1.587679758387314e+00	 1.660312695678303e+00
 1.646422708551647e-01	 1.591507364501976e+00	 1.501327478554562e+00
 1.312803417190977e-01	 1.594605992523555e+00	 1.368972666081836e+00
 9.811594167191655e-02	 1.596989707490964e+00	 1.266603837931491e+00
 6.516874106758115e-02	 1.598673193081649e+00	 1.197251301876079e+00
 3.245748813458684e-02	 1.599671692672685e+00	 1.163594099326417e+00
 0.000000000000000e+00	 1.600000951102682e+00	 1.167938245154429e+00
 3.366429981141584e-01	 1.578795092148498e+00	 2.554088677320508e+00
 3.023158365714739e-01	 1.585726147600425e+00	 2.323738928959439e+00
 2.680753827949167e-01	 1.591872393288765e+00	 2.103942714221119e+00
 2.339458561440598e-01	 1.597244924473769e+00	 1.899016274091086e+00
 1.999506526318324e-01	 1.601855699690321e+00	 1.713106781753913e+00
 1.661123148954805e-01	 1.605717481412379e+00	 1.550148699790328e+00
 1.324525065768595e-01	 1.608843776203160e+00	 1.413824053852536e+00
 9.899199102812779e-02	 1.611248774684285e+00	 1.307526779597316e+00
 6.575061423419873e-02	 1.612947291639554e+00	 1.234331251756610e+00
 3.274729182112705e-02	 1.613954706549799e+00	 1.196965058241623e+00
 0.000000000000000e+00	 1.614286904834791e+00	 1.197786038416418e+00
 3.396221922908876e-01	 1.592766976828704e+00	 2.621198489187266e+00
 3.049912451938341e-01	 1.599759370137553e+00	 2.387245624610343e+00
 2.704477732019946e-01	 1.605960008341164e+00	 2.163781526449692e+00
 2.360162100092825e-01	 1.611380084889633e+00	 1.955083641702392e+00
 2.017201586765864e-01	 1.616031664147421e+00	 1.765273806585037e+00
 1.675823613369835e-01	 1.619927621532703e+00	 1.598273513638861e+00
 1.336246733493040e-01	 1.623081583137882e+00	 1.457763051289152e+00
 9.986804181537626e-02	 1.625507865167492e+00	 1.347144684882574e+00
 6.633248835134857e-02	 1.627221413511901e+00	 1.269510000230469e+00
 3.303709598110238e-02	 1.628237743755919e+00	 1.227611484464651e+00
 0.000000000000000e+00	 1.628572881900711e+00	 1.223838374902160e+00
 3.426013906383933e-01	 1.606738881069568e+00	 2.687308424228569e+00
 3.076666575616935e-01	 1.613792612321206e+00	 2.449877929518677e+00
 2.728201669303748e-01	 1.620047643116225e+00	 2.222879785860655e+00
 2.380865667729871e-01	 1.625515265094705e+00	 2.010511907750354e+00
 2.034896671986657e-01	 1.630207648450840e+00	 1.816832746411845e+00
 1.690524098365944e-01	 1.634137781547173e+00	 1.645715618680996e+00
 1.347968417628433e-01	 1.637319410005468e+00	 1.500806834492019e+00
 1.007440938291653e-01	 1.639766975613346e+00	 1.385487804871282e+00
 6.691436328318605e-02	 1.641495555367928e+00	 1.302841264511233e+00
 3.332690054684517e-02	 1.642520800958194e+00	 1.255621696795950e+00
 0.000000000000000e+00	 1.642858878966899e+00	 1.246230004894282e+00
 3.455805924615731e-01	 1.620710801611011e+00	 2.752525023512562e+00
 3.103420730508159e-01	 1.627825870876976e+00	 2.511712526575034e+00
 2.751925634265017e-01	 1.634135294326828e+00	 2.281289056247526e+00
 2.401569259520681e-01	 1.639650461790754e+00	 2.065333242690657e+00
 2.052591777851377e-01	 1.644383649292800e+00	 1.867803049832100e+00
 1.705224600512337e-01	 1.648347958140015e+00	 1.692489316000783e+00
 1.359690115438899e-01	 1.651557253483665e+00	 1.542972989802536e+00
 1.016201468649982e-01	 1.654026102694607e+00	 1.422586256633918e+00
 6.749623889386641e-02	 1.655769713876872e+00	 1.334377703844874e+00
 3.361670545068771e-02	 1.656803874823768e+00	 1.281081626619458e+00
 0.000000000000000e+00	 1.657144892699808e+00	 1.265091532458342e+00
 3.485597970653248e-01	 1.634682735192947e+00	 2.816952294329706e+00
 3.130174910369654e-01	 1.641859142530455e+00	 2.572824610486273e+00
 2.775649621368211e-01	 1.648222958685861e+00	 2.339060280180924e+00
 2.422272870634201e-01	 1.653785671679549e+00	 2.119579849147359e+00
 2.070286900230696e-01	 1.658559663365526e+00	 1.918204604020684e+00
 1.719925116378218e-01	 1.662558147995457e+00	 1.738609472887475e+00
 1.371411824188563e-01	 1.665795110250220e+00	 1.584279488501391e+00
 1.024962007183783e-01	 1.668285243084035e+00	 1.458470023656751e+00
 6.807811504754498e-02	 1.670043885707968e+00	 1.364170961546150e+00
 3.390651062496230e-02	 1.671086962019786e+00	 1.304074918486545e+00
 0.000000000000000e+00	 1.671430919765895e+00	 1.280549592499208e+00
 3.515390037545456e-01	 1.648654678555294e+00	 2.880691790491102e+00
 3.156929108959057e-01	 1.655892424007237e+00	 2.633287927326204e+00
 2.799373625077779e-01	 1.662310632906206e+00	 2.396243785311752e+00
 2.442976496239377e-01	 1.667920891462859e+00	 2.173283943902712e+00
 2.087982034995289e-01	 1.672735687361241e+00	 1.968057702710010e+00
 1.734625642532792e-01	 1.676768347797720e+00	 1.784091488408627e+00
 1.383133541141546e-01	 1.680032976982881e+00	 1.624744662806647e+00
 1.033722551848087e-01	 1.682544393454391e+00	 1.493168956254763e+00
 6.865999160837707e-02	 1.684318067530453e+00	 1.392271704899859e+00
 3.419631600200129e-02	 1.685370059213394e+00	 1.324683025586993e+00
 0.000000000000000e+00	 1.685716956831615e+00	 1.292727018817315e+00
 3.545182118341331e-01	 1.662626628437968e+00	 2.943842688748288e+00
 3.183683320034011e-01	 1.669925712032915e+00	 2.693174812219758e+00
 2.823097639858171e-01	 1.676398313700747e+00	 2.452889290450075e+00
 2.463680131505155e-01	 1.682056117842452e+00	 2.226477740861141e+00
 2.105677178015833e-01	 1.686911717972173e+00	 2.017383015827674e+00
 1.749326175545266e-01	 1.690978554231035e+00	 1.828951260744838e+00
 1.394855263561973e-01	 1.694270850359393e+00	 1.664387183096152e+00
 1.042483100597928e-01	 1.696803550478436e+00	 1.526712771970165e+00
 6.924186844051797e-02	 1.698592256013564e+00	 1.418729663051636e+00
 3.448612151413695e-02	 1.699653163071737e+00	 1.342985300407506e+00
 0.000000000000000e+00	 1.700003000563425e+00	 1.301743003694841e+00
 3.574974206089847e-01	 1.676598581580888e+00	 3.006501861560237e+00
 3.210437537352151e-01	 1.683959003333080e+00	 2.752556225270574e+00
 2.846821660173839e-01	 1.690485997782369e+00	 2.509045911432617e+00
 2.484383771600480e-01	 1.696191347520098e+00	 2.279193434928639e+00
 2.123372325162998e-01	 1.701087751890542e+00	 2.066201560694045e+00
 1.764026711984843e-01	 1.705188763979623e+00	 1.873205156182776e+00
 1.406576988713968e-01	 1.708508727057505e+00	 1.703226036281892e+00
 1.051243651388339e-01	 1.711062710828929e+00	 1.559131055956258e+00
 6.982374540812293e-02	 1.712866447826537e+00	 1.443593663007249e+00
 3.477592709370159e-02	 1.713936270261961e+00	 1.359059080858057e+00
 0.000000000000000e+00	 1.714289047627778e+00	 1.307713249504728e+00
 1.714289047627778e+00	 0.000000000000000e+00	 1.189090326082625e+01
 1.713936270261961e+00	 3.477592709370207e-02	 1.193957878332575e+01
 1.712866447826537e+00	 6.982374540812339e-02	 1.197515547924131e+01
 1.711062710828929e+00	 1.051243651388343e-01	 1.200033778301512e+01
 1.708508727057505e+00	 1.406576988713972e-01	 1.201765388029411e+01
 1.705188763979623e+00	 1.764026711984846e-01	 1.202943383164621e+01
 1.701087751890541e+00	 2.123372325163000e-01	 1.203778775359687e+01
 1.696191347520097e+00	 2.484383771600481e-01	 1.204458421864703e+01
 1.690485997782368e+00	 2.846821660173839e-01	 1.205142904642913e+01
 1.683959003333080e+00	 3.210437537352151e-01	 1.205964466786397e+01
 1.676598581580888e+00	 3.574974206089848e-01	 1.207025025294322e+01
 1.728574095521189e+00	 0.000000000000000e+00	 1.184723298614440e+01
 1.728218378486883e+00	 3.506571240396094e-02	 1.189852838191194e+01
 1.727139641297820e+00	 7.040558167873665e-02	 1.193651427504975e+01
 1.725320873889139e+00	 1.060003589459308e-01	 1.196391034422086e+01
 1.722745607954046e+00	 1.418297894041265e-01	 1.198324855209147e+01
 1.719397979861821e+00	 1.778726220261430e-01	 1.199685066518756e+01
 1.715262794332935e+00	 2.141066234704215e-01	 1.200680587752682e+01
 1.710325588575774e+00	 2.505085963676164e-01	 1.201494870707620e+01
 1.704572696567506e+00	 2.870544021224812e-01	 1.202283734455540e+01
 1.697991313141118e+00	 3.237189883473828e-01	 1.203173264370056e+01
 1.690569557521760e+00	 3.604764210173156e-01	 1.204257795066144e+01
 1.742859145080407e+00	 0.000000000000000e+00	 1.180689811210384e+01
 1.742500488377288e+00	 3.535549774782452e-02	 1.186037260786979e+01
 1.741412836433600e+00	 7.098741801690599e-02	 1.190046356976783e+01
 1.739579038612174e+00	 1.068763528548506e-01	 1.192988615113124e+01
 1.736982490511031e+00	 1.430018800732304e-01	 1.195115514691176e+01
 1.733607197401348e+00	 1.793425730249776e-01	 1.196656200569649e+01
 1.729437838428791e+00	 2.158760146307364e-01	 1.197815200596848e+01
 1.724459831280267e+00	 2.525788158165745e-01	 1.198770177302477e+01
 1.718659396996017e+00	 2.894266385043066e-01	 1.199669732325528e+01
 1.712023624586264e+00	 3.263942232717196e-01	 1.200631283179834e+01
 1.704540535092635e+00	 3.634554217733189e-01	 1.201739032776810e+01
 1.757144197972236e+00	 0.000000000000000e+00	 1.176981814488005e+01
 1.756782601599632e+00	 3.564528315913626e-02	 1.182502943791007e+01
 1.755686034899275e+00	 7.156925449056786e-02	 1.186691755578520e+01
 1.753837206661650e+00	 1.077523469678567e-01	 1.189817387151903e+01
 1.751219376389558e+00	 1.441739710155140e-01	 1.192127560039351e+01
 1.747816418256035e+00	 1.808125243665337e-01	 1.193846239878635e+01
 1.743612885831910e+00	 2.176454062037084e-01	 1.195171320156019e+01
 1.738594077282574e+00	 2.546490357484635e-01	 1.196272348176812e+01
 1.732746100711309e+00	 2.917988754396157e-01	 1.197288312638292e+01
 1.726055939305545e+00	 3.290694588203119e-01	 1.198325513062237e+01
 1.718511515923357e+00	 3.664344232245056e-01	 1.199455532106701e+01
 1.771429255863481e+00	 0.000000000000000e+00	 1.173591650373032e+01
 1.771064719820369e+00	 3.593506867173953e-02	 1.179242081080540e+01
 1.769959238360241e+00	 7.215109116765889e-02	 1.183579450500327e+01
 1.768095379701184e+00	 1.086283413872122e-01	 1.186868642232372e+01
 1.765456267250724e+00	 1.453460623677827e-01	 1.189351630235555e+01
 1.762025644083712e+00	 1.822824762223564e-01	 1.191245106723631e+01
 1.757787938196089e+00	 2.194147983958013e-01	 1.192738142718439e+01
 1.752728328231689e+00	 2.567192564048238e-01	 1.193989900367795e+01
 1.746832809356790e+00	 2.941711132051639e-01	 1.195127417081593e+01
 1.740088258935989e+00	 3.317446953052459e-01	 1.196243482364891e+01
 1.732482501643770e+00	 3.694134257183873e-01	 1.197394628916220e+01
 1.785714320420949e+00	 0.000000000000000e+00	 1.170512036439718e+01
 1.785346844705957e+00	 3.622485431947773e-02	 1.176247246540804e+01
 1.784232448481896e+00	 7.273292811611563e-02	 1.180701659879709e+01
 1.782353559394390e+00	 1.095043362151798e-01	 1.184134078954897e+01
 1.779693164755627e+00	 1.465181542668418e-01	 1.186778790530527e+01
 1.776234876542209e+00	 1.837524287639910e-01	 1.188843170748919e+01
 1.771962997175129e+00	 2.211841914134787e-01	 1.190505333055502e+01
 1.766862585776610e+00	 2.587894780271963e-01	 1.191911838773637e+01
 1.760919524575868e+00	 2.965433520777065e-01	 1.193175491048332e+01
 1.754120585114621e+00	 3.344199330386080e-01	 1.194373233625525e+01
 1.746453493883714e+00	 3.723924296024745e-01	 1.195544176532677e+01
 1.799999393311444e+00	 0.000000000000000e+00	 1.167736050997278e+01
 1.799628977922850e+00	 3.651464013619429e-02	 1.173511378638738e+01
 1.798505666929638e+00	 7.331476540387465e-02	 1.178050976608694e+01
 1.796611747404884e+00	 1.103803315540226e-01	 1.181605785676017e+01
 1.793930070565364e+00	 1.476902468494966e-01	 1.184400514210471e+01
 1.790444117289355e+00	 1.852223821629827e-01	 1.186631229589885e+01
 1.786138064422830e+00	 2.229535854632044e-01	 1.188463003914566e+01
 1.780996851566330e+00	 2.608597008571214e-01	 1.190027634594566e+01
 1.775006248011951e+00	 2.989155923339993e-01	 1.191421461177229e+01
 1.768152919478469e+00	 3.370951723324846e-01	 1.192703300436315e+01
 1.760424494273034e+00	 3.753714352242781e-01	 1.193892522235450e+01
 1.814284476201773e+00	 0.000000000000000e+00	 1.165257118881270e+01
 1.813911121137507e+00	 3.680442615573260e-02	 1.171027765726126e+01
 1.812778895368865e+00	 7.389660309887248e-02	 1.175620352907268e+01
 1.810869945396284e+00	 1.112563275060036e-01	 1.179276224170788e+01
 1.808166986341034e+00	 1.488623402525523e-01	 1.182208665228989e+01
 1.804653367982980e+00	 1.866923365908769e-01	 1.184600490418968e+01
 1.800313141592991e+00	 2.247229807514419e-01	 1.186601696488797e+01
 1.795131127249848e+00	 2.629299251361402e-01	 1.188327204803289e+01
 1.789092981308450e+00	 3.012878342507974e-01	 1.189854713968630e+01
 1.782185263664559e+00	 3.397704134989622e-01	 1.191222685418758e+01
 1.774395504441572e+00	 3.783504429313092e-01	 1.192428484873324e+01
 1.828569570758740e+00	 0.000000000000000e+00	 1.163068997911383e+01
 1.828193276016381e+00	 3.709421241193604e-02	 1.168790032032228e+01
 1.827052135464973e+00	 7.447844126904567e-02	 1.173403085621150e+01
 1.825128155032205e+00	 1.121323241733859e-01	 1.177138214063287e+01
 1.822403913743735e+00	 1.500344346128143e-01	 1.180195481656940e+01
 1.818862630280913e+00	 1.881622922192187e-01	 1.182742552362408e+01
 1.814488230339411e+00	 2.264923774846551e-01	 1.184912361810615e+01
 1.809265414476158e+00	 2.650001511057931e-01	 1.186800892588636e+01
 1.803179726108771e+00	 3.036600781048565e-01	 1.188465075416649e+01
 1.796217619309920e+00	 3.424456568501271e-01	 1.189920839248333e+01
 1.788366526019169e+00	 3.813294530710787e-01	 1.191141333552116e+01
 1.842854678649152e+00	 0.000000000000000e+00	 1.161165765979443e+01
 1.842475444225930e+00	 3.738399893864804e-02	 1.166792124308465e+01
 1.841325388883362e+00	 7.506027998233086e-02	 1.171392802204607e+01
 1.839386377976264e+00	 1.130083216584323e-01	 1.175184917983539e+01
 1.836640854434564e+00	 1.512065300670879e-01	 1.178353559905903e+01
 1.833071905840984e+00	 1.896322492195532e-01	 1.181049389740532e+01
 1.828663332315891e+00	 2.282617758693076e-01	 1.183386343018596e+01
 1.823399714894257e+00	 2.670703790076208e-01	 1.185439448719534e+01
 1.817266484056323e+00	 3.060323241729319e-01	 1.187242791602452e+01
 1.810249988051576e+00	 3.451209026980651e-01	 1.188787640671966e+01
 1.802337560635670e+00	 3.843084659910977e-01	 1.190020767334434e+01
 1.857139801539814e+00	 0.000000000000000e+00	 1.159541808733707e+01
 1.856757627432609e+00	 3.767378576971200e-02	 1.165028299090083e+01
 1.855598657289427e+00	 7.564211930666453e-02	 1.169583447351399e+01
 1.853644615892075e+00	 1.138843200634058e-01	 1.173409827411788e+01
 1.850877810074617e+00	 1.523786267521784e-01	 1.176675839683503e+01
 1.847281196321023e+00	 1.911022077634259e-01	 1.179513336087231e+01
 1.842838449176228e+00	 2.300311761118631e-01	 1.182015358450791e+01
 1.837534030153142e+00	 2.691406090831643e-01	 1.184234013779760e+01
 1.831353256794514e+00	 3.084045727317791e-01	 1.186178510196929e+01
 1.824282371526556e+00	 3.477961513548631e-01	 1.187813377464816e+01
 1.816308609920916e+00	 3.872874820388771e-01	 1.189056895897093e+01
 1.676598581580888e+00	 3.574974206089848e-01	 1.207025025294322e+01
 1.668394532956103e+00	 3.940140577397678e-01	 1.207860148195760e+01
 1.659336609746896e+00	 4.305688990762300e-01	 1.208005662826623e+01
 1.649416148345699e+00	 4.671338883575807e-01	 1.207531786688589e+01
 1.638625640113148e+00	 5.036802724514817e-01	 1.206497711197418e+01
 1.626958785750686e+00	 5.401786568250593e-01	 1.204951088328268e+01
 1.614410546750085e+00	 5.765990655328240e-01	 1.202927555781645e+01
 1.600977193512580e+00	 6.129110055660848e-01	 1.200450307430114e+01
 1.586656349736946e+00	 6.490835353685447e-01	 1.197529716523078e+01
 1.571447032686810e+00	 6.850853372827735e-01	 1.194163019856858e+01
 1.555349688962692e+00	 7.208847936526629e-01	 1.190334071835104e+01
 1.690569557521760e+00	 3.604764210173156e-01	 1.204257795066144e+01
 1.682297145147446e+00	 3.972973486709880e-01	 1.205113222175922e+01
 1.673163742912899e+00	 4.341567988833240e-01	 1.205318370688190e+01
 1.663160615017326e+00	 4.710264816027064e-01	 1.204938585858133e+01
 1.652280190252409e+00	 5.078774040989901e-01	 1.204027915720955e+01
 1.640516116827987e+00	 5.446799268967493e-01	 1.202628614150739e+01
 1.627863314250304e+00	 5.814038242630720e-01	 1.200770683132725e+01
 1.614318021842113e+00	 6.180183490931940e-01	 1.198471460881899e+01
 1.599877843500642e+00	 6.544923019970287e-01	 1.195735263176221e+01
 1.584541788300445e+00	 6.907941043493352e-01	 1.192553086028699e+01
 1.568310306563534e+00	 7.268918750263221e-01	 1.188902378573576e+01
 1.704540535092635e+00	 3.634554217733189e-01	 1.201739032776810e+01
 1.696199758960834e+00	 4.005806399854069e-01	 1.202609304604360e+01
 1.686990877692122e+00	 4.377446991091438e-01	 1.202865821768202e+01
 1.676905083292483e+00	 4.749190753020670e-01	 1.202569222190870e+01
 1.665934741984644e+00	 5.120745362362030e-01	 1.201768618118302e+01
 1.654073449486839e+00	 5.491811974935525e-01	 1.200501115314164e+01
 1.641316083319784e+00	 5.862085835537597e-01	 1.198791371766849e+01
 1.627658851727757e+00	 6.231256932159654e-01	 1.196651202396956e+01
 1.613099338806441e+00	 6.599010692562723e-01	 1.194079237010910e+01
 1.597636545441326e+00	 6.965028720816038e-01	 1.191060639532765e+01
 1.581270925675919e+00	 7.328989571004662e-01	 1.187566897336152e+01
 1.718511515923357e+00	 3.664344232245056e-01	 1.199455532106701e+01
 1.710102376018112e+00	 4.038639320660273e-01	 1.200335201865603e+01
 1.700818015697596e+00	 4.413326001722281e-01	 1.200634980745098e+01
 1.690649554774556e+00	 4.788116699097500e-01	 1.200410959361646e+01
 1.679589296902752e+00	 5.162716693527420e-01	 1.199707516296272e+01
 1.667630785308807e+00	 5.536824691405806e-01	 1.198556853152192e+01
 1.654768855527909e+00	 5.910133439654144e-01	 1.196978569034111e+01
 1.640999684725852e+00	 6.282330385302358e-01	 1.194979280773873e+01
 1.626320837196780e+00	 6.653098377772834e-01	 1.192552296011288e+01
 1.610731305637117e+00	 7.022116411455900e-01	 1.189677347060736e+01
 1.594231547811875e+00	 7.389060405759064e-01	 1.186320394328052e+01
 1.732482501643770e+00	 3.694134257183873e-01	 1.197394628916220e+01
 1.724004997941130e+00	 4.071472252958528e-01	 1.198278259346524e+01
 1.714645158542355e+00	 4.449205024911146e-01	 1.198613343339500e+01
 1.704394031066931e+00	 4.827042658798432e-01	 1.198451579536257e+01
 1.693243856599635e+00	 5.204688039382299e-01	 1.197832809721649e+01
 1.681188125875464e+00	 5.581837423629465e-01	 1.196784569479215e+01
 1.668221632444061e+00	 5.958181060585634e-01	 1.195321677789740e+01
 1.654340522392739e+00	 6.333403856318414e-01	 1.193445871716606e+01
 1.639542340214093e+00	 6.707186081910695e-01	 1.191145493135581e+01
 1.623826070415485e+00	 7.079204122073055e-01	 1.188395235328348e+01
 1.607192174483439e+00	 7.449131261534553e-01	 1.185155958142384e+01
 1.746453493883714e+00	 3.723924296024745e-01	 1.195544176532677e+01
 1.737907626351737e+00	 4.104305200578861e-01	 1.196426336605949e+01
 1.728472307839431e+00	 4.485084064843417e-01	 1.196788911567835e+01
 1.718138513772992e+00	 4.865968636664336e-01	 1.196679358902050e+01
 1.706898422668192e+00	 5.246659404822887e-01	 1.196133175412474e+01
 1.694745472768375e+00	 5.626850176857625e-01	 1.195173463215913e+01
 1.681674415637626e+00	 6.006228703937345e-01	 1.193810533816436e+01
 1.667681366284758e+00	 6.384477351166188e-01	 1.192041556204381e+01
 1.652763849400814e+00	 6.761273811286392e-01	 1.189850255771688e+01
 1.636920841304096e+00	 7.136291859327605e-01	 1.187206671741436e+01
 1.620152807202639e+00	 7.509202145339247e-01	 1.184066981747388e+01
 1.760424494273034e+00	 3.753714352242781e-01	 1.193892522235450e+01
 1.751810262871778e+00	 4.137138167351304e-01	 1.194767783752150e+01
 1.742299465201855e+00	 4.520963125704471e-01	 1.195150170204119e+01
 1.731883004496130e+00	 4.904894637236090e-01	 1.195083044397910e+01
 1.720552996701325e+00	 5.288630794745405e-01	 1.194597745111307e+01
 1.708302827569110e+00	 5.671862956341406e-01	 1.193713168171157e+01
 1.695127206677984e+00	 6.054276375314546e-01	 1.192435384369792e+01
 1.681022217958248e+00	 6.435550875804049e-01	 1.190757299944134e+01
 1.665985366299380e+00	 6.815361572210009e-01	 1.188658366228091e+01
 1.650015619830615e+00	 7.193379629879657e-01	 1.186104346044016e+01
 1.633113447481505e+00	 7.569273064181260e-01	 1.183047145396918e+01
 1.774395504441572e+00	 3.783504429313092e-01	 1.192428484873324e+01
 1.765712909123104e+00	 4.169971157105886e-01	 1.193291418961637e+01
 1.756126632242661e+00	 4.556842211679692e-01	 1.193686064383243e+01
 1.745627504839728e+00	 4.943820665054570e-01	 1.193651831577470e+01
 1.734207580291934e+00	 5.330602214046075e-01	 1.193216083575296e+01
 1.721860191859237e+00	 5.716875767331930e-01	 1.192393731916564e+01
 1.708580007134521e+00	 6.102324080322513e-01	 1.191186867784840e+01
 1.694363078969549e+00	 6.486624436190352e-01	 1.189584433845779e+01
 1.679206892452224e+00	 6.869449370991629e-01	 1.187561943203008e+01
 1.663110407522708e+00	 7.250467440389313e-01	 1.185081252894225e+01
 1.646074096832072e+00	 7.629344025068715e-01	 1.182090400413262e+01
 1.788366526019169e+00	 3.813294530710787e-01	 1.191141333552116e+01
 1.779615566727561e+00	 4.202804173672640e-01	 1.191986507076789e+01
 1.769953810574883e+00	 4.592721326954460e-01	 1.192385978283343e+01
 1.759372016407173e+00	 4.982746724660650e-01	 1.192375343543578e+01
 1.747862175032921e+00	 5.372573667621118e-01	 1.191978167921948e+01
 1.735417567220324e+00	 5.761888615080321e-01	 1.191205595693876e+01
 1.722032818576619e+00	 6.150371824566518e-01	 1.190055994085713e+01
 1.707703950875002e+00	 6.537698038283475e-01	 1.188514635464382e+01
 1.692428429401783e+00	 6.923537213941328e-01	 1.186553424178254e+01
 1.676205205908041e+00	 7.307555297516691e-01	 1.184130675317380e+01
 1.659034756766367e+00	 7.689415035009731e-01	 1.181190953794553e+01
 1.802337560635670e+00	 3.843084659910977e-01	 1.190020767334434e+01
 1.793518237306999e+00	 4.235637220881598e-01	 1.190842739223771e+01
 1.783781001811550e+00	 4.628600475714155e-01	 1.191239714828657e+01
 1.773116540801850e+00	 5.021672820595204e-01	 1.191243610895843e+01
 1.761516782517186e+00	 5.414545160366759e-01	 1.190874367973298e+01
 1.748974955233941e+00	 5.806901504837704e-01	 1.190139575299136e+01
 1.735485642573661e+00	 6.198419613651838e-01	 1.189034126543914e+01
 1.721044835230948e+00	 6.588771688041771e-01	 1.187539911356701e+01
 1.705649978690491e+00	 6.977625107369195e-01	 1.185625548687622e+01
 1.689300016514280e+00	 7.364643207921889e-01	 1.183246168988503e+01
 1.671995428796423e+00	 7.749486101012426e-01	 1.180343253602018e+01
 1.816308609920916e+00	 3.872874820388771e-01	 1.189056895897093e+01
 1.807420922483264e+00	 4.268470302562786e-01	 1.189850213395781e+01
 1.797608207565696e+00	 4.664479662144158e-01	 1.190237476357922e+01
 1.786861079627148e+00	 5.060598957399112e-01	 1.190247052636698e+01
 1.775171404337629e+00	 5.456516697179217e-01	 1.189895427544692e+01
 1.762532357481656e+00	 5.851914441855203e-01	 1.189186842891011e+01
 1.748938480695031e+00	 6.246467453183742e-01	 1.188112964134134e+01
 1.734385733593725e+00	 6.639845391423612e-01	 1.186652580302879e+01
 1.718871541860783e+00	 7.031713057585306e-01	 1.184771342412655e+01
 1.702394840869089e+00	 7.421731178265019e-01	 1.182421547299660e+01
 1.684956114434273e+00	 7.809557230084924e-01	 1.179541975085033e+01
 1.555349688962692e+00	 7.208847936526629e-01	 1.190334071835104e+01
 1.538365007203576e+00	 7.564525453896814e-01	 1.185513445680903e+01
 1.520497485026512e+00	 7.917540877149108e-01	 1.179225857114885e+01
 1.501752032679311e+00	 8.267573745549470e-01	 1.171522029813519e+01
 1.482135081706625e+00	 8.614303939007104e-01	 1.162447974600732e+01
 1.461654593440430e+00	 8.957412568300415e-01	 1.152044713074507e+01
 1.440320061303935e+00	 9.296582877936430e-01	 1.140348061289416e+01
 1.418142506777267e+00	 9.631501156661962e-01	 1.127393361553314e+01
 1.395134468918961e+00	 9.961857650463246e-01	 1.113229041916678e+01
 1.371309987385168e+00	 1.028734747275635e+00	 1.097849342280780e+01
 1.346684578938213e+00	 1.060767150638615e+00	 1.081226684139011e+01
 1.568310306563534e+00	 7.268918750263221e-01	 1.188902378573576e+01
 1.551184092667272e+00	 7.627560102922637e-01	 1.184260281034994e+01
 1.533167681707038e+00	 7.983517178423892e-01	 1.178161351025079e+01
 1.514266024847395e+00	 8.336466845656623e-01	 1.170655001648938e+01
 1.494485607226607e+00	 8.686086316992264e-01	 1.161786263573856e+01
 1.473834456517870e+00	 9.032054045928206e-01	 1.151595488410596e+01
 1.452322145252416e+00	 9.374050637470668e-01	 1.140118108600018e+01
 1.429959786751590e+00	 9.711759766233089e-01	 1.127384468426990e+01
 1.406760024561010e+00	 1.004486909704372e+00	 1.113438288889905e+01
 1.382737015328290e+00	 1.037307120272059e+00	 1.098301727097083e+01
 1.357906405115834e+00	 1.069606447358677e+00	 1.081949275626147e+01
 1.581270925675919e+00	 7.328989571004662e-01	 1.187566897336152e+01
 1.564003179625969e+00	 7.690594759299150e-01	 1.183082902257680e+01
 1.545837879865191e+00	 8.049493487392900e-01	 1.177153994747199e+01
 1.526780018474901e+00	 8.405359953798863e-01	 1.169828381051181e+01
 1.506836134186976e+00	 8.757868703350351e-01	 1.161150221809238e+01
 1.486014321015837e+00	 9.106695532263362e-01	 1.151159313554608e+01
 1.464324230600748e+00	 9.451518406042934e-01	 1.139890823013731e+01
 1.441777068104277e+00	 9.792018385168768e-01	 1.127375089468990e+01
 1.418385581559138e+00	 1.012788055331077e+00	 1.113642094834274e+01
 1.394164044604415e+00	 1.045879494268859e+00	 1.098737068781119e+01
 1.369128232602603e+00	 1.078445745110314e+00	 1.082646066921862e+01
 1.594231547811875e+00	 7.389060405759064e-01	 1.186320394328052e+01
 1.576822269575201e+00	 7.753629430380167e-01	 1.181975226139003e+01
 1.558508080979141e+00	 8.115469811753018e-01	 1.176198872985920e+01
 1.539294015021777e+00	 8.474253078013222e-01	 1.169038438066476e+01
 1.519186664028611e+00	 8.829651106455277e-01	 1.160537322134543e+01
 1.498194188355300e+00	 9.181337036013143e-01	 1.150734881465413e+01
 1.476326318749155e+00	 9.528986192690015e-01	 1.139666134755285e+01
 1.453594352213986e+00	 9.872277022831201e-01	 1.127361534884462e+01
 1.430011141269625e+00	 1.021089202894761e+00	 1.113846821847914e+01
 1.405591076546650e+00	 1.054451870265986e+00	 1.099162872687705e+01
 1.380350062707676e+00	 1.087285044924608e+00	 1.083325642098491e+01
 1.607192174483439e+00	 7.449131261534553e-01	 1.185155958142384e+01
 1.589641364010496e+00	 7.816664123519513e-01	 1.180931452871432e+01
 1.571178286527056e+00	 8.181446159201138e-01	 1.175291314661312e+01
 1.551808015947974e+00	 8.543146226336708e-01	 1.168281647627608e+01
 1.531537198192393e+00	 8.901433534680959e-01	 1.159945202859127e+01
 1.510374059957227e+00	 9.255978565884824e-01	 1.150321011174464e+01
 1.488328411097860e+00	 9.606454006448713e-01	 1.139444060786281e+01
 1.465411640459374e+00	 9.952535688582588e-01	 1.127345036491527e+01
 1.441636705048751e+00	 1.029390353363743e+00	 1.114050137496841e+01
 1.417018112488103e+00	 1.063024249263388e+00	 1.099586722714763e+01
 1.391571896740206e+00	 1.096124347832640e+00	 1.083996621461385e+01
 1.620152807202639e+00	 7.509202145339247e-01	 1.184066981747388e+01
 1.602460464427385e+00	 7.879698846071012e-01	 1.179946049414927e+01
 1.583848497987105e+00	 8.247422537434151e-01	 1.174426877662017e+01
 1.564322022713442e+00	 8.612039406806343e-01	 1.167554675702927e+01
 1.543887738119204e+00	 8.973215996401301e-01	 1.159371655323942e+01
 1.522553937242588e+00	 9.330620130585675e-01	 1.149916636739037e+01
 1.500330509047090e+00	 9.683921856355834e-01	 1.139224695161639e+01
 1.477228934219098e+00	 1.003279439178514e+00	 1.127326865423105e+01
 1.453262274252797e+00	 1.037691507706341e+00	 1.114249922581469e+01
 1.428445153761881e+00	 1.071596632261015e+00	 1.100016257759556e+01
 1.402793736009346e+00	 1.104963654865492e+00	 1.084667639220162e+01
 1.633113447481505e+00	 7.569273064181260e-01	 1.183047145396918e+01
 1.615279572321401e+00	 7.942733605388487e-01	 1.179013733723516e+01
 1.596518716837457e+00	 8.313398954148942e-01	 1.173601334397440e+01
 1.576836036778132e+00	 8.680932627459149e-01	 1.166854366181098e+01
 1.556238285249923e+00	 9.044998499990216e-01	 1.158814612123290e+01
 1.534733821632353e+00	 9.405261738822969e-01	 1.149520796802889e+01
 1.512332613997067e+00	 9.761389751448170e-01	 1.139008199928573e+01
 1.489046234871818e+00	 1.011305314180105e+00	 1.127308324361181e+01
 1.464887850238044e+00	 1.045992666890878e+00	 1.114448637365686e+01
 1.439872201701093e+00	 1.080169020258817e+00	 1.100452404129505e+01
 1.414015581824253e+00	 1.113802967054246e+00	 1.085347321440591e+01
 1.646074096832072e+00	 7.629344025068715e-01	 1.182090400413262e+01
 1.628098689188072e+00	 8.005768408825760e-01	 1.178129459785863e+01
 1.609188944556280e+00	 8.379375417042396e-01	 1.172810658104822e+01
 1.589350059601992e+00	 8.749825896332135e-01	 1.166177728450994e+01
 1.568588841025432e+00	 9.116781053821615e-01	 1.158272135961351e+01
 1.546913714547490e+00	 9.479903399303972e-01	 1.149132624730828e+01
 1.524334727348017e+00	 9.838857700762513e-01	 1.138794796538173e+01
 1.500863543796188e+00	 1.019331194799254e+00	 1.127290740222048e+01
 1.476513434360772e+00	 1.054293831885672e+00	 1.114648731407046e+01
 1.451299257638845e+00	 1.088741414256743e+00	 1.100893022626460e+01
 1.425237435494077e+00	 1.122642285429984e+00	 1.086044264261523e+01
 1.659034756766367e+00	 7.689415035009731e-01	 1.181190953794553e+01
 1.640917816522931e+00	 8.068803263736651e-01	 1.177288403435310e+01
 1.621859182621744e+00	 8.445351933811411e-01	 1.172051009869944e+01
 1.601864092644973e+00	 8.818719221462324e-01	 1.165521925638708e+01
 1.580939406886612e+00	 9.188563666269413e-01	 1.157742409108787e+01
 1.559093617408970e+00	 9.554545120735956e-01	 1.148751339285798e+01
 1.536336850500164e+00	 9.916325713335676e-01	 1.138584757741574e+01
 1.512680862370868e+00	 1.027357081972180e+00	 1.127275457267852e+01
 1.488139027977261e+00	 1.062595003659041e+00	 1.114852637877811e+01
 1.462726322908246e+00	 1.097313815254742e+00	 1.101341651247272e+01
 1.436459298327973e+00	 1.131481611023788e+00	 1.086763854535501e+01
 1.671995428796423e+00	 7.749486101012426e-01	 1.180343253602018e+01
 1.653736955821508e+00	 8.131838177474986e-01	 1.176485948887573e+01
 1.634529432512017e+00	 8.511328512152869e-01	 1.171318726322662e+01
 1.614378137367023e+00	 8.887612610886734e-01	 1.164884263465985e+01
 1.593289984274342e+00	 9.260346345707517e-01	 1.157223723426792e+01
 1.571273531637759e+00	 9.629186911826185e-01	 1.148376235819008e+01
 1.548338984853731e+00	 9.993793798204444e-01	 1.138378399944339e+01
 1.524498191974515e+00	 1.035382976635103e+00	 1.127263830621272e+01
 1.499764632443794e+00	 1.070896183179308e+00	 1.115062768233843e+01
 1.474153398842403e+00	 1.105886224252765e+00	 1.101801775172359e+01
 1.447681171635097e+00	 1.140320944866739e+00	 1.087503540793144e+01
 1.684956114434273e+00	 7.809557230084924e-01	 1.179541975085033e+01
 1.666556108579333e+00	 8.194873157394583e-01	 1.175717675966937e+01
 1.647199695705267e+00	 8.577305159763660e-01	 1.170610307970970e+01
 1.626892195228096e+00	 8.956506072642391e-01	 1.164262179696612e+01
 1.605640574629505e+00	 9.332129100509844e-01	 1.156714470928053e+01
 1.583453458654829e+00	 9.703828781281937e-01	 1.148006677945460e+01
 1.560341131808945e+00	 1.007126196440562e+00	 1.138176075994411e+01
 1.536315533985785e+00	 1.043408879724244e+00	 1.127257220161609e+01
 1.511390249116649e+00	 1.079197371414791e+00	 1.115281507212543e+01
 1.485580486774423e+00	 1.114458642250760e+00	 1.102276821679420e+01
 1.458903056724601e+00	 1.149160287989920e+00	 1.088267289554566e+01
 1.346684578938213e+00	 1.060767150638615e+00	 1.081226684139011e+01
 1.321275203733934e+00	 1.092253732166055e+00	 1.063505592431464e+01
 1.295100217733402e+00	 1.123166013449718e+00	 1.044835624170392e+01
 1.268179341437932e+00	 1.153476356208247e+00	 1.025185135907701e+01
 1.240533615111960e+00	 1.183158040835369e+00	 1.004522598801534e+01
 1.212185344465141e+00	 1.212185344465141e+00	 9.828198910875400e+00
 1.183158040835369e+00	 1.240533615111961e+00	 9.600558747018143e+00
 1.153476356208246e+00	 1.268179341437933e+00	 9.362201424129289e+00
 1.123166013449718e+00	 1.295100217733403e+00	 9.113168089033223e+00
 1.092253732166054e+00	 1.321275203733934e+00	 8.853682105855473e+00
 1.060767150638615e+00	 1.346684578938213e+00	 8.584183750190386e+00
 1.357906405115834e+00	 1.069606447358677e+00	 1.081949275626147e+01
 1.332285295407249e+00	 1.101355404315454e+00	 1.064535302812328e+01
 1.305892195122514e+00	 1.132525275425623e+00	 1.046210079077284e+01
 1.278746989092457e+00	 1.163088192100015e+00	 1.026928935761224e+01
 1.250870892908526e+00	 1.193017212079803e+00	 1.006646112345448e+01
 1.222286398152247e+00	 1.222286398152248e+00	 9.853182861375837e+00
 1.193017212079802e+00	 1.250870892908527e+00	 9.629084174748527e+00
 1.163088192100015e+00	 1.278746989092458e+00	 9.393897905250949e+00
 1.132525275425623e+00	 1.305892195122514e+00	 9.147501158882564e+00
 1.101355404315453e+00	 1.332285295407250e+00	 8.889955518056952e+00
 1.069606447358677e+00	 1.357906405115834e+00	 8.621544963734985e+00
 1.369128232602603e+00	 1.078445745110314e+00	 1.082646066921862e+01
 1.343295388365096e+00	 1.110457077527072e+00	 1.065531141980489e+01
 1.316684173770791e+00	 1.141884538493812e+00	 1.047540724538616e+01
 1.289314637980051e+00	 1.172700029113527e+00	 1.028616615614094e+01
 1.261208171911349e+00	 1.202876384474809e+00	 1.008698207343877e+01
 1.232387453018106e+00	 1.232387453018106e+00	 9.877262606509117e+00
 1.202876384474808e+00	 1.261208171911349e+00	 9.656470319015066e+00
 1.172700029113527e+00	 1.289314637980052e+00	 9.424166220908905e+00
 1.141884538493811e+00	 1.316684173770792e+00	 9.180054072056873e+00
 1.110457077527072e+00	 1.343295388365097e+00	 8.924023982324501e+00
 1.078445745110314e+00	 1.369128232602603e+00	 8.656193743464833e+00
 1.380350062707676e+00	 1.087285044924608e+00	 1.083325642098491e+01
 1.354305483891912e+00	 1.119558752862599e+00	 1.066502685188204e+01
 1.327476154937207e+00	 1.151243803746028e+00	 1.048837924358055e+01
 1.299882289333497e+00	 1.182311868369999e+00	 1.030259133203725e+01
 1.271545453326321e+00	 1.212735559170472e+00	 1.010690247558545e+01
 1.242488510241032e+00	 1.242488510241033e+00	 9.900554020432239e+00
 1.212735559170472e+00	 1.271545453326321e+00	 9.682833512403750e+00
 1.182311868369999e+00	 1.299882289333497e+00	 9.453121422192728e+00
 1.151243803746028e+00	 1.327476154937208e+00	 9.210938891816896e+00
 1.119558752862599e+00	 1.354305483891912e+00	 8.955994899912589e+00
 1.087285044924608e+00	 1.380350062707676e+00	 8.688231188556916e+00
 1.391571896740206e+00	 1.096124347832640e+00	 1.083996621461385e+01
 1.365315583272132e+00	 1.128660431383724e+00	 1.067459509296835e+01
 1.338268139880734e+00	 1.160603072274015e+00	 1.050112020744201e+01
 1.310449944385579e+00	 1.191923710990649e+00	 1.031867412491683e+01
 1.281882738359330e+00	 1.222594737316876e+00	 1.012633561310236e+01
 1.252589570999343e+00	 1.252589570999343e+00	 9.923172705261910e+00
 1.222594737316875e+00	 1.281882738359331e+00	 9.708289989722761e+00
 1.191923710990648e+00	 1.310449944385579e+00	 9.480878720541694e+00
 1.160603072274015e+00	 1.338268139880735e+00	 9.240268174939485e+00
 1.128660431383724e+00	 1.365315583272132e+00	 8.985976564285979e+00
 1.096124347832640e+00	 1.391571896740206e+00	 8.717759744553558e+00
 1.402793736009346e+00	 1.104963654865492e+00	 1.084667639220162e+01
 1.376325687790191e+00	 1.137762114152136e+00	 1.068411171595356e+01
 1.349060129860346e+00	 1.169962345169516e+00	 1.051373314060791e+01
 1.321017604369081e+00	 1.201535558096693e+00	 1.033452324143090e+01
 1.292220028216271e+00	 1.232453920064102e+00	 1.014539422498197e+01
 1.262690636471355e+00	 1.262690636471356e+00	 9.945233804909943e+00
 1.232453920064102e+00	 1.292220028216272e+00	 9.732955703856518e+00
 1.201535558096693e+00	 1.321017604369082e+00	 9.507553304131930e+00
 1.169962345169516e+00	 1.349060129860347e+00	 9.268154787289671e+00
 1.137762114152136e+00	 1.376325687790191e+00	 9.014077974669803e+00
 1.104963654865492e+00	 1.402793736009346e+00	 8.744883013823870e+00
 1.414015581824253e+00	 1.113802967054246e+00	 1.085347321440591e+01
 1.387335798730527e+00	 1.146863802229525e+00	 1.069367188841286e+01
 1.359852126135016e+00	 1.179321623524276e+00	 1.052632042755701e+01
 1.331585270516789e+00	 1.211147410809349e+00	 1.035024666155131e+01
 1.302557324103033e+00	 1.242313108562236e+00	 1.016419031752058e+01
 1.272791707835383e+00	 1.272791707835383e+00	 9.966851820202532e+00
 1.242313108562235e+00	 1.302557324103034e+00	 9.756946142977654e+00
 1.211147410809349e+00	 1.331585270516789e+00	 9.533260155801992e+00
 1.179321623524276e+00	 1.359852126135016e+00	 9.294711721209627e+00
 1.146863802229524e+00	 1.387335798730527e+00	 9.040408651781320e+00
 1.113802967054246e+00	 1.414015581824252e+00	 8.769705568650121e+00
 1.425237435494077e+00	 1.122642285429984e+00	 1.086044264261523e+01
 1.398345917377575e+00	 1.155965496677579e+00	 1.070337016511684e+01
 1.370644129963715e+00	 1.188680908430038e+00	 1.053898363458781e+01
 1.342152944061485e+00	 1.220759270249834e+00	 1.036595144626275e+01
 1.312894627225508e+00	 1.252172303961360e+00	 1.018283497708863e+01
 1.282892786269745e+00	 1.282892786269745e+00	 9.988140425211339e+00
 1.252172303961359e+00	 1.312894627225508e+00	 9.780376149041038e+00
 1.220759270249834e+00	 1.342152944061485e+00	 9.558113872431175e+00
 1.188680908430037e+00	 1.370644129963716e+00	 9.320051914623251e+00
 1.155965496677578e+00	 1.398345917377575e+00	 9.065078455623352e+00
 1.122642285429984e+00	 1.425237435494076e+00	 8.792332766793706e+00
 1.436459298327973e+00	 1.131481611023788e+00	 1.086763854535501e+01
 1.409356045015772e+00	 1.165067198557988e+00	 1.071330028252643e+01
 1.381436142605417e+00	 1.198040200978544e+00	 1.055182331239229e+01
 1.352720626235953e+00	 1.230371137539366e+00	 1.038174354658491e+01
 1.323231938789585e+00	 1.262031507411558e+00	 1.020143818408291e+01
 1.292993872952757e+00	 1.292993872952757e+00	 1.000921228472941e+01
 1.262031507411557e+00	 1.323231938789586e+00	 9.803359737488865e+00
 1.230371137539366e+00	 1.352720626235953e+00	 9.582228485690750e+00
 1.198040200978543e+00	 1.381436142605418e+00	 9.344288071761870e+00
 1.165067198557988e+00	 1.409356045015773e+00	 9.088197405224905e+00
 1.131481611023788e+00	 1.436459298327974e+00	 8.813793620604642e+00
 1.447681171635097e+00	 1.140320944866739e+00	 1.087503540793144e+01
 1.420366182929554e+00	 1.174168908932441e+00	 1.072355495516384e+01
 1.392228165319096e+00	 1.207399502261539e+00	 1.056493880013700e+01
 1.363288318272978e+00	 1.239983013799161e+00	 1.039772761385099e+01
 1.333569260001157e+00	 1.271890720062913e+00	 1.022010862799549e+01
 1.303094969062733e+00	 1.303094969062734e+00	 1.003017887282902e+01
 1.271890720062912e+00	 1.333569260001157e+00	 9.826009918100077e+00
 1.239983013799161e+00	 1.363288318272979e+00	 9.605717284092272e+00
 1.207399502261539e+00	 1.392228165319096e+00	 9.367532485422329e+00
 1.174168908932441e+00	 1.420366182929554e+00	 9.109875500223504e+00
 1.140320944866739e+00	 1.447681171635097e+00	 8.836809178982906e+00
 1.458903056724601e+00	 1.149160287989920e+00	 1.088267289554566e+01
 1.431376332403356e+00	 1.183270628862627e+00	 1.073422195365352e+01
 1.403020199363723e+00	 1.216758813370768e+00	 1.057842803096949e+01
 1.373856021405344e+00	 1.249594900150438e+00	 1.041400681117382e+01
 1.343906592066114e+00	 1.281749943065508e+00	 1.023895352353811e+01
 1.313196075777992e+00	 1.313196075777993e+00	 1.005115029244160e+01
 1.281749943065507e+00	 1.343906592066115e+00	 9.848438516921671e+00
 1.249594900150437e+00	 1.373856021405345e+00	 9.628692636262400e+00
 1.216758813370767e+00	 1.403020199363723e+00	 9.389896860673868e+00
 1.183270628862627e+00	 1.431376332403357e+00	 9.130330481503918e+00
 1.149160287989920e+00	 1.458903056724601e+00	 8.861534549939492e+00
 1.060767150638615e+00	 1.346684578938213e+00	 8.584183750190386e+00
 1.028734747275635e+00	 1.371309987385168e+00	 8.304590067089960e+00
 9.961857650463243e-01	 1.395134468918961e+00	 8.013992962183936e+00
 9.631501156661958e-01	 1.418142506777268e+00	 7.711973555955952e+00
 9.296582877936426e-01	 1.440320061303935e+00	 7.400897547260285e+00
 8.957412568300408e-01	 1.461654593440431e+00	 7.093832543870680e+00
 8.614303939007100e-01	 1.482135081706625e+00	 6.792310921944127e+00
 8.267573745549465e-01	 1.501752032679311e+00	 6.495931738631246e+00
 7.917540877149102e-01	 1.520497485026513e+00	 6.204298767227254e+00
 7.564525453896809e-01	 1.538365007203576e+00	 5.917017488406497e+00
 7.208847936526629e-01	 1.555349688962692e+00	 5.633691594646402e+00
 1.069606447358677e+00	 1.357906405115834e+00	 8.621544963734985e+00
 1.037307120272059e+00	 1.382737015328291e+00	 8.341954150123531e+00
 1.004486909704371e+00	 1.406760024561010e+00	 8.050147907522991e+00
 9.711759766233082e-01	 1.429959786751590e+00	 7.745765720506554e+00
 9.374050637470666e-01	 1.452322145252417e+00	 7.438814675592475e+00
 9.032054045928201e-01	 1.473834456517870e+00	 7.137084653046013e+00
 8.686086316992259e-01	 1.494485607226608e+00	 6.840225197005421e+00
 8.336466845656616e-01	 1.514266024847395e+00	 6.547903107429092e+00
 7.983517178423887e-01	 1.533167681707038e+00	 6.259799316076705e+00
 7.627560102922631e-01	 1.551184092667272e+00	 5.975605114003848e+00
 7.268918750263222e-01	 1.568310306563534e+00	 5.695017844818624e+00
 1.078445745110314e+00	 1.369128232602603e+00	 8.656193743464833e+00
 1.045879494268859e+00	 1.394164044604415e+00	 8.376031374934671e+00
 1.012788055331076e+00	 1.418385581559138e+00	 8.082403543504778e+00
 9.792018385168759e-01	 1.441777068104277e+00	 7.777990519448780e+00
 9.451518406042926e-01	 1.464324230600748e+00	 7.476628576121989e+00
 9.106695532263354e-01	 1.486014321015837e+00	 7.179779149728045e+00
 8.757868703350344e-01	 1.506836134186976e+00	 6.887163500712465e+00
 8.405359953798860e-01	 1.526780018474900e+00	 6.598530879585720e+00
 8.049493487392894e-01	 1.545837879865191e+00	 6.313654560743833e+00
 7.690594759299142e-01	 1.564003179625969e+00	 6.032327168450982e+00
 7.328989571004663e-01	 1.581270925675919e+00	 5.754355422496868e+00
 1.087285044924608e+00	 1.380350062707676e+00	 8.688231188556916e+00
 1.054451870265985e+00	 1.405591076546650e+00	 8.406917407917241e+00
 1.021089202894760e+00	 1.430011141269625e+00	 8.110886604695686e+00
 9.872277022831192e-01	 1.453594352213985e+00	 7.810577864175295e+00
 9.528986192690011e-01	 1.476326318749156e+00	 7.514334486088694e+00
 9.181337036013135e-01	 1.498194188355299e+00	 7.221919817246433e+00
 8.829651106455275e-01	 1.519186664028611e+00	 6.933140567595789e+00
 8.474253078013217e-01	 1.539294015021778e+00	 6.647842777713878e+00
 8.115469811753013e-01	 1.558508080979141e+00	 6.365906874296473e+00
 7.753629430380159e-01	 1.576822269575201e+00	 6.087241958332703e+00
 7.389060405759063e-01	 1.594231547811876e+00	 5.811779468264919e+00
 1.096124347832640e+00	 1.391571896740206e+00	 8.717759744553558e+00
 1.063024249263387e+00	 1.417018112488103e+00	 8.434709681284822e+00
 1.029390353363742e+00	 1.441636705048751e+00	 8.138429230804860e+00
 9.952535688582581e-01	 1.465411640459374e+00	 7.843516525914907e+00
 9.606454006448711e-01	 1.488328411097861e+00	 7.551926894050061e+00
 9.255978565884818e-01	 1.510374059957227e+00	 7.263509539404487e+00
 8.901433534680955e-01	 1.531537198192394e+00	 6.978170005411640e+00
 8.543146226336705e-01	 1.551808015947975e+00	 6.695865105526854e+00
 8.181446159201131e-01	 1.571178286527056e+00	 6.416596865560087e+00
 7.816664123519507e-01	 1.589641364010496e+00	 6.140405639155604e+00
 7.449131261534554e-01	 1.607192174483440e+00	 5.867362555019756e+00
 1.104963654865492e+00	 1.402793736009346e+00	 8.744883013823870e+00
 1.071596632261015e+00	 1.428445153761882e+00	 8.459507202707650e+00
 1.037691507706341e+00	 1.453262274252797e+00	 8.166788039338819e+00
 1.003279439178513e+00	 1.477228934219099e+00	 7.876794561560488e+00
 9.683921856355830e-01	 1.500330509047090e+00	 7.589399514554012e+00
 9.330620130585670e-01	 1.522553937242589e+00	 7.304550282107588e+00
 8.973215996401297e-01	 1.543887738119204e+00	 7.022264286821478e+00
 8.612039406806341e-01	 1.564322022713443e+00	 6.742622752239694e+00
 8.247422537434145e-01	 1.583848497987105e+00	 6.465763398479136e+00
 7.879698846071006e-01	 1.602460464427385e+00	 6.191872251466733e+00
 7.509202145339245e-01	 1.620152807202639e+00	 5.921174742199717e+00
 1.113802967054246e+00	 1.414015581824252e+00	 8.769705568650121e+00
 1.080169020258817e+00	 1.439872201701093e+00	 8.483423216894280e+00
 1.045992666890877e+00	 1.464887850238044e+00	 8.195947578309847e+00
 1.011305314180105e+00	 1.489046234871818e+00	 7.910399287921434e+00
 9.761389751448162e-01	 1.512332613997067e+00	 7.626745265566756e+00
 9.405261738822962e-01	 1.534733821632353e+00	 7.345043077306393e+00
 9.044998499990210e-01	 1.556238285249923e+00	 7.065434742797603e+00
 8.680932627459145e-01	 1.576836036778132e+00	 6.788139197980920e+00
 8.313398954148933e-01	 1.596518716837457e+00	 6.513443611666968e+00
 7.942733605388482e-01	 1.615279572321401e+00	 6.241693756255071e+00
 7.569273064181261e-01	 1.633113447481505e+00	 5.973283628328758e+00
 1.122642285429984e+00	 1.425237435494076e+00	 8.792332766793706e+00
 1.088741414256743e+00	 1.451299257638846e+00	 8.508606921009100e+00
 1.054293831885671e+00	 1.476513434360772e+00	 8.225891598744262e+00
 1.019331194799253e+00	 1.500863543796189e+00	 7.944317258834390e+00
 9.838857700762512e-01	 1.524334727348017e+00	 7.663956248503555e+00
 9.479903399303966e-01	 1.546913714547491e+00	 7.384988009126808e+00
 9.116781053821611e-01	 1.568588841025433e+00	 7.107691557658953e+00
 8.749825896332130e-01	 1.589350059601992e+00	 6.832436520157882e+00
 8.379375417042393e-01	 1.609188944556281e+00	 6.559672938132405e+00
 8.005768408825752e-01	 1.628098689188072e+00	 6.289920069675316e+00
 7.629344025068716e-01	 1.646074096832072e+00	 6.023754401970207e+00
 1.131481611023788e+00	 1.436459298327974e+00	 8.813793620604642e+00
 1.097313815254742e+00	 1.462726322908246e+00	 8.535041758817329e+00
 1.062595003659041e+00	 1.488139027977262e+00	 8.256603035189251e+00
 1.027357081972179e+00	 1.512680862370868e+00	 7.978534244976371e+00
 9.916325713335669e-01	 1.536336850500164e+00	 7.701023730719635e+00
 9.554545120735946e-01	 1.559093617408970e+00	 7.424384202067423e+00
 9.188563666269405e-01	 1.580939406886611e+00	 7.149043765648226e+00
 8.818719221462320e-01	 1.601864092644972e+00	 6.875535400723320e+00
 8.445351933811404e-01	 1.621859182621744e+00	 6.604485125174795e+00
 8.068803263736645e-01	 1.640917816522931e+00	 6.336599097131170e+00
 7.689415035009731e-01	 1.659034756766367e+00	 6.072649891175954e+00
 1.140320944866739e+00	 1.447681171635097e+00	 8.836809178982906e+00
 1.105886224252765e+00	 1.474153398842404e+00	 8.562709824785822e+00
 1.070896183179307e+00	 1.499764632443794e+00	 8.288063988843779e+00
 1.035382976635102e+00	 1.524498191974515e+00	 8.013035216233137e+00
 9.993793798204437e-01	 1.548338984853732e+00	 7.737938130327855e+00
 9.629186911826177e-01	 1.571273531637760e+00	 7.463229811151503e+00
 9.260346345707511e-01	 1.593289984274343e+00	 7.189499248966759e+00
 8.887612610886730e-01	 1.614378137367024e+00	 6.917455134295182e+00
 8.511328512152861e-01	 1.634529432512017e+00	 6.647912254437205e+00
 8.131838177474978e-01	 1.653736955821508e+00	 6.381776766752061e+00
 7.749486101012426e-01	 1.671995428796423e+00	 6.120030611513513e+00
 1.149160287989920e+00	 1.458903056724601e+00	 8.861534549939492e+00
 1.114458642250760e+00	 1.485580486774424e+00	 8.591592247329036e+00
 1.079197371414790e+00	 1.511390249116649e+00	 8.320255713171090e+00
 1.043408879724243e+00	 1.536315533985785e+00	 8.047804326485029e+00
 1.007126196440562e+00	 1.560341131808945e+00	 7.774689003217739e+00
 9.703828781281930e-01	 1.583453458654829e+00	 7.501522013928617e+00
 9.332129100509838e-01	 1.605640574629505e+00	 7.229064737187708e+00
 8.956506072642383e-01	 1.626892195228096e+00	 6.958213637082286e+00
 8.577305159763654e-01	 1.647199695705267e+00	 6.689984762109704e+00
 8.194873157394577e-01	 1.666556108579334e+00	 6.425497062296722e+00
 7.809557230084923e-01	 1.684956114434272e+00	 6.165954812746971e+00
 7.208847936526629e-01	 1.555349688962692e+00	 5.633691594646400e+00
 6.850853372827741e-01	 1.571447032686810e+00	 5.355196080851971e+00
 6.490835353685449e-01	 1.586656349736946e+00	 5.082213309371879e+00
 6.129110055660850e-01	 1.600977193512580e+00	 4.814078975407578e+00
 5.765990655328243e-01	 1.614410546750085e+00	 4.550080913519403e+00
 5.401786568250596e-01	 1.626958785750686e+00	 4.289456863288741e+00
 5.036802724514819e-01	 1.638625640113148e+00	 4.031392330835654e+00
 4.671338883575810e-01	 1.649416148345699e+00	 3.775018567080981e+00
 4.305688990762302e-01	 1.659336609746896e+00	 3.519410677169584e+00
 3.940140577397680e-01	 1.668394532956102e+00	 3.263585870915548e+00
 3.574974206089847e-01	 1.676598581580888e+00	 3.006501861560237e+00
 7.268918750263222e-01	 1.568310306563534e+00	 5.695017844818624e+00
 6.907941043493353e-01	 1.584541788300445e+00	 5.418915779832281e+00
 6.544923019970291e-01	 1.599877843500642e+00	 5.147910867030429e+00
 6.180183490931941e-01	 1.614318021842112e+00	 4.881319538829141e+00
 5.814038242630725e-01	 1.627863314250304e+00	 4.618401259325953e+00
 5.446799268967494e-01	 1.640516116827987e+00	 4.358356961902897e+00
 5.078774040989904e-01	 1.652280190252410e+00	 4.100327626966821e+00
 4.710264816027066e-01	 1.663160615017326e+00	 3.843393009668875e+00
 4.341567988833242e-01	 1.673163742912899e+00	 3.586570520621724e+00
 3.972973486709883e-01	 1.682297145147446e+00	 3.328814258023219e+00
 3.604764210173155e-01	 1.690569557521760e+00	 3.069014187264780e+00
 7.328989571004663e-01	 1.581270925675919e+00	 5.754355422496868e+00
 6.965028720816041e-01	 1.597636545441325e+00	 5.480599018115317e+00
 6.599010692562729e-01	 1.613099338806442e+00	 5.211571174711013e+00
 6.231256932159656e-01	 1.627658851727757e+00	 4.946574955655552e+00
 5.862085835537600e-01	 1.641316083319784e+00	 4.684847030263775e+00
 5.491811974935527e-01	 1.654073449486838e+00	 4.425556763234344e+00
 5.120745362362032e-01	 1.665934741984644e+00	 4.167805492702881e+00
 4.749190753020673e-01	 1.676905083292483e+00	 3.910625995537798e+00
 4.377446991091440e-01	 1.686990877692122e+00	 3.652982131262358e+00
 4.005806399854071e-01	 1.696199758960834e+00	 3.393768651265064e+00
 3.634554217733189e-01	 1.704540535092635e+00	 3.131811157830180e+00
 7.389060405759063e-01	 1.594231547811876e+00	 5.811779468264919e+00
 7.022116411455905e-01	 1.610731305637117e+00	 5.540337908077997e+00
 6.653098377772835e-01	 1.626320837196780e+00	 5.273302854900967e+00
 6.282330385302360e-01	 1.640999684725852e+00	 5.009969754593602e+00
 5.910133439654147e-01	 1.654768855527908e+00	 4.749557916558578e+00
 5.536824691405809e-01	 1.667630785308807e+00	 4.491210235587936e+00
 5.162716693527424e-01	 1.679589296902752e+00	 4.233993155028878e+00
 4.788116699097502e-01	 1.690649554774555e+00	 3.976896858510823e+00
 4.413326001722285e-01	 1.700818015697596e+00	 3.718835669730357e+00
 4.038639320660276e-01	 1.710102376018112e+00	 3.458648634906240e+00
 3.664344232245057e-01	 1.718511515923357e+00	 3.195100260535252e+00
 7.449131261534554e-01	 1.607192174483440e+00	 5.867362555019755e+00
 7.079204122073058e-01	 1.623826070415485e+00	 5.598221571883649e+00
 6.707186081910698e-01	 1.639542340214093e+00	 5.333211129913597e+00
 6.333403856318418e-01	 1.654340522392739e+00	 5.071624670380814e+00
 5.958181060585638e-01	 1.668221632444062e+00	 4.812669440262766e+00
 5.581837423629469e-01	 1.681188125875464e+00	 4.555466827725049e+00
 5.204688039382303e-01	 1.693243856599634e+00	 4.299052995900721e+00
 4.827042658798433e-01	 1.704394031066930e+00	 4.042379790631538e+00
 4.449205024911150e-01	 1.714645158542355e+00	 3.784315889522611e+00
 4.071472252958531e-01	 1.724004997941130e+00	 3.523648154546851e+00
 3.694134257183873e-01	 1.732482501643770e+00	 3.259083148568472e+00
 7.509202145339245e-01	 1.620152807202639e+00	 5.921174742199717e+00
 7.136291859327608e-01	 1.636920841304096e+00	 5.654336214235078e+00
 6.761273811286393e-01	 1.652763849400814e+00	 5.391397912856810e+00
 6.384477351166191e-01	 1.667681366284758e+00	 5.131656752519137e+00
 6.006228703937347e-01	 1.681674415637626e+00	 4.874313081166846e+00
 5.626850176857628e-01	 1.694745472768375e+00	 4.618471611227760e+00
 5.246659404822889e-01	 1.706898422668192e+00	 4.363142710199133e+00
 4.865968636664338e-01	 1.718138513772993e+00	 4.107244014712373e+00
 4.485084064843421e-01	 1.728472307839431e+00	 3.849602323007040e+00
 4.104305200578863e-01	 1.737907626351737e+00	 3.588955715342404e+00
 3.723924296024744e-01	 1.746453493883714e+00	 3.323955850070857e+00
 7.569273064181261e-01	 1.633113447481505e+00	 5.973283628328758e+00
 7.193379629879660e-01	 1.650015619830615e+00	 5.708765192462693e+00
 6.815361572210011e-01	 1.665985366299380e+00	 5.447961894972154e+00
 6.435550875804052e-01	 1.681022217958248e+00	 5.190179469443635e+00
 6.054276375314549e-01	 1.695127206677984e+00	 4.934616397243230e+00
 5.671862956341406e-01	 1.708302827569109e+00	 4.680365416532926e+00
 5.288630794745408e-01	 1.720552996701325e+00	 4.426415456540758e+00
 4.904894637236094e-01	 1.731883004496130e+00	 4.171653948979469e+00
 4.520963125704475e-01	 1.742299465201855e+00	 3.914869458834103e+00
 4.137138167351306e-01	 1.751810262871778e+00	 3.654754570989491e+00
 3.753714352242780e-01	 1.760424494273034e+00	 3.389908967384401e+00
 7.629344025068716e-01	 1.646074096832072e+00	 6.023754401970207e+00
 7.250467440389318e-01	 1.663110407522708e+00	 5.761589084092597e+00
 6.869449370991632e-01	 1.679206892452224e+00	 5.502998629545520e+00
 6.486624436190357e-01	 1.694363078969549e+00	 5.247302808377233e+00
 6.102324080322518e-01	 1.708580007134521e+00	 4.993703139923738e+00
 5.716875767331934e-01	 1.721860191859236e+00	 4.741284962986187e+00
 5.330602214046076e-01	 1.734207580291934e+00	 4.489020001339306e+00
 4.943820665054574e-01	 1.745627504839728e+00	 4.235769364250658e+00
 4.556842211679696e-01	 1.756126632242662e+00	 3.980286911219686e+00
 4.169971157105890e-01	 1.765712909123104e+00	 3.721222903986171e+00
 3.783504429313092e-01	 1.774395504441572e+00	 3.457127867046374e+00
 7.689415035009731e-01	 1.659034756766367e+00	 6.072649891175952e+00
 7.307555297516694e-01	 1.676205205908041e+00	 5.812885752033818e+00
 6.923537213941330e-01	 1.692428429401784e+00	 5.556600612575713e+00
 6.537698038283479e-01	 1.707703950875003e+00	 5.303133371107754e+00
 6.150371824566522e-01	 1.722032818576619e+00	 5.051693364492976e+00
 5.761888615080327e-01	 1.735417567220324e+00	 4.801362983242545e+00
 5.372573667621120e-01	 1.747862175032921e+00	 4.551100856486443e+00
 4.982746724660653e-01	 1.759372016407173e+00	 4.299745534053780e+00
 4.592721326954463e-01	 1.769953810574882e+00	 4.046019581544884e+00
 4.202804173672643e-01	 1.779615566727561e+00	 3.788533997643484e+00
 3.813294530710786e-01	 1.788366526019169e+00	 3.525792861034787e+00
 7.749486101012426e-01	 1.671995428796423e+00	 6.120030611513513e+00
 7.364643207921892e-01	 1.689300016514279e+00	 5.862730407512435e+00
 6.977625107369196e-01	 1.705649978690491e+00	 5.608857360377344e+00
 6.588771688041773e-01	 1.721044835230948e+00	 5.357774465907979e+00
 6.198419613651840e-01	 1.735485642573660e+00	 5.108703535862947e+00
 5.806901504837709e-01	 1.748974955233940e+00	 4.860728342320213e+00
 5.414545160366762e-01	 1.761516782517186e+00	 4.612798410998469e+00
 5.021672820595209e-01	 1.773116540801851e+00	 4.363733378069678e+00
 4.628600475714159e-01	 1.783781001811550e+00	 4.112227812689102e+00
 4.235637220881601e-01	 1.793518237307000e+00	 3.856856400296859e+00
 3.843084659910977e-01	 1.802337560635670e+00	 3.596079379740580e+00
 7.809557230084923e-01	 1.684956114434272e+00	 6.165954812746971e+00
 7.421731178265022e-01	 1.702394840869089e+00	 5.911195670875060e+00
 7.031713057585309e-01	 1.718871541860783e+00	 5.659855484282811e+00
 6.639845391423617e-01	 1.734385733593725e+00	 5.411326195807085e+00
 6.246467453183745e-01	 1.748938480695031e+00	 5.164846629977197e+00
 5.851914441855204e-01	 1.762532357481655e+00	 4.919506151595392e+00
 5.456516697179219e-01	 1.775171404337629e+00	 4.674249056953533e+00
 5.060598957399114e-01	 1.786861079627148e+00	 4.427879599258062e+00
 4.664479662144161e-01	 1.797608207565696e+00	 4.179067536488141e+00
 4.268470302562790e-01	 1.807420922483264e+00	 3.926354082136450e+00
 3.872874820388771e-01	 1.816308609920916e+00	 3.668158137111870e+00
 3.574974206089847e-01	 1.676598581580888e+00	 3.006501861560237e+00
 3.210437537352151e-01	 1.683959003333080e+00	 2.752556225270578e+00
 2.846821660173839e-01	 1.690485997782369e+00	 2.509045911432617e+00
 2.484383771600480e-01	 1.696191347520098e+00	 2.279193434928642e+00
 2.123372325162998e-01	 1.701087751890542e+00	 2.066201560694050e+00
 1.764026711984843e-01	 1.705188763979623e+00	 1.873205156182779e+00
 1.406576988713968e-01	 1.708508727057505e+00	 1.703226036281892e+00
 1.051243651388339e-01	 1.711062710828929e+00	 1.559131055956258e+00
 6.982374540812293e-02	 1.712866447826537e+00	 1.443593663007249e+00
 3.477592709370159e-02	 1.713936270261961e+00	 1.359059080858054e+00
 0.000000000000000e+00	 1.714289047627778e+00	 1.307713249504728e+00
 3.604764210173155e-01	 1.690569557521760e+00	 3.069014187264780e+00
 3.237189883473829e-01	 1.697991313141118e+00	 2.812110252037300e+00
 2.870544021224811e-01	 1.704572696567507e+00	 2.565727382827192e+00
 2.505085963676162e-01	 1.710325588575774e+00	 2.332717976659507e+00
 2.141066234704213e-01	 1.715262794332936e+00	 2.115945738919274e+00
 1.778726220261427e-01	 1.719397979861820e+00	 1.918237986059117e+00
 1.418297894041262e-01	 1.722745607954046e+00	 1.742340665755979e+00
 1.060003589459304e-01	 1.725320873889138e+00	 1.590876363731517e+00
 7.040558167873620e-02	 1.727139641297820e+00	 1.466305525827775e+00
 3.506571240396045e-02	 1.728218378486884e+00	 1.370891083392843e+00
 0.000000000000000e+00	 1.728574095521189e+00	 1.306666629843571e+00
 3.634554217733189e-01	 1.704540535092635e+00	 3.131811157830180e+00
 3.263942232717195e-01	 1.712023624586264e+00	 2.872615253313492e+00
 2.894266385043065e-01	 1.718659396996017e+00	 2.624045545563942e+00
 2.525788158165745e-01	 1.724459831280267e+00	 2.388420606557129e+00
 2.158760146307361e-01	 1.729437838428791e+00	 2.168102966588293e+00
 1.793425730249773e-01	 1.733607197401348e+00	 1.965453026492287e+00
 1.430018800732300e-01	 1.736982490511031e+00	 1.782785328253476e+00
 1.068763528548503e-01	 1.739579038612175e+00	 1.622327462829828e+00
 7.098741801690550e-02	 1.741412836433599e+00	 1.486181856878744e+00
 3.535549774782404e-02	 1.742500488377288e+00	 1.376290642638759e+00
 0.000000000000000e+00	 1.742859145080407e+00	 1.294403777711742e+00
 3.664344232245057e-01	 1.718511515923357e+00	 3.195100260535252e+00
 3.290694588203119e-01	 1.726055939305545e+00	 2.934274794747971e+00
 2.917988754396156e-01	 1.732746100711309e+00	 2.684180708552762e+00
 2.546490357484634e-01	 1.738594077282575e+00	 2.446443106622485e+00
 2.176454062037082e-01	 1.743612885831910e+00	 2.222765262119424e+00
 1.808125243665334e-01	 1.747816418256036e+00	 2.014885282846200e+00
 1.441739710155136e-01	 1.751219376389558e+00	 1.824534693615050e+00
 1.077523469678564e-01	 1.753837206661650e+00	 1.653399218984844e+00
 7.156925449056739e-02	 1.755686034899275e+00	 1.503082018067971e+00
 3.564528315913577e-02	 1.756782601599632e+00	 1.375069589930090e+00
 0.000000000000000e+00	 1.757144197972236e+00	 1.270700534372673e+00
 3.694134257183873e-01	 1.732482501643770e+00	 3.259083148568472e+00
 3.317446953052459e-01	 1.740088258935989e+00	 2.997286779453263e+00
 2.941711132051638e-01	 1.746832809356790e+00	 2.746308297599876e+00
 2.567192564048237e-01	 1.752728328231689e+00	 2.506923630686091e+00
 2.194147983958010e-01	 1.757787938196089e+00	 2.280022614935805e+00
 1.822824762223561e-01	 1.762025644083713e+00	 2.066569545272686e+00
 1.453460623677824e-01	 1.765456267250724e+00	 1.867565117322675e+00
 1.086283413872118e-01	 1.768095379701183e+00	 1.684010046493039e+00
 7.215109116765843e-02	 1.769959238360240e+00	 1.516870622788757e+00
 3.593506867173904e-02	 1.771064719820369e+00	 1.367046432248413e+00
 0.000000000000000e+00	 1.771429255863481e+00	 1.235340447005118e+00
 3.723924296024744e-01	 1.746453493883714e+00	 3.323955850070857e+00
 3.344199330386081e-01	 1.754120585114621e+00	 3.061843653213587e+00
 2.965433520777064e-01	 1.760919524575867e+00	 2.810599032448510e+00
 2.587894780271962e-01	 1.766862585776609e+00	 2.569996834204541e+00
 2.211841914134786e-01	 1.771962997175130e+00	 2.339963054150216e+00
 1.837524287639907e-01	 1.776234876542210e+00	 2.120540387560037e+00
 1.465181542668414e-01	 1.779693164755627e+00	 1.911854565847153e+00
 1.095043362151794e-01	 1.782353559394389e+00	 1.714081761354418e+00
 7.273292811611519e-02	 1.784232448481896e+00	 1.527417322994059e+00
 3.622485431947724e-02	 1.785346844705956e+00	 1.352046084083369e+00
 0.000000000000000e+00	 1.785714320420949e+00	 1.188114460776833e+00
 3.753714352242780e-01	 1.760424494273034e+00	 3.389908967384401e+00
 3.370951723324846e-01	 1.768152919478469e+00	 3.128132600042922e+00
 2.989155923339992e-01	 1.775006248011952e+00	 2.877219095479969e+00
 2.608597008571213e-01	 1.780996851566330e+00	 2.635793997942283e+00
 2.229535854632042e-01	 1.786138064422830e+00	 2.402672714024463e+00
 1.852223821629825e-01	 1.790444117289355e+00	 2.176832166065743e+00
 1.476902468494962e-01	 1.793930070565365e+00	 1.957382545568624e+00
 1.103803315540222e-01	 1.796611747404885e+00	 1.743539441418188e+00
 7.331476540387417e-02	 1.798505666929638e+00	 1.534596606416919e+00
 3.651464013619379e-02	 1.799628977922850e+00	 1.329899612066820e+00
 0.000000000000000e+00	 1.799999393311444e+00	 1.128820625585308e+00
 3.783504429313092e-01	 1.774395504441572e+00	 3.457127867046374e+00
 3.397704134989622e-01	 1.782185263664560e+00	 3.196335728625803e+00
 3.012878342507974e-01	 1.789092981308450e+00	 2.946330292535001e+00
 2.629299251361400e-01	 1.795131127249847e+00	 2.704443145874086e+00
 2.247229807514416e-01	 1.800313141592991e+00	 2.468235896380486e+00
 1.866923365908766e-01	 1.804653367982979e+00	 2.235479018729100e+00
 1.488623402525520e-01	 1.808166986341034e+00	 2.004130035073669e+00
 1.112563275060033e-01	 1.810869945396284e+00	 1.772311293146727e+00
 7.389660309887201e-02	 1.812778895368865e+00	 1.538287603377094e+00
 3.680442615573210e-02	 1.813911121137507e+00	 1.300443991676023e+00
 0.000000000000000e+00	 1.814284476201773e+00	 1.057263816657527e+00
 3.813294530710786e-01	 1.788366526019169e+00	 3.525792861034787e+00
 3.424456568501270e-01	 1.796217619309920e+00	 3.266630250138908e+00
 3.036600781048563e-01	 1.803179726108770e+00	 3.018090206285097e+00
 2.650001511057929e-01	 1.809265414476159e+00	 2.776069157624946e+00
 2.264923774846549e-01	 1.814488230339411e+00	 2.536735130130228e+00
 1.881622922192183e-01	 1.818862630280913e+00	 2.296514864159507e+00
 1.500344346128140e-01	 1.822403913743735e+00	 2.052079420644273e+00
 1.121323241733855e-01	 1.825128155032206e+00	 1.800328524635539e+00
 7.447844126904522e-02	 1.827052135464974e+00	 1.538373902650646e+00
 3.709421241193553e-02	 1.828193276016381e+00	 1.263521875345068e+00
 0.000000000000000e+00	 1.828569570758740e+00	 9.732554682497601e-01
 3.843084659910977e-01	 1.802337560635670e+00	 3.596079379740580e+00
 3.451209026980651e-01	 1.810249988051577e+00	 3.339188647921146e+00
 3.060323241729317e-01	 1.817266484056323e+00	 3.092652342560076e+00
 2.670703790076207e-01	 1.823399714894258e+00	 2.850793875744689e+00
 2.282617758693074e-01	 1.828663332315890e+00	 2.608251228080893e+00
 1.896322492195529e-01	 1.833071905840984e+00	 2.359973400795497e+00
 1.512065300670876e-01	 1.836640854434563e+00	 2.101214434765406e+00
 1.130083216584319e-01	 1.839386377976264e+00	 1.827525224550058e+00
 7.506027998233038e-02	 1.841325388883361e+00	 1.534743375909403e+00
 3.738399893864753e-02	 1.842475444225930e+00	 1.218981371366098e+00
 0.000000000000000e+00	 1.842854678649152e+00	 8.766133197372272e-01
 3.872874820388771e-01	 1.816308609920916e+00	 3.668158137111870e+00
 3.477961513548631e-01	 1.824282371526556e+00	 3.414178839431579e+00
 3.084045727317791e-01	 1.831353256794514e+00	 3.170166270008887e+00
 2.691406090831641e-01	 1.837534030153142e+00	 2.928736208093542e+00
 2.300311761118629e-01	 1.842838449176229e+00	 2.682863341161564e+00
 1.911022077634256e-01	 1.847281196321023e+00	 2.425888106131758e+00
 1.523786267521780e-01	 1.850877810074617e+00	 2.151520097487952e+00
 1.138843200634055e-01	 1.853644615892075e+00	 1.853838246660477e+00
 7.564211930666406e-02	 1.855598657289427e+00	 1.527288010269355e+00
 3.767378576971149e-02	 1.856757627432609e+00	 1.166675832999074e+00
 0.000000000000000e+00	 1.857139801539814e+00	 7.671611734257150e-01
 1.857139801539814e+00	 0.000000000000000e+00	 1.159541808733707e+01
 1.856757627432609e+00	 3.767378576971200e-02	 1.165028299090083e+01
 1.855598657289427e+00	 7.564211930666453e-02	 1.169583447351399e+01
 1.853644615892075e+00	 1.138843200634058e-01	 1.173409827411788e+01
 1.850877810074617e+00	 1.523786267521784e-01	 1.176675839683503e+01
 1.847281196321023e+00	 1.911022077634259e-01	 1.179513336087231e+01
 1.842838449176228e+00	 2.300311761118631e-01	 1.182015358450791e+01
 1.837534030153142e+00	 2.691406090831643e-01	 1.184234013779760e+01
 1.831353256794514e+00	 3.084045727317791e-01	 1.186178510196929e+01
 1.824282371526556e+00	 3.477961513548631e-01	 1.187813377464816e+01
 1.816308609920916e+00	 3.872874820388771e-01	 1.189056895897093e+01
 1.871425938885499e+00	 0.000000000000000e+00	 1.158269347769205e+01
 1.871040824885513e+00	 3.796359318002383e-02	 1.163524239287287e+01
 1.869872939308534e+00	 7.622399995034108e-02	 1.167974562134010e+01
 1.867903866353384e+00	 1.147603806773741e-01	 1.171801340801385e+01
 1.865115776748616e+00	 1.535508066735918e-01	 1.175149752257713e+01
 1.861491495870142e+00	 1.925722706961614e-01	 1.178126846431593e+01
 1.857014572678569e+00	 2.318007020079917e-01	 1.180799397269998e+01
 1.851669349156259e+00	 2.712109861755549e-01	 1.183191907923592e+01
 1.845441029900473e+00	 3.107769897551533e-01	 1.185284793759927e+01
 1.838315751506641e+00	 3.504715899935780e-01	 1.187012766822769e+01
 1.830280651355449e+00	 3.902667096404622e-01	 1.188263445036633e+01
 1.885712081233184e+00	 0.000000000000000e+00	 1.157528526220952e+01
 1.885324027339362e+00	 3.825340069197129e-02	 1.162378327438577e+01
 1.884147226325385e+00	 7.680588079802278e-02	 1.166607591520140e+01
 1.882163121807059e+00	 1.156364415984023e-01	 1.170363541891453e+01
 1.879353748407376e+00	 1.547229870057536e-01	 1.173756912099057e+01
 1.875701800394163e+00	 1.940423341439140e-01	 1.176859900183162e+01
 1.871190701143662e+00	 2.335702285239304e-01	 1.179704270408740e+01
 1.865804673107656e+00	 2.732813639930134e-01	 1.182279624741520e+01
 1.859528807937886e+00	 3.131494076092566e-01	 1.184531866339320e+01
 1.852349136398974e+00	 3.531470295690236e-01	 1.186361876980079e+01
 1.844252697680622e+00	 3.932459382850533e-01	 1.187624429763980e+01
 1.899998216915481e+00	 0.000000000000000e+00	 1.157472094068096e+01
 1.899607223129177e+00	 3.854320806894736e-02	 1.161691511207602e+01
 1.898421506682321e+00	 7.738776137463460e-02	 1.165538016200039e+01
 1.896422370607763e+00	 1.165125021112167e-01	 1.169113037404209e+01
 1.893591713423013e+00	 1.558951667915989e-01	 1.172481886649700e+01
 1.889912098287876e+00	 1.955123969063782e-01	 1.175672084142974e+01
 1.885366822994288e+00	 2.353397542148335e-01	 1.178671847138105e+01
 1.879939990463522e+00	 2.753517408450131e-01	 1.181428762349576e+01
 1.873616579401857e+00	 3.155218243569036e-01	 1.183848661627429e+01
 1.866382514743161e+00	 3.558224678965475e-01	 1.185794719733102e+01
 1.858224737486206e+00	 3.962251655398985e-01	 1.187086792151694e+01
 1.914284334264999e+00	 0.000000000000000e+00	 1.158248365071552e+01
 1.913890400589984e+00	 3.883301507434495e-02	 1.161561844312864e+01
 1.912695768721676e+00	 7.796964120510148e-02	 1.164819776078940e+01
 1.910681601110162e+00	 1.173885615005441e-01	 1.168066049606575e+01
 1.907829660167639e+00	 1.570673450740623e-01	 1.171309811158959e+01
 1.904122377946063e+00	 1.969824577832475e-01	 1.174524294410811e+01
 1.899542926653227e+00	 2.371092776358554e-01	 1.177645830630882e+01
 1.894075289680050e+00	 2.774221150410274e-01	 1.180573054999969e+01
 1.887704332787491e+00	 3.178942380609087e-01	 1.183166324528272e+01
 1.880415875078809e+00	 3.584979027914969e-01	 1.185247361955334e+01
 1.872196759361968e+00	 3.992043889722462e-01	 1.186599138741486e+01
 1.928570421614352e+00	 0.000000000000000e+00	 1.160001381176921e+01
 1.928173548056805e+00	 3.912282147155702e-02	 1.162084593450606e+01
 1.926970000785793e+00	 7.855151981434853e-02	 1.164505326746685e+01
 1.924940801668923e+00	 1.182646190511110e-01	 1.167238429637864e+01
 1.922067577013370e+00	 1.582395208960790e-01	 1.170226366447204e+01
 1.918332627763509e+00	 1.984525155742158e-01	 1.173378686410443e+01
 1.913719000543260e+00	 2.388787973421505e-01	 1.176571688298590e+01
 1.908210559213428e+00	 2.794924848905294e-01	 1.179648291982102e+01
 1.901792056589895e+00	 3.202666467840865e-01	 1.182418127050985e+01
 1.894449205945524e+00	 3.611733320692193e-01	 1.184657847060603e+01
 1.886168751897681e+00	 4.021836061493447e-01	 1.186111676274409e+01
 1.942856467296148e+00	 0.000000000000000e+00	 1.162871069679145e+01
 1.942456653864665e+00	 3.941262702397651e-02	 1.163352340509919e+01
 1.941244191217008e+00	 7.913339672730063e-02	 1.164645693461115e+01
 1.939199960638711e+00	 1.191406740476439e-01	 1.166645670251425e+01
 1.936305452332318e+00	 1.594116933005836e-01	 1.169217757650686e+01
 1.932542836135003e+00	 1.999225690789774e-01	 1.172198627118731e+01
 1.927895033087166e+00	 2.406483118888731e-01	 1.175396585201322e+01
 1.922345787519848e+00	 2.815628487029927e-01	 1.178592240102459e+01
 1.915879739304173e+00	 3.226390485892515e-01	 1.181539387917512e+01
 1.908482495882913e+00	 3.638487535450625e-01	 1.183966119938672e+01
 1.900140703683113e+00	 4.051628146384417e-01	 1.185576150269031e+01
 1.957142459643000e+00	 0.000000000000000e+00	 1.166993393517890e+01
 1.956739706348589e+00	 3.970243149499637e-02	 1.165455080320043e+01
 1.955518328357658e+00	 7.971527146888283e-02	 1.165290522772044e+01
 1.953459066374192e+00	 1.200167257748695e-01	 1.166302918000131e+01
 1.950543274496597e+00	 1.605838613305110e-01	 1.168270693897328e+01
 1.946752991455327e+00	 2.013926170972260e-01	 1.170948649386278e+01
 1.942071012707724e+00	 2.424178198311774e-01	 1.174069320373808e+01
 1.936480963055499e+00	 2.836332047878904e-01	 1.177344569560970e+01
 1.929967369425429e+00	 3.250114415392181e-01	 1.180467395695257e+01
 1.922515733430581e+00	 3.665241650343736e-01	 1.183113955186261e+01
 1.914112603308034e+00	 4.081420120067854e-01	 1.184945786302441e+01
 1.971428386987518e+00	 0.000000000000000e+00	 1.172500495051348e+01
 1.971022693843598e+00	 3.999223464800954e-02	 1.168480314156029e+01
 1.969792400550084e+00	 8.029714356402012e-02	 1.166488131905171e+01
 1.967718107230032e+00	 1.208927735175143e-01	 1.166224984893874e+01
 1.964781031878321e+00	 1.617560240287962e-01	 1.167372368866366e+01
 1.960963082119269e+00	 2.028626584286554e-01	 1.169594408243799e+01
 1.956246927827715e+00	 2.441873197242181e-01	 1.172540265920097e+01
 1.950616074276571e+00	 2.857035514546962e-01	 1.175846783051971e+01
 1.944054935448770e+00	 3.273838236968006e-01	 1.179141335276331e+01
 1.936548907128135e+00	 3.691995643525005e-01	 1.182044888466767e+01
 1.928084439362215e+00	 4.111211958216242e-01	 1.184175233857366e+01
 1.985714237662315e+00	 0.000000000000000e+00	 1.179520833636124e+01
 1.985305604684719e+00	 4.028203624640896e-02	 1.172513139215892e+01
 1.984066396136623e+00	 8.087901253763749e-02	 1.168285556018573e+01
 1.981977071560896e+00	 1.217688165603047e-01	 1.166426359555629e+01
 1.979018712849604e+00	 1.629281804383741e-01	 1.166510442187479e+01
 1.975173096521612e+00	 2.043326918729596e-01	 1.168102639094485e+01
 1.970422766869918e+00	 2.459568101231494e-01	 1.170761308737821e+01
 1.964751109639255e+00	 2.877738870128831e-01	 1.174042147927784e+01
 1.958142425869298e+00	 3.297561931248137e-01	 1.177502217535285e+01
 1.950582005515181e+00	 3.718749493147904e-01	 1.180704150841503e+01
 1.942056200435424e+00	 4.141003636502061e-01	 1.183220512606477e+01
 2.000000000000000e+00	 0.000000000000000e+00	 1.188179317322294e+01
 1.999588427206973e+00	 4.057183605358756e-02	 1.177636334270252e+01
 1.998340303459614e+00	 8.146087791465992e-02	 1.170728593437898e+01
 1.996235947721451e+00	 1.226448541879675e-01	 1.166921217901129e+01
 1.993256305782559e+00	 1.641003296021794e-01	 1.165673021637531e+01
 1.989383023057143e+00	 2.058027162298326e-01	 1.166441117698253e+01
 1.984598518257113e+00	 2.477262895831255e-01	 1.168685794740844e+01
 1.978886057599742e+00	 2.898442097719247e-01	 1.171875631272157e+01
 1.972229829182122e+00	 3.321285478860718e-01	 1.175492812006787e+01
 1.964615017131326e+00	 3.745503177365909e-01	 1.179038605924272e+01
 1.956027875117432e+00	 4.170795130597794e-01	 1.182038961012368e+01
 1.816308609920916e+00	 3.872874820388771e-01	 1.189056895897093e+01
 1.807420922483264e+00	 4.268470302562786e-01	 1.189850213395781e+01
 1.797608207565696e+00	 4.664479662144158e-01	 1.190237476357922e+01
 1.786861079627148e+00	 5.060598957399112e-01	 1.190247052636698e+01
 1.775171404337629e+00	 5.456516697179217e-01	 1.189895427544692e+01
 1.762532357481656e+00	 5.851914441855203e-01	 1.189186842891011e+01
 1.748938480695031e+00	 6.246467453183742e-01	 1.188112964134134e+01
 1.734385733593725e+00	 6.639845391423612e-01	 1.186652580302879e+01
 1.718871541860783e+00	 7.031713057585306e-01	 1.184771342412655e+01
 1.702394840869089e+00	 7.421731178265019e-01	 1.182421547299660e+01
 1.684956114434273e+00	 7.809557230084924e-01	 1.179541975085033e+01
 1.830280651355449e+00	 3.902667096404622e-01	 1.188263445036633e+01
 1.821324594953817e+00	 4.301305715873713e-01	 1.189018575097481e+01
 1.811436395253883e+00	 4.700361396521799e-01	 1.189382439721378e+01
 1.800606594515861e+00	 5.099527858528720e-01	 1.189381474265948e+01
 1.788826995836037e+00	 5.498491214585424e-01	 1.189030138514135e+01
 1.776090722503322e+00	 5.896930575450493e-01	 1.188330552346560e+01
 1.762392274164796e+00	 6.294518704816068e-01	 1.187272157619944e+01
 1.747727579355579e+00	 6.690922721786595e-01	 1.185831410794388e+01
 1.732094043955664e+00	 7.085804848838240e-01	 1.183971511978174e+01
 1.715490595148239e+00	 7.478823202690240e-01	 1.181642177317180e+01
 1.697917720470713e+00	 7.869632625087234e-01	 1.178779463019949e+01
 1.844252697680622e+00	 3.932459382850533e-01	 1.187624429763980e+01
 1.835228272290978e+00	 4.334141140679417e-01	 1.188338671939773e+01
 1.825264587782192e+00	 4.736243143460175e-01	 1.188668553488868e+01
 1.814352114215724e+00	 5.138456773285418e-01	 1.188641647177500e+01
 1.802482592114112e+00	 5.540465746684604e-01	 1.188273049902526e+01
 1.789649092270640e+00	 5.941946724803288e-01	 1.187564980480777e+01
 1.775846072343640e+00	 6.342569973268171e-01	 1.186506403742439e+01
 1.761069429787372e+00	 6.742000070028453e-01	 1.185072685755785e+01
 1.745316550678762e+00	 7.139896659025048e-01	 1.183225286181395e+01
 1.728586354011298e+00	 7.535915247099296e-01	 1.180911495063836e+01
 1.710879331044161e+00	 7.929708041117344e-01	 1.178064222790446e+01
 1.858224737486206e+00	 3.962251655398985e-01	 1.187086792151694e+01
 1.849131943140409e+00	 4.366976550167055e-01	 1.187773422029135e+01
 1.839092773857973e+00	 4.772124873658478e-01	 1.188072856818286e+01
 1.828097627501635e+00	 5.177385669879708e-01	 1.188016825235779e+01
 1.816138182020209e+00	 5.582440259199826e-01	 1.187623679010407e+01
 1.803207455711374e+00	 5.986962853152487e-01	 1.186897918701023e+01
 1.789299864244732e+00	 6.390621219300107e-01	 1.185829747900113e+01
 1.774411273993693e+00	 6.793077394437820e-01	 1.184394661324326e+01
 1.758539051232120e+00	 7.193988443972456e-01	 1.182553073502774e+01
 1.741682106763799e+00	 7.593007264868671e-01	 1.180249996123820e+01
 1.723840935569680e+00	 7.989783429115335e-01	 1.177414773563652e+01
 1.872196759361968e+00	 3.992043889722462e-01	 1.186599138741486e+01
 1.863035596147771e+00	 4.399811917523779e-01	 1.187286926361298e+01
 1.852920942188578e+00	 4.808006557815890e-01	 1.187573145538071e+01
 1.841843123148493e+00	 5.216314516522095e-01	 1.187496649689813e+01
 1.829793754402687e+00	 5.624414717854167e-01	 1.187081619547108e+01
 1.816765801753297e+00	 6.031978923737006e-01	 1.186336983328638e+01
 1.802753638881248e+00	 6.438672403671951e-01	 1.185255869344526e+01
 1.787753101079132e+00	 6.844154653303315e-01	 1.183815097587576e+01
 1.771761534817776e+00	 7.248080159507175e-01	 1.181974718114521e+01
 1.754777842711275e+00	 7.650099209374835e-01	 1.179677605397982e+01
 1.736802523462338e+00	 8.049858740021280e-01	 1.176849119316952e+01
 1.886168751897681e+00	 4.021836061493447e-01	 1.186111676274409e+01
 1.876939219958725e+00	 4.432647215936743e-01	 1.186844422198951e+01
 1.866749081481357e+00	 4.843888166631600e-01	 1.187147941131637e+01
 1.855588589931198e+00	 5.255243281423084e-01	 1.187071131664866e+01
 1.843449298109903e+00	 5.666389088370701e-01	 1.186646535478351e+01
 1.830324119324177e+00	 6.076994899795758e-01	 1.185889618607009e+01
 1.816207385266352e+00	 6.486723487143761e-01	 1.184798091116974e+01
 1.801094900148275e+00	 6.895231804913566e-01	 1.183351273188855e+01
 1.784983990637771e+00	 7.302171761455920e-01	 1.181509516875714e+01
 1.767873551159260e+00	 7.707191033994266e-01	 1.179213694199421e+01
 1.749764084137201e+00	 8.109933924775250e-01	 1.176384763744086e+01
 1.900140703683113e+00	 4.051628146384417e-01	 1.185576150269031e+01
 1.890842803218936e+00	 4.465482418593103e-01	 1.186412238524413e+01
 1.880577180443664e+00	 4.879769670804797e-01	 1.186776461113808e+01
 1.869334016624649e+00	 5.294171932793179e-01	 1.186730635455735e+01
 1.857104801990212e+00	 5.708363336472505e-01	 1.186318155179953e+01
 1.843882397351781e+00	 6.122010744567645e-01	 1.185563099616859e+01
 1.829661092413219e+00	 6.534774430475603e-01	 1.184469389591772e+01
 1.814436660305711e+00	 6.946308807557207e-01	 1.183019999338084e+01
 1.798206407894145e+00	 7.356263205645408e-01	 1.181176235631892e+01
 1.780969221413285e+00	 7.764282692103445e-01	 1.178877096653210e+01
 1.762725607009334e+00	 8.170008934317318e-01	 1.176038724565704e+01
 1.914112603308034e+00	 4.081420120067854e-01	 1.184945786302441e+01
 1.904746334574061e+00	 4.498317498680010e-01	 1.185957753461575e+01
 1.894405227782849e+00	 4.915651041034668e-01	 1.186438590728402e+01
 1.883079392003745e+00	 5.333100438842887e-01	 1.186465862580871e+01
 1.870760254891974e+00	 5.750337427882651e-01	 1.186096265882027e+01
 1.857440624763881e+00	 6.167026421291587e-01	 1.185364535103518e+01
 1.843114749335018e+00	 6.582825194427546e-01	 1.184282403646232e+01
 1.827778370656030e+00	 6.997385619522857e-01	 1.182837633258448e+01
 1.811428775788937e+00	 7.410354447902353e-01	 1.180993124854648e+01
 1.794064842778885e+00	 7.821374137078839e-01	 1.178686125435843e+01
 1.775687081493801e+00	 8.230083719587561e-01	 1.175827547274788e+01
 1.928084439362215e+00	 4.111211958216242e-01	 1.184175233857366e+01
 1.918649802669765e+00	 4.531152429384617e-01	 1.185449353567487e+01
 1.908233212206262e+00	 4.951532248020400e-01	 1.186114855900106e+01
 1.896824704843383e+00	 5.372028767782708e-01	 1.186267836558905e+01
 1.884415645663542e+00	 5.792311328324216e-01	 1.185980708389112e+01
 1.870998790488245e+00	 6.212041893206487e-01	 1.185300870220735e+01
 1.856568345044922e+00	 6.630875739759653e-01	 1.184249443476331e+01
 1.841120020303820e+00	 7.048462199099149e-01	 1.182820091097472e+01
 1.824651083524189e+00	 7.464445444053474e-01	 1.180977934654710e+01
 1.807160404561592e+00	 7.878465322296934e-01	 1.178658586887873e+01
 1.788648497005671e+00	 8.290158231526051e-01	 1.175767318345651e+01
 1.942056200435424e+00	 4.141003636502061e-01	 1.183220512606477e+01
 1.932553196151707e+00	 4.563987183894079e-01	 1.184856394899703e+01
 1.922061122421255e+00	 4.987413262461179e-01	 1.185786397377723e+01
 1.910569943918465e+00	 5.410956887823153e-01	 1.186127888371329e+01
 1.898070963153277e+00	 5.834285003520271e-01	 1.185971372062374e+01
 1.884556883452640e+00	 6.257057123551258e-01	 1.185378889195263e+01
 1.870021868556099e+00	 6.678926027231987e-01	 1.184382499075945e+01
 1.854461598353669e+00	 7.099538504574706e-01	 1.182982860329525e+01
 1.837873320301940e+00	 7.518536149925487e-01	 1.181147929200052e+01
 1.820255896066940e+00	 7.935556201134200e-01	 1.178811795531324e+01
 1.801609842960009e+00	 8.350232421072867e-01	 1.175873677933533e+01
 1.956027875117432e+00	 4.170795130597794e-01	 1.182038961012368e+01
 1.946456503665550e+00	 4.596821735395547e-01	 1.184149165770839e+01
 1.935888947135180e+00	 5.023294055056194e-01	 1.185434946009376e+01
 1.924315098003887e+00	 5.449884767174719e-01	 1.186037642577174e+01
 1.911726196209532e+00	 5.876258419193892e-01	 1.186068190050910e+01
 1.898114892584837e+00	 6.302072075564812e-01	 1.185605217916262e+01
 1.883475308881720e+00	 6.726976017604614e-01	 1.184693248396466e+01
 1.867803093910167e+00	 7.150614494238159e-01	 1.183341011675159e+01
 1.851095475324230e+00	 7.572626521345105e-01	 1.181519900568807e+01
 1.833351306600461e+00	 7.992646726967115e-01	 1.179162588021647e+01
 1.814571108771880e+00	 8.410306239168078e-01	 1.176161832090272e+01
 1.684956114434273e+00	 7.809557230084924e-01	 1.179541975085033e+01
 1.666556108579333e+00	 8.194873157394583e-01	 1.175717675966937e+01
 1.647199695705267e+00	 8.577305159763660e-01	 1.170610307970970e+01
 1.626892195228096e+00	 8.956506072642391e-01	 1.164262179696612e+01
 1.605640574629505e+00	 9.332129100509844e-01	 1.156714470928053e+01
 1.583453458654829e+00	 9.703828781281937e-01	 1.148006677945460e+01
 1.560341131808945e+00	 1.007126196440562e+00	 1.138176075994412e+01
 1.536315533985785e+00	 1.043408879724244e+00	 1.127257220161609e+01
 1.511390249116649e+00	 1.079197371414791e+00	 1.115281507212542e+01
 1.485580486774423e+00	 1.114458642250760e+00	 1.102276821679420e+01
 1.458903056724601e+00	 1.149160287989920e+00	 1.088267289554566e+01
 1.697917720470713e+00	 7.869632625087234e-01	 1.178779463019949e+01
 1.679376171684905e+00	 8.257912613720412e-01	 1.174984686652479e+01
 1.659870858672978e+00	 8.643286492681638e-01	 1.169936786759432e+01
 1.639407141770808e+00	 9.025404426841122e-01	 1.163677037009902e+01
 1.617992042057758e+00	 9.403916952936697e-01	 1.156245936462815e+01
 1.595634250625419e+00	 9.778475951400555e-01	 1.147682621909076e+01
 1.572344131092705e+00	 1.014873563197749e+00	 1.138024292491608e+01
 1.548133715201746e+00	 1.051435352769626e+00	 1.127305668672300e+01
 1.523016691378873e+00	 1.087499149155750e+00	 1.115558509074337e+01
 1.497008386197335e+00	 1.123031669015494e+00	 1.102811209596742e+01
 1.470125738732542e+00	 1.158000258835432e+00	 1.089088509378304e+01
 1.710879331044161e+00	 7.929708041117344e-01	 1.178064222790446e+01
 1.692196239277984e+00	 8.320952092111141e-01	 1.174301538624229e+01
 1.672542026076116e+00	 8.709267848693754e-01	 1.169319811337312e+01
 1.651922092694297e+00	 9.094302805154478e-01	 1.163157857970688e+01
 1.630343513809585e+00	 9.475704830488989e-01	 1.155854007054620e+01
 1.607815046859852e+00	 9.853123147644879e-01	 1.147445485056525e+01
 1.584347134578076e+00	 1.022620932666389e+00	 1.137967810786119e+01
 1.559951900554614e+00	 1.059461828624110e+00	 1.127454220603578e+01
 1.534643137710871e+00	 1.095800929802140e+00	 1.115935148884472e+01
 1.508436289620492e+00	 1.131604698780583e+00	 1.103437789196190e+01
 1.481348424668851e+00	 1.166840232774733e+00	 1.089985761932037e+01
 1.723840935569680e+00	 7.989783429115335e-01	 1.177414773563652e+01
 1.705016300889208e+00	 8.383991541086286e-01	 1.173683650100692e+01
 1.685213187566892e+00	 8.775249173917148e-01	 1.168771523990880e+01
 1.664437037778324e+00	 9.163201151317564e-01	 1.162713358255896e+01
 1.642694979798230e+00	 9.547492674542318e-01	 1.155543846419030e+01
 1.619995837410733e+00	 9.927770309055642e-01	 1.147296780022837e+01
 1.596350132462838e+00	 1.030368298519748e+00	 1.138004420330534e+01
 1.571770080393091e+00	 1.067488300733048e+00	 1.127696897790247e+01
 1.546269578617915e+00	 1.104102706574501e+00	 1.116401664594362e+01
 1.519864187711302e+00	 1.140177724545059e+00	 1.104143026797283e+01
 1.492571105368532e+00	 1.175680202588859e+00	 1.090941782855125e+01
 1.736802523462338e+00	 8.049858740021280e-01	 1.176849119316952e+01
 1.717836346049209e+00	 8.447030909165361e-01	 1.173146013481573e+01
 1.697884332797518e+00	 8.841230414468964e-01	 1.168303736133803e+01
 1.676951966802650e+00	 9.232099409065490e-01	 1.162352022513495e+01
 1.655046429936937e+00	 9.619280426472270e-01	 1.155320491280727e+01
 1.632176612330666e+00	 1.000241737467358e+00	 1.147237999959401e+01
 1.608353114944773e+00	 1.038115654431095e+00	 1.138132001325875e+01
 1.583588245065871e+00	 1.075514762541794e+00	 1.128027925012194e+01
 1.557896004605275e+00	 1.112404472693372e+00	 1.116948610488821e+01
 1.531292071137173e+00	 1.148750739307956e+00	 1.104913818850529e+01
 1.503793771666583e+00	 1.184520161058842e+00	 1.091939851336111e+01
 1.749764084137201e+00	 8.109933924775250e-01	 1.176384763744086e+01
 1.730656364288626e+00	 8.510070144867884e-01	 1.172703206810205e+01
 1.710555451420205e+00	 8.907211516466336e-01	 1.167927936119099e+01
 1.689466869547038e+00	 9.300997522133370e-01	 1.162082108341404e+01
 1.667397854138950e+00	 9.691068027654434e-01	 1.155188851362170e+01
 1.644357361672258e+00	 1.007706428353941e+00	 1.147270614401691e+01
 1.620356072221661e+00	 1.045862994073695e+00	 1.138348516365186e+01
 1.595406384921654e+00	 1.083541207495701e+00	 1.128441717339016e+01
 1.569522406178222e+00	 1.120706221379292e+00	 1.117566840186050e+01
 1.542719930565512e+00	 1.157323736068305e+00	 1.105737470576920e+01
 1.515016414398009e+00	 1.193360100965718e+00	 1.092963764406263e+01
 1.762725607009334e+00	 8.170008934317318e-01	 1.176038724565704e+01
 1.743476345138092e+00	 8.573109196713373e-01	 1.172369404795679e+01
 1.723226533087164e+00	 8.973192426026411e-01	 1.167655296774864e+01
 1.701981735791249e+00	 9.369895434256313e-01	 1.161911650161945e+01
 1.679749242317513e+00	 9.762855419464395e-01	 1.155153709446150e+01
 1.656538075488112e+00	 1.015171097469386e+00	 1.147396065394571e+01
 1.632358994491283e+00	 1.053610311120815e+00	 1.138652002522468e+01
 1.607224490309136e+00	 1.091567629040120e+00	 1.128932868110622e+01
 1.581148773842030e+00	 1.129007945852801e+00	 1.118247490465770e+01
 1.554147756663726e+00	 1.165896707825141e+00	 1.106601675627978e+01
 1.526239024397810e+00	 1.202200015090521e+00	 1.093997812444883e+01
 1.775687081493801e+00	 8.230083719587561e-01	 1.175827547274788e+01
 1.756296278128241e+00	 8.636148013221341e-01	 1.172158389417189e+01
 1.735897567450607e+00	 9.039173089266328e-01	 1.167496682677934e+01
 1.714496555315046e+00	 9.438793089169430e-01	 1.161848462997258e+01
 1.692100584385871e+00	 9.834642543277747e-01	 1.155219721508531e+01
 1.668718743830833e+00	 1.022635738717768e+00	 1.147615763862090e+01
 1.644361871951418e+00	 1.061357599245724e+00	 1.139040563864369e+01
 1.619042551577015e+00	 1.099594020620405e+00	 1.129496137521482e+01
 1.592775098101968e+00	 1.137309639334439e+00	 1.118981965883378e+01
 1.565575540099225e+00	 1.174469647577495e+00	 1.107494496714365e+01
 1.537461592500988e+00	 1.211039896214285e+00	 1.095026755834710e+01
 1.788648497005671e+00	 8.290158231526051e-01	 1.175767318345651e+01
 1.769116152789709e+00	 8.699186542911306e-01	 1.172083560131853e+01
 1.748568544162743e+00	 9.105153452303222e-01	 1.167462657178843e+01
 1.727011317898189e+00	 9.507690430607832e-01	 1.161900146150774e+01
 1.704451870257265e+00	 9.906429340470074e-01	 1.155391416917737e+01
 1.680899356753025e+00	 1.030100346003158e+00	 1.147931086209545e+01
 1.656364694799848e+00	 1.069104852121687e+00	 1.139512364363281e+01
 1.630860559073990e+00	 1.107620375681909e+00	 1.130126441778062e+01
 1.604401369463309e+00	 1.145611295044744e+00	 1.119761924130418e+01
 1.577003271539414e+00	 1.183042548324400e+00	 1.108404347154180e+01
 1.548684109542545e+00	 1.219879737118045e+00	 1.096035802709305e+01
 1.801609842960009e+00	 8.350232421072867e-01	 1.175873677933533e+01
 1.781935958653133e+00	 8.762224734302785e-01	 1.172157943705976e+01
 1.761239452875785e+00	 9.171133461254239e-01	 1.167563489190628e+01
 1.739526013320439e+00	 9.576587402306627e-01	 1.162074086799564e+01
 1.716803089844941e+00	 9.978215752416968e-01	 1.155673198697711e+01
 1.693079904307295e+00	 1.037564913229629e+00	 1.148343371146164e+01
 1.668367453234355e+00	 1.076852063421972e+00	 1.140065621191830e+01
 1.642678503148756e+00	 1.115646687669985e+00	 1.130818842800759e+01
 1.616027578431323e+00	 1.153912906204257e+00	 1.120579262104010e+01
 1.588430941651701e+00	 1.191615403064889e+00	 1.109319973294800e+01
 1.559906566357481e+00	 1.228719530582835e+00	 1.097010587737669e+01
 1.814571108771880e+00	 8.410306239168078e-01	 1.176161832090272e+01
 1.794755685249146e+00	 8.825262535915291e-01	 1.172394203688634e+01
 1.773910283241944e+00	 9.237113062236514e-01	 1.167809159753370e+01
 1.752040631361560e+00	 9.645483948000926e-01	 1.162377463502057e+01
 1.729154233062143e+00	 1.005000172049402e+00	 1.156069343851246e+01
 1.705260376546246e+00	 1.045029434301255e+00	 1.148853916717546e+01
 1.680370137452718e+00	 1.084599226819845e+00	 1.140698598379732e+01
 1.654496374150013e+00	 1.123672950029984e+00	 1.131568538443230e+01
 1.627653715511282e+00	 1.162214466033516e+00	 1.121426102649903e+01
 1.599858541103495e+00	 1.200188204797995e+00	 1.110230437764805e+01
 1.571128953780799e+00	 1.237559269389690e+00	 1.097937151894424e+01
 1.458903056724601e+00	 1.149160287989920e+00	 1.088267289554566e+01
 1.431376332403356e+00	 1.183270628862627e+00	 1.073422195365352e+01
 1.403020199363723e+00	 1.216758813370768e+00	 1.057842803096949e+01
 1.373856021405344e+00	 1.249594900150438e+00	 1.041400681117382e+01
 1.343906592066114e+00	 1.281749943065508e+00	 1.023895352353811e+01
 1.313196075777992e+00	 1.313196075777993e+00	 1.005115029244160e+01
 1.281749943065507e+00	 1.343906592066115e+00	 9.848438516921675e+00
 1.249594900150437e+00	 1.373856021405345e+00	 9.628692636262400e+00
 1.216758813370767e+00	 1.403020199363723e+00	 9.389896860673868e+00
 1.183270628862627e+00	 1.431376332403357e+00	 9.130330481503918e+00
 1.149160287989920e+00	 1.458903056724601e+00	 8.861534549939492e+00
 1.470125738732542e+00	 1.158000258835432e+00	 1.089088509378304e+01
 1.442387263759201e+00	 1.192372995147767e+00	 1.074540853024439e+01
 1.413812999800923e+00	 1.226118789127744e+00	 1.059225867402382e+01
 1.384424474999414e+00	 1.259207469086070e+00	 1.043027807529663e+01
 1.354244658232962e+00	 1.291609866217064e+00	 1.025737449634332e+01
 1.323297899819588e+00	 1.323297899819588e+00	 1.007122751354924e+01
 1.291609866217063e+00	 1.354244658232962e+00	 9.869462441686414e+00
 1.259207469086070e+00	 1.384424474999415e+00	 9.649728457799348e+00
 1.226118789127743e+00	 1.413812999800923e+00	 9.409780020583131e+00
 1.192372995147766e+00	 1.442387263759201e+00	 9.150191830360521e+00
 1.158000258835432e+00	 1.470125738732542e+00	 8.886216988707647e+00
 1.481348424668851e+00	 1.166840232774733e+00	 1.089985761932037e+01
 1.453398198969239e+00	 1.201475364618558e+00	 1.075707194425908e+01
 1.424605804015899e+00	 1.235478768160576e+00	 1.060621165118688e+01
 1.394992932292661e+00	 1.268820041386022e+00	 1.044605269773763e+01
 1.364582728018272e+00	 1.301469792819580e+00	 1.027460137713663e+01
 1.333399727396883e+00	 1.333399727396884e+00	 1.008936580000018e+01
 1.301469792819580e+00	 1.364582728018273e+00	 9.887790657848729e+00
 1.268820041386021e+00	 1.394992932292662e+00	 9.667339546229016e+00
 1.235478768160575e+00	 1.424605804015899e+00	 9.425580891082358e+00
 1.201475364618558e+00	 1.453398198969239e+00	 9.168688384701914e+00
 1.166840232774733e+00	 1.481348424668851e+00	 8.909248127433898e+00
 1.492571105368532e+00	 1.175680202588859e+00	 1.090941782855125e+01
 1.464409129041410e+00	 1.210577729841743e+00	 1.076901184645150e+01
 1.435398603194744e+00	 1.244838742825615e+00	 1.062008831744632e+01
 1.405561384654415e+00	 1.278432609200344e+00	 1.046116218110586e+01
 1.374920792979544e+00	 1.311329714821083e+00	 1.029049057458769e+01
 1.343501550260330e+00	 1.343501550260330e+00	 1.010546328661250e+01
 1.311329714821082e+00	 1.374920792979545e+00	 9.903378961215260e+00
 1.278432609200344e+00	 1.405561384654415e+00	 9.681554315239786e+00
 1.244838742825615e+00	 1.435398603194745e+00	 9.438010334321312e+00
 1.210577729841742e+00	 1.464409129041410e+00	 9.185910052209390e+00
 1.175680202588859e+00	 1.492571105368532e+00	 8.930827122475625e+00
 1.503793771666583e+00	 1.184520161058842e+00	 1.091939851336111e+01
 1.475420044983652e+00	 1.219680083384064e+00	 1.078103417974132e+01
 1.446191388523552e+00	 1.254198705479214e+00	 1.063361971027024e+01
 1.416129823454001e+00	 1.288045164679088e+00	 1.047544374050621e+01
 1.385258844674276e+00	 1.321189624169597e+00	 1.030490361856835e+01
 1.353603360160380e+00	 1.353603360160380e+00	 1.011942219538241e+01
 1.321189624169596e+00	 1.385258844674276e+00	 9.916185777906762e+00
 1.288045164679088e+00	 1.416129823454001e+00	 9.692401950411652e+00
 1.254198705479213e+00	 1.446191388523552e+00	 9.449330967416497e+00
 1.219680083384063e+00	 1.475420044983652e+00	 9.201942173415310e+00
 1.184520161058843e+00	 1.503793771666584e+00	 8.951145416417818e+00
 1.515016414398009e+00	 1.193360100965718e+00	 1.092963764406263e+01
 1.486430937803904e+00	 1.228782417812263e+00	 1.079295088898774e+01
 1.456984151188414e+00	 1.263558648477723e+00	 1.064660184705738e+01
 1.426698240060748e+00	 1.297657699972307e+00	 1.048873982438014e+01
 1.395596874659965e+00	 1.331049512813149e+00	 1.031770670801620e+01
 1.363705148847485e+00	 1.363705148847485e+00	 1.013114842917605e+01
 1.331049512813148e+00	 1.395596874659965e+00	 9.926171821798087e+00
 1.297657699972306e+00	 1.426698240060748e+00	 9.699912147351966e+00
 1.263558648477722e+00	 1.456984151188414e+00	 9.459740623393651e+00
 1.228782417812262e+00	 1.486430937803904e+00	 9.216865652423863e+00
 1.193360100965718e+00	 1.515016414398009e+00	 8.970386985745829e+00
 1.526239024397810e+00	 1.202200015090521e+00	 1.093997812444883e+01
 1.497441798510104e+00	 1.237884725693083e+00	 1.080457964433526e+01
 1.467776882375423e+00	 1.272918564177493e+00	 1.065884390308318e+01
 1.437266625843982e+00	 1.307270207230050e+00	 1.050086071001265e+01
 1.405934874494110e+00	 1.340909372699764e+00	 1.032877027157308e+01
 1.373806908072096e+00	 1.373806908072096e+00	 1.014055117629707e+01
 1.340909372699764e+00	 1.405934874494111e+00	 9.933299760180578e+00
 1.307270207230049e+00	 1.437266625843983e+00	 9.704998219905274e+00
 1.272918564177493e+00	 1.467776882375423e+00	 9.469226595278830e+00
 1.237884725693082e+00	 1.497441798510105e+00	 9.230757083792982e+00
 1.202200015090521e+00	 1.526239024397810e+00	 8.988728579450495e+00
 1.537461592500988e+00	 1.211039896214285e+00	 1.095026755834710e+01
 1.508452618110191e+00	 1.246986999593266e+00	 1.081574357744045e+01
 1.478569573270671e+00	 1.282278444934877e+00	 1.067016079759748e+01
 1.447834972173032e+00	 1.316882678602370e+00	 1.051157096608566e+01
 1.416272835734211e+00	 1.350769195777470e+00	 1.033796854035416e+01
 1.383908629584665e+00	 1.383908629584666e+00	 1.014754252538244e+01
 1.350769195777470e+00	 1.416272835734212e+00	 9.937533887234238e+00
 1.316882678602369e+00	 1.447834972173032e+00	 9.709326514001198e+00
 1.282278444934876e+00	 1.478569573270671e+00	 9.477774485388938e+00
 1.246986999593265e+00	 1.508452618110192e+00	 9.243688875774140e+00
 1.211039896214285e+00	 1.537461592500988e+00	 9.006339949029368e+00
 1.548684109542545e+00	 1.219879737118045e+00	 1.096035802709305e+01
 1.519463387612104e+00	 1.256089232079554e+00	 1.082627102992912e+01
 1.489362215060251e+00	 1.291638283106225e+00	 1.068037293065283e+01
 1.458403270417224e+00	 1.326495106239317e+00	 1.052069676924120e+01
 1.426610749937764e+00	 1.360628973994291e+00	 1.034517913224101e+01
 1.394010305135645e+00	 1.394010305135645e+00	 1.015203709011070e+01
 1.360628973994290e+00	 1.426610749937764e+00	 9.938839804921427e+00
 1.326495106239316e+00	 1.458403270417224e+00	 9.712850993517625e+00
 1.291638283106225e+00	 1.489362215060251e+00	 9.485368234268620e+00
 1.256089232079554e+00	 1.519463387612105e+00	 9.255729370094247e+00
 1.219879737118045e+00	 1.548684109542545e+00	 9.023384070319159e+00
 1.559906566357481e+00	 1.228719530582835e+00	 1.097010587737669e+01
 1.530474098023782e+00	 1.265191415718691e+00	 1.083599531347020e+01
 1.500154798930255e+00	 1.300998071047889e+00	 1.068930593204048e+01
 1.468971511945886e+00	 1.336107482290944e+00	 1.052807097938675e+01
 1.436948608662268e+00	 1.370488699298253e+00	 1.035024954104291e+01
 1.404111926475486e+00	 1.404111926475486e+00	 1.015395164323713e+01
 1.370488699298252e+00	 1.436948608662268e+00	 9.937925648106621e+00
 1.336107482290943e+00	 1.468971511945887e+00	 9.715482696794194e+00
 1.300998071047889e+00	 1.500154798930256e+00	 9.491990150327680e+00
 1.265191415718691e+00	 1.530474098023782e+00	 9.266942958454065e+00
 1.228719530582835e+00	 1.559906566357482e+00	 9.040017357570580e+00
 1.571128953780799e+00	 1.237559269389690e+00	 1.097937151894424e+01
 1.541484740353162e+00	 1.274293543077417e+00	 1.084475448088795e+01
 1.510947316066777e+00	 1.310357801116220e+00	 1.069679042173107e+01
 1.479539688128345e+00	 1.345719798907301e+00	 1.053353127998124e+01
 1.447286403465221e+00	 1.380348363637383e+00	 1.035298339669586e+01
 1.414213485354640e+00	 1.414213485354640e+00	 1.015320475949808e+01
 1.380348363637382e+00	 1.447286403465222e+00	 9.936188277720920e+00
 1.345719798907301e+00	 1.479539688128346e+00	 9.717132986581284e+00
 1.310357801116220e+00	 1.510947316066777e+00	 9.497620940144262e+00
 1.274293543077416e+00	 1.541484740353163e+00	 9.277390195907238e+00
 1.237559269389690e+00	 1.571128953780800e+00	 9.056389870152843e+00
 1.149160287989920e+00	 1.458903056724601e+00	 8.861534549939492e+00
 1.114458642250760e+00	 1.485580486774424e+00	 8.591592247329036e+00
 1.079197371414790e+00	 1.511390249116649e+00	 8.320255713171088e+00
 1.043408879724243e+00	 1.536315533985785e+00	 8.047804326485029e+00
 1.007126196440562e+00	 1.560341131808945e+00	 7.774689003217739e+00
 9.703828781281930e-01	 1.583453458654829e+00	 7.501522013928614e+00
 9.332129100509838e-01	 1.605640574629505e+00	 7.229064737187708e+00
 8.956506072642383e-01	 1.626892195228096e+00	 6.958213637082284e+00
 8.577305159763654e-01	 1.647199695705267e+00	 6.689984762109702e+00
 8.194873157394577e-01	 1.666556108579334e+00	 6.425497062296722e+00
 7.809557230084923e-01	 1.684956114434272e+00	 6.165954812746971e+00
 1.158000258835432e+00	 1.470125738732542e+00	 8.886216988707647e+00
 1.123031669015494e+00	 1.497008386197336e+00	 8.620134613043069e+00
 1.087499149155749e+00	 1.523016691378874e+00	 8.351954898241983e+00
 1.051435352769625e+00	 1.548133715201746e+00	 8.082053803610119e+00
 1.014873563197748e+00	 1.572344131092705e+00	 7.810994761972282e+00
 9.778475951400548e-01	 1.595634250625419e+00	 7.539517182966163e+00
 9.403916952936689e-01	 1.617992042057758e+00	 7.268522782840835e+00
 9.025404426841116e-01	 1.639407141770809e+00	 6.999060053578307e+00
 8.643286492681631e-01	 1.659870858672978e+00	 6.732307192761279e+00
 8.257912613720407e-01	 1.679376171684905e+00	 6.469553814293750e+00
 7.869632625087235e-01	 1.697917720470713e+00	 6.212181750045097e+00
 1.166840232774733e+00	 1.481348424668851e+00	 8.909248127433898e+00
 1.131604698780582e+00	 1.508436289620493e+00	 8.646993869266105e+00
 1.095800929802139e+00	 1.534643137710871e+00	 8.382190078026404e+00
 1.059461828624109e+00	 1.559951900554615e+00	 8.115262674443061e+00
 1.022620932666388e+00	 1.584347134578076e+00	 7.846831119364593e+00
 9.853123147644873e-01	 1.607815046859852e+00	 7.577696208326607e+00
 9.475704830488985e-01	 1.630343513809585e+00	 7.308825648263835e+00
 9.094302805154472e-01	 1.651922092694298e+00	 7.041337746376044e+00
 8.709267848693747e-01	 1.672542026076116e+00	 6.776483548956783e+00
 8.320952092111138e-01	 1.692196239277985e+00	 6.515627765378963e+00
 7.929708041117345e-01	 1.710879331044161e+00	 6.260228800691646e+00
 1.175680202588859e+00	 1.492571105368532e+00	 8.930827122475625e+00
 1.140177724545059e+00	 1.519864187711303e+00	 8.672465574347147e+00
 1.104102706574500e+00	 1.546269578617915e+00	 8.411317091583374e+00
 1.067488300733048e+00	 1.571770080393091e+00	 8.147812135049389e+00
 1.030368298519748e+00	 1.596350132462839e+00	 7.882571047272397e+00
 9.927770309055636e-01	 1.619995837410733e+00	 7.616391735365468e+00
 9.547492674542313e-01	 1.642694979798230e+00	 7.350235155887553e+00
 9.163201151317556e-01	 1.664437037778324e+00	 7.085208941711810e+00
 8.775249173917143e-01	 1.685213187566893e+00	 6.822549517445706e+00
 8.383991541086279e-01	 1.705016300889208e+00	 6.563603045613196e+00
 7.989783429115337e-01	 1.723840935569681e+00	 6.309805532059649e+00
 1.184520161058843e+00	 1.503793771666584e+00	 8.951145416417818e+00
 1.148750739307955e+00	 1.531292071137173e+00	 8.696834811764052e+00
 1.112404472693371e+00	 1.557896004605275e+00	 8.439679622206731e+00
 1.075514762541794e+00	 1.583588245065872e+00	 8.180070589168086e+00
 1.038115654431094e+00	 1.608353114944774e+00	 7.918575092831682e+00
 1.000241737467357e+00	 1.632176612330667e+00	 7.655925312143100e+00
 9.619280426472262e-01	 1.655046429936937e+00	 7.393004270012220e+00
 9.232099409065484e-01	 1.676951966802651e+00	 7.130830106830558e+00
 8.841230414468955e-01	 1.697884332797518e+00	 6.870538930034605e+00
 8.447030909165353e-01	 1.717836346049210e+00	 6.613366580979431e+00
 8.049858740021278e-01	 1.736802523462339e+00	 6.360629644314423e+00
 1.193360100965718e+00	 1.515016414398009e+00	 8.970386985745829e+00
 1.157323736068305e+00	 1.542719930565512e+00	 8.720376540299563e+00
 1.120706221379291e+00	 1.569522406178222e+00	 8.467609609965493e+00
 1.083541207495700e+00	 1.595406384921653e+00	 8.212394084345604e+00
 1.045862994073694e+00	 1.620356072221661e+00	 7.955191800921714e+00
 1.007706428353940e+00	 1.644357361672258e+00	 7.696607762695693e+00
 9.691068027654426e-01	 1.667397854138951e+00	 7.437377387117678e+00
 9.300997522133365e-01	 1.689466869547039e+00	 7.178352125535293e+00
 8.907211516466331e-01	 1.710555451420205e+00	 6.920483794642078e+00
 8.510070144867877e-01	 1.730656364288626e+00	 6.664807952380908e+00
 8.109933924775248e-01	 1.749764084137200e+00	 6.412426632058128e+00
 1.202200015090521e+00	 1.526239024397810e+00	 8.988728579450495e+00
 1.165896707825140e+00	 1.554147756663727e+00	 8.743355930551081e+00
 1.129007945852801e+00	 1.581148773842030e+00	 8.495427647740257e+00
 1.091567629040120e+00	 1.607224490309136e+00	 8.245126730430687e+00
 1.053610311120815e+00	 1.632358994491282e+00	 7.992758119511295e+00
 1.015171097469386e+00	 1.656538075488112e+00	 7.738739545231525e+00
 9.762855419464389e-01	 1.679749242317514e+00	 7.483590614646610e+00
 9.369895434256307e-01	 1.701981735791249e+00	 7.227920467157995e+00
 8.973192426026407e-01	 1.723226533087165e+00	 6.972414326032203e+00
 8.573109196713367e-01	 1.743476345138091e+00	 6.717819261790302e+00
 8.170008934317319e-01	 1.762725607009334e+00	 6.464929461714856e+00
 1.211039896214285e+00	 1.537461592500988e+00	 9.006339949029368e+00
 1.174469647577494e+00	 1.565575540099225e+00	 8.766028688471470e+00
 1.137309639334438e+00	 1.592775098101969e+00	 8.523443361597629e+00
 1.099594020620405e+00	 1.619042551577015e+00	 8.278601101329256e+00
 1.061357599245723e+00	 1.644361871951419e+00	 8.031599788740257e+00
 1.022635738717767e+00	 1.668718743830833e+00	 7.782611096020677e+00
 9.834642543277738e-01	 1.692100584385871e+00	 7.531872038849166e+00
 9.438793089169424e-01	 1.714496555315046e+00	 7.279675349286787e+00
 9.039173089266319e-01	 1.735897567450607e+00	 7.026358976243802e+00
 8.636148013221334e-01	 1.756296278128241e+00	 6.772295005186547e+00
 8.230083719587561e-01	 1.775687081493801e+00	 6.517878263854248e+00
 1.219879737118045e+00	 1.548684109542545e+00	 9.023384070319159e+00
 1.183042548324399e+00	 1.577003271539414e+00	 8.788641366597407e+00
 1.145611295044743e+00	 1.604401369463309e+00	 8.551955776295578e+00
 1.107620375681909e+00	 1.630860559073990e+00	 8.313138620867306e+00
 1.069104852121687e+00	 1.656364694799849e+00	 8.072031714559774e+00
 1.030100346003157e+00	 1.680899356753026e+00	 7.828503159703769e+00
 9.906429340470070e-01	 1.704451870257265e+00	 7.582441982242818e+00
 9.507690430607827e-01	 1.727011317898189e+00	 7.333751894567150e+00
 9.105153452303217e-01	 1.748568544162743e+00	 7.082344464730916e+00
 8.699186542911300e-01	 1.769116152789710e+00	 6.828131951935926e+00
 8.290158231526052e-01	 1.788648497005671e+00	 6.571020039698104e+00
 1.228719530582835e+00	 1.559906566357482e+00	 9.040017357570580e+00
 1.191615403064888e+00	 1.588430941651702e+00	 8.811431663585173e+00
 1.153912906204256e+00	 1.616027578431323e+00	 8.581253666667445e+00
 1.115646687669984e+00	 1.642678503148757e+00	 8.349049933561087e+00
 1.076852063421971e+00	 1.668367453234356e+00	 8.114358327708528e+00
 1.037564913229628e+00	 1.693079904307296e+00	 7.876687106701881e+00
 9.978215752416963e-01	 1.716803089844942e+00	 7.635513251210339e+00
 9.576587402306620e-01	 1.739526013320440e+00	 7.390280281874809e+00
 9.171133461254229e-01	 1.761239452875786e+00	 7.140395808230505e+00
 8.762224734302777e-01	 1.781935958653133e+00	 6.885229030294617e+00
 8.350232421072867e-01	 1.801609842960009e+00	 6.624108381098669e+00
 1.237559269389690e+00	 1.571128953780800e+00	 9.056389870152843e+00
 1.200188204797994e+00	 1.599858541103495e+00	 8.834628712636210e+00
 1.162214466033515e+00	 1.627653715511282e+00	 8.611615895589505e+00
 1.123672950029984e+00	 1.654496374150013e+00	 8.386635261047235e+00
 1.084599226819845e+00	 1.680370137452718e+00	 8.158873928755838e+00
 1.045029434301254e+00	 1.705260376546246e+00	 7.927425238372116e+00
 1.005000172049402e+00	 1.729154233062144e+00	 7.691291374227934e+00
 9.645483948000920e-01	 1.752040631361561e+00	 7.449385892141382e+00
 9.237113062236508e-01	 1.773910283241945e+00	 7.200536350370331e+00
 8.825262535915284e-01	 1.794755685249146e+00	 6.943487218727583e+00
 8.410306239168076e-01	 1.814571108771879e+00	 6.676903203315505e+00
 7.809557230084923e-01	 1.684956114434272e+00	 6.165954812746971e+00
 7.421731178265022e-01	 1.702394840869089e+00	 5.911195670875060e+00
 7.031713057585309e-01	 1.718871541860783e+00	 5.659855484282810e+00
 6.639845391423617e-01	 1.734385733593725e+00	 5.411326195807085e+00
 6.246467453183745e-01	 1.748938480695031e+00	 5.164846629977197e+00
 5.851914441855204e-01	 1.762532357481655e+00	 4.919506151595390e+00
 5.456516697179219e-01	 1.775171404337629e+00	 4.674249056953533e+00
 5.060598957399114e-01	 1.786861079627148e+00	 4.427879599258061e+00
 4.664479662144161e-01	 1.797608207565696e+00	 4.179067536488139e+00
 4.268470302562790e-01	 1.807420922483264e+00	 3.926354082136450e+00
 3.872874820388771e-01	 1.816308609920916e+00	 3.668158137111870e+00
 7.869632625087235e-01	 1.697917720470713e+00	 6.212181750045097e+00
 7.478823202690242e-01	 1.715490595148239e+00	 5.959747101746300e+00
 7.085804848838243e-01	 1.732094043955664e+00	 5.710542555707478e+00
 6.690922721786597e-01	 1.747727579355579e+00	 5.464046215181249e+00
 6.294518704816070e-01	 1.762392274164796e+00	 5.219579246201288e+00
 5.896930575450495e-01	 1.776090722503322e+00	 4.976309264911823e+00
 5.498491214585426e-01	 1.788826995836037e+00	 4.733254515212238e+00
 5.099527858528722e-01	 1.800606594515860e+00	 4.489288733646880e+00
 4.700361396521803e-01	 1.811436395253883e+00	 4.243146583830457e+00
 4.301305715873716e-01	 1.821324594953817e+00	 3.993429533990381e+00
 3.902667096404621e-01	 1.830280651355449e+00	 3.738612048460678e+00
 7.929708041117345e-01	 1.710879331044161e+00	 6.260228800691646e+00
 7.535915247099300e-01	 1.728586354011297e+00	 6.009496248847203e+00
 7.139896659025052e-01	 1.745316550678762e+00	 5.761447309646371e+00
 6.742000070028458e-01	 1.761069429787372e+00	 5.515753934318249e+00
 6.342569973268173e-01	 1.775846072343639e+00	 5.271943705678060e+00
 5.941946724803291e-01	 1.789649092270639e+00	 5.029401411440878e+00
 5.540465746684606e-01	 1.802482592114111e+00	 4.787371409348932e+00
 5.138456773285421e-01	 1.814352114215724e+00	 4.544960693172576e+00
 4.736243143460179e-01	 1.825264587782192e+00	 4.301142552304561e+00
 4.334141140679419e-01	 1.835228272290978e+00	 4.054760707423871e+00
 3.932459382850532e-01	 1.844252697680622e+00	 3.804533800633132e+00
 7.989783429115337e-01	 1.723840935569681e+00	 6.309805532059649e+00
 7.593007264868672e-01	 1.741682106763799e+00	 6.060002714236867e+00
 7.193988443972461e-01	 1.758539051232120e+00	 5.812048381524940e+00
 6.793077394437823e-01	 1.774411273993694e+00	 5.565913141396711e+00
 6.390621219300110e-01	 1.789299864244733e+00	 5.321451960183129e+00
 5.986962853152490e-01	 1.803207455711374e+00	 5.078402399533799e+00
 5.582440259199829e-01	 1.816138182020209e+00	 4.836383590690579e+00
 5.177385669879710e-01	 1.828097627501634e+00	 4.594895884346744e+00
 4.772124873658480e-01	 1.839092773857973e+00	 4.353321095414874e+00
 4.366976550167058e-01	 1.849131943140409e+00	 4.110923249658430e+00
 3.962251655398985e-01	 1.858224737486205e+00	 3.866849732989005e+00
 8.049858740021278e-01	 1.736802523462339e+00	 6.360629644314425e+00
 7.650099209374839e-01	 1.754777842711275e+00	 6.110838833776905e+00
 7.248080159507176e-01	 1.771761534817776e+00	 5.861839679933466e+00
 6.844154653303316e-01	 1.787753101079132e+00	 5.614003461141063e+00
 6.438672403671953e-01	 1.802753638881247e+00	 5.367630477844035e+00
 6.031978923737010e-01	 1.816765801753297e+00	 5.122943448678305e+00
 5.624414717854173e-01	 1.829793754402688e+00	 4.880081535553084e+00
 5.216314516522099e-01	 1.841843123148493e+00	 4.639094980599066e+00
 4.808006557815893e-01	 1.852920942188577e+00	 4.399940316896534e+00
 4.399811917523782e-01	 1.863035596147770e+00	 4.162476099822063e+00
 3.992043889722463e-01	 1.872196759361969e+00	 3.926459096871381e+00
 8.109933924775248e-01	 1.749764084137200e+00	 6.412426632058128e+00
 7.707191033994272e-01	 1.767873551159260e+00	 6.161589168809650e+00
 7.302171761455923e-01	 1.784983990637770e+00	 5.910329784867355e+00
 6.895231804913569e-01	 1.801094900148274e+00	 5.659519733010029e+00
 6.486723487143762e-01	 1.816207385266352e+00	 5.410019671268181e+00
 6.076994899795760e-01	 1.830324119324177e+00	 5.162666733927455e+00
 5.666389088370706e-01	 1.843449298109902e+00	 4.918262068495470e+00
 5.255243281423086e-01	 1.855588589931198e+00	 4.677558882856307e+00
 4.843888166631602e-01	 1.866749081481358e+00	 4.441251022928991e+00
 4.432647215936746e-01	 1.876939219958725e+00	 4.209962082778773e+00
 4.021836061493446e-01	 1.886168751897681e+00	 3.984235036587547e+00
 8.170008934317319e-01	 1.762725607009334e+00	 6.464929461714856e+00
 7.764282692103445e-01	 1.780969221413285e+00	 6.211850020964013e+00
 7.356263205645411e-01	 1.798206407894144e+00	 5.957041373117512e+00
 6.946308807557208e-01	 1.814436660305711e+00	 5.701971417333144e+00
 6.534774430475607e-01	 1.829661092413220e+00	 5.448173351339499e+00
 6.122010744567649e-01	 1.843882397351781e+00	 5.197224950803725e+00
 5.708363336472511e-01	 1.857104801990213e+00	 4.950728098109282e+00
 5.294171932793182e-01	 1.869334016624649e+00	 4.710288682147710e+00
 4.879769670804801e-01	 1.880577180443665e+00	 4.477496963483201e+00
 4.465482418593107e-01	 1.890842803218936e+00	 4.253908477006168e+00
 4.051628146384416e-01	 1.900140703683113e+00	 4.041025527353559e+00
 8.230083719587561e-01	 1.775687081493801e+00	 6.517878263854250e+00
 7.821374137078843e-01	 1.794064842778885e+00	 6.261228968909961e+00
 7.410354447902358e-01	 1.811428775788938e+00	 6.001510669427505e+00
 6.997385619522860e-01	 1.827778370656031e+00	 5.740882027969901e+00
 6.582825194427550e-01	 1.843114749335019e+00	 5.481658205376283e+00
 6.167026421291589e-01	 1.857440624763881e+00	 5.226280899635681e+00
 5.750337427882655e-01	 1.870760254891973e+00	 4.977288364705604e+00
 5.333100438842889e-01	 1.883079392003745e+00	 4.737285624134849e+00
 4.915651041034672e-01	 1.894405227782849e+00	 4.508915063358974e+00
 4.498317498680013e-01	 1.904746334574061e+00	 4.294827557844573e+00
 4.081420120067854e-01	 1.914112603308034e+00	 4.097654272396603e+00
 8.290158231526052e-01	 1.788648497005671e+00	 6.571020039698104e+00
 7.878465322296937e-01	 1.807160404561592e+00	 6.309344425952446e+00
 7.464445444053480e-01	 1.824651083524189e+00	 6.043286922113805e+00
 7.048462199099151e-01	 1.841120020303820e+00	 5.775788590150537e+00
 6.630875739759654e-01	 1.856568345044922e+00	 5.510053298417598e+00
 6.212041893206490e-01	 1.870998790488244e+00	 5.249507088343131e+00
 5.792311328324219e-01	 1.884415645663543e+00	 4.997757199297364e+00
 5.372028767782712e-01	 1.896824704843383e+00	 4.758551075469219e+00
 4.951532248020403e-01	 1.908233212206262e+00	 4.535735643431890e+00
 4.531152429384621e-01	 1.918649802669765e+00	 4.333217117364431e+00
 4.111211958216242e-01	 1.928084439362215e+00	 4.154921561283310e+00
 8.350232421072867e-01	 1.801609842960009e+00	 6.624108381098669e+00
 7.935556201134204e-01	 1.820255896066940e+00	 6.355825217417186e+00
 7.518536149925490e-01	 1.837873320301940e+00	 6.081931901920814e+00
 7.099538504574709e-01	 1.854461598353669e+00	 5.806241122233325e+00
 6.678926027231988e-01	 1.870021868556099e+00	 5.532949596476810e+00
 6.257057123551264e-01	 1.884556883452640e+00	 5.266585352745683e+00
 5.834285003520273e-01	 1.898070963153276e+00	 5.011954293310162e+00
 5.410956887823155e-01	 1.910569943918465e+00	 4.774086491885404e+00
 4.987413262461183e-01	 1.922061122421256e+00	 4.558182632605603e+00
 4.563987183894082e-01	 1.932553196151707e+00	 4.369560962028400e+00
 4.141003636502062e-01	 1.942056200435424e+00	 4.213605091422452e+00
 8.410306239168076e-01	 1.814571108771879e+00	 6.676903203315505e+00
 7.992646726967119e-01	 1.833351306600461e+00	 6.400310176842078e+00
 7.572626521345107e-01	 1.851095475324230e+00	 6.117019422951757e+00
 7.150614494238162e-01	 1.867803093910166e+00	 5.831802140186634e+00
 6.726976017604617e-01	 1.883475308881719e+00	 5.549949510666939e+00
 6.302072075564815e-01	 1.898114892584837e+00	 5.277206493519943e+00
 5.876258419193895e-01	 1.911726196209532e+00	 5.019704478486654e+00
 5.449884767174722e-01	 1.924315098003888e+00	 4.783893387945032e+00
 5.023294055056197e-01	 1.935888947135180e+00	 4.576473770930296e+00
 4.596821735395550e-01	 1.946456503665550e+00	 4.404329389254220e+00
 4.170795130597794e-01	 1.956027875117432e+00	 4.274460754579006e+00
 3.872874820388771e-01	 1.816308609920916e+00	 3.668158137111870e+00
 3.477961513548631e-01	 1.824282371526556e+00	 3.414178839431579e+00
 3.084045727317791e-01	 1.831353256794514e+00	 3.170166270008887e+00
 2.691406090831641e-01	 1.837534030153142e+00	 2.928736208093542e+00
 2.300311761118629e-01	 1.842838449176229e+00	 2.682863341161562e+00
 1.911022077634256e-01	 1.847281196321023e+00	 2.425888106131758e+00
 1.523786267521780e-01	 1.850877810074617e+00	 2.151520097487953e+00
 1.138843200634055e-01	 1.853644615892075e+00	 1.853838246660474e+00
 7.564211930666406e-02	 1.855598657289427e+00	 1.527288010269353e+00
 3.767378576971149e-02	 1.856757627432609e+00	 1.166675832999074e+00
 0.000000000000000e+00	 1.857139801539814e+00	 7.671611734257128e-01
 3.902667096404621e-01	 1.830280651355449e+00	 3.738612048460678e+00
 3.504715899935780e-01	 1.838315751506641e+00	 3.488788402753243e+00
 3.107769897551532e-01	 1.845441029900473e+00	 3.248751312889824e+00
 2.712109861755548e-01	 1.851669349156259e+00	 3.009154718348994e+00
 2.318007020079915e-01	 1.857014572678568e+00	 2.761041568492464e+00
 1.925722706961611e-01	 1.861491495870142e+00	 2.495863892122915e+00
 1.535508066735914e-01	 1.865115776748615e+00	 2.205498360173764e+00
 1.147603806773737e-01	 1.867903866353385e+00	 1.882257502662756e+00
 7.622399995034060e-02	 1.869872939308534e+00	 1.518896789439775e+00
 3.796359318002330e-02	 1.871040824885514e+00	 1.108617826845486e+00
 0.000000000000000e+00	 1.871425938885499e+00	 6.450679584753209e-01
 3.932459382850532e-01	 1.844252697680622e+00	 3.804533800633132e+00
 3.531470295690237e-01	 1.852349136398973e+00	 3.560907111975572e+00
 3.131494076092565e-01	 1.859528807937886e+00	 3.327313751437044e+00
 2.732813639930133e-01	 1.865804673107656e+00	 3.092076653034571e+00
 2.335702285239302e-01	 1.871190701143662e+00	 2.843908290858258e+00
 1.940423341439138e-01	 1.875701800394163e+00	 2.571948570114021e+00
 1.547229870057532e-01	 1.879353748407376e+00	 2.265797067545559e+00
 1.156364415984018e-01	 1.882163121807058e+00	 1.915539704440648e+00
 7.680588079802229e-02	 1.884147226325386e+00	 1.511770002396018e+00
 3.825340069197077e-02	 1.885324027339362e+00	 1.045605132589185e+00
 0.000000000000000e+00	 1.885712081233184e+00	 5.086970225334437e-01
 3.962251655398985e-01	 1.858224737486205e+00	 3.866849732989005e+00
 3.558224678965476e-01	 1.866382514743161e+00	 3.631741529899152e+00
 3.155218243569035e-01	 1.873616579401857e+00	 3.407167554708464e+00
 2.753517408450131e-01	 1.879939990463523e+00	 3.178760086707460e+00
 2.353397542148332e-01	 1.885366822994288e+00	 2.932512291058150e+00
 1.955123969063779e-01	 1.889912098287876e+00	 2.654838469076319e+00
 1.558951667915985e-01	 1.893591713423012e+00	 2.332627444959564e+00
 1.165125021112163e-01	 1.896422370607762e+00	 1.953289059862404e+00
 7.738776137463409e-02	 1.898421506682321e+00	 1.504793833167130e+00
 3.854320806894682e-02	 1.899607223129177e+00	 9.757059328819958e-01
 0.000000000000000e+00	 1.899998216915481e+00	 3.552096710782459e-01
 3.992043889722463e-01	 1.872196759361969e+00	 3.926459096871381e+00
 3.584979027914968e-01	 1.880415875078809e+00	 3.702462847004161e+00
 3.178942380609087e-01	 1.887704332787491e+00	 3.489588182662631e+00
 2.774221150410272e-01	 1.894075289680050e+00	 3.270426307521623e+00
 2.371092776358552e-01	 1.899542926653227e+00	 3.027871847995614e+00
 1.969824577832472e-01	 1.904122377946063e+00	 2.745209946838815e+00
 1.570673450740619e-01	 1.907829660167639e+00	 2.406195211845470e+00
 1.173885615005437e-01	 1.910681601110162e+00	 1.995122344196553e+00
 7.796964120510101e-02	 1.912695768721677e+00	 1.496888385299598e+00
 3.883301507434440e-02	 1.913890400589983e+00	 8.970466280583916e-01
 0.000000000000000e+00	 1.914284334264999e+00	 1.818523367977436e-01
 4.021836061493446e-01	 1.886168751897681e+00	 3.984235036587547e+00
 3.611733320692193e-01	 1.894449205945525e+00	 3.774208172208276e+00
 3.202666467840865e-01	 1.901792056589895e+00	 3.575813996164444e+00
 2.794924848905292e-01	 1.908210559213428e+00	 3.368261166503745e+00
 2.388787973421502e-01	 1.913719000543261e+00	 3.130975856222478e+00
 1.984525155742156e-01	 1.918332627763510e+00	 2.843720122234866e+00
 1.582395208960786e-01	 1.922067577013369e+00	 2.486700780427716e+00
 1.182646190511106e-01	 1.924940801668923e+00	 2.040668431257854e+00
 7.855151981434802e-02	 1.926970000785793e+00	 1.487006423341673e+00
 3.912282147155649e-02	 1.928173548056805e+00	 8.078096780592064e-01
 0.000000000000000e+00	 1.928570421614352e+00	-1.404657567790391e-02
 4.051628146384416e-01	 1.900140703683113e+00	 4.041025527353559e+00
 3.638487535450625e-01	 1.908482495882913e+00	 3.848081766915716e+00
 3.226390485892515e-01	 1.915879739304173e+00	 3.667047605001756e+00
 2.815628487029925e-01	 1.922345787519847e+00	 3.473416367489299e+00
 2.406483118888728e-01	 1.927895033087166e+00	 3.242784896236770e+00
 1.999225690789772e-01	 1.932542836135003e+00	 2.951007575040238e+00
 1.594116933005831e-01	 1.936305452332318e+00	 2.574339445708063e+00
 1.191406740476435e-01	 1.939199960638711e+00	 2.089567845193299e+00
 7.913339672730015e-02	 1.941244191217008e+00	 1.474132169721277e+00
 3.941262702397597e-02	 1.942456653864665e+00	 7.062315393467820e-01
 0.000000000000000e+00	 1.942856467296148e+00	-2.350797061597522e-01
 4.081420120067854e-01	 1.914112603308034e+00	 4.097654272396603e+00
 3.665241650343737e-01	 1.922515733430581e+00	 3.925156225249109e+00
 3.250114415392178e-01	 1.929967369425429e+00	 3.764457157075988e+00
 2.836332047878904e-01	 1.936480963055499e+00	 3.587010700744441e+00
 2.424178198311772e-01	 1.942071012707724e+00	 3.364232258043593e+00
 2.013926170972256e-01	 1.946752991455327e+00	 3.067693015343789e+00
 1.605838613305106e-01	 1.950543274496597e+00	 2.669301567153231e+00
 1.200167257748691e-01	 1.953459066374192e+00	 2.141472331853371e+00
 7.971527146888234e-02	 1.955518328357659e+00	 1.457280154195208e+00
 3.970243149499583e-02	 1.956739706348588e+00	 5.906006919654208e-01
 0.000000000000000e+00	 1.957142459643000e+00	-4.837636234785314e-01
 4.111211958216242e-01	 1.928084439362215e+00	 4.154921561283310e+00
 3.691995643525005e-01	 1.936548907128135e+00	 4.006473603188218e+00
 3.273838236968005e-01	 1.944054935448769e+00	 3.869177571740996e+00
 2.857035514546960e-01	 1.950616074276571e+00	 3.710131223124102e+00
 2.441873197242179e-01	 1.956246927827715e+00	 3.496224920345600e+00
 2.028626584286550e-01	 1.960963082119268e+00	 3.194379923897734e+00
 1.617560240287959e-01	 1.964781031878321e+00	 2.771772742509114e+00
 1.208927735175138e-01	 1.967718107230032e+00	 2.196044448760887e+00
 8.029714356401962e-02	 1.969792400550084e+00	 1.435494113207610e+00
 3.999223464800900e-02	 1.971022693843598e+00	 4.592557521891028e-01
 0.000000000000000e+00	 1.971428386987518e+00	-7.625415849289410e-01
 4.141003636502062e-01	 1.942056200435424e+00	 4.213605091422451e+00
 3.718749493147904e-01	 1.950582005515181e+00	 4.093046499184093e+00
 3.297561931248136e-01	 1.958142425869298e+00	 3.982311720100193e+00
 2.877738870128829e-01	 1.964751109639256e+00	 3.843834387452945e+00
 2.459568101231491e-01	 1.970422766869918e+00	 3.639644487593476e+00
 2.043326918729593e-01	 1.975173096521612e+00	 3.331655164907801e+00
 1.629281804383737e-01	 1.979018712849604e+00	 2.881933974137083e+00
 1.217688165603043e-01	 1.981977071560896e+00	 2.252957172738544e+00
 8.087901253763698e-02	 1.984066396136623e+00	 1.407845936651360e+00
 4.028203624640840e-02	 1.985305604684719e+00	 3.105836664515409e-01
 0.000000000000000e+00	 1.985714237662315e+00	-1.073786176868437e+00
 4.170795130597794e-01	 1.956027875117432e+00	 4.274460754579006e+00
 3.745503177365909e-01	 1.964615017131326e+00	 4.185859088667763e+00
 3.321285478860717e-01	 1.972229829182122e+00	 4.104931554906488e+00
 2.898442097719244e-01	 1.978886057599742e+00	 3.989147123662510e+00
 2.477262895831253e-01	 1.984598518257113e+00	 3.795348086997504e+00
 2.058027162298323e-01	 1.989383023057143e+00	 3.480089572636008e+00
 1.641003296021790e-01	 1.993256305782559e+00	 2.999961828245342e+00
 1.226448541879670e-01	 1.996235947721450e+00	 2.311893524319969e+00
 8.146087791465940e-02	 1.998340303459614e+00	 1.373434659664825e+00
 4.057183605358700e-02	 1.999588427206973e+00	 1.430179825066433e-01
 0.000000000000000e+00	 2.000000000000000e+00	-1.419801842400021e+00
