x	y	stress_xx
 1.0000000000e+00	 0.0000000000e+00	 4.4830391392e-02
 9.9979421360e-01	 2.0285918027e-02	 5.7836386470e-02
 9.9917015173e-01	 4.0730438957e-02	 8.9439666811e-02
 9.9811797387e-01	 6.1322427094e-02	 1.3945763971e-01
 9.9662815290e-01	 8.2050164801e-02	 2.0774417020e-01
 9.9469151154e-01	 1.0290135811e-01	 2.9419061904e-01
 9.9229925915e-01	 1.2386314479e-01	 3.9872659806e-01
 9.8944302882e-01	 1.4492210489e-01	 5.2132041920e-01
 9.8611491462e-01	 1.6606427394e-01	 6.6197921472e-01
 9.8230750859e-01	 1.8727515887e-01	 8.2074870736e-01
 9.7801393759e-01	 2.0853975653e-01	 9.9771261155e-01
 1.0142857623e+00	 0.0000000000e+00	 3.2222655028e-01
 1.0140770361e+00	 2.0575717834e-02	 3.3378475189e-01
 1.0134440591e+00	 4.1312304334e-02	 3.6140163039e-01
 1.0123768500e+00	 6.2198464722e-02	 4.0490921314e-01
 1.0108657458e+00	 8.3222313965e-02	 4.6417926711e-01
 1.0089014381e+00	 1.0437138247e-01	 5.3912429590e-01
 1.0064750105e+00	 1.2563262425e-01	 6.2969824244e-01
 1.0035779768e+00	 1.4699242765e-01	 7.3589687331e-01
 1.0002023179e+00	 1.6843662870e-01	 8.5775782242e-01
 9.9634052019e-01	 1.8995052729e-01	 9.9536027287e-01
 9.9198561225e-01	 2.1151890594e-01	 1.1488242582e+00
 1.0285716130e+00	 0.0000000000e+00	 5.8939582840e-01
 1.0283599470e+00	 2.0865519432e-02	 5.9965925022e-01
 1.0277180546e+00	 4.1894173308e-02	 6.2357650928e-01
 1.0266358144e+00	 6.3074507764e-02	 6.6099825815e-01
 1.0251034268e+00	 8.4394470374e-02	 7.1181799244e-01
 1.0231114525e+00	 1.0584141592e-01	 7.7597297694e-01
 1.0206508496e+00	 1.2740211465e-01	 8.5344486479e-01
 1.0177130121e+00	 1.4906276320e-01	 9.4425998602e-01
 1.0142898083e+00	 1.7080899813e-01	 1.0484892831e+00
 1.0103736186e+00	 1.9262591225e-01	 1.1662478727e+00
 1.0059573733e+00	 2.1449807377e-01	 1.2976942157e+00
 1.0428575404e+00	 0.0000000000e+00	 8.4420897702e-01
 1.0426429345e+00	 2.1155322585e-02	 8.5332074414e-01
 1.0419921268e+00	 4.2476045403e-02	 8.7381329259e-01
 1.0408948552e+00	 6.3950555507e-02	 9.0555979034e-01
 1.0393411842e+00	 8.5566633073e-02	 9.4847917111e-01
 1.0373215431e+00	 1.0731145725e-01	 1.0025369601e+00
 1.0348267647e+00	 1.2917161454e-01	 1.0677457797e+00
 1.0318481233e+00	 1.5113310987e-01	 1.1441655114e+00
 1.0283773743e+00	 1.7318138029e-01	 1.2319030926e+00
 1.0244067923e+00	 1.9530131157e-01	 1.3311119272e+00
 1.0199292094e+00	 2.1747725758e-01	 1.4419908936e+00
 1.0571435327e+00	 0.0000000000e+00	 1.0846476530e+00
 1.0569259869e+00	 2.1445127056e-02	 1.0927417347e+00
 1.0562662640e+00	 4.3057920145e-02	 1.1100734634e+00
 1.0551539609e+00	 6.4826607234e-02	 1.1365423021e+00
 1.0535790063e+00	 8.6738801103e-02	 1.1720962196e+00
 1.0515316984e+00	 1.0878150527e-01	 1.2167323861e+00
 1.0490027443e+00	 1.3094112249e-01	 1.2704975363e+00
 1.0459832989e+00	 1.5320346595e-01	 1.3334879753e+00
 1.0424650045e+00	 1.7555377324e-01	 1.4058492057e+00
 1.0384400298e+00	 1.9797672306e-01	 1.4877751576e+00
 1.0339011090e+00	 2.2045645495e-01	 1.5795070032e+00
 1.0714295784e+00	 0.0000000000e+00	 1.3087970155e+00
 1.0712090928e+00	 2.1734932609e-02	 1.3159989237e+00
 1.0705404544e+00	 4.3639797058e-02	 1.3304235186e+00
 1.0694131199e+00	 6.5702662231e-02	 1.3520002318e+00
 1.0678168817e+00	 8.7910973507e-02	 1.3807095544e+00
 1.0657419068e+00	 1.1025155877e-01	 1.4165835765e+00
 1.0631787768e+00	 1.3271063703e-01	 1.4597061767e+00
 1.0601185272e+00	 1.5527382977e-01	 1.5102128436e+00
 1.0565526872e+00	 1.7792617505e-01	 1.5682901040e+00
 1.0524733197e+00	 2.0065214454e-01	 1.6341745418e+00
 1.0478730608e+00	 2.2343566344e-01	 1.7081513911e+00
 1.0857156657e+00	 0.0000000000e+00	 1.5148389063e+00
 1.0854922402e+00	 2.2024739006e-02	 1.5212663632e+00
 1.0848146865e+00	 4.4221675667e-02	 1.5330280796e+00
 1.0836723205e+00	 6.6578719781e-02	 1.5500870261e+00
 1.0820547985e+00	 8.9083149329e-02	 1.5724595995e+00
 1.0799521566e+00	 1.1172161656e-01	 1.6002159767e+00
 1.0773548507e+00	 1.3448015674e-01	 1.6334801051e+00
 1.0742537967e+00	 1.5734419962e-01	 1.6724293084e+00
 1.0706404110e+00	 1.8029858377e-01	 1.7172934884e+00
 1.0665066506e+00	 2.0332757381e-01	 1.7683539044e+00
 1.0618450533e+00	 2.2641488062e-01	 1.8259415143e+00
 1.1000017831e+00	 0.0000000000e+00	 1.7010455616e+00
 1.0997754177e+00	 2.2314546011e-02	 1.7068091378e+00
 1.0990889485e+00	 4.4803555497e-02	 1.7161435383e+00
 1.0979315510e+00	 6.7454779171e-02	 1.7290487434e+00
 1.0962927452e+00	 9.0255327612e-02	 1.7455803372e+00
 1.0941624363e+00	 1.1319167744e-01	 1.7658496480e+00
 1.0915309544e+00	 1.3624968016e-01	 1.7900235115e+00
 1.0883890959e+00	 1.5941457381e-01	 1.8183236342e+00
 1.0847281644e+00	 1.8267099747e-01	 1.8510255400e+00
 1.0805400110e+00	 2.0600300871e-01	 1.8884570812e+00
 1.0758170752e+00	 2.2939410405e-01	 1.9309965007e+00
 1.1142879188e+00	 0.0000000000e+00	 1.8657738067e+00
 1.1140586135e+00	 2.2604353388e-02	 1.8709775332e+00
 1.1133632289e+00	 4.5385436074e-02	 1.8781121921e+00
 1.1121907998e+00	 6.8330839684e-02	 1.8872181483e+00
 1.1105307103e+00	 9.1427507398e-02	 1.8983933558e+00
 1.1083727342e+00	 1.1466174020e-01	 1.9117932588e+00
 1.1057070762e+00	 1.3801920585e-01	 1.9276303003e+00
 1.1025244133e+00	 1.6148495066e-01	 1.9461730162e+00
 1.0988159358e+00	 1.8504341422e-01	 1.9677446983e+00
 1.0945733893e+00	 2.0867844704e-01	 1.9927216100e+00
 1.0897891150e+00	 2.3237333130e-01	 2.0215307419e+00
 1.1285740611e+00	 0.0000000000e+00	 2.0074596919e+00
 1.1283418159e+00	 2.2894160900e-02	 2.0122016469e+00
 1.1276375159e+00	 4.5967316922e-02	 2.0173568241e+00
 1.1264500552e+00	 6.9206900605e-02	 2.0230092540e+00
 1.1247686819e+00	 9.2599687730e-02	 2.0293023475e+00
 1.1225830387e+00	 1.1613180365e-01	 2.0364385324e+00
 1.1198832047e+00	 1.3978873237e-01	 2.0446784799e+00
 1.1166597372e+00	 1.6355532848e-01	 2.0543399032e+00
 1.1129037139e+00	 1.8741583207e-01	 2.0657959103e+00
 1.1086067742e+00	 2.1135388661e-01	 2.0794728975e+00
 1.1037611613e+00	 2.3535255995e-01	 2.0958479706e+00
 1.1428601985e+00	 0.0000000000e+00	 2.1246135297e+00
 1.1426250134e+00	 2.3183968311e-02	 2.1289864027e+00
 1.1419117979e+00	 4.6549197565e-02	 2.1323756888e+00
 1.1407093057e+00	 7.0082961219e-02	 2.1349122738e+00
 1.1390066486e+00	 9.3771867651e-02	 2.1367880197e+00
 1.1367933383e+00	 1.1760186658e-01	 2.1382551104e+00
 1.1340593282e+00	 1.4155825826e-01	 2.1396249712e+00
 1.1307950562e+00	 1.6562570557e-01	 2.1412667455e+00
 1.1269914870e+00	 1.8978824910e-01	 2.1436053107e+00
 1.1226401542e+00	 2.1402932525e-01	 2.1471188234e+00
 1.1177332028e+00	 2.3833178755e-01	 2.1523357807e+00
 9.7801393759e-01	 2.0853975653e-01	 9.9771261155e-01
 9.7322825186e-01	 2.2984108677e-01	 1.1904265040e+00
 9.6794447360e-01	 2.5116470275e-01	 1.3947958524e+00
 9.6215754903e-01	 2.7249423836e-01	 1.6084168441e+00
 9.5586309813e-01	 2.9381292096e-01	 1.8288966751e+00
 9.4905744632e-01	 3.1510360378e-01	 2.0538699002e+00
 9.4173765446e-01	 3.3634880088e-01	 2.2810153387e+00
 9.3390154697e-01	 3.5753072471e-01	 2.5080734093e+00
 9.2554773768e-01	 3.7863132607e-01	 2.7328637529e+00
 9.1667565331e-01	 3.9963233635e-01	 2.9533029977e+00
 9.0728555439e-01	 4.2051531196e-01	 3.1674225055e+00
 9.9198561225e-01	 2.1151890594e-01	 1.1488242582e+00
 9.8713155936e-01	 2.3312454192e-01	 1.3157849152e+00
 9.8177229830e-01	 2.5475278201e-01	 1.4923997800e+00
 9.7590270310e-01	 2.7638702629e-01	 1.6765697019e+00
 9.6951833117e-01	 2.9801026253e-01	 1.8662081620e+00
 9.6261545544e-01	 3.1960509898e-01	 2.0592557106e+00
 9.5519109478e-01	 3.4115379992e-01	 2.2536948917e+00
 9.4724304252e-01	 3.6263832368e-01	 2.4475655394e+00
 9.3876989269e-01	 3.8404036321e-01	 2.6389803264e+00
 9.2977106384e-01	 4.0534138893e-01	 2.8261404300e+00
 9.2024682020e-01	 4.2652269377e-01	 3.0073511785e+00
 1.0059573733e+00	 2.1449807377e-01	 1.2976942157e+00
 1.0010349528e+00	 2.3640801737e-01	 1.4405284545e+00
 9.9560020850e-01	 2.5834088346e-01	 1.5911315007e+00
 9.8964794217e-01	 2.8027983830e-01	 1.7476889188e+00
 9.8317364865e-01	 3.0220763005e-01	 1.9084003149e+00
 9.7617354839e-01	 3.2410662201e-01	 2.0714919778e+00
 9.6864461828e-01	 3.4595882866e-01	 2.2352299406e+00
 9.6058462056e-01	 3.6774595423e-01	 2.3979333661e+00
 9.5199212946e-01	 3.8944943380e-01	 2.5579881465e+00
 9.4286655534e-01	 4.1105047682e-01	 2.7138606024e+00
 9.3320816615e-01	 4.3253011272e-01	 2.8641111586e+00
 1.0199292094e+00	 2.1747725758e-01	 1.4419908936e+00
 1.0149384209e+00	 2.3969151044e-01	 1.5622925895e+00
 1.0094281929e+00	 2.6192900415e-01	 1.6885951998e+00
 1.0033932550e+00	 2.8417267119e-01	 1.8193498290e+00
 9.9682903942e-01	 3.0640502009e-01	 1.9530228211e+00
 9.8973171411e-01	 3.2860816921e-01	 2.0881067144e+00
 9.8209821399e-01	 3.5076388320e-01	 2.2231315604e+00
 9.7392627021e-01	 3.7285361218e-01	 2.3566765163e+00
 9.6521443720e-01	 3.9485853341e-01	 2.4873816216e+00
 9.5596211712e-01	 4.1675959534e-01	 2.6139596558e+00
 9.4616958166e-01	 4.3853756392e-01	 2.7352079717e+00
 1.0339011090e+00	 2.2045645495e-01	 1.5795070032e+00
 1.0288419523e+00	 2.4297501845e-01	 1.6788391404e+00
 1.0232562403e+00	 2.6551714118e-01	 1.7825233732e+00
 1.0171386304e+00	 2.8806552180e-01	 1.8892579002e+00
 1.0104844923e+00	 3.1060242923e-01	 1.9977571444e+00
 1.0032899415e+00	 3.3310973688e-01	 2.1067611331e+00
 9.9555187091e-01	 3.5556895959e-01	 2.2150451851e+00
 9.8726798056e-01	 3.7796129338e-01	 2.3214298298e+00
 9.7843680509e-01	 4.0026765764e-01	 2.4247908809e+00
 9.6905773849e-01	 4.2246873983e-01	 2.5240695748e+00
 9.5913105615e-01	 4.4454504244e-01	 2.6182826859e+00
 1.0478730608e+00	 2.2343566344e-01	 1.7081513911e+00
 1.0427455355e+00	 2.4625853872e-01	 1.7880479856e+00
 1.0370843392e+00	 2.6910529160e-01	 1.8707684112e+00
 1.0308840571e+00	 2.9195838693e-01	 1.9552402029e+00
 1.0241399962e+00	 3.1479985404e-01	 2.0404078937e+00
 1.0168482195e+00	 3.3761132136e-01	 2.1252409253e+00
 1.0090055781e+00	 3.6037405393e-01	 2.2087418148e+00
 1.0006097407e+00	 3.8306899364e-01	 2.2899545147e+00
 9.9165922235e-01	 4.0567680206e-01	 2.3679729002e+00
 9.8215340874e-01	 4.2817790565e-01	 2.4419493085e+00
 9.7209257902e-01	 4.5055254340e-01	 2.5111030556e+00
 1.0618450533e+00	 2.2641488062e-01	 1.8259415143e+00
 1.0566491593e+00	 2.4954206856e-01	 1.8879094196e+00
 1.0509124785e+00	 2.7269345248e-01	 1.9512948443e+00
 1.0446295239e+00	 2.9585126342e-01	 2.0152375521e+00
 1.0377955399e+00	 3.1899729109e-01	 2.0788948688e+00
 1.0304065371e+00	 3.4211291896e-01	 2.1414482257e+00
 1.0224593244e+00	 3.6517916227e-01	 2.2021099140e+00
 1.0139515398e+00	 3.8817670881e-01	 2.2601299969e+00
 1.0048816782e+00	 4.1108596225e-01	 2.3148033240e+00
 9.9524911719e-01	 4.3388708811e-01	 2.3654765884e+00
 9.8505413969e-01	 4.5656006187e-01	 2.4115553610e+00
 1.0758170752e+00	 2.2939410405e-01	 1.9309965007e+00
 1.0705528124e+00	 2.5282560529e-01	 1.9765171053e+00
 1.0647406468e+00	 2.7628162089e-01	 2.0221721905e+00
 1.0583750195e+00	 2.9974414809e-01	 2.0672972575e+00
 1.0514511123e+00	 3.2319473696e-01	 2.1112457234e+00
 1.0439648832e+00	 3.4661452602e-01	 2.1533941997e+00
 1.0359130991e+00	 3.6998428071e-01	 2.1931479376e+00
 1.0272933669e+00	 3.9328443469e-01	 2.2299464013e+00
 1.0181041618e+00	 4.1649513380e-01	 2.2632689209e+00
 1.0083448531e+00	 4.3959628256e-01	 2.2926403790e+00
 9.9801572759e-01	 4.6256759296e-01	 2.3176368773e+00
 1.0897891150e+00	 2.3237333130e-01	 2.0215307419e+00
 1.0844564832e+00	 2.5610914624e-01	 2.0520615657e+00
 1.0785688329e+00	 2.7986979391e-01	 2.0815683519e+00
 1.0721205328e+00	 3.0363703775e-01	 2.1095664294e+00
 1.0651067022e+00	 3.2739218821e-01	 2.1355891900e+00
 1.0575232466e+00	 3.5111613885e-01	 2.1591921972e+00
 1.0493668910e+00	 3.7478940531e-01	 2.1799574273e+00
 1.0406352111e+00	 3.9839216713e-01	 2.1974976071e+00
 1.0313266623e+00	 4.2190431230e-01	 2.2114606146e+00
 1.0214406059e+00	 4.4530548434e-01	 2.2215339046e+00
 1.0109773321e+00	 4.6857513176e-01	 2.2274489187e+00
 1.1037611613e+00	 2.3535255995e-01	 2.0958479706e+00
 1.0983601605e+00	 2.5939268872e-01	 2.1128241688e+00
 1.0923970255e+00	 2.8345796861e-01	 2.1277435089e+00
 1.0858660525e+00	 3.0752992922e-01	 2.1402857907e+00
 1.0787622985e+00	 3.3158964142e-01	 2.1501488157e+00
 1.0710816164e+00	 3.5561775379e-01	 2.1570514245e+00
 1.0628206892e+00	 3.7959453216e-01	 2.1607366305e+00
 1.0539770615e+00	 4.0349990196e-01	 2.1609748271e+00
 1.0445491690e+00	 4.2731349332e-01	 2.1575670405e+00
 1.0345363648e+00	 4.5101468878e-01	 2.1503482013e+00
 1.0239389427e+00	 4.7458267337e-01	 2.1391904060e+00
 1.1177332028e+00	 2.3833178755e-01	 2.1523357807e+00
 1.1122638330e+00	 2.6267623005e-01	 2.1571715609e+00
 1.1062252131e+00	 2.8704614204e-01	 2.1590444721e+00
 1.0996115674e+00	 3.1142281934e-01	 2.1577839502e+00
 1.0924178900e+00	 3.3578709316e-01	 2.1532371667e+00
 1.0846399814e+00	 3.6011936715e-01	 2.1452710865e+00
 1.0762744826e+00	 3.8439965732e-01	 2.1337745932e+00
 1.0673189073e+00	 4.0860763499e-01	 2.1186606645e+00
 1.0577716711e+00	 4.3272267244e-01	 2.0998685810e+00
 1.0476321190e+00	 4.5672389122e-01	 2.0773661477e+00
 1.0369005487e+00	 4.8059021287e-01	 2.0511519119e+00
 9.0728555439e-01	 4.2051531196e-01	 3.1674225055e+00
 8.9737784263e-01	 4.4126312680e-01	 3.3725981935e+00
 8.8695514163e-01	 4.6185565311e-01	 3.5651612805e+00
 8.7602031568e-01	 4.8227419740e-01	 3.7418007431e+00
 8.6457711653e-01	 5.0250008602e-01	 3.8993408921e+00
 8.5263018827e-01	 5.2251471715e-01	 4.0347706604e+00
 8.4018506873e-01	 5.4229961341e-01	 4.1452725324e+00
 8.2724818708e-01	 5.6183647501e-01	 4.2282508239e+00
 8.1382685776e-01	 5.8110723302e-01	 4.2813590150e+00
 7.9992927055e-01	 6.0009410240e-01	 4.3025258440e+00
 7.8556447689e-01	 6.1877963469e-01	 4.2899798722e+00
 9.2024682020e-01	 4.2652269377e-01	 3.0073511785e+00
 9.1019756922e-01	 4.4756690696e-01	 3.1801311664e+00
 8.9962597199e-01	 4.6845361321e-01	 3.3410924787e+00
 8.8853493372e-01	 4.8916385197e-01	 3.4873807157e+00
 8.7692825975e-01	 5.0967868283e-01	 3.6162626865e+00
 8.6481066051e-01	 5.2997923822e-01	 3.7251523626e+00
 8.5218775294e-01	 5.5004677681e-01	 3.8116365269e+00
 8.3906605808e-01	 5.6986273737e-01	 3.8734998559e+00
 8.2545299484e-01	 5.8940879285e-01	 3.9087491742e+00
 8.1135687000e-01	 6.0866690413e-01	 3.9156366171e+00
 7.9678686431e-01	 6.2761937350e-01	 3.8926814439e+00
 9.3320816615e-01	 4.3253011272e-01	 2.8641111586e+00
 9.2301737508e-01	 4.5387072610e-01	 3.0063931177e+00
 9.1229688070e-01	 4.7505161411e-01	 3.1375804555e+00
 9.0104962914e-01	 4.9605354914e-01	 3.2552414021e+00
 8.8927947934e-01	 5.1685732403e-01	 3.3570521231e+00
 8.7699120807e-01	 5.3744380545e-01	 3.4408195710e+00
 8.6419051138e-01	 5.5779398811e-01	 3.5045040818e+00
 8.5088400215e-01	 5.7788904936e-01	 3.5462414866e+00
 8.3707920380e-01	 5.9771040401e-01	 3.5643645059e+00
 8.2278454012e-01	 6.1723975887e-01	 3.5574231910e+00
 8.0800932113e-01	 6.3645916697e-01	 3.5242041856e+00
 9.4616958166e-01	 4.3853756392e-01	 2.7352079717e+00
 9.3583724974e-01	 4.6017457907e-01	 2.8489067297e+00
 9.2496785741e-01	 4.8164965041e-01	 2.9521733824e+00
 9.1356439173e-01	 5.0294328328e-01	 3.0429661280e+00
 9.0163076521e-01	 5.2403600375e-01	 3.1193386511e+00
 8.8917182099e-01	 5.4490841273e-01	 3.1794600970e+00
 8.7619333423e-01	 5.6554124098e-01	 3.2216348397e+00
 8.6270200965e-01	 5.8591540442e-01	 3.2443218411e+00
 8.4870547516e-01	 6.0601205972e-01	 3.2461533972e+00
 8.3421227156e-01	 6.2581265962e-01	 3.2259530637e+00
 8.1923183817e-01	 6.4529900787e-01	 3.1827525586e+00
 9.5913105615e-01	 4.4454504244e-01	 2.6182826859e+00
 9.4865718273e-01	 4.6647846072e-01	 2.7053294947e+00
 9.3763889177e-01	 4.8824771673e-01	 2.7825530482e+00
 9.2607921125e-01	 5.0983304877e-01	 2.8482701096e+00
 9.1398210728e-01	 5.3121471613e-01	 2.9008812789e+00
 9.0135248933e-01	 5.5237305398e-01	 2.9388883078e+00
 8.8819621169e-01	 5.7328852911e-01	 2.9609112557e+00
 8.7452007092e-01	 5.9394179600e-01	 2.9657053096e+00
 8.6033179942e-01	 6.1431375320e-01	 2.9521770885e+00
 8.4564005499e-01	 6.3438559937e-01	 2.9194002511e+00
 8.3045440627e-01	 6.5413888899e-01	 2.8666302292e+00
 9.7209257902e-01	 4.5055254340e-01	 2.5111030556e+00
 9.6147716358e-01	 4.7278236590e-01	 2.5734449116e+00
 9.5030997344e-01	 4.9484580769e-01	 2.6265261364e+00
 9.3859407749e-01	 5.1672283999e-01	 2.6689918486e+00
 9.2633349545e-01	 5.3839345531e-01	 2.6995601269e+00
 9.1353320315e-01	 5.5983772310e-01	 2.7170368803e+00
 9.0019913396e-01	 5.8103584616e-01	 2.7203306022e+00
 8.8633817630e-01	 6.0196821755e-01	 2.7084668570e+00
 8.7195816709e-01	 6.2261547767e-01	 2.6806023443e+00
 8.5706788109e-01	 6.4295857113e-01	 2.6360383819e+00
 8.4167701627e-01	 6.6297880312e-01	 2.5742336520e+00
 9.8505413969e-01	 4.5656006187e-01	 2.4115553610e+00
 9.7429718182e-01	 4.7908628947e-01	 2.4511543711e+00
 9.6298109206e-01	 5.0144391789e-01	 2.4820161868e+00
 9.5110898024e-01	 5.2361265129e-01	 2.5030852004e+00
 9.3868491966e-01	 5.4557221543e-01	 2.5133686399e+00
 9.2571395249e-01	 5.6730241398e-01	 2.5119491995e+00
 9.1220209123e-01	 5.8878318580e-01	 2.4979975977e+00
 8.9815631616e-01	 6.0999466250e-01	 2.4707849317e+00
 8.8358456866e-01	 6.3091722636e-01	 2.4296946963e+00
 8.6849574052e-01	 6.5153156789e-01	 2.3742343300e+00
 8.5289965900e-01	 6.7181874303e-01	 2.3040461532e+00
 9.9801572759e-01	 4.6256759296e-01	 2.3176368773e+00
 9.8711722698e-01	 4.8539022628e-01	 2.3364696689e+00
 9.7565223730e-01	 5.0804204194e-01	 2.3470561760e+00
 9.6362390926e-01	 5.3050247707e-01	 2.3486120545e+00
 9.5103636979e-01	 5.5275099062e-01	 2.3404064002e+00
 9.3789472741e-01	 5.7476712055e-01	 2.3217723422e+00
 9.2420507372e-01	 5.9653054171e-01	 2.2921176038e+00
 9.0997448083e-01	 6.1802112431e-01	 2.2509349207e+00
 8.9521099465e-01	 6.3921899248e-01	 2.1978122048e+00
 8.7992362394e-01	 6.6010458265e-01	 2.1324423362e+00
 8.6412232530e-01	 6.8065870150e-01	 2.0546324666e+00
 1.0109773321e+00	 4.6857513176e-01	 2.2274489187e+00
 9.9993728860e-01	 4.9169417118e-01	 2.2275060888e+00
 9.8832339879e-01	 5.1464017447e-01	 2.2197816650e+00
 9.7613885435e-01	 5.3739231168e-01	 2.2037355720e+00
 9.6338783578e-01	 5.5992977503e-01	 2.1788724875e+00
 9.5007551796e-01	 5.8223183669e-01	 2.1447505943e+00
 9.3620807160e-01	 6.0427790756e-01	 2.1009903381e+00
 9.2179266067e-01	 6.2604759642e-01	 2.0472831007e+00
 9.0683743556e-01	 6.4752076925e-01	 1.9833996936e+00
 8.9135152203e-01	 6.6867760842e-01	 1.9091985741e+00
 8.7534500600e-01	 6.8949867131e-01	 1.8246336832e+00
 1.0239389427e+00	 4.7458267337e-01	 2.1391904060e+00
 1.0127573562e+00	 4.9799811902e-01	 2.1224760064e+00
 1.0009945662e+00	 5.2123831007e-01	 2.0984244604e+00
 9.8865380527e-01	 5.4428214952e-01	 2.0667139311e+00
 9.7573930754e-01	 5.6710856278e-01	 2.0270593371e+00
 9.6225631419e-01	 5.8969655631e-01	 1.9792194540e+00
 9.4821107509e-01	 6.1202527703e-01	 1.9230040585e+00
 9.3361084602e-01	 6.3407407228e-01	 1.8582810421e+00
 9.1846388189e-01	 6.5582254989e-01	 1.7849834157e+00
 9.0277942546e-01	 6.7725063818e-01	 1.7031161225e+00
 8.8656769194e-01	 6.9833864525e-01	 1.6127625763e+00
 1.0369005487e+00	 4.8059021287e-01	 2.0511519119e+00
 1.0255774193e+00	 5.0430206465e-01	 2.0196829674e+00
 1.0136657292e+00	 5.2783644336e-01	 1.9813067460e+00
 1.0011687518e+00	 5.5117198494e-01	 1.9358945356e+00
 9.8809077496e-01	 5.7428734802e-01	 1.8833470527e+00
 9.7443710616e-01	 5.9716127332e-01	 1.8236000789e+00
 9.6021407437e-01	 6.1977264379e-01	 1.7566301772e+00
 9.4542902724e-01	 6.4210054532e-01	 1.6824604262e+00
 9.3009032415e-01	 6.6412432764e-01	 1.6011661117e+00
 9.1420732488e-01	 6.8582366495e-01	 1.5128803073e+00
 8.9779037395e-01	 7.0717861609e-01	 1.4177992714e+00
 7.8556447689e-01	 6.1877963469e-01	 4.2899798722e+00
 7.7074237018e-01	 6.3714677154e-01	 4.2443980529e+00
 7.5547365803e-01	 6.5517890056e-01	 4.1671276084e+00
 7.3976984406e-01	 6.7285989945e-01	 4.0577576656e+00
 7.2364320173e-01	 6.9017418182e-01	 3.9160416142e+00
 7.0710674268e-01	 7.0710674268e-01	 3.7419074840e+00
 6.9017418182e-01	 7.2364320173e-01	 3.5354671494e+00
 6.7285989945e-01	 7.3976984406e-01	 3.2970242371e+00
 6.5517890056e-01	 7.5547365803e-01	 3.0270806250e+00
 6.3714677154e-01	 7.7074237018e-01	 2.7263414403e+00
 6.1877963469e-01	 7.8556447689e-01	 2.3957184772e+00
 7.9678686431e-01	 6.2761937350e-01	 3.8926814439e+00
 7.8175301251e-01	 6.4624889890e-01	 3.8402141727e+00
 7.6626617517e-01	 6.6453863063e-01	 3.7591833281e+00
 7.5033802025e-01	 6.8247221607e-01	 3.6493518602e+00
 7.3398099654e-01	 7.0003384616e-01	 3.5106291963e+00
 7.1720830156e-01	 7.1720830156e-01	 3.3430801639e+00
 7.0003384616e-01	 7.3398099654e-01	 3.1469328691e+00
 6.8247221607e-01	 7.5033802025e-01	 2.9225854182e+00
 6.6453863063e-01	 7.6626617517e-01	 2.6706113847e+00
 6.4624889890e-01	 7.8175301251e-01	 2.3917639346e+00
 6.2761937350e-01	 7.9678686431e-01	 2.0869785425e+00
 8.0800932113e-01	 6.3645916697e-01	 3.5242041856e+00
 7.9276372292e-01	 6.5535108254e-01	 3.4647416560e+00
 7.7705875904e-01	 6.7389841857e-01	 3.3796386228e+00
 7.6090626178e-01	 6.9208459212e-01	 3.2688156503e+00
 7.4431885526e-01	 7.0989357146e-01	 3.1323230297e+00
 7.2730992290e-01	 7.2730992290e-01	 2.9703483696e+00
 7.0989357146e-01	 7.4431885526e-01	 2.7832232631e+00
 6.9208459212e-01	 7.6090626178e-01	 2.5714289309e+00
 6.7389841857e-01	 7.7705875904e-01	 2.3356007528e+00
 6.5535108254e-01	 7.9276372292e-01	 2.0765316078e+00
 6.3645916697e-01	 8.0800932113e-01	 1.7951739626e+00
 8.1923183817e-01	 6.4529900787e-01	 3.1827525586e+00
 8.0377449242e-01	 6.6445331502e-01	 3.1163342921e+00
 7.8785140083e-01	 6.8325825674e-01	 3.0270033724e+00
 7.7147456002e-01	 7.0169701976e-01	 2.9148225313e+00
 7.5465676946e-01	 7.1975334968e-01	 2.7799684855e+00
 7.3741159845e-01	 7.3741159845e-01	 2.6227383132e+00
 7.1975334968e-01	 7.5465676946e-01	 2.4435550224e+00
 7.0169701976e-01	 7.7147456002e-01	 2.2429722190e+00
 6.8325825674e-01	 7.8785140083e-01	 2.0216777969e+00
 6.6445331502e-01	 8.0377449242e-01	 1.7804965781e+00
 6.4529900787e-01	 8.1923183817e-01	 1.5203918453e+00
 8.3045440627e-01	 6.5413888899e-01	 2.8666302292e+00
 8.1478531202e-01	 6.7355558892e-01	 2.7934370804e+00
 7.9864409172e-01	 6.9261813750e-01	 2.6998702930e+00
 7.8204290635e-01	 7.1130949113e-01	 2.5861200395e+00
 7.6499473070e-01	 7.2961317276e-01	 2.4524757183e+00
 7.4751331996e-01	 7.4751331996e-01	 2.2993312329e+00
 7.2961317276e-01	 7.6499473070e-01	 2.1271895685e+00
 7.1130949113e-01	 7.8204290635e-01	 1.9366665879e+00
 6.9261813750e-01	 7.9864409172e-01	 1.7284939714e+00
 6.7355558892e-01	 8.1478531202e-01	 1.5035212382e+00
 6.5413888899e-01	 8.3045440627e-01	 1.2627167958e+00
 8.4167701627e-01	 6.6297880312e-01	 2.5742336520e+00
 8.2579617273e-01	 6.8265789680e-01	 2.4945803488e+00
 8.0943682291e-01	 7.0197805320e-01	 2.3969096149e+00
 7.9261129213e-01	 7.2092199839e-01	 2.2815250178e+00
 7.7533273054e-01	 7.3947303264e-01	 2.1488155516e+00
 7.5761507918e-01	 7.5761507918e-01	 1.9992599299e+00
 7.3947303264e-01	 7.7533273054e-01	 1.8334302788e+00
 7.2092199839e-01	 7.9261129213e-01	 1.6519951569e+00
 7.0197805320e-01	 8.0943682291e-01	 1.4557218360e+00
 6.8265789680e-01	 8.2579617273e-01	 1.2454777833e+00
 6.6297880312e-01	 8.4167701627e-01	 1.0222312970e+00
 8.5289965900e-01	 6.7181874303e-01	 2.3040461532e+00
 8.3680706555e-01	 6.9176023123e-01	 2.2183743284e+00
 8.2022958558e-01	 7.1133799620e-01	 2.1168641726e+00
 8.0317970874e-01	 7.3053453368e-01	 1.9999192479e+00
 7.8567076052e-01	 7.4933292129e-01	 1.8680156793e+00
 7.6771686787e-01	 7.6771686787e-01	 1.7217055719e+00
 7.4933292129e-01	 7.8567076052e-01	 1.5616199235e+00
 7.3053453368e-01	 8.0317970874e-01	 1.3884709647e+00
 7.1133799620e-01	 8.2022958558e-01	 1.2030538681e+00
 6.9176023123e-01	 8.3680706555e-01	 1.0062477690e+00
 6.7181874303e-01	 8.5289965900e-01	 7.9901605421e-01
 8.6412232530e-01	 6.8065870150e-01	 2.0546324666e+00
 8.4781798149e-01	 7.0086258477e-01	 1.9635041437e+00
 8.3102237091e-01	 7.2069795885e-01	 1.8585448712e+00
 8.1374814754e-01	 7.4014708916e-01	 1.7402454154e+00
 7.9600881222e-01	 7.5919283063e-01	 1.6091571566e+00
 7.7781867777e-01	 7.7781867777e-01	 1.4658947372e+00
 7.5919283063e-01	 7.9600881222e-01	 1.3111382948e+00
 7.4014708916e-01	 8.1374814754e-01	 1.1456352167e+00
 7.2069795885e-01	 8.3102237091e-01	 9.7020136196e-01
 7.0086258477e-01	 8.4781798149e-01	 7.8572169754e-01
 6.8065870150e-01	 8.6412232530e-01	 5.9315030606e-01
 8.7534500600e-01	 6.8949867131e-01	 1.8246336832e+00
 8.5882891156e-01	 7.0996495000e-01	 1.7287251804e+00
 8.4181517008e-01	 7.3005793351e-01	 1.6208264920e+00
 8.2431659990e-01	 7.4975965697e-01	 1.5015033771e+00
 8.0634687718e-01	 7.6905275264e-01	 1.3713711529e+00
 7.8792050064e-01	 7.8792050064e-01	 1.2310966797e+00
 7.6905275264e-01	 8.0634687718e-01	 1.0814000119e+00
 7.4975965697e-01	 8.2431659990e-01	 9.2305565899e-01
 7.3005793351e-01	 8.4181517008e-01	 7.5689340373e-01
 7.0996495000e-01	 8.5882891156e-01	 5.8379862830e-01
 6.8949867131e-01	 8.7534500600e-01	 4.0471210532e-01
 8.8656769194e-01	 6.9833864525e-01	 1.6127625763e+00
 8.6983984677e-01	 7.1906731947e-01	 1.5128587982e+00
 8.5260797430e-01	 7.3941791255e-01	 1.4026438115e+00
 8.3488505719e-01	 7.5937222927e-01	 1.2827467051e+00
 8.1668494696e-01	 7.7891267924e-01	 1.1538359442e+00
 7.9802232821e-01	 7.9802232821e-01	 1.0166207940e+00
 7.7891267924e-01	 8.1668494696e-01	 8.7185248486e-01
 7.5937222927e-01	 8.3488505719e-01	 7.2032506950e-01
 7.3941791255e-01	 8.5260797430e-01	 5.6287591918e-01
 7.1906731947e-01	 8.6983984677e-01	 4.0038581224e-01
 6.9833864525e-01	 8.8656769194e-01	 2.3377857180e-01
 8.9779037395e-01	 7.0717861609e-01	 1.4177992714e+00
 8.8085077813e-01	 7.2816968575e-01	 1.3147883576e+00
 8.6340077474e-01	 7.4877788830e-01	 1.2029880026e+00
 8.4545351079e-01	 7.6898479821e-01	 1.0830794826e+00
 8.2702301313e-01	 7.8877260239e-01	 9.5577412401e-01
 8.0812415225e-01	 8.0812415225e-01	 8.2181426362e-01
 7.8877260239e-01	 8.2702301313e-01	 6.8197402443e-01
 7.6898479821e-01	 8.4545351079e-01	 5.3705985523e-01
 7.4877788830e-01	 8.6340077474e-01	 3.8791078531e-01
 7.2816968575e-01	 8.8085077813e-01	 2.3539834664e-01
 7.0717861609e-01	 8.9779037395e-01	 8.0426120267e-02
 6.1877963469e-01	 7.8556447689e-01	 2.3957184772e+00
 6.0009410240e-01	 7.9992927055e-01	 2.0393116989e+00
 5.8110723302e-01	 8.1382685776e-01	 1.6628214089e+00
 5.6183647501e-01	 8.2724818708e-01	 1.2696269613e+00
 5.4229961341e-01	 8.4018506873e-01	 8.6297712975e-01
 5.2251471715e-01	 8.5263018827e-01	 4.4597655815e-01
 5.0250008602e-01	 8.6457711653e-01	 2.1573519150e-02
 4.8227419740e-01	 8.7602031568e-01	-4.0745094844e-01
 4.6185565311e-01	 8.8695514163e-01	-8.3849246544e-01
 4.4126312680e-01	 8.9737784263e-01	-1.2691312579e+00
 4.2051531196e-01	 9.0728555439e-01	-1.6971385929e+00
 6.2761937350e-01	 7.9678686431e-01	 2.0869785425e+00
 6.0866690413e-01	 8.1135687000e-01	 1.7594505540e+00
 5.8940879285e-01	 8.2545299484e-01	 1.4137865081e+00
 5.6986273737e-01	 8.3906605808e-01	 1.0530953478e+00
 5.5004677681e-01	 8.5218775294e-01	 6.8036732867e-01
 5.2997923822e-01	 8.6481066051e-01	 2.9846150571e-01
 5.0967868283e-01	 8.7692825975e-01	-8.9905607919e-02
 4.8916385197e-01	 8.8853493372e-01	-4.8217014438e-01
 4.6845361321e-01	 8.9962597199e-01	-8.7592969092e-01
 4.4756690696e-01	 9.1019756922e-01	-1.2689507634e+00
 4.2652269377e-01	 9.2024682020e-01	-1.6591749127e+00
 6.3645916697e-01	 8.0800932113e-01	 1.7951739626e+00
 6.1723975887e-01	 8.2278454012e-01	 1.4939186759e+00
 5.9771040401e-01	 8.3707920380e-01	 1.1763933598e+00
 5.7788904936e-01	 8.5088400215e-01	 8.4545262013e-01
 5.5779398811e-01	 8.6419051138e-01	 5.0384346402e-01
 5.3744380545e-01	 8.7699120807e-01	 1.5419376357e-01
 5.1685732403e-01	 8.8927947934e-01	-2.0099823809e-01
 4.9605354914e-01	 9.0104962914e-01	-5.5937331584e-01
 4.7505161411e-01	 9.1229688070e-01	-9.1871949420e-01
 4.5387072610e-01	 9.2301737508e-01	-1.2769790792e+00
 4.3253011272e-01	 9.3320816615e-01	-1.6322544583e+00
 6.4529900787e-01	 8.1923183817e-01	 1.5203918453e+00
 6.2581265962e-01	 8.3421227156e-01	 1.2430419285e+00
 6.0601205972e-01	 8.4870547516e-01	 9.5120159503e-01
 5.8591540442e-01	 8.6270200965e-01	 6.4748682095e-01
 5.6554124098e-01	 8.7619333423e-01	 3.3441630427e-01
 5.4490841273e-01	 8.8917182099e-01	 1.4400847273e-02
 5.2403600375e-01	 9.0163076521e-01	-3.1026634100e-01
 5.0294328328e-01	 9.1356439173e-01	-6.3741836392e-01
 4.8164965041e-01	 9.2496785741e-01	-9.6502232800e-01
 4.6017457907e-01	 9.3583724974e-01	-1.2911859632e+00
 4.3853756392e-01	 9.4616958166e-01	-1.6141631399e+00
 6.5413888899e-01	 8.3045440627e-01	 1.2627167958e+00
 6.3438559937e-01	 8.4564005499e-01	 1.0071306707e+00
 6.1431375320e-01	 8.6033179942e-01	 7.3874258569e-01
 5.9394179600e-01	 8.7452007092e-01	 4.5994524728e-01
 5.7328852911e-01	 8.8819621169e-01	 1.7304367088e-01
 5.5237305398e-01	 9.0135248933e-01	-1.1975457459e-01
 5.3121471613e-01	 9.1398210728e-01	-4.1634831790e-01
 5.0983304877e-01	 9.2607921125e-01	-7.1475087850e-01
 4.8824771673e-01	 9.3763889177e-01	-1.0130972531e+00
 4.6647846072e-01	 9.4865718273e-01	-1.3096503545e+00
 4.4454504244e-01	 9.5913105615e-01	-1.6028062688e+00
 6.6297880312e-01	 8.4167701627e-01	 1.0222312970e+00
 6.4295857113e-01	 8.5706788109e-01	 7.8648100475e-01
 6.2261547767e-01	 8.7195816709e-01	 5.3952154437e-01
 6.0196821755e-01	 8.8633817630e-01	 2.8353738329e-01
 5.8103584616e-01	 9.0019913396e-01	 2.0634184654e-02
 5.5983772310e-01	 9.1353320315e-01	-2.4717014130e-01
 5.3839345531e-01	 9.2633349545e-01	-5.1795369148e-01
 5.1672283999e-01	 9.3859407749e-01	-7.8989807940e-01
 4.9484580769e-01	 9.5030997344e-01	-1.0612951541e+00
 4.7278236590e-01	 9.6147716358e-01	-1.3305528874e+00
 4.5055254340e-01	 9.7209257902e-01	-1.5962003947e+00
 6.7181874303e-01	 8.5289965900e-01	 7.9901605421e-01
 6.5153156789e-01	 8.6849574052e-01	 5.8137592108e-01
 6.3091722636e-01	 8.8358456866e-01	 3.5401945284e-01
 6.0999466250e-01	 8.9815631616e-01	 1.1893759608e-01
 5.8878318580e-01	 9.1220209123e-01	-1.2194928889e-01
 5.6730241398e-01	 9.2571395249e-01	-3.6679962411e-01
 5.4557221543e-01	 9.3868491966e-01	-6.1385821932e-01
 5.2361265129e-01	 9.5110898024e-01	-8.6146324010e-01
 5.0144391789e-01	 9.6298109206e-01	-1.1080524949e+00
 4.7908628947e-01	 9.7429718182e-01	-1.3521690006e+00
 4.5656006187e-01	 9.8505413969e-01	-1.5924657900e+00
 6.8065870150e-01	 8.6412232530e-01	 5.9315030606e-01
 6.6010458265e-01	 8.7992362394e-01	 3.9208634664e-01
 6.3921899248e-01	 8.9521099465e-01	 1.8269483421e-01
 6.1802112431e-01	 9.0997448083e-01	-3.3212384017e-02
 5.9653054171e-01	 9.2420507372e-01	-2.5388646787e-01
 5.7476712055e-01	 9.3789472741e-01	-4.7764908061e-01
 5.5275099062e-01	 9.5103636979e-01	-7.0289939273e-01
 5.3050247707e-01	 9.6362390926e-01	-9.2812054995e-01
 5.0804204194e-01	 9.7565223730e-01	-1.1518855640e+00
 4.8539022628e-01	 9.8711722698e-01	-1.3728625860e+00
 4.6256759296e-01	 9.9801572759e-01	-1.5898195239e+00
 6.8949867131e-01	 8.7534500600e-01	 4.0471210532e-01
 6.6867760842e-01	 8.9135152203e-01	 2.1887210699e-01
 6.4752076925e-01	 9.0683743556e-01	 2.5985382996e-02
 6.2604759642e-01	 9.2179266067e-01	-1.7230117957e-01
 6.0427790756e-01	 9.3620807160e-01	-3.7439673146e-01
 5.8223183669e-01	 9.5007551796e-01	-5.7877330973e-01
 5.5992977503e-01	 9.6338783578e-01	-7.8397228609e-01
 5.3739231168e-01	 9.7613885435e-01	-9.8861037570e-01
 5.1464017447e-01	 9.8832339879e-01	-1.1913851666e+00
 4.9169417118e-01	 9.9993728860e-01	-1.3910801297e+00
 4.6857513176e-01	 1.0109773321e+00	-1.5865690710e+00
 6.9833864525e-01	 8.8656769194e-01	 2.3377857180e-01
 6.7725063818e-01	 9.0277942546e-01	 6.1982809093e-02
 6.5582254989e-01	 9.1846388189e-01	-1.1569053436e-01
 6.3407407228e-01	 9.3361084602e-01	-2.9774566102e-01
 6.1202527703e-01	 9.4821107509e-01	-4.8273642448e-01
 5.8969655631e-01	 9.6225631419e-01	-6.6927258065e-01
 5.6710856278e-01	 9.7573930754e-01	-8.5602572600e-01
 5.4428214952e-01	 9.8865380527e-01	-1.0417348870e+00
 5.2123831007e-01	 1.0009945662e+00	-1.2252117228e+00
 4.9799811902e-01	 1.0127573562e+00	-1.4053453013e+00
 4.7458267337e-01	 1.0239389427e+00	-1.5811064087e+00
 7.0717861609e-01	 8.9779037395e-01	 8.0426120267e-02
 6.8582366495e-01	 9.1420732488e-01	-7.8341347987e-02
 6.6412432764e-01	 9.3009032415e-01	-2.4193249724e-01
 6.4210054532e-01	 9.4542902724e-01	-4.0898900490e-01
 6.1977264379e-01	 9.6021407437e-01	-5.7819636910e-01
 5.9716127332e-01	 9.7443710616e-01	-7.4828961191e-01
 5.7428734802e-01	 9.8809077496e-01	-9.1805875202e-01
 5.5117198494e-01	 1.0011687518e+00	-1.0863540140e+00
 5.2783644336e-01	 1.0136657292e+00	-1.2520907383e+00
 5.0430206465e-01	 1.0255774193e+00	-1.4142539521e+00
 4.8059021287e-01	 1.0369005487e+00	-1.5719025606e+00
 4.2051531196e-01	 9.0728555439e-01	-1.6971385929e+00
 3.9963233635e-01	 9.1667565331e-01	-2.1195006479e+00
 3.7863132607e-01	 9.2554773768e-01	-2.5323141595e+00
 3.5753072471e-01	 9.3390154697e-01	-2.9323496936e+00
 3.3634880088e-01	 9.4173765446e-01	-3.3167520544e+00
 3.1510360378e-01	 9.4905744632e-01	-3.6830446630e+00
 2.9381292096e-01	 9.5586309813e-01	-4.0291309652e+00
 2.7249423836e-01	 9.6215754903e-01	-4.3532929622e+00
 2.5116470275e-01	 9.6794447360e-01	-4.6541869854e+00
 2.2984108677e-01	 9.7322825186e-01	-4.9308368588e+00
 2.0853975653e-01	 9.7801393759e-01	-5.1826246141e+00
 4.2652269377e-01	 9.2024682020e-01	-1.6591749127e+00
 4.0534138893e-01	 9.2977106384e-01	-2.0441757035e+00
 3.8404036321e-01	 9.3876989269e-01	-2.4207445986e+00
 3.6263832368e-01	 9.4724304252e-01	-2.7859519838e+00
 3.4115379992e-01	 9.5519109478e-01	-3.1372057971e+00
 3.1960509898e-01	 9.6261545544e-01	-3.4722557573e+00
 2.9801026253e-01	 9.6951833117e-01	-3.7891948976e+00
 2.7638702629e-01	 9.7590270310e-01	-4.0864584841e+00
 2.5475278201e-01	 9.8177229830e-01	-4.3628204220e+00
 2.3312454192e-01	 9.8713155936e-01	-4.6173872734e+00
 2.1151890594e-01	 9.9198561225e-01	-4.8495900350e+00
 4.3253011272e-01	 9.3320816615e-01	-1.6322544583e+00
 4.1105047682e-01	 9.4286655534e-01	-1.9826440041e+00
 3.8944943380e-01	 9.5199212946e-01	-2.3255628276e+00
 3.6774595423e-01	 9.6058462056e-01	-2.6583612213e+00
 3.4595882866e-01	 9.6864461828e-01	-2.9786931347e+00
 3.2410662201e-01	 9.7617354839e-01	-3.2845202653e+00
 3.0220763005e-01	 9.8317364865e-01	-3.5741137120e+00
 2.8027983830e-01	 9.8964794217e-01	-3.8460532545e+00
 2.5834088346e-01	 9.9560020850e-01	-4.0992243472e+00
 2.3640801737e-01	 1.0010349528e+00	-4.3328129326e+00
 2.1449807377e-01	 1.0059573733e+00	-4.5462982034e+00
 4.3853756392e-01	 9.4616958166e-01	-1.6141631399e+00
 4.1675959534e-01	 9.5596211712e-01	-1.9325198287e+00
 3.9485853341e-01	 9.6521443720e-01	-2.2442294161e+00
 3.7285361218e-01	 9.7392627021e-01	-2.5469027248e+00
 3.5076388320e-01	 9.8209821399e-01	-2.8384230377e+00
 3.2860816921e-01	 9.8973171411e-01	-3.1169500652e+00
 3.0640502009e-01	 9.9682903942e-01	-3.3809217125e+00
 2.8417267119e-01	 1.0033932550e+00	-3.6290536964e+00
 2.6192900415e-01	 1.0094281929e+00	-3.8603370847e+00
 2.3969151044e-01	 1.0149384209e+00	-4.0740338481e+00
 2.1747725758e-01	 1.0199292094e+00	-4.2696705321e+00
 4.4454504244e-01	 9.5913105615e-01	-1.6028062688e+00
 4.2246873983e-01	 9.6905773849e-01	-1.8915464322e+00
 4.0026765764e-01	 9.7843680509e-01	-2.1743425290e+00
 3.7796129338e-01	 9.8726798056e-01	-2.4490470403e+00
 3.5556895959e-01	 9.9555187091e-01	-2.7137563217e+00
 3.3310973688e-01	 1.0032899415e+00	-2.9668144618e+00
 3.1060242923e-01	 1.0104844923e+00	-3.2068151579e+00
 2.8806552180e-01	 1.0171386304e+00	-3.4326016491e+00
 2.6551714118e-01	 1.0232562403e+00	-3.6432647618e+00
 2.4297501845e-01	 1.0288419523e+00	-3.8381391435e+00
 2.2045645495e-01	 1.0339011090e+00	-4.0167977760e+00
 4.5055254340e-01	 9.7209257902e-01	-1.5962003947e+00
 4.2817790565e-01	 9.8215340874e-01	-1.8575872492e+00
 4.0567680206e-01	 9.9165922235e-01	-2.1136285612e+00
 3.8306899364e-01	 1.0006097407e+00	-2.3624000736e+00
 3.6037405393e-01	 1.0090055781e+00	-2.6021953469e+00
 3.3761132136e-01	 1.0168482195e+00	-2.8315295224e+00
 3.1479985404e-01	 1.0241399962e+00	-3.0491413051e+00
 2.9195838693e-01	 1.0308840571e+00	-3.2539931911e+00
 2.6910529160e-01	 1.0370843392e+00	-3.4452699828e+00
 2.4625853872e-01	 1.0427455355e+00	-3.6223756519e+00
 2.2343566344e-01	 1.0478730608e+00	-3.7849286256e+00
 4.5656006187e-01	 9.8505413969e-01	-1.5924657900e+00
 4.3388708811e-01	 9.9524911719e-01	-1.8286177957e+00
 4.1108596225e-01	 1.0048816782e+00	-2.0599335152e+00
 3.8817670881e-01	 1.0139515398e+00	-2.2846940056e+00
 3.6517916227e-01	 1.0224593244e+00	-2.5013745326e+00
 3.4211291896e-01	 1.0304065371e+00	-2.7086482564e+00
 3.1899729109e-01	 1.0377955399e+00	-2.9053883188e+00
 2.9585126342e-01	 1.0446295239e+00	-3.0906683458e+00
 2.7269345248e-01	 1.0509124785e+00	-3.2637613985e+00
 2.4954206856e-01	 1.0566491593e+00	-3.4241374141e+00
 2.2641488062e-01	 1.0618450533e+00	-3.5714592015e+00
 4.6256759296e-01	 9.9801572759e-01	-1.5898195239e+00
 4.3959628256e-01	 1.0083448531e+00	-1.8027182033e+00
 4.1649513380e-01	 1.0181041618e+00	-2.0112150523e+00
 3.9328443469e-01	 1.0272933669e+00	-2.2137789158e+00
 3.6998428071e-01	 1.0359130991e+00	-2.4090516129e+00
 3.4661452602e-01	 1.0439648832e+00	-2.5958515614e+00
 3.2319473696e-01	 1.0514511123e+00	-2.7731759678e+00
 2.9974414809e-01	 1.0583750195e+00	-2.9402015897e+00
 2.7628162089e-01	 1.0647406468e+00	-3.0962840871e+00
 2.5282560529e-01	 1.0705528124e+00	-3.2409559954e+00
 2.2939410405e-01	 1.0758170752e+00	-3.3739233676e+00
 4.6857513176e-01	 1.0109773321e+00	-1.5865690710e+00
 4.4530548434e-01	 1.0214406059e+00	-1.7780663315e+00
 4.2190431230e-01	 1.0313266623e+00	-1.9655351572e+00
 3.9839216713e-01	 1.0406352111e+00	-2.1476150528e+00
 3.7478940531e-01	 1.0493668910e+00	-2.3230995661e+00
 3.5111613885e-01	 1.0575232466e+00	-2.4909398661e+00
 3.2739218821e-01	 1.0651067022e+00	-2.6502470387e+00
 3.0363703775e-01	 1.0721205328e+00	-2.8002930919e+00
 2.7986979391e-01	 1.0785688329e+00	-2.9405106768e+00
 2.5610914624e-01	 1.0844564832e+00	-3.0704915473e+00
 2.3237333130e-01	 1.0897891150e+00	-3.1899837895e+00
 4.7458267337e-01	 1.0239389427e+00	-1.5811064087e+00
 4.5101468878e-01	 1.0345363648e+00	-1.7529314045e+00
 4.2731349332e-01	 1.0445491690e+00	-1.9210533622e+00
 4.0349990196e-01	 1.0539770615e+00	-2.0842656942e+00
 3.7959453216e-01	 1.0628206892e+00	-2.2414991586e+00
 3.5561775379e-01	 1.0710816164e+00	-2.3918254104e+00
 3.3158964142e-01	 1.0787622985e+00	-2.5344594025e+00
 3.0752992922e-01	 1.0858660525e+00	-2.6687606198e+00
 2.8345796861e-01	 1.0923970255e+00	-2.7942331430e+00
 2.5939268872e-01	 1.0983601605e+00	-2.9105245490e+00
 2.3535255995e-01	 1.1037611613e+00	-3.0174236720e+00
 4.8059021287e-01	 1.0369005487e+00	-1.5719025606e+00
 4.5672389122e-01	 1.0476321190e+00	-1.7256681291e+00
 4.3272267244e-01	 1.0577716711e+00	-1.8760204821e+00
 4.0860763499e-01	 1.0673189073e+00	-2.0218905426e+00
 3.8439965732e-01	 1.0762744826e+00	-2.1623320505e+00
 3.6011936715e-01	 1.0846399814e+00	-2.2965251054e+00
 3.3578709316e-01	 1.0924178900e+00	-2.4237786765e+00
 3.1142281934e-01	 1.0996115674e+00	-2.5435320528e+00
 2.8704614204e-01	 1.1062252131e+00	-2.6553552209e+00
 2.6267623005e-01	 1.1122638330e+00	-2.7589481675e+00
 2.3833178755e-01	 1.1177332028e+00	-2.8541391167e+00
 2.0853975653e-01	 9.7801393759e-01	-5.1826246141e+00
 1.8727515887e-01	 9.8230750859e-01	-5.4103411536e+00
 1.6606427394e-01	 9.8611491462e-01	-5.6144304210e+00
 1.4492210489e-01	 9.8944302882e-01	-5.7942333004e+00
 1.2386314479e-01	 9.9229925915e-01	-5.9493080813e+00
 1.0290135811e-01	 9.9469151154e-01	-6.0794226232e+00
 8.2050164801e-02	 9.9662815290e-01	-6.1845453451e+00
 6.1322427094e-02	 9.9811797387e-01	-6.2648351795e+00
 4.0730438957e-02	 9.9917015173e-01	-6.3206306375e+00
 2.0285918027e-02	 9.9979421360e-01	-6.3524381327e+00
 0.0000000000e+00	 1.0000000000e+00	-6.3609197113e+00
 2.1151890594e-01	 9.9198561225e-01	-4.8495900350e+00
 1.8995052729e-01	 9.9634052019e-01	-5.0598448097e+00
 1.6843662870e-01	 1.0002023179e+00	-5.2482655188e+00
 1.4699242765e-01	 1.0035779768e+00	-5.4142739719e+00
 1.2563262425e-01	 1.0064750105e+00	-5.5575002928e+00
 1.0437138247e-01	 1.0089014381e+00	-5.6777750202e+00
 8.3222313965e-02	 1.0108657458e+00	-5.7751200807e+00
 6.2198464722e-02	 1.0123768500e+00	-5.8497387721e+00
 4.1312304334e-02	 1.0134440591e+00	-5.9020048982e+00
 2.0575717834e-02	 1.0140770361e+00	-5.9324512023e+00
 0.0000000000e+00	 1.0142857623e+00	-5.9417572407e+00
 2.1449807377e-01	 1.0059573733e+00	-4.5462982034e+00
 1.9262591225e-01	 1.0103736186e+00	-4.7398075192e+00
 1.7080899813e-01	 1.0142898083e+00	-4.9132012623e+00
 1.4906276320e-01	 1.0177130121e+00	-5.0659695459e+00
 1.2740211465e-01	 1.0206508496e+00	-5.1978023750e+00
 1.0584141592e-01	 1.0231114525e+00	-5.3085817488e+00
 8.4394470374e-02	 1.0251034268e+00	-5.3983726732e+00
 6.3074507764e-02	 1.0266358144e+00	-5.4674132191e+00
 4.1894173308e-02	 1.0277180546e+00	-5.5161037659e+00
 2.0865519432e-02	 1.0283599470e+00	-5.5449955722e+00
 0.0000000000e+00	 1.0285716130e+00	-5.5547788145e+00
 2.1747725758e-01	 1.0199292094e+00	-4.2696705321e+00
 1.9530131157e-01	 1.0244067923e+00	-4.4471623654e+00
 1.7318138029e-01	 1.0283773743e+00	-4.6061836852e+00
 1.5113310987e-01	 1.0318481233e+00	-4.7462808236e+00
 1.2917161454e-01	 1.0348267647e+00	-4.8671922339e+00
 1.0731145725e-01	 1.0373215431e+00	-4.9688406571e+00
 8.5566633073e-02	 1.0393411842e+00	-5.0513242293e+00
 6.3950555507e-02	 1.0408948552e+00	-5.1149066614e+00
 4.2476045403e-02	 1.0419921268e+00	-5.1600066280e+00
 2.1155322585e-02	 1.0426429345e+00	-5.1871865041e+00
 0.0000000000e+00	 1.0428575404e+00	-5.1971405892e+00
 2.2045645495e-01	 1.0339011090e+00	-4.0167977760e+00
 1.9797672306e-01	 1.0384400298e+00	-4.1790114322e+00
 1.7555377324e-01	 1.0424650045e+00	-4.3243273905e+00
 1.5320346595e-01	 1.0459832989e+00	-4.4523366234e+00
 1.3094112249e-01	 1.0490027443e+00	-4.5628150870e+00
 1.0878150527e-01	 1.0515316984e+00	-4.6557160152e+00
 8.6738801103e-02	 1.0535790063e+00	-4.7311611762e+00
 6.4826607234e-02	 1.0551539609e+00	-4.7894312191e+00
 4.3057920145e-02	 1.0562662640e+00	-4.8309552445e+00
 2.1445127056e-02	 1.0569259869e+00	-4.8562997358e+00
 0.0000000000e+00	 1.0571435327e+00	-4.8661569877e+00
 2.2343566344e-01	 1.0478730608e+00	-3.7849286256e+00
 2.0065214454e-01	 1.0524733197e+00	-3.9326144322e+00
 1.7792617505e-01	 1.0565526872e+00	-4.0649042206e+00
 1.5527382977e-01	 1.0601185272e+00	-4.1814224994e+00
 1.3271063703e-01	 1.0631787768e+00	-4.2819722410e+00
 1.1025155877e-01	 1.0657419068e+00	-4.3665273648e+00
 8.7910973507e-02	 1.0678168817e+00	-4.4352241971e+00
 6.5702662231e-02	 1.0694131199e+00	-4.4883520284e+00
 4.3639797058e-02	 1.0705404544e+00	-4.5263429032e+00
 2.1734932609e-02	 1.0712090928e+00	-4.5497607733e+00
 0.0000000000e+00	 1.0714295784e+00	-4.5592901497e+00
 2.2641488062e-01	 1.0618450533e+00	-3.5714592015e+00
 2.0332757381e-01	 1.0665066506e+00	-3.7053782332e+00
 1.8029858377e-01	 1.0706404110e+00	-3.8253328203e+00
 1.5734419962e-01	 1.0742537967e+00	-3.9309703502e+00
 1.3448015674e-01	 1.0773548507e+00	-4.0221107553e+00
 1.1172161656e-01	 1.0799521566e+00	-4.0987392489e+00
 8.9083149329e-02	 1.0820547985e+00	-4.1609980389e+00
 6.6578719781e-02	 1.0836723205e+00	-4.2091771427e+00
 4.4221675667e-02	 1.0848146865e+00	-4.2437044308e+00
 2.2024739006e-02	 1.0854922402e+00	-4.2651350287e+00
 0.0000000000e+00	 1.0857156657e+00	-4.2741402136e+00
 2.2939410405e-01	 1.0758170752e+00	-3.3739233676e+00
 2.0600300871e-01	 1.0805400110e+00	-3.4948472002e+00
 1.8267099747e-01	 1.0847281644e+00	-3.6031690140e+00
 1.5941457381e-01	 1.0883890959e+00	-3.6985488369e+00
 1.3624968016e-01	 1.0915309544e+00	-3.7808139110e+00
 1.1319167744e-01	 1.0941624363e+00	-3.8499517406e+00
 9.0255327612e-02	 1.0962927452e+00	-3.9061021146e+00
 6.7454779171e-02	 1.0979315510e+00	-3.9495482210e+00
 4.4803555497e-02	 1.0990889485e+00	-3.9807069803e+00
 2.2314546011e-02	 1.0997754177e+00	-4.0001187246e+00
 0.0000000000e+00	 1.1000017831e+00	-4.0084363558e+00
 2.3237333130e-01	 1.0897891150e+00	-3.1899837895e+00
 2.0867844704e-01	 1.0945733893e+00	-3.2986942806e+00
 1.8504341422e-01	 1.0988159358e+00	-3.3960969222e+00
 1.6148495066e-01	 1.1025244133e+00	-3.4818545385e+00
 1.3801920585e-01	 1.1057070762e+00	-3.5557924114e+00
 1.1466174020e-01	 1.1083727342e+00	-3.6178917006e+00
 9.1427507398e-02	 1.1105307103e+00	-3.6682818269e+00
 6.8330839684e-02	 1.1121907998e+00	-3.7072319302e+00
 4.5385436074e-02	 1.1133632289e+00	-3.7351415280e+00
 2.2604353388e-02	 1.1140586135e+00	-3.7525304982e+00
 0.0000000000e+00	 1.1142879188e+00	-3.7600285183e+00
 2.3535255995e-01	 1.1037611613e+00	-3.0174236720e+00
 2.1135388661e-01	 1.1086067742e+00	-3.1147127661e+00
 1.8741583207e-01	 1.1129037139e+00	-3.2019207525e+00
 1.6355532848e-01	 1.1166597372e+00	-3.2787037780e+00
 1.3978873237e-01	 1.1198832047e+00	-3.3448762516e+00
 1.1613180365e-01	 1.1225830387e+00	-3.4004046978e+00
 9.2599687730e-02	 1.1247686819e+00	-3.4454005510e+00
 6.9206900605e-02	 1.1264500552e+00	-3.4801120020e+00
 4.5967316922e-02	 1.1276375159e+00	-3.5049150152e+00
 2.2894160900e-02	 1.1283418159e+00	-3.5203036428e+00
 0.0000000000e+00	 1.1285740611e+00	-3.5268797636e+00
 2.3833178755e-01	 1.1177332028e+00	-2.8541391167e+00
 2.1402932525e-01	 1.1226401542e+00	-2.9408086731e+00
 1.8978824910e-01	 1.1269914870e+00	-3.0185572070e+00
 1.6562570557e-01	 1.1307950562e+00	-3.0870250618e+00
 1.4155825826e-01	 1.1340593282e+00	-3.1460071973e+00
 1.1760186658e-01	 1.1367933383e+00	-3.1954475356e+00
 9.3771867651e-02	 1.1390066486e+00	-3.2354322182e+00
 7.0082961219e-02	 1.1407093057e+00	-3.2661818833e+00
 4.6549197565e-02	 1.1419117979e+00	-3.2880430780e+00
 2.3183968311e-02	 1.1426250134e+00	-3.3014789297e+00
 0.0000000000e+00	 1.1428601985e+00	-3.3070592033e+00
 1.1428601985e+00	 0.0000000000e+00	 2.1246135297e+00
 1.1426250134e+00	 2.3183968311e-02	 2.1289864027e+00
 1.1419117979e+00	 4.6549197565e-02	 2.1323756888e+00
 1.1407093057e+00	 7.0082961219e-02	 2.1349122738e+00
 1.1390066486e+00	 9.3771867651e-02	 2.1367880197e+00
 1.1367933383e+00	 1.1760186658e-01	 2.1382551104e+00
 1.1340593282e+00	 1.4155825826e-01	 2.1396249712e+00
 1.1307950562e+00	 1.6562570557e-01	 2.1412667455e+00
 1.1269914870e+00	 1.8978824910e-01	 2.1436053107e+00
 1.1226401542e+00	 2.1402932525e-01	 2.1471188234e+00
 1.1177332028e+00	 2.3833178755e-01	 2.1523357807e+00
 1.1571453214e+00	 0.0000000000e+00	 2.2271989374e+00
 1.1569071966e+00	 2.3473755142e-02	 2.2312770623e+00
 1.1561850663e+00	 4.7131036890e-02	 2.2330688393e+00
 1.1549675436e+00	 7.0958959624e-02	 2.2327530009e+00
 1.1532436042e+00	 9.4943964336e-02	 2.2305706884e+00
 1.1510026287e+00	 1.1907182513e-01	 2.2268244977e+00
 1.1482344451e+00	 1.4332765851e-01	 2.2218770825e+00
 1.1449293715e+00	 1.6769593565e-01	 2.2161493000e+00
 1.1410782597e+00	 1.9216049766e-01	 2.2101178825e+00
 1.1366725377e+00	 2.1670457391e-01	 2.2043126250e+00
 1.1317042520e+00	 2.4131080360e-01	 2.1993130800e+00
 1.1714304292e+00	 0.0000000000e+00	 2.3255453419e+00
 1.1711893648e+00	 2.3763541668e-02	 2.3293812929e+00
 1.1704583197e+00	 4.7712875603e-02	 2.3296959674e+00
 1.1692257666e+00	 7.1834957109e-02	 2.3267148336e+00
 1.1674805449e+00	 9.6116059790e-02	 2.3207270722e+00
 1.1652119043e+00	 1.2054178213e-01	 2.3120843274e+00
 1.1624095470e+00	 1.4509705689e-01	 2.3011990012e+00
 1.1590636719e+00	 1.6976616355e-01	 2.2885420765e+00
 1.1551650177e+00	 1.9453274372e-01	 2.2746404528e+00
 1.1507049064e+00	 2.1937981975e-01	 2.2600737871e+00
 1.1456752867e+00	 2.4428981652e-01	 2.2454708314e+00
 1.1857155238e+00	 0.0000000000e+00	 2.4187729243e+00
 1.1854715197e+00	 2.4053327925e-02	 2.4224098457e+00
 1.1847315598e+00	 4.8294713773e-02	 2.4213584143e+00
 1.1834839762e+00	 7.2710953776e-02	 2.4158897658e+00
 1.1817174723e+00	 9.7288154151e-02	 2.4063399206e+00
 1.1794211666e+00	 1.2201173775e-01	 2.3931082470e+00
 1.1765846358e+00	 1.4686645362e-01	 2.3766554539e+00
 1.1731979592e+00	 1.7183638952e-01	 2.3575010988e+00
 1.1692517625e+00	 1.9690498758e-01	 2.3362205976e+00
 1.1647372620e+00	 2.2205506311e-01	 2.3134417276e+00
 1.1596463082e+00	 2.4726882666e-01	 2.2898406191e+00
 1.2000006067e+00	 0.0000000000e+00	 2.5060401826e+00
 1.1997536629e+00	 2.4343113944e-02	 2.5095125431e+00
 1.1990047883e+00	 4.8876551468e-02	 2.5071973567e+00
 1.1977421742e+00	 7.3586949728e-02	 2.4994103955e+00
 1.1959543881e+00	 9.8460247554e-02	 2.4865333566e+00
 1.1936304173e+00	 1.2348169218e-01	 2.4690120432e+00
 1.1907597130e+00	 1.4863584891e-01	 2.4473540637e+00
 1.1873322348e+00	 1.7390661380e-01	 2.4221260326e+00
 1.1833384958e+00	 1.9927722950e-01	 2.3939502635e+00
 1.1787696062e+00	 2.2473030427e-01	 2.3635009447e+00
 1.1736173184e+00	 2.5024783437e-01	 2.3314997945e+00
 1.2142856796e+00	 0.0000000000e+00	 2.5865416783e+00
 1.2140357961e+00	 2.4632899761e-02	 2.5898759943e+00
 1.2132780067e+00	 4.9458388756e-02	 2.5863914893e+00
 1.2120003622e+00	 7.4462945067e-02	 2.5764475742e+00
 1.2101912939e+00	 9.9632340137e-02	 2.5604704916e+00
 1.2078396580e+00	 1.2495164558e-01	 2.5389512220e+00
 1.2049347802e+00	 1.5040524296e-01	 2.5124428957e+00
 1.2014665006e+00	 1.7597683663e-01	 2.4815576962e+00
 1.1974252192e+00	 2.0164946975e-01	 2.4469632449e+00
 1.1928019406e+00	 2.2740554357e-01	 2.4093784596e+00
 1.1875883188e+00	 2.5322683999e-01	 2.3695688839e+00
 1.2285707441e+00	 0.0000000000e+00	 2.6595059407e+00
 1.2283179210e+00	 2.4922685409e-02	 2.6627214697e+00
 1.2275512168e+00	 5.0040225705e-02	 2.6581548692e+00
 1.2262585419e+00	 7.5338939895e-02	 2.6462082201e+00
 1.2244281914e+00	 1.0080443204e-01	 2.6273512077e+00
 1.2220488905e+00	 1.2642159812e-01	 2.6021187589e+00
 1.2191098392e+00	 1.5217463598e-01	 2.5711081750e+00
 1.2156007582e+00	 1.7804705825e-01	 2.5349757459e+00
 1.2115119344e+00	 2.0402170863e-01	 2.4944328360e+00
 1.2068342668e+00	 2.3008078130e-01	 2.4502414361e+00
 1.2015593110e+00	 2.5620584387e-01	 2.4032091772e+00
 1.2428558020e+00	 0.0000000000e+00	 2.7241935152e+00
 1.2426000392e+00	 2.5212470921e-02	 2.7273029222e+00
 1.2418244203e+00	 5.0622062382e-02	 2.7217349086e+00
 1.2405167149e+00	 7.6214934315e-02	 2.7079332820e+00
 1.2386650823e+00	 1.0197652339e-01	 2.6864100916e+00
 1.2362581163e+00	 1.2789154998e-01	 2.6577430032e+00
 1.2332848916e+00	 1.5394402817e-01	 2.6225721604e+00
 1.2297350091e+00	 1.8011727891e-01	 2.5815965191e+00
 1.2255986431e+00	 2.0639394639e-01	 2.5355696442e+00
 1.2208665864e+00	 2.3275601779e-01	 2.4852949641e+00
 1.2155302967e+00	 2.5918484637e-01	 2.4316204810e+00
 1.2571408549e+00	 0.0000000000e+00	 2.7798951446e+00
 1.2568821524e+00	 2.5502256333e-02	 2.7829051433e+00
 1.2560976188e+00	 5.1203898855e-02	 2.7764105051e+00
 1.2547748830e+00	 7.7090928428e-02	 2.7608958426e+00
 1.2529019682e+00	 1.0314861433e-01	 2.7369145103e+00
 1.2504673372e+00	 1.2936150132e-01	 2.7050857248e+00
 1.2474599390e+00	 1.5571341975e-01	 2.6660911631e+00
 1.2438692551e+00	 1.8218749884e-01	 2.6206710251e+00
 1.2396853468e+00	 2.0876618333e-01	 2.5696195518e+00
 1.2348989011e+00	 2.3543125334e-01	 2.5137799931e+00
 1.2295012776e+00	 2.6216384782e-01	 2.4540390242e+00
 1.2714259045e+00	 0.0000000000e+00	 2.8259300735e+00
 1.2711642623e+00	 2.5792041677e-02	 2.8288420433e+00
 1.2703708139e+00	 5.1785735194e-02	 2.8214902971e+00
 1.2690330477e+00	 7.7966922337e-02	 2.8043993483e+00
 1.2671388507e+00	 1.0432070500e-01	 2.7781628152e+00
 1.2646765547e+00	 1.3083145232e-01	 2.7434402932e+00
 1.2616349830e+00	 1.5748281091e-01	 2.7009536990e+00
 1.2580034978e+00	 1.8425771829e-01	 2.6514830701e+00
 1.2537720472e+00	 2.1113841971e-01	 2.5958618149e+00
 1.2489312125e+00	 2.3810648826e-01	 2.5349714039e+00
 1.2434722551e+00	 2.6514284858e-01	 2.4697355040e+00
 1.2857109524e+00	 0.0000000000e+00	 2.8616444658e+00
 1.2854463705e+00	 2.6081826987e-02	 2.8644550466e+00
 1.2846440074e+00	 5.2367571465e-02	 2.8563110361e+00
 1.2832912108e+00	 7.8842916145e-02	 2.8377759584e+00
 1.2813757316e+00	 1.0549279553e-01	 2.8094826669e+00
 1.2788857706e+00	 1.3230140315e-01	 2.7721299770e+00
 1.2758100255e+00	 1.5925220186e-01	 2.7264787632e+00
 1.2721377389e+00	 1.8632793750e-01	 2.6733475071e+00
 1.2678587460e+00	 2.1351065582e-01	 2.6136072878e+00
 1.2629635224e+00	 2.4078172288e-01	 2.5481762086e+00
 1.2574432311e+00	 2.6812184899e-01	 2.4780132602e+00
 1.1177332028e+00	 2.3833178755e-01	 2.1523357807e+00
 1.1122638330e+00	 2.6267623005e-01	 2.1571715609e+00
 1.1062252131e+00	 2.8704614204e-01	 2.1590444721e+00
 1.0996115674e+00	 3.1142281934e-01	 2.1577839502e+00
 1.0924178900e+00	 3.3578709316e-01	 2.1532371667e+00
 1.0846399814e+00	 3.6011936715e-01	 2.1452710865e+00
 1.0762744826e+00	 3.8439965732e-01	 2.1337745932e+00
 1.0673189073e+00	 4.0860763499e-01	 2.1186606645e+00
 1.0577716711e+00	 4.3272267244e-01	 2.0998685810e+00
 1.0476321190e+00	 4.5672389122e-01	 2.0773661477e+00
 1.0369005487e+00	 4.8059021287e-01	 2.0511519119e+00
 1.1317042520e+00	 2.4131080360e-01	 2.1993130800e+00
 1.1261665182e+00	 2.6595953822e-01	 2.1930461269e+00
 1.1200524189e+00	 2.9063406069e-01	 2.1829982859e+00
 1.1133561062e+00	 3.1531543302e-01	 2.1691369033e+00
 1.1060725118e+00	 3.3998424684e-01	 2.1514466456e+00
 1.0981973836e+00	 3.6462066085e-01	 2.1299306513e+00
 1.0897273208e+00	 3.8920444128e-01	 2.1046117224e+00
 1.0806598056e+00	 4.1371500533e-01	 2.0755335478e+00
 1.0709932343e+00	 4.3813146746e-01	 2.0427619451e+00
 1.0607269434e+00	 4.6243268825e-01	 2.0063861154e+00
 1.0498612344e+00	 4.8659732577e-01	 1.9665198973e+00
 1.1456752867e+00	 2.4428981652e-01	 2.2454708314e+00
 1.1400691888e+00	 2.6924284294e-01	 2.2287687269e+00
 1.1338796101e+00	 2.9422197556e-01	 2.2075165686e+00
 1.1271006306e+00	 3.1920804261e-01	 2.1818108735e+00
 1.1197271193e+00	 3.4418139612e-01	 2.1517649702e+00
 1.1117547717e+00	 3.6912194983e-01	 2.1175092979e+00
 1.1031801447e+00	 3.9400922018e-01	 2.0791917199e+00
 1.0940006900e+00	 4.1882237031e-01	 2.0369778488e+00
 1.0842147836e+00	 4.4354025681e-01	 1.9910513823e+00
 1.0738217540e+00	 4.6814147929e-01	 1.9416144452e+00
 1.0628219064e+00	 4.9260443237e-01	 1.8888879402e+00
 1.1596463082e+00	 2.4726882666e-01	 2.2898406191e+00
 1.1539718464e+00	 2.7252614460e-01	 2.2633635567e+00
 1.1477067885e+00	 2.9780988709e-01	 2.2316168522e+00
 1.1408451422e+00	 3.2310064857e-01	 2.1948177291e+00
 1.1333817140e+00	 3.4837854147e-01	 2.1531996231e+00
 1.1253121470e+00	 3.7362323460e-01	 2.1070116791e+00
 1.1166329562e+00	 3.9881399461e-01	 2.0565182406e+00
 1.1073415619e+00	 4.2392973052e-01	 2.0019983330e+00
 1.0974363205e+00	 4.4894904110e-01	 1.9437451464e+00
 1.0869165524e+00	 4.7385026501e-01	 1.8820655238e+00
 1.0757825663e+00	 4.9861153337e-01	 1.8172794624e+00
 1.1736173184e+00	 2.5024783437e-01	 2.3314997945e+00
 1.1678744926e+00	 2.7580944357e-01	 2.2959012346e+00
 1.1615339555e+00	 3.0139779569e-01	 2.2543637016e+00
 1.1545896425e+00	 3.2699325135e-01	 2.2072169226e+00
 1.1470362976e+00	 3.5257568340e-01	 2.1548061479e+00
 1.1388695113e+00	 3.7812451570e-01	 2.0974908976e+00
 1.1300857566e+00	 4.0361876511e-01	 2.0356436781e+00
 1.1206824229e+00	 4.2903708656e-01	 1.9696486771e+00
 1.1106578467e+00	 4.5435782098e-01	 1.8999004482e+00
 1.1000113401e+00	 4.7955904606e-01	 1.8268025996e+00
 1.0887432157e+00	 5.0461862946e-01	 1.7507665010e+00
 1.1875883188e+00	 2.5322683999e-01	 2.3695688839e+00
 1.1817771291e+00	 2.7909274025e-01	 2.3254961773e+00
 1.1753611129e+00	 3.0498570177e-01	 2.2748660590e+00
 1.1683341332e+00	 3.3088585141e-01	 2.2181128053e+00
 1.1606908716e+00	 3.5677282240e-01	 2.1556854392e+00
 1.1524268661e+00	 3.8262579365e-01	 2.0880457757e+00
 1.1435385477e+00	 4.0842353225e-01	 2.0156664173e+00
 1.1340232746e+00	 4.3414443902e-01	 1.9390287127e+00
 1.1238793636e+00	 4.5976659707e-01	 1.8586206961e+00
 1.1131061186e+00	 4.8526782311e-01	 1.7749350293e+00
 1.1017038560e+00	 5.1062572134e-01	 1.6884669680e+00
 1.2015593110e+00	 2.5620584387e-01	 2.4032091772e+00
 1.1956797576e+00	 2.8237603501e-01	 2.3513041562e+00
 1.1891882622e+00	 3.0857360577e-01	 2.2922747713e+00
 1.1820786159e+00	 3.3477844920e-01	 2.2266521289e+00
 1.1743454377e+00	 3.6096995894e-01	 2.1549812196e+00
 1.1659842130e+00	 3.8712706897e-01	 2.0778183122e+00
 1.1569913309e+00	 4.1322829658e-01	 1.9957282771e+00
 1.1473641185e+00	 4.3925178850e-01	 1.9092818596e+00
 1.1371008728e+00	 4.6517537001e-01	 1.8190529264e+00
 1.1262008895e+00	 4.9097659684e-01	 1.7256157120e+00
 1.1146644887e+00	 5.1663280972e-01	 1.6295420966e+00
 1.2155302967e+00	 2.5918484637e-01	 2.4316204810e+00
 1.2095823795e+00	 2.8565932825e-01	 2.3725200224e+00
 1.2030154050e+00	 3.1216150809e-01	 2.3057802873e+00
 1.1958230922e+00	 3.3867104517e-01	 2.2320217162e+00
 1.1879999974e+00	 3.6516709353e-01	 2.1518776888e+00
 1.1795415536e+00	 3.9162834219e-01	 2.0659913131e+00
 1.1704441078e+00	 4.1803305867e-01	 1.9750121263e+00
 1.1607049561e+00	 4.4435913560e-01	 1.8795927329e+00
 1.1503223758e+00	 4.7058414042e-01	 1.7803854075e+00
 1.1392956543e+00	 4.9668536790e-01	 1.6780386971e+00
 1.1276251153e+00	 5.2263989530e-01	 1.5731940600e+00
 1.2295012776e+00	 2.6216384782e-01	 2.4540390242e+00
 1.2234849965e+00	 2.8894262033e-01	 2.3883755844e+00
 1.2168425430e+00	 3.1574940915e-01	 2.3146105093e+00
 1.2095675637e+00	 3.4256363978e-01	 2.2334462898e+00
 1.2016545523e+00	 3.6936422664e-01	 2.1455973306e+00
 1.1930988894e+00	 3.9612961384e-01	 2.0517861805e+00
 1.1838968800e+00	 4.2283781909e-01	 1.9527396597e+00
 1.1740457891e+00	 4.4946648092e-01	 1.8491849099e+00
 1.1635438742e+00	 4.7599290894e-01	 1.7418454038e+00
 1.1523904145e+00	 5.0239413696e-01	 1.6314369513e+00
 1.1405857375e+00	 5.2864697877e-01	 1.5186637489e+00
 1.2434722551e+00	 2.6514284858e-01	 2.4697355040e+00
 1.2373876103e+00	 2.9222591164e-01	 2.3981376285e+00
 1.2306696778e+00	 3.1933730938e-01	 2.3180287889e+00
 1.2233120320e+00	 3.4645623348e-01	 2.2301864448e+00
 1.2153091040e+00	 3.7356135878e-01	 2.1353988656e+00
 1.2066562220e+00	 4.0063088444e-01	 2.0344608493e+00
 1.1973496491e+00	 4.2764257838e-01	 1.9281693213e+00
 1.1873866190e+00	 4.5457382504e-01	 1.8173188457e+00
 1.1767653695e+00	 4.8140167620e-01	 1.7026970878e+00
 1.1654851716e+00	 5.0810290469e-01	 1.5850802732e+00
 1.1535463566e+00	 5.3465406084e-01	 1.4652286944e+00
 1.2574432311e+00	 2.6812184899e-01	 2.4780132602e+00
 1.2512902225e+00	 2.9550920258e-01	 2.4011060691e+00
 1.2444968109e+00	 3.2292520919e-01	 2.3153320548e+00
 1.2370564986e+00	 3.5034882672e-01	 2.2215367551e+00
 1.2289636542e+00	 3.7775849043e-01	 2.1205753390e+00
 1.2202135531e+00	 4.0513215451e-01	 2.0133078581e+00
 1.2108024166e+00	 4.3244733711e-01	 1.9005943634e+00
 1.2007274473e+00	 4.5968116857e-01	 1.7832899235e+00
 1.1899868632e+00	 4.8681044283e-01	 1.6622395874e+00
 1.1785799272e+00	 5.1381167176e-01	 1.5382733429e+00
 1.1665069742e+00	 5.4066114221e-01	 1.4122011262e+00
 1.0369005487e+00	 4.8059021287e-01	 2.0511519119e+00
 1.0255774193e+00	 5.0430206465e-01	 2.0196829674e+00
 1.0136657292e+00	 5.2783644336e-01	 1.9813067460e+00
 1.0011687518e+00	 5.5117198494e-01	 1.9358945356e+00
 9.8809077496e-01	 5.7428734802e-01	 1.8833470527e+00
 9.7443710616e-01	 5.9716127332e-01	 1.8236000789e+00
 9.6021407437e-01	 6.1977264379e-01	 1.7566301772e+00
 9.4542902724e-01	 6.4210054532e-01	 1.6824604262e+00
 9.3009032415e-01	 6.6412432764e-01	 1.6011661117e+00
 9.1420732488e-01	 6.8582366495e-01	 1.5128803073e+00
 8.9779037395e-01	 7.0717861609e-01	 1.4177992714e+00
 1.0498612344e+00	 4.8659732577e-01	 1.9665198973e+00
 1.0383965721e+00	 5.1060556264e-01	 1.9216909675e+00
 1.0263359924e+00	 5.3443410812e-01	 1.8703647686e+00
 1.0136828097e+00	 5.5806133111e-01	 1.8125867166e+00
 1.0004413653e+00	 5.8146562350e-01	 1.7484248195e+00
 9.8661703318e-01	 6.0462546027e-01	 1.6779739875e+00
 9.7221622133e-01	 6.2751946041e-01	 1.6013604557e+00
 9.5724636925e-01	 6.5012644841e-01	 1.5187462741e+00
 9.4171594082e-01	 6.7242551587e-01	 1.4303338158e+00
 9.2563441281e-01	 6.9439608294e-01	 1.3363702491e+00
 9.0901225904e-01	 7.1601795922e-01	 1.2371519159e+00
 1.0628219064e+00	 4.9260443237e-01	 1.8888879402e+00
 1.0512157114e+00	 5.1690905401e-01	 1.8314688148e+00
 1.0390062422e+00	 5.4103176595e-01	 1.7679355593e+00
 1.0261968544e+00	 5.6495067005e-01	 1.6984945794e+00
 1.0127919427e+00	 5.8864389145e-01	 1.6233683528e+00
 9.9879694741e-01	 6.1208963938e-01	 1.5427985022e+00
 9.8421835568e-01	 6.3526626890e-01	 1.4570490134e+00
 9.6906369885e-01	 6.5815234307e-01	 1.3664095673e+00
 9.5334154529e-01	 6.8072669539e-01	 1.2711989510e+00
 9.3706148875e-01	 7.0296849194e-01	 1.1717685042e+00
 9.2023413234e-01	 7.2485729306e-01	 1.0685055569e+00
 1.0757825663e+00	 4.9861153337e-01	 1.8172794624e+00
 1.0640348387e+00	 5.2321253950e-01	 1.7480516834e+00
 1.0516764803e+00	 5.4762941763e-01	 1.6730687046e+00
 1.0387108874e+00	 5.7184000257e-01	 1.5926852235e+00
 1.0251425086e+00	 5.9582215269e-01	 1.5072657988e+00
 1.0109768503e+00	 6.1955381152e-01	 1.4171867711e+00
 9.9622047883e-01	 6.4301307015e-01	 1.3228383635e+00
 9.8088101743e-01	 6.6617823025e-01	 1.2246269401e+00
 9.6496713891e-01	 6.8902786716e-01	 1.1229774025e+00
 9.4848855402e-01	 7.1154089294e-01	 1.0183356919e+00
 9.3145599518e-01	 7.3369661865e-01	 9.1117136216e-01
 1.0887432157e+00	 5.0461862946e-01	 1.7507665010e+00
 1.0768539556e+00	 5.2951601985e-01	 1.6705229738e+00
 1.0643467080e+00	 5.5422706392e-01	 1.5848614880e+00
 1.0512249103e+00	 5.7872932945e-01	 1.4942727569e+00
 1.0374930643e+00	 6.0300040807e-01	 1.3992514435e+00
 1.0231567432e+00	 6.2701797757e-01	 1.3002970147e+00
 1.0082225922e+00	 6.5075986508e-01	 1.1979148065e+00
 9.9269832635e-01	 6.7420411086e-01	 1.0926172925e+00
 9.7659272303e-01	 6.9732903216e-01	 9.8492554642e-01
 9.5991560995e-01	 7.2011328694e-01	 8.7537087740e-01
 9.4267784885e-01	 7.4253593703e-01	 7.6449661483e-01
 1.1017038560e+00	 5.1062572134e-01	 1.6884669680e+00
 1.0896730634e+00	 5.3581949578e-01	 1.5980115930e+00
 1.0770169269e+00	 5.6082470559e-01	 1.5024562004e+00
 1.0637389243e+00	 5.8561865152e-01	 1.4024156446e+00
 1.0498436115e+00	 6.1017865843e-01	 1.2985031109e+00
 1.0353366276e+00	 6.3448213839e-01	 1.1913299847e+00
 1.0202246971e+00	 6.5850665459e-01	 1.0815059623e+00
 1.0045156270e+00	 6.8222998587e-01	 9.6963941059e-01
 9.8821829901e-01	 7.0563019134e-01	 8.5633797292e-01
 9.7134265789e-01	 7.2868567494e-01	 7.4220941475e-01
 9.5389969466e-01	 7.5137524922e-01	 6.2786269296e-01
 1.1146644887e+00	 5.1663280972e-01	 1.6295420966e+00
 1.1024921639e+00	 5.4212296803e-01	 1.5296894209e+00
 1.0896871383e+00	 5.6742234341e-01	 1.4250376329e+00
 1.0762529311e+00	 5.9250796956e-01	 1.3163142377e+00
 1.0621941514e+00	 6.1735690460e-01	 1.2042397373e+00
 1.0475165049e+00	 6.4194629486e-01	 1.0895265947e+00
 1.0322267951e+00	 6.6625343958e-01	 9.7287846997e-01
 1.0163329208e+00	 6.9025585619e-01	 8.5498974755e-01
 9.9984386822e-01	 7.1393134569e-01	 7.3654536343e-01
 9.8276969917e-01	 7.3725805793e-01	 6.1822093454e-01
 9.6512153393e-01	 7.6021455625e-01	 5.0068318409e-01
 1.1276251153e+00	 5.2263989530e-01	 1.5731940600e+00
 1.1153112583e+00	 5.4842643735e-01	 1.4647689471e+00
 1.1023573439e+00	 5.7401997816e-01	 1.3518307390e+00
 1.0887669320e+00	 5.9939728440e-01	 1.2352084679e+00
 1.0745446856e+00	 6.2453514743e-01	 1.1157191078e+00
 1.0596963765e+00	 6.4941044785e-01	 9.9416570956e-01
 1.0442288874e+00	 6.7400022096e-01	 8.7133583980e-01
 1.0281502090e+00	 6.9828172276e-01	 7.4800035173e-01
 1.0114694320e+00	 7.2223249615e-01	 6.2491250755e-01
 9.9419673511e-01	 7.4583043693e-01	 5.0280746401e-01
 9.7634336796e-01	 7.6905385916e-01	 3.8240212348e-01
 1.1405857375e+00	 5.2864697877e-01	 1.5186637489e+00
 1.1281303482e+00	 5.5472990445e-01	 1.4025010647e+00
 1.1150275450e+00	 5.8061761059e-01	 1.2820984506e+00
 1.1012809286e+00	 6.0628659682e-01	 1.1583756944e+00
 1.0868952154e+00	 6.3171338773e-01	 1.0322357421e+00
 1.0718762438e+00	 6.5687459822e-01	 9.0456207905e-01
 1.0562309756e+00	 6.8174699962e-01	 7.7621644668e-01
 1.0399674931e+00	 7.0630758653e-01	 6.4803693035e-01
 1.0230949917e+00	 7.3053364372e-01	 5.2083644944e-01
 1.0056237670e+00	 7.5440281293e-01	 3.9540166942e-01
 9.8756519807e-01	 7.7789315897e-01	 2.7249234640e-01
 1.1535463566e+00	 5.3465406084e-01	 1.4652286944e+00
 1.1409494352e+00	 5.6103337009e-01	 1.3421730084e+00
 1.1276977431e+00	 5.8721524149e-01	 1.2151396379e+00
 1.1137949222e+00	 6.1317590763e-01	 1.0851286916e+00
 1.0992457424e+00	 6.3889162637e-01	 9.5311891816e-01
 1.0840561083e+00	 6.6433874685e-01	 8.2006440671e-01
 1.0682330609e+00	 6.8949377648e-01	 6.8689165327e-01
 1.0517847745e+00	 7.1433344842e-01	 5.5449703810e-01
 1.0347205487e+00	 7.3883478934e-01	 4.2374475350e-01
 1.0170507963e+00	 7.6297518692e-01	 2.9546521096e-01
 9.9878702555e-01	 7.8673245672e-01	 1.7045394534e-01
 1.1665069742e+00	 5.4066114221e-01	 1.4122011262e+00
 1.1537685207e+00	 5.6733683499e-01	 1.2831064261e+00
 1.1403679398e+00	 5.9381287161e-01	 1.1502871999e+00
 1.1263089144e+00	 6.2006521764e-01	 1.0148137657e+00
 1.1115962679e+00	 6.4606986416e-01	 8.7773082257e-01
 1.0962359714e+00	 6.7180289461e-01	 7.4005354169e-01
 1.0802351449e+00	 6.9724055243e-01	 6.0276405288e-01
 1.0636020544e+00	 7.2235930937e-01	 4.6680838093e-01
 1.0463461043e+00	 7.4713593400e-01	 3.3309387979e-01
 1.0284778243e+00	 7.7154755992e-01	 2.0248720144e-01
 1.0100088517e+00	 7.9557175344e-01	 7.5812824138e-02
 8.9779037395e-01	 7.0717861609e-01	 1.4177992714e+00
 8.8085077813e-01	 7.2816968575e-01	 1.3147883576e+00
 8.6340077474e-01	 7.4877788830e-01	 1.2029880026e+00
 8.4545351079e-01	 7.6898479821e-01	 1.0830794826e+00
 8.2702301313e-01	 7.8877260239e-01	 9.5577412401e-01
 8.0812415225e-01	 8.0812415225e-01	 8.2181426362e-01
 7.8877260239e-01	 8.2702301313e-01	 6.8197402443e-01
 7.6898479821e-01	 8.4545351079e-01	 5.3705985523e-01
 7.4877788830e-01	 8.6340077474e-01	 3.8791078531e-01
 7.2816968575e-01	 8.8085077813e-01	 2.3539834664e-01
 7.0717861609e-01	 8.9779037395e-01	 8.0426120267e-02
 9.0901225904e-01	 7.1601795922e-01	 1.2371519159e+00
 8.9186092760e-01	 7.3727140568e-01	 1.1314865448e+00
 8.7419280878e-01	 7.5813719941e-01	 1.0184309848e+00
 8.5602121392e-01	 7.7859668456e-01	 8.9871038865e-01
 8.3736034520e-01	 7.9863182539e-01	 7.7307135156e-01
 8.1822525897e-01	 8.1822525897e-01	 6.4228248358e-01
 7.9863182539e-01	 8.3736034520e-01	 5.0713486353e-01
 7.7859668456e-01	 8.5602121392e-01	 3.6844232541e-01
 7.5813719941e-01	 8.7419280878e-01	 2.2704152880e-01
 7.3727140568e-01	 8.9186092760e-01	 8.3791765400e-02
 7.1601795922e-01	 9.0901225904e-01	-6.0425542934e-02
 9.2023413234e-01	 7.2485729306e-01	 1.0685055569e+00
 9.0287106551e-01	 7.4637311606e-01	 9.6017432861e-01
 8.8498483149e-01	 7.6749650070e-01	 8.4576377524e-01
 8.6658890596e-01	 7.8820856082e-01	 7.2603727465e-01
 8.4769766641e-01	 8.0849103804e-01	 6.0177162504e-01
 8.2832635508e-01	 8.2832635508e-01	 4.7375727745e-01
 8.0849103804e-01	 8.4769766641e-01	 3.4279851238e-01
 7.8820856082e-01	 8.6658890596e-01	 2.0971351337e-01
 7.6749650070e-01	 8.8498483149e-01	 7.5334288777e-02
 7.4637311606e-01	 9.0287106551e-01	-5.9493606830e-02
 7.2485729306e-01	 9.2023413234e-01	-1.9391159819e-01
 9.3145599518e-01	 7.3369661865e-01	 9.1117136216e-01
 9.1388119315e-01	 7.5547481794e-01	 8.0021791648e-01
 8.9577684414e-01	 7.7685579324e-01	 6.8441073732e-01
 8.7715658813e-01	 7.9782042811e-01	 5.6454600206e-01
 8.5803497797e-01	 8.1835024149e-01	 4.4142585777e-01
 8.3842744176e-01	 8.3842744176e-01	 3.1585836073e-01
 8.1835024149e-01	 8.5803497797e-01	 1.8865741973e-01
 7.9782042811e-01	 8.7715658813e-01	 6.0642696555e-02
 7.7685579324e-01	 8.9577684414e-01	-6.7360585541e-02
 7.5547481794e-01	 9.1388119315e-01	-1.9452197536e-01
 7.3369661865e-01	 9.3145599518e-01	-3.2000631805e-01
 9.4267784885e-01	 7.4253593703e-01	 7.6449661483e-01
 9.2489131180e-01	 7.6457651239e-01	 6.5101707774e-01
 9.0656884797e-01	 7.8621507815e-01	 5.3382708541e-01
 8.8772426168e-01	 8.0743228755e-01	 4.1375040374e-01
 8.6837228109e-01	 8.2820943689e-01	 2.9160987525e-01
 8.4852852020e-01	 8.4852852020e-01	 1.6822711204e-01
 8.2820943689e-01	 8.6837228109e-01	 4.4422248872e-02
 8.0743228755e-01	 8.8772426168e-01	-7.8986290151e-02
 7.8621507815e-01	 9.0656884797e-01	-2.0118206147e-01
 7.6457651239e-01	 9.2489131180e-01	-3.2135096041e-01
 7.4253593703e-01	 9.4267784885e-01	-4.3868171961e-01
 9.5389969466e-01	 7.5137524922e-01	 6.2786269296e-01
 9.3590142274e-01	 7.7367820046e-01	 5.1200327357e-01
 9.1736084424e-01	 7.9557435650e-01	 3.9349717482e-01
 8.9829192782e-01	 8.1704414026e-01	 2.7319074410e-01
 8.7870957698e-01	 8.3806862539e-01	 1.5192305664e-01
 8.5862959156e-01	 8.5862959156e-01	 3.0525407551e-02
 8.3806862539e-01	 8.7870957698e-01	-9.0179082812e-02
 8.1704414026e-01	 8.9829192782e-01	-2.0937579713e-01
 7.9557435650e-01	 9.1736084424e-01	-3.2625893470e-01
 7.7367820046e-01	 9.3590142274e-01	-4.4003186475e-01
 7.5137524922e-01	 9.5389969466e-01	-5.4990757416e-01
 9.6512153393e-01	 7.6021455625e-01	 5.0068318409e-01
 9.4691152726e-01	 7.8277988323e-01	 3.8263791107e-01
 9.2815283422e-01	 8.0493362940e-01	 2.6293290452e-01
 9.0885958781e-01	 8.2665598737e-01	 1.4243228023e-01
 8.8904686684e-01	 8.4792780814e-01	 2.1987064542e-02
 8.6873065703e-01	 8.6873065703e-01	-9.7565469717e-02
 8.4792780814e-01	 8.8904686684e-01	-2.1540230367e-01
 8.2665598737e-01	 9.0885958781e-01	-3.3071505715e-01
 8.0493362940e-01	 9.2815283422e-01	-4.4271031163e-01
 7.8277988323e-01	 9.4691152726e-01	-5.5060992860e-01
 7.6021455625e-01	 9.6512153393e-01	-6.5365142192e-01
 9.7634336796e-01	 7.6905385916e-01	 3.8240212348e-01
 9.5792162664e-01	 7.9188156175e-01	 2.6241071140e-01
 9.3894481916e-01	 8.1429289793e-01	 1.4167222356e-01
 9.1942724286e-01	 8.3626782999e-01	 2.1063915785e-02
 8.9938415187e-01	 8.5778698629e-01	-9.8555343999e-02
 8.7883171779e-01	 8.7883171779e-01	-2.1634585169e-01
 8.5778698629e-01	 8.9938415187e-01	-3.3148763180e-01
 8.3626782999e-01	 9.1942724286e-01	-4.4318084064e-01
 8.1429289793e-01	 9.3894481916e-01	-5.5064606443e-01
 7.9188156175e-01	 9.5792162664e-01	-6.5312457288e-01
 7.6905385916e-01	 9.7634336796e-01	-7.4987859139e-01
 9.8756519807e-01	 7.7789315897e-01	 2.7249234640e-01
 9.6893172216e-01	 8.0098323709e-01	 1.5083818289e-01
 9.4973680033e-01	 8.2365216318e-01	 2.9277733162e-02
 9.2999489421e-01	 8.4587966925e-01	-9.1303059592e-02
 9.0972143329e-01	 8.6764616098e-01	-2.1004143177e-01
 8.8893277501e-01	 8.8893277501e-01	-3.2609864370e-01
 8.6764616098e-01	 9.0972143329e-01	-4.3866056777e-01
 8.4587966925e-01	 9.2999489421e-01	-5.4693807241e-01
 8.2365216318e-01	 9.4973680033e-01	-6.5016726113e-01
 8.0098323709e-01	 9.6893172216e-01	-7.4760963173e-01
 7.7789315897e-01	 9.8756519807e-01	-8.3855222320e-01
 9.9878702555e-01	 7.8673245672e-01	 1.7045394534e-01
 9.7994181512e-01	 8.1008491030e-01	 4.7462191050e-02
 9.6052877898e-01	 8.3301142625e-01	-7.4664623287e-02
 9.4056254310e-01	 8.5549150626e-01	-1.9503615219e-01
 9.2005871229e-01	 8.7750533338e-01	-3.1278952679e-01
 8.9903382988e-01	 8.9903382988e-01	-4.2709022448e-01
 8.7750533338e-01	 9.2005871229e-01	-5.3713264005e-01
 8.5549150626e-01	 9.4056254310e-01	-6.4214041276e-01
 8.3301142625e-01	 9.6052877898e-01	-7.4136657258e-01
 8.1008491030e-01	 9.7994181512e-01	-8.3409357507e-01
 7.8673245672e-01	 9.9878702555e-01	-9.1963329780e-01
 1.0100088517e+00	 7.9557175344e-01	 7.5812824138e-02
 9.9095190679e-01	 8.1918658245e-01	-4.8151382347e-02
 9.7132075637e-01	 8.4237068822e-01	-1.7054678899e-01
 9.5113019075e-01	 8.6510334215e-01	-2.9048277350e-01
 9.3039599009e-01	 8.8736450462e-01	-4.0710000416e-01
 9.0913488357e-01	 9.0913488357e-01	-5.1957129240e-01
 8.8736450462e-01	 9.3039599009e-01	-6.2710210677e-01
 8.6510334215e-01	 9.5113019075e-01	-7.2893080595e-01
 8.4237068822e-01	 9.7132075637e-01	-8.2432865822e-01
 8.1918658245e-01	 9.9095190679e-01	-9.1259972208e-01
 7.9557175344e-01	 1.0100088517e+00	-9.9308066690e-01
 7.0717861609e-01	 8.9779037395e-01	 8.0426120267e-02
 6.8582366495e-01	 9.1420732488e-01	-7.8341347987e-02
 6.6412432764e-01	 9.3009032415e-01	-2.4193249724e-01
 6.4210054532e-01	 9.4542902724e-01	-4.0898900490e-01
 6.1977264379e-01	 9.6021407437e-01	-5.7819636910e-01
 5.9716127332e-01	 9.7443710616e-01	-7.4828961191e-01
 5.7428734802e-01	 9.8809077496e-01	-9.1805875202e-01
 5.5117198494e-01	 1.0011687518e+00	-1.0863540140e+00
 5.2783644336e-01	 1.0136657292e+00	-1.2520907383e+00
 5.0430206465e-01	 1.0255774193e+00	-1.4142539521e+00
 4.8059021287e-01	 1.0369005487e+00	-1.5719025606e+00
 7.1601795922e-01	 9.0901225904e-01	-6.0425542934e-02
 6.9439608294e-01	 9.2563441281e-01	-2.0716931937e-01
 6.7242551587e-01	 9.4171594082e-01	-3.5775909766e-01
 6.5012644841e-01	 9.5724636925e-01	-5.1096396479e-01
 6.2751946041e-01	 9.7221622133e-01	-6.6559153439e-01
 6.0462546027e-01	 9.8661703318e-01	-8.2049313339e-01
 5.8146562350e-01	 1.0004413653e+00	-9.7456883603e-01
 5.5806133111e-01	 1.0136828097e+00	-1.1267723159e+00
 5.3443410812e-01	 1.0263359924e+00	-1.2761154817e+00
 5.1060556264e-01	 1.0383965721e+00	-1.4216728578e+00
 4.8659732577e-01	 1.0498612344e+00	-1.5625856671e+00
 7.2485729306e-01	 9.2023413234e-01	-1.9391159819e-01
 7.0296849194e-01	 9.3706148875e-01	-3.2966556440e-01
 6.8072669539e-01	 9.5334154529e-01	-4.6832493562e-01
 6.5815234307e-01	 9.6906369885e-01	-6.0877962785e-01
 6.3526626890e-01	 9.8421835568e-01	-7.4995330797e-01
 6.1208963938e-01	 9.9879694741e-01	-8.9080807726e-01
 5.8864389145e-01	 1.0127919427e+00	-1.0303490767e+00
 5.6495067005e-01	 1.0261968544e+00	-1.1676289883e+00
 5.4103176595e-01	 1.0390062422e+00	-1.3017524001e+00
 5.1690905401e-01	 1.0512157114e+00	-1.4318799966e+00
 4.9260443237e-01	 1.0628219064e+00	-1.5572325316e+00
 7.3369661865e-01	 9.3145599518e-01	-3.2000631805e-01
 7.1154089294e-01	 9.4848855402e-01	-4.4571378734e-01
 6.8902786716e-01	 9.6496713891e-01	-5.7342652023e-01
 6.6617823025e-01	 9.8088101743e-01	-7.0214880052e-01
 6.4301307015e-01	 9.9622047883e-01	-8.3091438459e-01
 6.1955381152e-01	 1.0109768503e+00	-9.5879069459e-01
 5.9582215269e-01	 1.0251425086e+00	-1.0848830044e+00
 5.7184000257e-01	 1.0387108874e+00	-1.2083385965e+00
 5.4762941763e-01	 1.0516764803e+00	-1.3283508593e+00
 5.2321253950e-01	 1.0640348387e+00	-1.4441632887e+00
 4.9861153337e-01	 1.0757825663e+00	-1.5550733476e+00
 7.4253593703e-01	 9.4267784885e-01	-4.3868171961e-01
 7.2011328694e-01	 9.5991560995e-01	-5.5519981591e-01
 6.9732903216e-01	 9.7659272303e-01	-6.7286672257e-01
 6.7420411086e-01	 9.9269832635e-01	-7.9079474478e-01
 6.5075986508e-01	 1.0082225922e+00	-9.0812185955e-01
 6.2701797757e-01	 1.0231567432e+00	-1.0240154305e+00
 6.0300040807e-01	 1.0374930643e+00	-1.1376759833e+00
 5.7872932945e-01	 1.0512249103e+00	-1.2483410243e+00
 5.5422706392e-01	 1.0643467080e+00	-1.3552888734e+00
 5.2951601985e-01	 1.0768539556e+00	-1.4578424760e+00
 5.0461862946e-01	 1.0887432157e+00	-1.5553731492e+00
 7.5137524922e-01	 9.5389969466e-01	-5.4990757416e-01
 7.2868567494e-01	 9.7134265789e-01	-6.5801134990e-01
 7.0563019134e-01	 9.8821829901e-01	-7.6645427156e-01
 6.8222998587e-01	 1.0045156270e+00	-8.7445043008e-01
 6.5850665459e-01	 1.0202246971e+00	-9.8123624554e-01
 6.3448213839e-01	 1.0353366276e+00	-1.0860737151e+00
 6.1017865843e-01	 1.0498436115e+00	-1.1882537864e+00
 5.8561865152e-01	 1.0637389243e+00	-1.2870998429e+00
 5.6082470559e-01	 1.0770169269e+00	-1.3819712754e+00
 5.3581949578e-01	 1.0896730634e+00	-1.4722671062e+00
 5.1062572134e-01	 1.1017038560e+00	-1.5574296184e+00
 7.6021455625e-01	 9.6512153393e-01	-6.5365142192e-01
 7.3725805793e-01	 9.8276969917e-01	-7.5403773291e-01
 7.1393134569e-01	 9.9984386822e-01	-8.5400329049e-01
 6.9025585619e-01	 1.0163329208e+00	-9.5285784251e-01
 6.6625343958e-01	 1.0322267951e+00	-1.0499305630e+00
 6.4194629486e-01	 1.0475165049e+00	-1.1445728438e+00
 6.1735690460e-01	 1.0621941514e+00	-1.2361612737e+00
 5.9250796956e-01	 1.0762529311e+00	-1.3241007957e+00
 5.6742234341e-01	 1.0896871383e+00	-1.4078280202e+00
 5.4212296803e-01	 1.1024921639e+00	-1.4868146608e+00
 5.1663280972e-01	 1.1146644887e+00	-1.5605710469e+00
 7.6905385916e-01	 9.7634336796e-01	-7.4987859139e-01
 7.4583043693e-01	 9.9419673511e-01	-8.4316974538e-01
 7.2223249615e-01	 1.0114694320e+00	-9.3533287072e-01
 6.9828172276e-01	 1.0281502090e+00	-1.0257673467e+00
 6.7400022096e-01	 1.0442288874e+00	-1.1138894978e+00
 6.4941044785e-01	 1.0596963765e+00	-1.1991349386e+00
 6.2453514743e-01	 1.0745446856e+00	-1.2809611660e+00
 5.9939728440e-01	 1.0887669320e+00	-1.3588503933e+00
 5.7401997816e-01	 1.1023573439e+00	-1.4323126072e+00
 5.4842643735e-01	 1.1153112583e+00	-1.5008888158e+00
 5.2263989530e-01	 1.1276251153e+00	-1.5641544436e+00
 7.7789315897e-01	 9.8756519807e-01	-8.3855222320e-01
 7.5440281293e-01	 1.0056237670e+00	-9.2529941714e-01
 7.3053364372e-01	 1.0230949917e+00	-1.0102666797e+00
 7.0630758653e-01	 1.0399674931e+00	-1.0929370964e+00
 6.8174699962e-01	 1.0562309756e+00	-1.1728086213e+00
 6.5687459822e-01	 1.0718762438e+00	-1.2493959853e+00
 6.3171338773e-01	 1.0868952154e+00	-1.3222329067e+00
 6.0628659682e-01	 1.1012809286e+00	-1.3908746073e+00
 5.8061761059e-01	 1.1150275450e+00	-1.4549006145e+00
 5.5472990445e-01	 1.1281303482e+00	-1.5139178237e+00
 5.2864697877e-01	 1.1405857375e+00	-1.5675637721e+00
 7.8673245672e-01	 9.9878702555e-01	-9.1963329780e-01
 7.6297518692e-01	 1.0170507963e+00	-1.0003198580e+00
 7.3883478934e-01	 1.0347205487e+00	-1.0786326004e+00
 7.1433344842e-01	 1.0517847745e+00	-1.1541324890e+00
 6.8949377648e-01	 1.0682330609e+00	-1.2263936677e+00
 6.6433874685e-01	 1.0840561083e+00	-1.2950049397e+00
 6.3889162637e-01	 1.0992457424e+00	-1.3595716041e+00
 6.1317590763e-01	 1.1137949222e+00	-1.4197176556e+00
 5.8721524149e-01	 1.1276977431e+00	-1.4750883358e+00
 5.6103337009e-01	 1.1409494352e+00	-1.5253530081e+00
 5.3465406084e-01	 1.1535463566e+00	-1.5702083113e+00
 7.9557175344e-01	 1.0100088517e+00	-9.9308066690e-01
 7.7154755992e-01	 1.0284778243e+00	-1.0681251049e+00
 7.4713593400e-01	 1.0463461043e+00	-1.1402624004e+00
 7.2235930937e-01	 1.0636020544e+00	-1.2091256623e+00
 6.9724055243e-01	 1.0802351449e+00	-1.2743598635e+00
 6.7180289461e-01	 1.0962359714e+00	-1.3356228978e+00
 6.4606986416e-01	 1.1115962679e+00	-1.3925870482e+00
 6.2006521764e-01	 1.1263089144e+00	-1.4449408736e+00
 5.9381287161e-01	 1.1403679398e+00	-1.4923915109e+00
 5.6733683499e-01	 1.1537685207e+00	-1.5346673622e+00
 5.4066114221e-01	 1.1665069742e+00	-1.5715211280e+00
 4.8059021287e-01	 1.0369005487e+00	-1.5719025606e+00
 4.5672389122e-01	 1.0476321190e+00	-1.7256681291e+00
 4.3272267244e-01	 1.0577716711e+00	-1.8760204821e+00
 4.0860763499e-01	 1.0673189073e+00	-2.0218905426e+00
 3.8439965732e-01	 1.0762744826e+00	-2.1623320505e+00
 3.6011936715e-01	 1.0846399814e+00	-2.2965251054e+00
 3.3578709316e-01	 1.0924178900e+00	-2.4237786765e+00
 3.1142281934e-01	 1.0996115674e+00	-2.5435320528e+00
 2.8704614204e-01	 1.1062252131e+00	-2.6553552209e+00
 2.6267623005e-01	 1.1122638330e+00	-2.7589481675e+00
 2.3833178755e-01	 1.1177332028e+00	-2.8541391167e+00
 4.8659732577e-01	 1.0498612344e+00	-1.5625856671e+00
 4.6243268825e-01	 1.0607269434e+00	-1.6996600491e+00
 4.3813146746e-01	 1.0709932343e+00	-1.8335770350e+00
 4.1371500533e-01	 1.0806598056e+00	-1.9633930837e+00
 3.8920444128e-01	 1.0897273208e+00	-2.0882742800e+00
 3.6462066085e-01	 1.0981973836e+00	-2.2074998944e+00
 3.3998424684e-01	 1.1060725118e+00	-2.3204650161e+00
 3.1531543302e-01	 1.1133561062e+00	-2.4266822258e+00
 2.9063406069e-01	 1.1200524189e+00	-2.5257822837e+00
 2.6595953822e-01	 1.1261665182e+00	-2.6175138208e+00
 2.4131080360e-01	 1.1317042520e+00	-2.7017420316e+00
 4.9260443237e-01	 1.0628219064e+00	-1.5572325316e+00
 4.6814147929e-01	 1.0738217540e+00	-1.6787736878e+00
 4.4354025681e-01	 1.0842147836e+00	-1.7973750615e+00
 4.1882237031e-01	 1.0940006900e+00	-1.9122109846e+00
 3.9400922018e-01	 1.1031801447e+00	-2.0225527571e+00
 3.6912194983e-01	 1.1117547717e+00	-2.1277722539e+00
 3.4418139612e-01	 1.1197271193e+00	-2.2273447083e+00
 3.1920804261e-01	 1.1271006306e+00	-2.3208506304e+00
 2.9422197556e-01	 1.1338796101e+00	-2.4079768248e+00
 2.6924284294e-01	 1.1400691888e+00	-2.4885164851e+00
 2.4428981652e-01	 1.1456752867e+00	-2.5623683530e+00
 4.9861153337e-01	 1.0757825663e+00	-1.5550733476e+00
 4.7385026501e-01	 1.0869165524e+00	-1.6621848820e+00
 4.4894904110e-01	 1.0974363205e+00	-1.7665391915e+00
 4.2392973052e-01	 1.1073415619e+00	-1.8674209588e+00
 3.9881399461e-01	 1.1166329562e+00	-1.9641996884e+00
 3.7362323460e-01	 1.1253121470e+00	-2.0563333902e+00
 3.4837854147e-01	 1.1333817140e+00	-2.1433715424e+00
 3.2310064857e-01	 1.1408451422e+00	-2.2249572786e+00
 2.9780988709e-01	 1.1477067885e+00	-2.3008287554e+00
 2.7252614460e-01	 1.1539718464e+00	-2.3708196655e+00
 2.4726882666e-01	 1.1596463082e+00	-2.4348588757e+00
 5.0461862946e-01	 1.0887432157e+00	-1.5553731492e+00
 4.7955904606e-01	 1.1000113401e+00	-1.6491071883e+00
 4.5435782098e-01	 1.1106578467e+00	-1.7402345234e+00
 4.2903708656e-01	 1.1206824229e+00	-1.8281427979e+00
 4.0361876511e-01	 1.1300857566e+00	-1.9122928196e+00
 3.7812451570e-01	 1.1388695113e+00	-1.9922223551e+00
 3.5257568340e-01	 1.1470362976e+00	-2.0675492977e+00
 3.2699325135e-01	 1.1545896425e+00	-2.1379741489e+00
 3.0139779569e-01	 1.1615339555e+00	-2.2032817560e+00
 2.7580944357e-01	 1.1678744926e+00	-2.2633422617e+00
 2.5024783437e-01	 1.1736173184e+00	-2.3181112319e+00
 5.1062572134e-01	 1.1017038560e+00	-1.5574296184e+00
 4.8526782311e-01	 1.1131061186e+00	-1.6387895219e+00
 4.5976659707e-01	 1.1238793636e+00	-1.7176641035e+00
 4.3414443902e-01	 1.1340232746e+00	-1.7935366991e+00
 4.0842353225e-01	 1.1435385477e+00	-1.8659526230e+00
 3.8262579365e-01	 1.1524268661e+00	-1.9345231020e+00
 3.5677282240e-01	 1.1606908716e+00	-1.9989286785e+00
 3.3088585141e-01	 1.1683341332e+00	-2.0589220109e+00
 3.0498570177e-01	 1.1753611129e+00	-2.1143300026e+00
 2.7909274025e-01	 1.1817771291e+00	-2.1650552056e+00
 2.5322683999e-01	 1.1875883188e+00	-2.2110764524e+00
 5.1663280972e-01	 1.1146644887e+00	-1.5605710469e+00
 4.9097659684e-01	 1.1262008895e+00	-1.6305139628e+00
 4.6517537001e-01	 1.1371008728e+00	-1.6980665823e+00
 4.3925178850e-01	 1.1473641185e+00	-1.7628007824e+00
 4.1322829658e-01	 1.1569913309e+00	-1.8243396820e+00
 3.8712706897e-01	 1.1659842130e+00	-1.8823617484e+00
 3.6096995894e-01	 1.1743454377e+00	-1.9366044647e+00
 3.3477844920e-01	 1.1820786159e+00	-1.9868674737e+00
 3.0857360577e-01	 1.1891882622e+00	-2.0330151218e+00
 2.8237603501e-01	 1.1956797576e+00	-2.0749783347e+00
 2.5620584387e-01	 1.2015593110e+00	-2.1127557679e+00
 5.2263989530e-01	 1.1276251153e+00	-1.5641544436e+00
 4.9668536790e-01	 1.1392956543e+00	-1.6235937154e+00
 4.7058414042e-01	 1.1503223758e+00	-1.6807140364e+00
 4.4435913560e-01	 1.1607049561e+00	-1.7351687806e+00
 4.1803305867e-01	 1.1704441078e+00	-1.7866522589e+00
 3.9162834219e-01	 1.1795415536e+00	-1.8349040298e+00
 3.6516709353e-01	 1.1879999974e+00	-1.8797128598e+00
 3.3867104517e-01	 1.1958230922e+00	-1.9209202379e+00
 3.1216150809e-01	 1.2030154050e+00	-1.9584233572e+00
 2.8565932825e-01	 1.2095823795e+00	-1.9921774819e+00
 2.5918484637e-01	 1.2155302967e+00	-2.0221976329e+00
 5.2864697877e-01	 1.1405857375e+00	-1.5675637721e+00
 5.0239413696e-01	 1.1523904145e+00	-1.6173712108e+00
 4.7599290894e-01	 1.1635438742e+00	-1.6649099400e+00
 4.4946648092e-01	 1.1740457891e+00	-1.7099078887e+00
 4.2283781909e-01	 1.1838968800e+00	-1.7521240298e+00
 3.9612961384e-01	 1.1930988894e+00	-1.7913529278e+00
 3.6936422664e-01	 1.2016545523e+00	-1.8274290215e+00
 3.4256363978e-01	 1.2095675637e+00	-1.8602305370e+00
 3.1574940915e-01	 1.2168425430e+00	-1.8896829298e+00
 2.8894262033e-01	 1.2234849965e+00	-1.9157617647e+00
 2.6216384782e-01	 1.2295012776e+00	-1.9384949521e+00
 5.3465406084e-01	 1.1535463566e+00	-1.5702083113e+00
 5.0810290469e-01	 1.1654851716e+00	-1.6112163391e+00
 4.8140167620e-01	 1.1767653695e+00	-1.6499872768e+00
 4.5457382504e-01	 1.1873866190e+00	-1.6863167614e+00
 4.2764257838e-01	 1.1973496491e+00	-1.7200219748e+00
 4.0063088444e-01	 1.2066562220e+00	-1.7509464606e+00
 3.7356135878e-01	 1.2153091040e+00	-1.7789647605e+00
 3.4645623348e-01	 1.2233120320e+00	-1.8039867522e+00
 3.1933730938e-01	 1.2306696778e+00	-1.8259615779e+00
 2.9222591164e-01	 1.2373876103e+00	-1.8448810576e+00
 2.6514284858e-01	 1.2434722551e+00	-1.8607824951e+00
 5.4066114221e-01	 1.1665069742e+00	-1.5715211280e+00
 5.1381167176e-01	 1.1785799272e+00	-1.6045248021e+00
 4.8681044283e-01	 1.1899868632e+00	-1.6353067790e+00
 4.5968116857e-01	 1.2007274473e+00	-1.6637236454e+00
 4.3244733711e-01	 1.2108024166e+00	-1.6896444099e+00
 4.0513215451e-01	 1.2202135531e+00	-1.7129556223e+00
 3.7775849043e-01	 1.2289636542e+00	-1.7335663934e+00
 3.5034882672e-01	 1.2370564986e+00	-1.7514131875e+00
 3.2292520919e-01	 1.2444968109e+00	-1.7664642614e+00
 2.9550920258e-01	 1.2512902225e+00	-1.7787236347e+00
 2.6812184899e-01	 1.2574432311e+00	-1.7882344836e+00
 2.3833178755e-01	 1.1177332028e+00	-2.8541391167e+00
 2.1402932525e-01	 1.1226401542e+00	-2.9408086731e+00
 1.8978824910e-01	 1.1269914870e+00	-3.0185572070e+00
 1.6562570557e-01	 1.1307950562e+00	-3.0870250618e+00
 1.4155825826e-01	 1.1340593282e+00	-3.1460071973e+00
 1.1760186658e-01	 1.1367933383e+00	-3.1954475356e+00
 9.3771867651e-02	 1.1390066486e+00	-3.2354322182e+00
 7.0082961219e-02	 1.1407093057e+00	-3.2661818833e+00
 4.6549197565e-02	 1.1419117979e+00	-3.2880430780e+00
 2.3183968311e-02	 1.1426250134e+00	-3.3014789297e+00
 0.0000000000e+00	 1.1428601985e+00	-3.3070592033e+00
 2.4131080360e-01	 1.1317042520e+00	-2.7017420316e+00
 2.1670457391e-01	 1.1366725377e+00	-2.7784629120e+00
 1.9216049766e-01	 1.1410782597e+00	-2.8473636026e+00
 1.6769593565e-01	 1.1449293715e+00	-2.9080649814e+00
 1.4332765851e-01	 1.1482344451e+00	-2.9603391865e+00
 1.1907182513e-01	 1.1510026287e+00	-3.0041044841e+00
 9.4943964336e-02	 1.1532436042e+00	-3.0394190149e+00
 7.0958959624e-02	 1.1549675436e+00	-3.0664735228e+00
 4.7131036890e-02	 1.1561850663e+00	-3.0855831792e+00
 2.3473755142e-02	 1.1569071966e+00	-3.0971786232e+00
 0.0000000000e+00	 1.1571453214e+00	-3.1017963458e+00
 2.4428981652e-01	 1.1456752867e+00	-2.5623683530e+00
 2.1937981975e-01	 1.1507049064e+00	-2.6296577897e+00
 1.9453274372e-01	 1.1551650177e+00	-2.6901755232e+00
 1.6976616355e-01	 1.1590636719e+00	-2.7435244481e+00
 1.4509705689e-01	 1.1624095470e+00	-2.7894554016e+00
 1.2054178213e-01	 1.1652119043e+00	-2.8278625557e+00
 9.6116059790e-02	 1.1674805449e+00	-2.8587776533e+00
 7.1834957109e-02	 1.1692257666e+00	-2.8823631892e+00
 4.7712875603e-02	 1.1704583197e+00	-2.8989046440e+00
 2.3763541668e-02	 1.1711893648e+00	-2.9088018932e+00
 0.0000000000e+00	 1.1714304292e+00	-2.9125599138e+00
 2.4726882666e-01	 1.1596463082e+00	-2.4348588757e+00
 2.2205506311e-01	 1.1647372620e+00	-2.4932131533e+00
 1.9690498758e-01	 1.1692517625e+00	-2.5457916126e+00
 1.7183638952e-01	 1.1731979592e+00	-2.5921805047e+00
 1.4686645362e-01	 1.1765846358e+00	-2.6321107500e+00
 1.2201173775e-01	 1.1794211666e+00	-2.6654538555e+00
 9.7288154151e-02	 1.1817174723e+00	-2.6922166436e+00
 7.2710953776e-02	 1.1834839762e+00	-2.7125348850e+00
 4.8294713773e-02	 1.1847315598e+00	-2.7266659436e+00
 2.4053327925e-02	 1.1854715197e+00	-2.7349805512e+00
 0.0000000000e+00	 1.1857155238e+00	-2.7379538361e+00
 2.5024783437e-01	 1.1736173184e+00	-2.3181112319e+00
 2.2473030427e-01	 1.1787696062e+00	-2.3680070360e+00
 1.9927722950e-01	 1.1833384958e+00	-2.4130700468e+00
 1.7390661380e-01	 1.1873322348e+00	-2.4528710738e+00
 1.4863584891e-01	 1.1907597130e+00	-2.4871223690e+00
 1.2348169218e-01	 1.1936304173e+00	-2.5156740749e+00
 9.8460247554e-02	 1.1959543881e+00	-2.5385094462e+00
 7.3586949728e-02	 1.1977421742e+00	-2.5557389378e+00
 4.8876551468e-02	 1.1990047883e+00	-2.5675932611e+00
 2.4343113944e-02	 1.1997536629e+00	-2.5744155232e+00
 0.0000000000e+00	 1.2000006067e+00	-2.5766525754e+00
 2.5322683999e-01	 1.1875883188e+00	-2.2110764524e+00
 2.2740554357e-01	 1.1928019406e+00	-2.2529721476e+00
 2.0164946975e-01	 1.1974252192e+00	-2.2909249552e+00
 1.7597683663e-01	 1.2014665006e+00	-2.3244913083e+00
 1.5040524296e-01	 1.2049347802e+00	-2.3533659077e+00
 1.2495164558e-01	 1.2078396580e+00	-2.3773787028e+00
 9.9632340137e-02	 1.2101912939e+00	-2.3964906129e+00
 7.4462945067e-02	 1.2120003622e+00	-2.4107880706e+00
 4.9458388756e-02	 1.2132780067e+00	-2.4204764907e+00
 2.4632899761e-02	 1.2140357961e+00	-2.4258727753e+00
 0.0000000000e+00	 1.2142856796e+00	-2.4273969796e+00
 2.5620584387e-01	 1.2015593110e+00	-2.1127557679e+00
 2.3008078130e-01	 1.2068342668e+00	-2.1470926103e+00
 2.0402170863e-01	 1.2115119344e+00	-2.1783230910e+00
 1.7804705825e-01	 1.2156007582e+00	-2.2059901983e+00
 1.5217463598e-01	 1.2191098392e+00	-2.2297720674e+00
 1.2642159812e-01	 1.2220488905e+00	-2.2494795023e+00
 1.0080443204e-01	 1.2244281914e+00	-2.2650521984e+00
 7.5338939895e-02	 1.2262585419e+00	-2.2765537464e+00
 5.0040225705e-02	 1.2275512168e+00	-2.2841655152e+00
 2.4922685409e-02	 1.2283179210e+00	-2.2881795236e+00
 0.0000000000e+00	 1.2285707441e+00	-2.2889904221e+00
 2.5918484637e-01	 1.2155302967e+00	-2.0221976329e+00
 2.3275601779e-01	 1.2208665864e+00	-2.0494009211e+00
 2.0639394639e-01	 1.2255986431e+00	-2.0742807329e+00
 1.8011727891e-01	 1.2297350091e+00	-2.0963674107e+00
 1.5394402817e-01	 1.2332848916e+00	-2.1153233824e+00
 1.2789154998e-01	 1.2362581163e+00	-2.1309412297e+00
 1.0197652339e-01	 1.2386650823e+00	-2.1431404181e+00
 7.6214934315e-02	 1.2405167149e+00	-2.1519627653e+00
 5.0622062382e-02	 1.2418244203e+00	-2.1575667410e+00
 2.5212470921e-02	 1.2426000392e+00	-2.1602207055e+00
 0.0000000000e+00	 1.2428558020e+00	-2.1602952088e+00
 2.6216384782e-01	 1.2295012776e+00	-1.9384949521e+00
 2.3543125334e-01	 1.2348989011e+00	-1.9589751208e+00
 2.0876618333e-01	 1.2396853468e+00	-1.9778607970e+00
 1.8218749884e-01	 1.2438692551e+00	-1.9946703458e+00
 1.5571341975e-01	 1.2474599390e+00	-2.0090512193e+00
 1.2936150132e-01	 1.2504673372e+00	-2.0207785780e+00
 1.0314861433e-01	 1.2529019682e+00	-2.0297525350e+00
 7.7090928428e-02	 1.2547748830e+00	-2.0359940939e+00
 5.1203898855e-02	 1.2560976188e+00	-2.0396398687e+00
 2.5502256333e-02	 1.2568821524e+00	-2.0409356919e+00
 0.0000000000e+00	 1.2571408549e+00	-2.0402292301e+00
 2.6514284858e-01	 1.2434722551e+00	-1.8607824951e+00
 2.3810648826e-01	 1.2489312125e+00	-1.8749361552e+00
 2.1113841971e-01	 1.2537720472e+00	-1.8881701450e+00
 1.8425771829e-01	 1.2580034978e+00	-1.8999913926e+00
 1.5748281091e-01	 1.2616349830e+00	-1.9100329798e+00
 1.3083145232e-01	 1.2646765547e+00	-1.9180533265e+00
 1.0432070500e-01	 1.2671388507e+00	-1.9239339560e+00
 7.7966922337e-02	 1.2690330477e+00	-1.9276759077e+00
 5.1785735194e-02	 1.2703708139e+00	-1.9293948821e+00
 2.5792041677e-02	 1.2711642623e+00	-1.9293152206e+00
 0.0000000000e+00	 1.2714259045e+00	-1.9277628379e+00
 2.6812184899e-01	 1.2574432311e+00	-1.7882344836e+00
 2.4078172288e-01	 1.2629635224e+00	-1.7964454123e+00
 2.1351065582e-01	 1.2678587460e+00	-1.8043570720e+00
 1.8632793750e-01	 1.2721377389e+00	-1.8114653662e+00
 1.5925220186e-01	 1.2758100255e+00	-1.8173894889e+00
 1.3230140315e-01	 1.2788857706e+00	-1.8218716803e+00
 1.0549279553e-01	 1.2813757316e+00	-1.8247755219e+00
 7.8842916145e-02	 1.2832912108e+00	-1.8260828315e+00
 5.2367571465e-02	 1.2846440074e+00	-1.8258892377e+00
 2.6081826987e-02	 1.2854463705e+00	-1.8243985343e+00
 0.0000000000e+00	 1.2857109524e+00	-1.8219159323e+00
 1.2857109524e+00	 0.0000000000e+00	 2.8616444658e+00
 1.2854463705e+00	 2.6081826987e-02	 2.8644550466e+00
 1.2846440074e+00	 5.2367571465e-02	 2.8563110361e+00
 1.2832912108e+00	 7.8842916145e-02	 2.8377759584e+00
 1.2813757316e+00	 1.0549279553e-01	 2.8094826669e+00
 1.2788857706e+00	 1.3230140315e-01	 2.7721299770e+00
 1.2758100255e+00	 1.5925220186e-01	 2.7264787632e+00
 1.2721377389e+00	 1.8632793750e-01	 2.6733475071e+00
 1.2678587460e+00	 2.1351065582e-01	 2.6136072878e+00
 1.2629635224e+00	 2.4078172288e-01	 2.5481762086e+00
 1.2574432311e+00	 2.6812184899e-01	 2.4780132602e+00
 1.2999969994e+00	 0.0000000000e+00	 2.8913415428e+00
 1.2997294777e+00	 2.6371632567e-02	 2.8940817030e+00
 1.2989181992e+00	 5.2949448433e-02	 2.8852153376e+00
 1.2975503711e+00	 7.9718971224e-02	 2.8653458725e+00
 1.2956136083e+00	 1.0666496805e-01	 2.8351462189e+00
 1.2930959804e+00	 1.3377145680e-01	 2.7953551620e+00
 1.2899860594e+00	 1.6102171658e-01	 2.7467732079e+00
 1.2862729685e+00	 1.8839830152e-01	 2.6902578752e+00
 1.2819464301e+00	 2.1588305785e-01	 2.6267184225e+00
 1.2769968137e+00	 2.4345714461e-01	 2.5571100050e+00
 1.2714151842e+00	 2.7110105776e-01	 2.4824272614e+00
 1.3142830432e+00	 0.0000000000e+00	 2.9194758969e+00
 1.3140125816e+00	 2.6661438079e-02	 2.9222113261e+00
 1.3131923877e+00	 5.3531325265e-02	 2.9126981356e+00
 1.3118095281e+00	 8.0595026100e-02	 2.8915822238e+00
 1.3098514817e+00	 1.0783714029e-01	 2.8595791294e+00
 1.3073061868e+00	 1.3524151010e-01	 2.8174701619e+00
 1.3041620900e+00	 1.6279123088e-01	 2.7660979821e+00
 1.3004081949e+00	 1.9046866504e-01	 2.7063616204e+00
 1.2960341109e+00	 2.1825545933e-01	 2.6392109220e+00
 1.2910301017e+00	 2.4613256572e-01	 2.5656404145e+00
 1.2853871341e+00	 2.7408026585e-01	 2.4866825965e+00
 1.3285690802e+00	 0.0000000000e+00	 2.9456569117e+00
 1.3282956788e+00	 2.6951243456e-02	 2.9484499706e+00
 1.3274665695e+00	 5.4113201826e-02	 2.9383623274e+00
 1.3260686785e+00	 8.1471080567e-02	 2.9160847926e+00
 1.3240893484e+00	 1.0900931199e-01	 2.8823779686e+00
 1.3215163866e+00	 1.3671156272e-01	 2.8380681071e+00
 1.3183381140e+00	 1.6456074436e-01	 2.7840424091e+00
 1.3145434147e+00	 1.9253902761e-01	 2.7212437524e+00
 1.3101217851e+00	 2.2062785971e-01	 2.6506648385e+00
 1.3050633832e+00	 2.4880798558e-01	 2.5733417506e+00
 1.2993590775e+00	 2.7705947254e-01	 2.4903469246e+00
 1.3428551073e+00	 0.0000000000e+00	 2.9695073739e+00
 1.3425787660e+00	 2.7241048630e-02	 2.9724176251e+00
 1.3417407413e+00	 5.4695077980e-02	 2.9618252724e+00
 1.3403278189e+00	 8.2347134421e-02	 2.9384683496e+00
 1.3383272052e+00	 1.1018148287e-01	 2.9031548273e+00
 1.3357265764e+00	 1.3818161430e-01	 2.8567581843e+00
 1.3325141281e+00	 1.6633025660e-01	 2.8002124121e+00
 1.3286786246e+00	 1.9460938872e-01	 2.7345064372e+00
 1.3242094494e+00	 2.2300025842e-01	 2.6606779518e+00
 1.3190966548e+00	 2.5148340357e-01	 2.5798066453e+00
 1.3133310111e+00	 2.8003867715e-01	 2.4930068362e+00
 1.3571411210e+00	 0.0000000000e+00	 2.9906627669e+00
 1.3568618399e+00	 2.7530853534e-02	 2.9937474899e+00
 1.3560148998e+00	 5.5276953591e-02	 2.9827180529e+00
 1.3545869460e+00	 8.3223187458e-02	 2.9583618984e+00
 1.3525650487e+00	 1.1135365265e-01	 2.9215365412e+00
 1.3499367530e+00	 1.3965166452e-01	 2.8731648410e+00
 1.3466901289e+00	 1.6809976719e-01	 2.8142296988e+00
 1.3428138213e+00	 1.9667974790e-01	 2.7457681586e+00
 1.3382971007e+00	 2.2537265492e-01	 2.6688649069e+00
 1.3331299134e+00	 2.5415881906e-01	 2.5846451594e+00
 1.3273029316e+00	 2.8301787897e-01	 2.4942669367e+00
 1.3714271181e+00	 0.0000000000e+00	 3.0087706093e+00
 1.3711448971e+00	 2.7820658100e-02	 3.0120852996e+00
 1.3702890417e+00	 5.5858828523e-02	 3.0006847810e+00
 1.3688460564e+00	 8.4099239472e-02	 2.9754079665e+00
 1.3668028755e+00	 1.1252582106e-01	 2.9371639640e+00
 1.3641469131e+00	 1.4112171302e-01	 2.8869270406e+00
 1.3608661132e+00	 1.6986927572e-01	 2.8257309958e+00
 1.3569490015e+00	 1.9875010467e-01	 2.7546629318e+00
 1.3523847354e+00	 2.2774504865e-01	 2.6748564041e+00
 1.3471631556e+00	 2.5683423144e-01	 2.5874839493e+00
 1.3412748358e+00	 2.8599707732e-01	 2.4937489847e+00
 1.3857130952e+00	 0.0000000000e+00	 3.0234898342e+00
 1.3854279343e+00	 2.8110462260e-02	 3.0270886879e+00
 1.3845631636e+00	 5.6440702641e-02	 3.0153819483e+00
 1.3831051469e+00	 8.4975290260e-02	 2.9892619386e+00
 1.3810406825e+00	 1.1369798784e-01	 2.9496912852e+00
 1.3783570532e+00	 1.4259175946e-01	 2.8976975620e+00
 1.3750420777e+00	 1.7163878176e-01	 2.8343673310e+00
 1.3710841619e+00	 2.0082045854e-01	 2.7608395653e+00
 1.3664723505e+00	 2.3011743906e-01	 2.6782984402e+00
 1.3611963781e+00	 2.5950964006e-01	 2.5879654835e+00
 1.3552467205e+00	 2.8897627150e-01	 2.4910910838e+00
 1.3999990489e+00	 0.0000000000e+00	 3.0344902063e+00
 1.3997109481e+00	 2.8400265947e-02	 3.0384265910e+00
 1.3988372621e+00	 5.7022575808e-02	 3.0264778153e+00
 1.3973642141e+00	 8.5851339617e-02	 2.9995914321e+00
 1.3952784662e+00	 1.1487015270e-01	 2.9587853892e+00
 1.3925671701e+00	 1.4406180351e-01	 2.9051423434e+00
 1.3892180190e+00	 1.7340828492e-01	 2.8398033580e+00
 1.3852192993e+00	 2.0289080902e-01	 2.7639609674e+00
 1.3805599425e+00	 2.3248982560e-01	 2.6788515935e+00
 1.3752295777e+00	 2.6218504432e-01	 2.5857473062e+00
 1.3692185824e+00	 2.9195546082e-01	 2.4859469226e+00
 1.4142849760e+00	 0.0000000000e+00	 3.0414517743e+00
 1.4139939354e+00	 2.8690069092e-02	 3.0457786873e+00
 1.4131113340e+00	 5.7604447888e-02	 3.0336518378e+00
 1.4116232547e+00	 8.6727387339e-02	 3.0060757094e+00
 1.4095162233e+00	 1.1604231537e-01	 2.9641252534e+00
 1.4067772605e+00	 1.4553184480e-01	 2.9089398641e+00
 1.4033939338e+00	 1.7517778477e-01	 2.8417167231e+00
 1.3993544102e+00	 2.0496115564e-01	 2.7637034939e+00
 1.3946475083e+00	 2.3486220770e-01	 2.6761903532e+00
 1.3892627511e+00	 2.6486044358e-01	 2.5805013456e+00
 1.3831904182e+00	 2.9493464457e-01	 2.4779850596e+00
 1.4285708730e+00	 0.0000000000e+00	 3.0440643565e+00
 1.4282768926e+00	 2.8979871629e-02	 3.0488348709e+00
 1.4273853760e+00	 5.8186318747e-02	 3.0365941279e+00
 1.4258822653e+00	 8.7603433220e-02	 3.0084051256e+00
 1.4237539505e+00	 1.1721447557e-01	 2.9654013824e+00
 1.4209873210e+00	 1.4700188301e-01	 2.9087805643e+00
 1.4175698189e+00	 1.7694728091e-01	 2.8397974678e+00
 1.4134894915e+00	 2.0703149792e-01	 2.7597563352e+00
 1.4087350444e+00	 2.3723458483e-01	 2.6700024875e+00
 1.4032958951e+00	 2.6753583722e-01	 2.5719132619e+00
 1.3971622246e+00	 2.9791382207e-01	 2.4668882500e+00
 1.2574432311e+00	 2.6812184899e-01	 2.4780132602e+00
 1.2512902225e+00	 2.9550920258e-01	 2.4011060691e+00
 1.2444968109e+00	 3.2292520919e-01	 2.3153320548e+00
 1.2370564986e+00	 3.5034882672e-01	 2.2215367551e+00
 1.2289636542e+00	 3.7775849043e-01	 2.1205753390e+00
 1.2202135531e+00	 4.0513215451e-01	 2.0133078581e+00
 1.2108024166e+00	 4.3244733711e-01	 1.9005943634e+00
 1.2007274473e+00	 4.5968116857e-01	 1.7832899235e+00
 1.1899868632e+00	 4.8681044283e-01	 1.6622395874e+00
 1.1785799272e+00	 5.1381167176e-01	 1.5382733429e+00
 1.1665069742e+00	 5.4066114221e-01	 1.4122011262e+00
 1.2714151842e+00	 2.7110105776e-01	 2.4824272614e+00
 1.2651938071e+00	 2.9879272316e-01	 2.4006633482e+00
 1.2583249112e+00	 3.2651335995e-01	 2.3097190308e+00
 1.2508019267e+00	 3.5424169224e-01	 2.2105013371e+00
 1.2426191594e+00	 3.8195591565e-01	 2.1039257426e+00
 1.2337718325e+00	 4.0963373942e-01	 1.9909110002e+00
 1.2242561250e+00	 4.3725243191e-01	 1.8723738202e+00
 1.2140692088e+00	 4.6478886933e-01	 1.7492234408e+00
 1.2032092818e+00	 4.9221958777e-01	 1.6223561367e+00
 1.1916755987e+00	 5.1952083812e-01	 1.4926497203e+00
 1.1794684983e+00	 5.4666864375e-01	 1.3609580985e+00
 1.2853871341e+00	 2.7408026585e-01	 2.4866825965e+00
 1.2790973885e+00	 3.0207624298e-01	 2.4003399890e+00
 1.2721530083e+00	 3.3010150988e-01	 2.3045349409e+00
 1.2645473515e+00	 3.5813455684e-01	 2.2002296585e+00
 1.2562746614e+00	 3.8615333988e-01	 2.0883936773e+00
 1.2473301086e+00	 4.1413532329e-01	 1.9699983153e+00
 1.2377098303e+00	 4.4205752558e-01	 1.8460109613e+00
 1.2274109671e+00	 4.6989656889e-01	 1.7173892422e+00
 1.2164316972e+00	 4.9762873145e-01	 1.5850751212e+00
 1.2047712672e+00	 5.2523000315e-01	 1.4499889839e+00
 1.1924300194e+00	 5.5267614389e-01	 1.3130237830e+00
 1.2993590775e+00	 2.7705947254e-01	 2.4903469246e+00
 1.2930009634e+00	 3.0535976126e-01	 2.3996969346e+00
 1.2859810990e+00	 3.3368965813e-01	 2.2993349952e+00
 1.2782927699e+00	 3.6202741963e-01	 2.1902723345e+00
 1.2699301571e+00	 3.9035076216e-01	 2.0735264580e+00
 1.2608883785e+00	 4.1863690505e-01	 1.9501152689e+00
 1.2511635294e+00	 4.4686261702e-01	 1.8210510101e+00
 1.2407527192e+00	 4.7500426608e-01	 1.6873340716e+00
 1.2296541065e+00	 5.0303787261e-01	 1.5499467198e+00
 1.2178669296e+00	 5.3093916552e-01	 1.4098468112e+00
 1.2053915345e+00	 5.5868364122e-01	 1.2679615631e+00
 1.3133310111e+00	 2.8003867715e-01	 2.4930068362e+00
 1.3069045285e+00	 3.0864327725e-01	 2.3983146582e+00
 1.2998091799e+00	 3.3727780388e-01	 2.2936944722e+00
 1.2920381787e+00	 3.6592027970e-01	 2.1802005194e+00
 1.2835856432e+00	 3.9454818150e-01	 2.0588923337e+00
 1.2744466389e+00	 4.2313848366e-01	 1.9308285744e+00
 1.2646172190e+00	 4.5166770509e-01	 1.7970606634e+00
 1.2540944620e+00	 4.8011195969e-01	 1.6586262767e+00
 1.2428765065e+00	 5.0844700998e-01	 1.5165427459e+00
 1.2309625827e+00	 5.3664832389e-01	 1.3718004393e+00
 1.2183530405e+00	 5.6469113435e-01	 1.2253561969e+00
 1.3273029316e+00	 2.8301787897e-01	 2.4942669367e+00
 1.3208080807e+00	 3.1192679017e-01	 2.3957922179e+00
 1.3136372479e+00	 3.4086594627e-01	 2.2872077472e+00
 1.3057835747e+00	 3.6981313613e-01	 2.1696049104e+00
 1.2972411165e+00	 3.9874559693e-01	 2.0440794714e+00
 1.2880048866e+00	 4.2764005807e-01	 1.9117251589e+00
 1.2780708960e+00	 4.5647278868e-01	 1.7736270432e+00
 1.2674361923e+00	 4.8521964853e-01	 1.6308547521e+00
 1.2560988942e+00	 5.1385614230e-01	 1.4844555861e+00
 1.2440582237e+00	 5.4235747694e-01	 1.3354476041e+00
 1.2313145343e+00	 5.7069862187e-01	 1.1848127620e+00
 1.3412748358e+00	 2.8599707732e-01	 2.4937489847e+00
 1.3347116167e+00	 3.1521029926e-01	 2.3917463680e+00
 1.3274652999e+00	 3.4445408448e-01	 2.2794873786e+00
 1.3195289546e+00	 3.7370598802e-01	 2.1580948124e+00
 1.3108965739e+00	 4.0294300746e-01	 2.0286950002e+00
 1.3015631185e+00	 4.3214162723e-01	 1.8924111917e+00
 1.2915245574e+00	 4.6127786666e-01	 1.7503567127e+00
 1.2807779071e+00	 4.9032733141e-01	 1.6036279465e+00
 1.2693212665e+00	 5.1926526832e-01	 1.4532972022e+00
 1.2571538494e+00	 5.4806662332e-01	 1.3004055431e+00
 1.2442760131e+00	 5.7670610238e-01	 1.1459556636e+00
 1.3552467205e+00	 2.8897627150e-01	 2.4910910838e+00
 1.3486151331e+00	 3.1849380376e-01	 2.3858107254e+00
 1.3412933324e+00	 3.4804221766e-01	 2.2701632504e+00
 1.3332743153e+00	 3.7759883446e-01	 2.1452972581e+00
 1.3245520122e+00	 4.0714041211e-01	 2.0123641136e+00
 1.3151213314e+00	 4.3664319009e-01	 1.8725111704e+00
 1.3049781999e+00	 4.6608293792e-01	 1.7268747497e+00
 1.2941196032e+00	 4.9543500715e-01	 1.5765729273e+00
 1.2825436203e+00	 5.2467438676e-01	 1.4226981922e+00
 1.2702494568e+00	 5.5377576171e-01	 1.2663100556e+00
 1.2572374737e+00	 5.8271357448e-01	 1.1084276997e+00
 1.3692185824e+00	 2.9195546082e-01	 2.4859469226e+00
 1.3625186269e+00	 3.2177730289e-01	 2.3776349851e+00
 1.3551213424e+00	 3.5163034498e-01	 2.2588817656e+00
 1.3470196535e+00	 3.8149167454e-01	 2.1308561817e+00
 1.3382074282e+00	 4.1133780990e-01	 1.9947292243e+00
 1.3286795221e+00	 4.4114474559e-01	 1.8516670606e+00
 1.3184318205e+00	 4.7088800132e-01	 1.7028238752e+00
 1.3074612775e+00	 5.0054267454e-01	 1.5493345006e+00
 1.2957659524e+00	 5.3008349636e-01	 1.3923069054e+00
 1.2833450427e+00	 5.5948489078e-01	 1.2328146179e+00
 1.2701989132e+00	 5.8872103677e-01	 1.0718891805e+00
 1.3831904182e+00	 2.9493464457e-01	 2.4779850596e+00
 1.3764220947e+00	 3.2506079589e-01	 2.3668841822e+00
 1.3689493265e+00	 3.5521846561e-01	 2.2453050864e+00
 1.3607649661e+00	 3.8538450735e-01	 2.1144316393e+00
 1.3518628187e+00	 4.1553519986e-01	 1.9754491688e+00
 1.3422376876e+00	 4.4564629269e-01	 1.8295374866e+00
 1.3318854160e+00	 4.7569305576e-01	 1.6778636315e+00
 1.3208029269e+00	 5.0565033239e-01	 1.5215743820e+00
 1.3089882599e+00	 5.3549259587e-01	 1.3617886088e+00
 1.2964406043e+00	 5.6519400919e-01	 1.1995895488e+00
 1.2831603284e+00	 5.9472848784e-01	 1.0360170972e+00
 1.3971622246e+00	 2.9791382207e-01	 2.4668882500e+00
 1.3903255334e+00	 3.2834428200e-01	 2.3532379969e+00
 1.3827772816e+00	 3.5880657870e-01	 2.2291104194e+00
 1.3745102498e+00	 3.8927733199e-01	 2.0956990763e+00
 1.3655181805e+00	 4.1973258100e-01	 1.9541984573e+00
 1.3557958246e+00	 4.5014783034e-01	 1.8057969671e+00
 1.3453389831e+00	 4.8049810011e-01	 1.6516696082e+00
 1.3341445482e+00	 5.1075797952e-01	 1.4929704136e+00
 1.3222105396e+00	 5.4090168402e-01	 1.3308246996e+00
 1.3095361383e+00	 5.7090311561e-01	 1.1663212219e+00
 1.2961217165e+00	 6.0073592630e-01	 1.0005043378e+00
 1.1665069742e+00	 5.4066114221e-01	 1.4122011262e+00
 1.1537685207e+00	 5.6733683499e-01	 1.2831064261e+00
 1.1403679398e+00	 5.9381287161e-01	 1.1502871999e+00
 1.1263089144e+00	 6.2006521764e-01	 1.0148137657e+00
 1.1115962679e+00	 6.4606986416e-01	 8.7773082257e-01
 1.0962359714e+00	 6.7180289461e-01	 7.4005354169e-01
 1.0802351449e+00	 6.9724055243e-01	 6.0276405288e-01
 1.0636020544e+00	 7.2235930937e-01	 4.6680838093e-01
 1.0463461043e+00	 7.4713593400e-01	 3.3309387979e-01
 1.0284778243e+00	 7.7154755992e-01	 2.0248720144e-01
 1.0100088517e+00	 7.9557175344e-01	 7.5812824138e-02
 1.1794684983e+00	 5.4666864375e-01	 1.3609580985e+00
 1.1665885028e+00	 5.7364074079e-01	 1.2264157635e+00
 1.1530390227e+00	 6.0041096321e-01	 1.0883887955e+00
 1.1388237818e+00	 6.2695500952e-01	 9.4801018181e-01
 1.1239476573e+00	 6.5324860404e-01	 8.0638328483e-01
 1.1084166864e+00	 6.7926756446e-01	 6.6457737532e-01
 1.0922380683e+00	 7.0498787023e-01	 5.2362358934e-01
 1.0754201610e+00	 7.3038573170e-01	 3.8451137345e-01
 1.0579724731e+00	 7.5543765928e-01	 2.4818547388e-01
 1.0399056515e+00	 7.8012053251e-01	 1.1554351428e-01
 1.0212314628e+00	 8.0441166843e-01	-1.2565806496e-02
 1.1924300194e+00	 5.5267614389e-01	 1.3130237830e+00
 1.1794084819e+00	 5.7994464511e-01	 1.1733636983e+00
 1.1657101027e+00	 6.0700905327e-01	 1.0304411784e+00
 1.1513386463e+00	 6.3384479979e-01	 8.8544680077e-01
 1.1362990437e+00	 6.6042734225e-01	 7.3953776061e-01
 1.1205973985e+00	 6.8673223255e-01	 5.9383287732e-01
 1.1042409889e+00	 7.1273518622e-01	 4.4940805360e-01
 1.0872382648e+00	 7.3841215215e-01	 3.0729225968e-01
 1.0695988392e+00	 7.6373938262e-01	 1.6846410664e-01
 1.0513334760e+00	 7.8869350310e-01	 3.3849061199e-02
 1.0324540713e+00	 8.1325158135e-01	-9.5682659953e-02
 1.2053915345e+00	 5.5868364122e-01	 1.2679615631e+00
 1.1922284550e+00	 5.8624854650e-01	 1.1235231070e+00
 1.1783811767e+00	 6.1360714024e-01	 9.7602809694e-01
 1.1638535050e+00	 6.4073458685e-01	 8.2671978089e-01
 1.1486504245e+00	 6.6760607710e-01	 6.7680450926e-01
 1.1327781050e+00	 6.9419689717e-01	 5.2744624623e-01
 1.1162439040e+00	 7.2048249860e-01	 3.7976156066e-01
 1.0990563630e+00	 7.4643856886e-01	 2.3481517832e-01
 1.0812251999e+00	 7.7204110209e-01	 9.3616167412e-02
 1.0627612952e+00	 7.9726646969e-01	-4.2885182512e-02
 1.0436766745e+00	 8.2209149015e-01	-1.7379974371e-01
 1.2183530405e+00	 5.6469113435e-01	 1.2253561969e+00
 1.2050484191e+00	 5.9255244347e-01	 1.0764879640e+00
 1.1910522418e+00	 6.2020522260e-01	 9.2475404947e-01
 1.1763683550e+00	 6.4762436909e-01	 7.7144560488e-01
 1.1610017966e+00	 6.7478480693e-01	 6.1781360699e-01
 1.1449588029e+00	 7.0166155656e-01	 4.6506290311e-01
 1.1282468106e+00	 7.2822980555e-01	 3.1434676251e-01
 1.1108744530e+00	 7.5446497994e-01	 1.6676202415e-01
 1.0928515524e+00	 7.8034281575e-01	 2.3344921462e-02
 1.0741891064e+00	 8.0583943027e-01	-1.1493234881e-01
 1.0548992699e+00	 8.3093139275e-01	-2.4716426213e-01
 1.2313145343e+00	 5.7069862187e-01	 1.1848127620e+00
 1.2178683713e+00	 5.9885633455e-01	 1.0318722978e+00
 1.2037232952e+00	 6.2680329880e-01	 8.7624325428e-01
 1.1888831932e+00	 6.5451414489e-01	 7.1926006815e-01
 1.1733531571e+00	 6.8196353006e-01	 5.6221395770e-01
 1.1571394895e+00	 7.0912620898e-01	 4.0634652977e-01
 1.1402497060e+00	 7.3597710527e-01	 2.5284391878e-01
 1.1226925320e+00	 7.6249138354e-01	 1.0283155665e-01
 1.1044778940e+00	 7.8864452166e-01	-4.2630337838e-02
 1.0856169070e+00	 8.1441238286e-01	-1.8255047514e-01
 1.0661218548e+00	 8.3977128711e-01	-3.1600935886e-01
 1.2442760131e+00	 5.7670610238e-01	 1.1459556636e+00
 1.2306883085e+00	 6.0516021829e-01	 9.8930920855e-01
 1.2163943337e+00	 6.3340136731e-01	 8.3013867994e-01
 1.2013980169e+00	 6.6140391266e-01	 6.6981732589e-01
 1.1857045033e+00	 6.8914224481e-01	 5.0967236106e-01
 1.1693201619e+00	 7.1659085270e-01	 3.5097816216e-01
 1.1522525875e+00	 7.4372439596e-01	 1.9495002049e-01
 1.1345105971e+00	 7.7051777777e-01	 4.2738558975e-02
 1.1161042221e+00	 7.9694621788e-01	-1.0457508927e-01
 1.0970446942e+00	 8.2298532544e-01	-2.4598325831e-01
 1.0773444266e+00	 8.4861117115e-01	-3.8055481848e-01
 1.2572374737e+00	 5.8271357448e-01	 1.1084276997e+00
 1.2435082278e+00	 6.1146409319e-01	 9.4844994170e-01
 1.2290653545e+00	 6.3999942657e-01	 7.8610113144e-01
 1.2139128230e+00	 6.6829367078e-01	 6.2278899474e-01
 1.1980558321e+00	 6.9632094951e-01	 4.5987263352e-01
 1.1815008172e+00	 7.2405548596e-01	 2.9865533515e-01
 1.1642554521e+00	 7.5147167580e-01	 1.4037796287e-01
 1.1463286458e+00	 7.7854416076e-01	-1.3786956178e-02
 1.1277305340e+00	 8.0524790248e-01	-1.6274033990e-01
 1.1084724654e+00	 8.3155825603e-01	-3.0546076726e-01
 1.0885669827e+00	 8.5745104282e-01	-4.4100773035e-01
 1.2701989132e+00	 5.8872103677e-01	 1.0718891805e+00
 1.2563281261e+00	 6.1776795781e-01	 9.0896301548e-01
 1.2417363547e+00	 6.4659747506e-01	 7.4380838826e-01
 1.2264276087e+00	 6.7518341765e-01	 5.7786330512e-01
 1.2104071408e+00	 7.0349964249e-01	 4.1251477869e-01
 1.1936814526e+00	 7.3152010703e-01	 2.4909127477e-01
 1.1762582971e+00	 7.5921894298e-01	 8.8855763853e-02
 1.1581466751e+00	 7.8657053065e-01	-6.7000497298e-02
 1.1393568268e+00	 8.1354957353e-01	-2.1736334021e-01
 1.1199002179e+00	 8.4013117260e-01	-3.6120011765e-01
 1.0997895205e+00	 8.6629090005e-01	-4.9756311743e-01
 1.2831603284e+00	 5.9472848784e-01	 1.0360170972e+00
 1.2691480006e+00	 6.2407181065e-01	 8.7053339702e-01
 1.2544073311e+00	 6.5319551124e-01	 7.0295439057e-01
 1.2389423711e+00	 6.8207315165e-01	 5.3474430071e-01
 1.2227584264e+00	 7.1067832206e-01	 3.6731420342e-01
 1.2058620653e+00	 7.3898471417e-01	 2.0201413475e-01
 1.1882611197e+00	 7.6696619570e-01	 4.0125825112e-02
 1.1699646823e+00	 7.9459688555e-01	-1.1714380438e-01
 1.1509830979e+00	 8.2185122907e-01	-2.6866826124e-01
 1.1313279492e+00	 8.4870407318e-01	-4.1340611099e-01
 1.1110120373e+00	 8.7513074078e-01	-5.5040453248e-01
 1.2961217165e+00	 6.0073592630e-01	 1.0005043378e+00
 1.2819678480e+00	 6.3037565026e-01	 8.3286172429e-01
 1.2670782810e+00	 6.5979353355e-01	 6.6324847042e-01
 1.2514571071e+00	 6.8896287119e-01	 4.9315108167e-01
 1.2351096861e+00	 7.1785698657e-01	 3.2400097649e-01
 1.2180426524e+00	 7.4644930563e-01	 1.5716627417e-01
 1.2002639171e+00	 7.7471343215e-01	-6.0557675825e-03
 1.1817826648e+00	 8.0262322360e-01	-1.6444552168e-01
 1.1626093447e+00	 8.3015286718e-01	-3.1686683617e-01
 1.1427556564e+00	 8.5727695575e-01	-4.6227184068e-01
 1.1222345306e+00	 8.8397056294e-01	-5.9970462389e-01
 1.0100088517e+00	 7.9557175344e-01	 7.5812824138e-02
 9.9095190679e-01	 8.1918658245e-01	-4.8151382347e-02
 9.7132075637e-01	 8.4237068822e-01	-1.7054678899e-01
 9.5113019075e-01	 8.6510334215e-01	-2.9048277350e-01
 9.3039599009e-01	 8.8736450462e-01	-4.0710000416e-01
 9.0913488357e-01	 9.0913488357e-01	-5.1957129240e-01
 8.8736450462e-01	 9.3039599009e-01	-6.2710210677e-01
 8.6510334215e-01	 9.5113019075e-01	-7.2893080595e-01
 8.4237068822e-01	 9.7132075637e-01	-8.2432865822e-01
 8.1918658245e-01	 9.9095190679e-01	-9.1259972208e-01
 7.9557175344e-01	 1.0100088517e+00	-9.9308066690e-01
 1.0212314628e+00	 8.0441166843e-01	-1.2565806496e-02
 1.0019627686e+00	 8.2828889121e-01	-1.3733207491e-01
 9.8211348860e-01	 8.5173060483e-01	-2.5987652842e-01
 9.6169857756e-01	 8.7471585034e-01	-3.7931085032e-01
 9.4073399092e-01	 8.9722436546e-01	-4.9478158125e-01
 9.1923664377e-01	 9.1923664377e-01	-6.0547092537e-01
 8.9722436546e-01	 9.4073399092e-01	-7.1059717790e-01
 8.7471585034e-01	 9.6169857756e-01	-8.0941483561e-01
 8.5173060483e-01	 9.8211348860e-01	-9.0121446229e-01
 8.2828889121e-01	 1.0019627686e+00	-9.8532238966e-01
 8.0441166843e-01	 1.0212314628e+00	-1.0611003388e+00
 1.0324540713e+00	 8.1325158135e-01	-9.5682659953e-02
 1.0129736278e+00	 8.3739119786e-01	-2.2128160584e-01
 9.9290621832e-01	 8.6109051926e-01	-3.4404155344e-01
 9.7226696191e-01	 8.8432835629e-01	-4.6307760564e-01
 9.5107198935e-01	 9.0708422401e-01	-5.7754327206e-01
 9.2933840162e-01	 9.2933840162e-01	-6.8663121172e-01
 9.0708422401e-01	 9.5107198935e-01	-7.8957355572e-01
 8.8432835629e-01	 9.7226696191e-01	-8.8564187527e-01
 8.6109051926e-01	 9.9290621832e-01	-9.7414687241e-01
 8.3739119786e-01	 1.0129736278e+00	-1.0544378798e+00
 8.1325158135e-01	 1.0324540713e+00	-1.1259022617e+00
 1.0436766745e+00	 8.2209149015e-01	-1.7379974371e-01
 1.0239844818e+00	 8.4649350025e-01	-3.0023373690e-01
 1.0036989430e+00	 8.7045042932e-01	-4.2324738394e-01
 9.8283534132e-01	 8.9394085776e-01	-5.4196028144e-01
 9.6140998295e-01	 9.1694407795e-01	-6.5553396760e-01
 9.3944015476e-01	 9.3944015476e-01	-7.6317258444e-01
 9.1694407795e-01	 9.6140998295e-01	-8.6412307691e-01
 8.9394085776e-01	 9.8283534132e-01	-9.5767499835e-01
 8.7045042932e-01	 1.0036989430e+00	-1.0431600052e+00
 8.4649350025e-01	 1.0239844818e+00	-1.1199511342e+00
 8.2209149015e-01	 1.0436766745e+00	-1.1874619608e+00
 1.0548992699e+00	 8.3093139275e-01	-2.4716426213e-01
 1.0349953282e+00	 8.5559579627e-01	-3.7440857137e-01
 1.0144916601e+00	 8.7981033282e-01	-4.9768702837e-01
 9.9340371333e-01	 9.0355335249e-01	-6.1612475982e-01
 9.7174796932e-01	 9.2680392499e-01	-7.2889235736e-01
 9.4954190082e-01	 9.4954190082e-01	-8.3520644254e-01
 9.2680392499e-01	 9.7174796932e-01	-9.3432972352e-01
 9.0355335249e-01	 9.9340371333e-01	-1.0255706175e+00
 8.7981033282e-01	 1.0144916601e+00	-1.1082825282e+00
 8.5559579627e-01	 1.0349953282e+00	-1.1818628774e+00
 8.3093139275e-01	 1.0548992699e+00	-1.2457519998e+00
 1.0661218548e+00	 8.3977128711e-01	-3.1600935886e-01
 1.0460061643e+00	 8.6469808380e-01	-4.4401323691e-01
 1.0252843672e+00	 8.8917022759e-01	-5.6754160642e-01
 1.0039720755e+00	 9.1316583825e-01	-6.8572612448e-01
 9.8208594603e-01	 9.3666376283e-01	-7.9774742849e-01
 9.5964363745e-01	 9.5964363745e-01	-9.0283558680e-01
 9.3666376283e-01	 9.8208594603e-01	-1.0002699940e+00
 9.1316583825e-01	 1.0039720755e+00	-1.0893787897e+00
 8.8917022759e-01	 1.0252843672e+00	-1.1695378967e+00
 8.6469808380e-01	 1.0460061643e+00	-1.2401697847e+00
 8.3977128711e-01	 1.0661218548e+00	-1.3007420777e+00
 1.0773444266e+00	 8.4861117115e-01	-3.8055481848e-01
 1.0570169875e+00	 8.7380036070e-01	-5.0924253170e-01
 1.0360770616e+00	 8.9853011144e-01	-6.3298093863e-01
 1.0145404253e+00	 9.2277831280e-01	-7.5090919301e-01
 9.9242391069e-01	 9.4652358916e-01	-8.6221893968e-01
 9.6974536230e-01	 9.6974536230e-01	-9.6615463400e-01
 9.4652358916e-01	 9.9242391069e-01	-1.0620132565e+00
 9.2277831280e-01	 1.0145404253e+00	-1.1491435073e+00
 8.9853011144e-01	 1.0360770616e+00	-1.2269445820e+00
 8.7380036070e-01	 1.0570169875e+00	-1.2948646450e+00
 8.4861117115e-01	 1.0773444266e+00	-1.3523991255e+00
 1.0885669827e+00	 8.5745104282e-01	-4.4100773035e-01
 1.0680277953e+00	 8.8290262487e-01	-5.7027953616e-01
 1.0468697410e+00	 9.0788998218e-01	-6.9416410531e-01
 1.0251087603e+00	 9.3239077389e-01	-8.1180902196e-01
 1.0027618609e+00	 9.5638340169e-01	-9.2241787144e-01
 9.7984707301e-01	 9.7984707301e-01	-1.0252504114e+00
 9.5638340169e-01	 1.0027618609e+00	-1.1196220865e+00
 9.3239077389e-01	 1.0251087603e+00	-1.2049029771e+00
 9.0788998218e-01	 1.0468697410e+00	-1.2805162904e+00
 8.8290262487e-01	 1.0680277953e+00	-1.3459365191e+00
 8.5745104282e-01	 1.0885669827e+00	-1.4006874016e+00
 1.0997895205e+00	 8.6629090005e-01	-4.9756311743e-01
 1.0790385852e+00	 8.9200487416e-01	-6.2729619292e-01
 1.0576624027e+00	 9.1724983764e-01	-7.5123997687e-01
 1.0356770781e+00	 9.4200321928e-01	-8.6855138673e-01
 1.0130997942e+00	 9.6624319812e-01	-9.7844685454e-01
 9.8994876722e-01	 9.8994876722e-01	-1.0802023326e+00
 9.6624319812e-01	 1.0130997942e+00	-1.1731525890e+00
 9.4200321928e-01	 1.0356770781e+00	-1.2566898882e+00
 9.1724983764e-01	 1.0576624027e+00	-1.3302621749e+00
 8.9200487416e-01	 1.0790385852e+00	-1.3933708933e+00
 8.6629090005e-01	 1.0997895205e+00	-1.4455685871e+00
 1.1110120373e+00	 8.7513074078e-01	-5.5040453248e-01
 1.0900493545e+00	 9.0110710647e-01	-6.8045385728e-01
 1.0684550443e+00	 9.2660967563e-01	-8.0434771774e-01
 1.0462453761e+00	 9.5161564672e-01	-9.2125323812e-01
 1.0234377082e+00	 9.7610297614e-01	-1.0304005782e+00
 1.0000504426e+00	 1.0000504426e+00	-1.1310827565e+00
 9.7610297614e-01	 1.0234377082e+00	-1.2226547065e+00
 9.5161564672e-01	 1.0462453761e+00	-1.3045316678e+00
 9.2660967563e-01	 1.0684550443e+00	-1.3761870383e+00
 9.0110710647e-01	 1.0900493545e+00	-1.4371498292e+00
 8.7513074078e-01	 1.1110120373e+00	-1.4870018790e+00
 1.1222345306e+00	 8.8397056294e-01	-5.9970462389e-01
 1.1010601006e+00	 9.1020931966e-01	-7.2990382008e-01
 1.0792476632e+00	 9.3596949396e-01	-8.5361726557e-01
 1.0568136520e+00	 9.6122805398e-01	-9.7002313692e-01
 1.0337756005e+00	 9.8596273346e-01	-1.0783661793e+00
 1.0101520967e+00	 1.0101520967e+00	-1.1779573298e+00
 9.8596273346e-01	 1.0337756005e+00	-1.2681725147e+00
 9.6122805398e-01	 1.0568136520e+00	-1.3484507287e+00
 9.3596949396e-01	 1.0792476632e+00	-1.4182915307e+00
 9.1020931966e-01	 1.1010601006e+00	-1.4772521094e+00
 8.8397056294e-01	 1.1222345306e+00	-1.5249440848e+00
 7.9557175344e-01	 1.0100088517e+00	-9.9308066690e-01
 7.7154755992e-01	 1.0284778243e+00	-1.0681251049e+00
 7.4713593400e-01	 1.0463461043e+00	-1.1402624004e+00
 7.2235930937e-01	 1.0636020544e+00	-1.2091256623e+00
 6.9724055243e-01	 1.0802351449e+00	-1.2743598635e+00
 6.7180289461e-01	 1.0962359714e+00	-1.3356228978e+00
 6.4606986416e-01	 1.1115962679e+00	-1.3925870482e+00
 6.2006521764e-01	 1.1263089144e+00	-1.4449408736e+00
 5.9381287161e-01	 1.1403679398e+00	-1.4923915109e+00
 5.6733683499e-01	 1.1537685207e+00	-1.5346673622e+00
 5.4066114221e-01	 1.1665069742e+00	-1.5715211280e+00
 8.0441166843e-01	 1.0212314628e+00	-1.0611003388e+00
 7.8012053251e-01	 1.0399056515e+00	-1.1309141077e+00
 7.5543765928e-01	 1.0579724731e+00	-1.1973326503e+00
 7.3038573170e-01	 1.0754201610e+00	-1.2600565376e+00
 7.0498787023e-01	 1.0922380683e+00	-1.3187969724e+00
 6.7926756446e-01	 1.1084166864e+00	-1.3732764361e+00
 6.5324860404e-01	 1.1239476573e+00	-1.4232297967e+00
 6.2695500952e-01	 1.1388237818e+00	-1.4684058957e+00
 6.0041096321e-01	 1.1530390227e+00	-1.5085696095e+00
 5.7364074079e-01	 1.1665885028e+00	-1.5435043635e+00
 5.4666864375e-01	 1.1794684983e+00	-1.5730150548e+00
 8.1325158135e-01	 1.0324540713e+00	-1.1259022617e+00
 7.8869350310e-01	 1.0513334760e+00	-1.1909117774e+00
 7.6373938262e-01	 1.0695988392e+00	-1.2520661033e+00
 7.3841215215e-01	 1.0872382648e+00	-1.3091296323e+00
 7.1273518622e-01	 1.1042409889e+00	-1.3618759637e+00
 6.8673223255e-01	 1.1205973985e+00	-1.4100881517e+00
 6.6042734225e-01	 1.1362990437e+00	-1.4535594701e+00
 6.3384479979e-01	 1.1513386463e+00	-1.4920947154e+00
 6.0700905327e-01	 1.1657101027e+00	-1.5255120495e+00
 5.7994464511e-01	 1.1794084819e+00	-1.5536453626e+00
 5.5267614389e-01	 1.1924300194e+00	-1.5763471115e+00
 8.2209149015e-01	 1.0436766745e+00	-1.1874619608e+00
 7.9726646969e-01	 1.0627612952e+00	-1.2480639084e+00
 7.7204110209e-01	 1.0812251999e+00	-1.3043785150e+00
 7.4643856886e-01	 1.0990563630e+00	-1.3562304512e+00
 7.2048249860e-01	 1.1162439040e+00	-1.4034519725e+00
 6.9419689717e-01	 1.1327781050e+00	-1.4458827817e+00
 6.6760607710e-01	 1.1486504245e+00	-1.4833704643e+00
 6.4073458685e-01	 1.1638535050e+00	-1.5157715246e+00
 6.1360714024e-01	 1.1783811767e+00	-1.5429530300e+00
 5.8624854650e-01	 1.1922284550e+00	-1.5647948440e+00
 5.5868364122e-01	 1.2053915345e+00	-1.5811924059e+00
 8.3093139275e-01	 1.0548992699e+00	-1.2457519998e+00
 8.0583943027e-01	 1.0741891064e+00	-1.3023146177e+00
 7.8034281575e-01	 1.0928515524e+00	-1.3541852788e+00
 7.5446497994e-01	 1.1108744530e+00	-1.4012454805e+00
 7.2822980555e-01	 1.1282468106e+00	-1.4433824856e+00
 7.0166155656e-01	 1.1449588029e+00	-1.4804888095e+00
 6.7478480693e-01	 1.1610017966e+00	-1.5124623382e+00
 6.4762436909e-01	 1.1763683550e+00	-1.5392071152e+00
 6.2020522260e-01	 1.1910522418e+00	-1.5606348047e+00
 5.9255244347e-01	 1.2050484191e+00	-1.5766668166e+00
 5.6469113435e-01	 1.2183530405e+00	-1.5872370519e+00
 8.3977128711e-01	 1.0661218548e+00	-1.3007420777e+00
 8.1441238286e-01	 1.0856169070e+00	-1.3536063696e+00
 7.8864452166e-01	 1.1044778940e+00	-1.4014013759e+00
 7.6249138354e-01	 1.1226925320e+00	-1.4440620618e+00
 7.3597710527e-01	 1.1402497060e+00	-1.4815271386e+00
 7.0912620898e-01	 1.1571394895e+00	-1.5137381832e+00
 6.8196353006e-01	 1.1733531571e+00	-1.5406394536e+00
 6.5451414489e-01	 1.1888831932e+00	-1.5621784391e+00
 6.2680329880e-01	 1.2037232952e+00	-1.5783071614e+00
 5.9885633455e-01	 1.2178683713e+00	-1.5889842120e+00
 5.7069862187e-01	 1.2313145343e+00	-1.5941774881e+00
 8.4861117115e-01	 1.0773444266e+00	-1.3523991255e+00
 8.2298532544e-01	 1.0970446942e+00	-1.4018800038e+00
 7.9694621788e-01	 1.1161042221e+00	-1.4459413336e+00
 7.7051777777e-01	 1.1345105971e+00	-1.4845682797e+00
 7.4372439596e-01	 1.1522525875e+00	-1.5177475298e+00
 7.1659085270e-01	 1.1693201619e+00	-1.5454660569e+00
 6.8914224481e-01	 1.1857045033e+00	-1.5677106413e+00
 6.6140391266e-01	 1.2013980169e+00	-1.5844681990e+00
 6.3340136731e-01	 1.2163943337e+00	-1.5957269372e+00
 6.0516021829e-01	 1.2306883085e+00	-1.6014783252e+00
 5.7670610238e-01	 1.2442760131e+00	-1.6017198416e+00
 8.5745104282e-01	 1.0885669827e+00	-1.4006874016e+00
 8.3155825603e-01	 1.1084724654e+00	-1.4470747669e+00
 8.0524790248e-01	 1.1277305340e+00	-1.4877191914e+00
 7.7854416076e-01	 1.1463286458e+00	-1.5226528596e+00
 7.5147167580e-01	 1.1642554521e+00	-1.5519070508e+00
 7.2405548596e-01	 1.1815008172e+00	-1.5755105510e+00
 6.9632094951e-01	 1.1980558321e+00	-1.5934888913e+00
 6.6829367078e-01	 1.2139128230e+00	-1.6058644679e+00
 6.3999942657e-01	 1.2290653545e+00	-1.6126575676e+00
 6.1146409319e-01	 1.2435082278e+00	-1.6138882910e+00
 5.8271357448e-01	 1.2572374737e+00	-1.6095793344e+00
 8.6629090005e-01	 1.0997895205e+00	-1.4455685871e+00
 8.4013117260e-01	 1.1199002179e+00	-1.4891283469e+00
 8.1354957353e-01	 1.1393568268e+00	-1.5266484728e+00
 7.8657053065e-01	 1.1581466751e+00	-1.5582050770e+00
 7.5921894298e-01	 1.1762582971e+00	-1.5838707307e+00
 7.3152010703e-01	 1.1936814526e+00	-1.6037125313e+00
 7.0349964249e-01	 1.2104071408e+00	-1.6177910663e+00
 6.7518341765e-01	 1.2264276087e+00	-1.6261603364e+00
 6.4659747506e-01	 1.2417363547e+00	-1.6288686658e+00
 6.1776795781e-01	 1.2563281261e+00	-1.6259605969e+00
 5.8872103677e-01	 1.2701989132e+00	-1.6174797285e+00
 8.7513074078e-01	 1.1110120373e+00	-1.4870018790e+00
 8.4870407318e-01	 1.1313279492e+00	-1.5279769100e+00
 8.2185122907e-01	 1.1509830979e+00	-1.5626421645e+00
 7.9459688555e-01	 1.1699646823e+00	-1.5911146768e+00
 7.6696619570e-01	 1.1882611197e+00	-1.6135050947e+00
 7.3898471417e-01	 1.2058620653e+00	-1.6299154061e+00
 7.1067832206e-01	 1.2227584264e+00	-1.6404376359e+00
 6.8207315165e-01	 1.2389423711e+00	-1.6451535832e+00
 6.5319551124e-01	 1.2544073311e+00	-1.6441356308e+00
 6.2407181065e-01	 1.2691480006e+00	-1.6374486280e+00
 5.9472848784e-01	 1.2831603284e+00	-1.6251528075e+00
 8.8397056294e-01	 1.1222345306e+00	-1.5249440848e+00
 8.5727695575e-01	 1.1427556564e+00	-1.5635551408e+00
 8.3015286718e-01	 1.1626093447e+00	-1.5956127008e+00
 8.0262322360e-01	 1.1817826648e+00	-1.6212718016e+00
 7.7471343215e-01	 1.2002639171e+00	-1.6406780352e+00
 7.4644930563e-01	 1.2180426524e+00	-1.6539649387e+00
 7.1785698657e-01	 1.2351096861e+00	-1.6612524304e+00
 6.8896287119e-01	 1.2514571071e+00	-1.6626463703e+00
 6.5979353355e-01	 1.2670782810e+00	-1.6582392821e+00
 6.3037565026e-01	 1.2819678480e+00	-1.6481122415e+00
 6.0073592630e-01	 1.2961217165e+00	-1.6323378912e+00
 5.4066114221e-01	 1.1665069742e+00	-1.5715211280e+00
 5.1381167176e-01	 1.1785799272e+00	-1.6045248021e+00
 4.8681044283e-01	 1.1899868632e+00	-1.6353067790e+00
 4.5968116857e-01	 1.2007274473e+00	-1.6637236454e+00
 4.3244733711e-01	 1.2108024166e+00	-1.6896444099e+00
 4.0513215451e-01	 1.2202135531e+00	-1.7129556223e+00
 3.7775849043e-01	 1.2289636542e+00	-1.7335663934e+00
 3.5034882672e-01	 1.2370564986e+00	-1.7514131875e+00
 3.2292520919e-01	 1.2444968109e+00	-1.7664642614e+00
 2.9550920258e-01	 1.2512902225e+00	-1.7787236347e+00
 2.6812184899e-01	 1.2574432311e+00	-1.7882344836e+00
 5.4666864375e-01	 1.1794684983e+00	-1.5730150548e+00
 5.1952083812e-01	 1.1916755987e+00	-1.5986642792e+00
 4.9221958777e-01	 1.2032092818e+00	-1.6220809291e+00
 4.6478886933e-01	 1.2140692088e+00	-1.6431812814e+00
 4.3725243191e-01	 1.2242561250e+00	-1.6618852283e+00
 4.0963373942e-01	 1.2337718325e+00	-1.6781216925e+00
 3.8195591565e-01	 1.2426191594e+00	-1.6918340252e+00
 3.5424169224e-01	 1.2508019267e+00	-1.7029852458e+00
 3.2651335995e-01	 1.2583249112e+00	-1.7115629871e+00
 2.9879272316e-01	 1.2651938071e+00	-1.7175840149e+00
 2.7110105776e-01	 1.2714151842e+00	-1.7210982036e+00
 5.5267614389e-01	 1.1924300194e+00	-1.5763471115e+00
 5.2523000315e-01	 1.2047712672e+00	-1.5951525210e+00
 4.9762873145e-01	 1.2164316972e+00	-1.6116787225e+00
 4.6989656889e-01	 1.2274109671e+00	-1.6259056858e+00
 4.4205752558e-01	 1.2377098303e+00	-1.6378084499e+00
 4.1413532329e-01	 1.2473301086e+00	-1.6473627895e+00
 3.8615333988e-01	 1.2562746614e+00	-1.6545509488e+00
 3.5813455684e-01	 1.2645473515e+00	-1.6593672894e+00
 3.3010150988e-01	 1.2721530083e+00	-1.6618237039e+00
 3.0207624298e-01	 1.2790973885e+00	-1.6619546513e+00
 2.7408026585e-01	 1.2853871341e+00	-1.6598216820e+00
 5.5868364122e-01	 1.2053915345e+00	-1.5811924059e+00
 5.3093916552e-01	 1.2178669296e+00	-1.5936370701e+00
 5.0303787261e-01	 1.2296541065e+00	-1.6037232224e+00
 4.7500426608e-01	 1.2407527192e+00	-1.6114982786e+00
 4.4686261702e-01	 1.2511635294e+00	-1.6169964233e+00
 4.1863690505e-01	 1.2608883785e+00	-1.6202444861e+00
 3.9035076216e-01	 1.2699301571e+00	-1.6212679694e+00
 3.6202741963e-01	 1.2782927699e+00	-1.6200970681e+00
 3.3368965813e-01	 1.2859810990e+00	-1.6167725160e+00
 3.0535976126e-01	 1.2930009634e+00	-1.6113511043e+00
 2.7705947254e-01	 1.2993590775e+00	-1.6039107270e+00
 5.6469113435e-01	 1.2183530405e+00	-1.5872370519e+00
 5.3664832389e-01	 1.2309625827e+00	-1.5937779060e+00
 5.0844700998e-01	 1.2428765065e+00	-1.5978512538e+00
 4.8011195969e-01	 1.2540944620e+00	-1.5995754687e+00
 4.5166770509e-01	 1.2646172190e+00	-1.5990476259e+00
 4.2313848366e-01	 1.2744466389e+00	-1.5963495445e+00
 3.9454818150e-01	 1.2835856432e+00	-1.5915540733e+00
 3.6592027970e-01	 1.2920381787e+00	-1.5847314446e+00
 3.3727780388e-01	 1.2998091799e+00	-1.5759555210e+00
 3.0864327725e-01	 1.3069045285e+00	-1.5653097669e+00
 2.8003867715e-01	 1.3133310111e+00	-1.5528927861e+00
 5.7069862187e-01	 1.2313145343e+00	-1.5941774881e+00
 5.4235747694e-01	 1.2440582237e+00	-1.5952466867e+00
 5.1385614230e-01	 1.2560988942e+00	-1.5937125740e+00
 4.8521964853e-01	 1.2674361923e+00	-1.5897677611e+00
 4.5647278868e-01	 1.2780708960e+00	-1.5835757113e+00
 4.2764005807e-01	 1.2880048866e+00	-1.5752769105e+00
 3.9874559693e-01	 1.2972411165e+00	-1.5649953724e+00
 3.6981313613e-01	 1.3057835747e+00	-1.5528452930e+00
 3.4086594627e-01	 1.3136372479e+00	-1.5389376668e+00
 3.1192679017e-01	 1.3208080807e+00	-1.5233866827e+00
 2.8301787897e-01	 1.3273029316e+00	-1.5063157271e+00
 5.7670610238e-01	 1.2442760131e+00	-1.6017198416e+00
 5.4806662332e-01	 1.2571538494e+00	-1.5977260404e+00
 5.1926526832e-01	 1.2693212665e+00	-1.5909690987e+00
 4.9032733141e-01	 1.2807779071e+00	-1.5817189205e+00
 4.6127786666e-01	 1.2915245574e+00	-1.5702086180e+00
 4.3214162723e-01	 1.3015631185e+00	-1.5566407706e+00
 4.0294300746e-01	 1.3108965739e+00	-1.5411941149e+00
 3.7370598802e-01	 1.3195289546e+00	-1.5240304674e+00
 3.4445408448e-01	 1.3274652999e+00	-1.5053016808e+00
 3.1521029926e-01	 1.3347116167e+00	-1.4851564377e+00
 2.8599707732e-01	 1.3412748358e+00	-1.4637466961e+00
 5.8271357448e-01	 1.2572374737e+00	-1.6095793344e+00
 5.5377576171e-01	 1.2702494568e+00	-1.6009089036e+00
 5.2467438676e-01	 1.2825436203e+00	-1.5892941766e+00
 4.9543500715e-01	 1.2941196032e+00	-1.5750851900e+00
 4.6608293792e-01	 1.3049781999e+00	-1.5585877354e+00
 4.3664319009e-01	 1.3151213314e+00	-1.5400696703e+00
 4.0714041211e-01	 1.3245520122e+00	-1.5197677594e+00
 3.7759883446e-01	 1.3332743153e+00	-1.4978948349e+00
 3.4804221766e-01	 1.3412933324e+00	-1.4746470653e+00
 3.1849380376e-01	 1.3486151331e+00	-1.4502111223e+00
 2.8897627150e-01	 1.3552467205e+00	-1.4247710465e+00
 5.8872103677e-01	 1.2701989132e+00	-1.6174797285e+00
 5.5948489078e-01	 1.2833450427e+00	-1.6044979016e+00
 5.3008349636e-01	 1.2957659524e+00	-1.5883719115e+00
 5.0054267454e-01	 1.3074612775e+00	-1.5695345586e+00
 4.7088800132e-01	 1.3184318205e+00	-1.5483671217e+00
 4.4114474559e-01	 1.3286795221e+00	-1.5252056867e+00
 4.1133780990e-01	 1.3382074282e+00	-1.5003481064e+00
 3.8149167454e-01	 1.3470196535e+00	-1.4740613695e+00
 3.5163034498e-01	 1.3551213424e+00	-1.4465891565e+00
 3.2177730289e-01	 1.3625186269e+00	-1.4181593564e+00
 2.9195546082e-01	 1.3692185824e+00	-1.3889913338e+00
 5.9472848784e-01	 1.2831603284e+00	-1.6251528075e+00
 5.6519400919e-01	 1.2964406043e+00	-1.6082047697e+00
 5.3549259587e-01	 1.3089882599e+00	-1.5878965280e+00
 5.0565033239e-01	 1.3208029269e+00	-1.5647460755e+00
 4.7569305576e-01	 1.3318854160e+00	-1.5392127717e+00
 4.4564629269e-01	 1.3422376876e+00	-1.5117036537e+00
 4.1553519986e-01	 1.3518628187e+00	-1.4825804839e+00
 3.8538450735e-01	 1.3607649661e+00	-1.4521673016e+00
 3.5521846561e-01	 1.3689493265e+00	-1.4207582405e+00
 3.2506079589e-01	 1.3764220947e+00	-1.3886253758e+00
 2.9493464457e-01	 1.3831904182e+00	-1.3560263731e+00
 6.0073592630e-01	 1.2961217165e+00	-1.6323378912e+00
 5.7090311561e-01	 1.3095361383e+00	-1.6117498109e+00
 5.4090168402e-01	 1.3222105396e+00	-1.5875717758e+00
 5.1075797952e-01	 1.3341445482e+00	-1.5604092071e+00
 4.8049810011e-01	 1.3453389831e+00	-1.5308019297e+00
 4.5014783034e-01	 1.3557958246e+00	-1.4992304342e+00
 4.1973258100e-01	 1.3655181805e+00	-1.4661229832e+00
 3.8927733199e-01	 1.3745102498e+00	-1.4318633196e+00
 3.5880657870e-01	 1.3827772816e+00	-1.3967987239e+00
 3.2834428200e-01	 1.3903255334e+00	-1.3612481726e+00
 2.9791382207e-01	 1.3971622246e+00	-1.3255103523e+00
 2.6812184899e-01	 1.2574432311e+00	-1.7882344836e+00
 2.4078172288e-01	 1.2629635224e+00	-1.7964454123e+00
 2.1351065582e-01	 1.2678587460e+00	-1.8043570720e+00
 1.8632793750e-01	 1.2721377389e+00	-1.8114653662e+00
 1.5925220186e-01	 1.2758100255e+00	-1.8173894889e+00
 1.3230140315e-01	 1.2788857706e+00	-1.8218716803e+00
 1.0549279553e-01	 1.2813757316e+00	-1.8247755219e+00
 7.8842916145e-02	 1.2832912108e+00	-1.8260828315e+00
 5.2367571465e-02	 1.2846440074e+00	-1.8258892377e+00
 2.6081826987e-02	 1.2854463705e+00	-1.8243985343e+00
 0.0000000000e+00	 1.2857109524e+00	-1.8219159323e+00
 2.7110105776e-01	 1.2714151842e+00	-1.7210982036e+00
 2.4345714461e-01	 1.2769968137e+00	-1.7237341878e+00
 2.1588305785e-01	 1.2819464301e+00	-1.7266614964e+00
 1.8839830152e-01	 1.2862729685e+00	-1.7293582334e+00
 1.6102171658e-01	 1.2899860594e+00	-1.7314231753e+00
 1.3377145680e-01	 1.2930959804e+00	-1.7325761509e+00
 1.0666496805e-01	 1.2956136083e+00	-1.7326569121e+00
 7.9718971224e-02	 1.2975503711e+00	-1.7316225518e+00
 5.2949448433e-02	 1.2989181992e+00	-1.7295435430e+00
 2.6371632567e-02	 1.2997294777e+00	-1.7265984977e+00
 0.0000000000e+00	 1.2999969994e+00	-1.7230677605e+00
 2.7408026585e-01	 1.2853871341e+00	-1.6598216820e+00
 2.4613256572e-01	 1.2910301017e+00	-1.6572363672e+00
 2.1825545933e-01	 1.2960341109e+00	-1.6555273706e+00
 1.9046866504e-01	 1.3004081949e+00	-1.6541413314e+00
 1.6279123088e-01	 1.3041620900e+00	-1.6526433594e+00
 1.3524151010e-01	 1.3073061868e+00	-1.6507181304e+00
 1.0783714029e-01	 1.3098514817e+00	-1.6481694172e+00
 8.0595026100e-02	 1.3118095281e+00	-1.6449181041e+00
 5.3531325265e-02	 1.3131923877e+00	-1.6409987558e+00
 2.6661438079e-02	 1.3140125816e+00	-1.6365548347e+00
 0.0000000000e+00	 1.3142830432e+00	-1.6318326808e+00
 2.7705947254e-01	 1.2993590775e+00	-1.6039107270e+00
 2.4880798558e-01	 1.3050633832e+00	-1.5964478337e+00
 2.2062785971e-01	 1.3101217851e+00	-1.5904399301e+00
 1.9253902761e-01	 1.3145434147e+00	-1.5852888298e+00
 1.6456074436e-01	 1.3183381140e+00	-1.5805130228e+00
 1.3671156272e-01	 1.3215163866e+00	-1.5757495805e+00
 1.0900931199e-01	 1.3240893484e+00	-1.5707544294e+00
 8.1471080567e-02	 1.3260686785e+00	-1.5654010371e+00
 5.4113201826e-02	 1.3274665695e+00	-1.5596775745e+00
 2.6951243456e-02	 1.3282956788e+00	-1.5536826463e+00
 0.0000000000e+00	 1.3285690802e+00	-1.5476197019e+00
 2.8003867715e-01	 1.3133310111e+00	-1.5528927861e+00
 2.5148340357e-01	 1.3190966548e+00	-1.5408869204e+00
 2.2300025842e-01	 1.3242094494e+00	-1.5309076942e+00
 1.9460938872e-01	 1.3286786246e+00	-1.5222990204e+00
 1.6633025660e-01	 1.3325141281e+00	-1.5145200967e+00
 1.3818161430e-01	 1.3357265764e+00	-1.5071482112e+00
 1.1018148287e-01	 1.3383272052e+00	-1.4998798436e+00
 8.2347134421e-02	 1.3403278189e+00	-1.4925300955e+00
 5.4695077980e-02	 1.3417407413e+00	-1.4850305110e+00
 2.7241048630e-02	 1.3425787660e+00	-1.4774253745e+00
 0.0000000000e+00	 1.3428551073e+00	-1.4698665972e+00
 2.8301787897e-01	 1.3273029316e+00	-1.5063157271e+00
 2.5415881906e-01	 1.3331299134e+00	-1.4900931553e+00
 2.2537265492e-01	 1.3382971007e+00	-1.4764611734e+00
 1.9667974790e-01	 1.3428138213e+00	-1.4646929890e+00
 1.6809976719e-01	 1.3466901289e+00	-1.4541760978e+00
 1.3965166452e-01	 1.3499367530e+00	-1.4444160835e+00
 1.1135365265e-01	 1.3525650487e+00	-1.4350386283e+00
 8.3223187458e-02	 1.3545869460e+00	-1.4257897633e+00
 5.5276953591e-02	 1.3560148998e+00	-1.4165344105e+00
 2.7530853534e-02	 1.3568618399e+00	-1.4072533029e+00
 0.0000000000e+00	 1.3571411210e+00	-1.3980383909e+00
 2.8599707732e-01	 1.3412748358e+00	-1.4637466961e+00
 2.5683423144e-01	 1.3471631556e+00	-1.4436260850e+00
 2.2774504865e-01	 1.3523847354e+00	-1.4266516594e+00
 1.9875010467e-01	 1.3569490015e+00	-1.4120133704e+00
 1.6986927572e-01	 1.3608661132e+00	-1.3990148505e+00
 1.4112171302e-01	 1.3641469131e+00	-1.3870782989e+00
 1.1252582106e-01	 1.3668028755e+00	-1.3757474864e+00
 8.4099239472e-02	 1.3688460564e+00	-1.3646888982e+00
 5.5858828523e-02	 1.3702890417e+00	-1.3536910631e+00
 2.7820658100e-02	 1.3711448971e+00	-1.3426621497e+00
 0.0000000000e+00	 1.3714271181e+00	-1.3316259376e+00
 2.8897627150e-01	 1.3552467205e+00	-1.4247710465e+00
 2.5950964006e-01	 1.3611963781e+00	-1.4010641718e+00
 2.3011743906e-01	 1.3664723505e+00	-1.3810500891e+00
 2.0082045854e-01	 1.3710841619e+00	-1.3638231806e+00
 1.7163878176e-01	 1.3750420777e+00	-1.3485912871e+00
 1.4259175946e-01	 1.3783570532e+00	-1.3346817708e+00
 1.1369798784e-01	 1.3810406825e+00	-1.3215455984e+00
 8.4975290260e-02	 1.3831051469e+00	-1.3087594503e+00
 5.6440702641e-02	 1.3845631636e+00	-1.2960259014e+00
 2.8110462260e-02	 1.3854279343e+00	-1.2831717485e+00
 0.0000000000e+00	 1.3857130952e+00	-1.2701445908e+00
 2.9195546082e-01	 1.3692185824e+00	-1.3889913338e+00
 2.6218504432e-01	 1.3752295777e+00	-1.3620037590e+00
 2.3248982560e-01	 1.3805599425e+00	-1.3392459795e+00
 2.0289080902e-01	 1.3852192993e+00	-1.3197047212e+00
 1.7340828492e-01	 1.3892180190e+00	-1.3024803229e+00
 1.4406180351e-01	 1.3925671701e+00	-1.2867940711e+00
 1.1487015270e-01	 1.3952784662e+00	-1.2719934433e+00
 8.5851339617e-02	 1.3973642141e+00	-1.2575552593e+00
 5.7022575808e-02	 1.3988372621e+00	-1.2430867778e+00
 2.8400265947e-02	 1.3997109481e+00	-1.2283248095e+00
 0.0000000000e+00	 1.3999990489e+00	-1.2131329521e+00
 2.9493464457e-01	 1.3831904182e+00	-1.3560263731e+00
 2.6486044358e-01	 1.3892627511e+00	-1.3260580988e+00
 2.3486220770e-01	 1.3946475083e+00	-1.3008464270e+00
 2.0496115564e-01	 1.3993544102e+00	-1.2792585494e+00
 1.7517778477e-01	 1.4033939338e+00	-1.2602757986e+00
 1.4553184480e-01	 1.4067772605e+00	-1.2430023461e+00
 1.1604231537e-01	 1.4095162233e+00	-1.2266716903e+00
 8.6727387339e-02	 1.4116232547e+00	-1.2106509251e+00
 5.7604447888e-02	 1.4131113340e+00	-1.1944428162e+00
 2.8690069092e-02	 1.4139939354e+00	-1.1776857558e+00
 0.0000000000e+00	 1.4142849760e+00	-1.1601516967e+00
 2.9791382207e-01	 1.3971622246e+00	-1.3255103523e+00
 2.6753583722e-01	 1.4032958951e+00	-1.2928564397e+00
 2.3723458483e-01	 1.4087350444e+00	-1.2654751669e+00
 2.0703149792e-01	 1.4134894915e+00	-1.2421025114e+00
 1.7694728091e-01	 1.4175698189e+00	-1.2215894871e+00
 1.4700188301e-01	 1.4209873210e+00	-1.2029122984e+00
 1.1721447557e-01	 1.4237539505e+00	-1.1851801578e+00
 8.7603433220e-02	 1.4258822653e+00	-1.1676407456e+00
 5.8186318747e-02	 1.4273853760e+00	-1.1496833322e+00
 2.8979871629e-02	 1.4282768926e+00	-1.1308396296e+00
 0.0000000000e+00	 1.4285708730e+00	-1.1107824689e+00
 1.4285708730e+00	 0.0000000000e+00	 3.0440643565e+00
 1.4282768926e+00	 2.8979871629e-02	 3.0488348709e+00
 1.4273853760e+00	 5.8186318747e-02	 3.0365941279e+00
 1.4258822653e+00	 8.7603433220e-02	 3.0084051256e+00
 1.4237539505e+00	 1.1721447557e-01	 2.9654013824e+00
 1.4209873210e+00	 1.4700188301e-01	 2.9087805643e+00
 1.4175698189e+00	 1.7694728091e-01	 2.8397974678e+00
 1.4134894915e+00	 2.0703149792e-01	 2.7597563352e+00
 1.4087350444e+00	 2.3723458483e-01	 2.6700024875e+00
 1.4032958951e+00	 2.6753583722e-01	 2.5719132619e+00
 1.3971622246e+00	 2.9791382207e-01	 2.4668882500e+00
 1.4428567384e+00	 0.0000000000e+00	 3.0444537714e+00
 1.4425598181e+00	 2.9269673523e-02	 3.0496568934e+00
 1.4416593863e+00	 5.8768188315e-02	 3.0373612402e+00
 1.4401412443e+00	 8.8479477159e-02	 3.0086718483e+00
 1.4379916461e+00	 1.1838663318e-01	 2.9647596752e+00
 1.4351973501e+00	 1.4847191796e-01	 2.9068557427e+00
 1.4317456726e+00	 1.7871677312e-01	 2.8362444975e+00
 1.4276245414e+00	 2.0910183560e-01	 2.7542587778e+00
 1.4228225494e+00	 2.3960695669e-01	 2.6623393468e+00
 1.4173290079e+00	 2.7021122493e-01	 2.5619409203e+00
 1.4111340001e+00	 3.0089299296e-01	 2.4545120761e+00
 1.4571425772e+00	 0.0000000000e+00	 3.0447853910e+00
 1.4568427170e+00	 2.9559474876e-02	 3.0502989751e+00
 1.4559333699e+00	 5.9350056796e-02	 3.0378606459e+00
 1.4544001967e+00	 8.9355519462e-02	 3.0086249704e+00
 1.4522293152e+00	 1.1955878861e-01	 2.9638125768e+00
 1.4494073526e+00	 1.4994195017e-01	 2.9047038703e+00
 1.4459214998e+00	 1.8048626203e-01	 2.8326319383e+00
 1.4417595649e+00	 2.1117216942e-01	 2.7489746530e+00
 1.4369100280e+00	 2.4197932413e-01	 2.6551459839e+00
 1.4313620946e+00	 2.7288660765e-01	 2.5525865432e+00
 1.4251057495e+00	 3.0387215829e-01	 2.4427795296e+00
 1.4714283959e+00	 0.0000000000e+00	 3.0448323308e+00
 1.4711255959e+00	 2.9849275823e-02	 3.0505474806e+00
 1.4702073336e+00	 5.9931924463e-02	 3.0378862064e+00
 1.4686591292e+00	 9.0231560538e-02	 3.0080506452e+00
 1.4664669643e+00	 1.2073094239e-01	 2.9623087725e+00
 1.4636173352e+00	 1.5141198032e-01	 2.9019876847e+00
 1.4600973071e+00	 1.8225574847e-01	 2.8284660495e+00
 1.4558945687e+00	 2.1324250034e-01	 2.7431657317e+00
 1.4509974869e+00	 2.4435168824e-01	 2.6475426124e+00
 1.4453951616e+00	 2.7556198662e-01	 2.5430766249e+00
 1.4390774793e+00	 3.0685131945e-01	 2.4312610472e+00
 1.4857142013e+00	 0.0000000000e+00	 3.0443771190e+00
 1.4854084615e+00	 3.0139076500e-02	 3.0501980416e+00
 1.4844812839e+00	 6.0513791587e-02	 3.0372450674e+00
 1.4829180483e+00	 9.1107600796e-02	 3.0067660212e+00
 1.4807046001e+00	 1.2190309507e-01	 2.9600739860e+00
 1.4778273046e+00	 1.5288200909e-01	 2.8985401484e+00
 1.4742731012e+00	 1.8402523325e-01	 2.8235857924e+00
 1.4700295592e+00	 2.1531282933e-01	 2.7366734500e+00
 1.4650849327e+00	 2.4672405014e-01	 2.6392972303e+00
 1.4594282155e+00	 2.7823736310e-01	 2.5329723537e+00
 1.4530491961e+00	 3.0983047783e-01	 2.4192239337e+00
 1.5000000000e+00	 0.0000000000e+00	 3.0432112451e+00
 1.4996913204e+00	 3.0428877041e-02	 3.0490547691e+00
 1.4987552276e+00	 6.1095658438e-02	 3.0357524333e+00
 1.4971769608e+00	 9.1983640646e-02	 3.0045959427e+00
 1.4949422293e+00	 1.2307524721e-01	 2.9569413294e+00
 1.4920372673e+00	 1.5435203718e-01	 2.8942013564e+00
 1.4884488887e+00	 1.8579471720e-01	 2.8178370531e+00
 1.4841645432e+00	 2.1738315735e-01	 2.7293483926e+00
 1.4791723719e+00	 2.4909641093e-01	 2.6302641333e+00
 1.4734612629e+00	 2.8091273832e-01	 2.5221308595e+00
 1.4670209063e+00	 3.1280963482e-01	 2.4065012607e+00
 1.5142857987e+00	 0.0000000000e+00	 3.0411347373e+00
 1.5139741793e+00	 3.0718677582e-02	 3.0469298520e+00
 1.5130291713e+00	 6.1677525290e-02	 3.0332311834e+00
 1.5114358733e+00	 9.2859680495e-02	 3.0013725823e+00
 1.5091798585e+00	 1.2424739935e-01	 2.9527509486e+00
 1.5062472300e+00	 1.5582206527e-01	 2.8888181922e+00
 1.5026246762e+00	 1.8756420116e-01	 2.8110723067e+00
 1.4982995272e+00	 2.1945348537e-01	 2.7210475751e+00
 1.4932598111e+00	 2.5146877173e-01	 2.6203039285e+00
 1.4874943102e+00	 2.8358811355e-01	 2.5104154975e+00
 1.4809926166e+00	 3.1578879180e-01	 2.3929584007e+00
 1.5285716041e+00	 0.0000000000e+00	 3.0379557641e+00
 1.5282570449e+00	 3.1008478258e-02	 3.0436431781e+00
 1.5273031216e+00	 6.2259392413e-02	 3.0295115110e+00
 1.5256947924e+00	 9.3735720753e-02	 2.9969350936e+00
 1.5234174944e+00	 1.2541955203e-01	 2.9473496885e+00
 1.5204571994e+00	 1.5729209405e-01	 2.8822440026e+00
 1.5168004703e+00	 1.8933368594e-01	 2.8031502999e+00
 1.5124345177e+00	 2.2152381435e-01	 2.7116341336e+00
 1.5073472569e+00	 2.5384113363e-01	 2.6092832276e+00
 1.5015273641e+00	 2.8626349002e-01	 2.4976955445e+00
 1.4949643334e+00	 3.1876795018e-01	 2.3784665922e+00
 1.5428574228e+00	 0.0000000000e+00	 3.0334902573e+00
 1.5425399238e+00	 3.1298279206e-02	 3.0390219763e+00
 1.5415770853e+00	 6.2841260080e-02	 3.0244305811e+00
 1.5399537249e+00	 9.4611761829e-02	 2.9911292835e+00
 1.5376551435e+00	 1.2659170581e-01	 2.9405907761e+00
 1.5346671820e+00	 1.5876212420e-01	 2.8743382914e+00
 1.5309762776e+00	 1.9110317237e-01	 2.7939357516e+00
 1.5265695215e+00	 2.2359414527e-01	 2.7009770303e+00
 1.5214347158e+00	 2.5621349774e-01	 2.5970743573e+00
 1.5155604311e+00	 2.8893886899e-01	 2.4838459116e+00
 1.5089360632e+00	 3.2174711134e-01	 2.3629026544e+00
 1.5571432616e+00	 0.0000000000e+00	 3.0275615564e+00
 1.5568228227e+00	 3.1588080558e-02	 3.0329004786e+00
 1.5558510689e+00	 6.3423128561e-02	 3.0178322077e+00
 1.5542126773e+00	 9.5487804132e-02	 2.9838073027e+00
 1.5518928126e+00	 1.2776386123e-01	 2.9323335225e+00
 1.5488771845e+00	 1.6023215640e-01	 2.8649664288e+00
 1.5451521048e+00	 1.9287266128e-01	 2.7832990708e+00
 1.5407045450e+00	 2.2566447909e-01	 2.6889507764e+00
 1.5355221944e+00	 2.5858586517e-01	 2.5835550857e+00
 1.5295935178e+00	 2.9161425171e-01	 2.4687468731e+00
 1.5229078126e+00	 3.2472627667e-01	 2.3461487166e+00
 1.5714291270e+00	 0.0000000000e+00	 3.0200000724e+00
 1.5711057482e+00	 3.1877882452e-02	 3.0251196003e+00
 1.5701250792e+00	 6.4004998129e-02	 3.0095665491e+00
 1.5684716563e+00	 9.6363848071e-02	 2.9748273525e+00
 1.5661305082e+00	 1.2893601884e-01	 2.9224430399e+00
 1.5630872136e+00	 1.6170219135e-01	 2.8539993778e+00
 1.5593279585e+00	 1.9464215349e-01	 2.7711160881e+00
 1.5548395949e+00	 2.2773481677e-01	 2.6754351697e+00
 1.5496096993e+00	 2.6095823704e-01	 2.5686083633e+00
 1.5436266306e+00	 2.9428963942e-01	 2.4522838098e+00
 1.5368795881e+00	 3.2770544756e-01	 2.3280919635e+00
 1.3971622246e+00	 2.9791382207e-01	 2.4668882500e+00
 1.3903255334e+00	 3.2834428200e-01	 2.3532379969e+00
 1.3827772816e+00	 3.5880657870e-01	 2.2291104194e+00
 1.3745102498e+00	 3.8927733199e-01	 2.0956990763e+00
 1.3655181805e+00	 4.1973258100e-01	 1.9541984573e+00
 1.3557958246e+00	 4.5014783034e-01	 1.8057969671e+00
 1.3453389831e+00	 4.8049810011e-01	 1.6516696082e+00
 1.3341445482e+00	 5.1075797952e-01	 1.4929704136e+00
 1.3222105396e+00	 5.4090168402e-01	 1.3308246996e+00
 1.3095361383e+00	 5.7090311561e-01	 1.1663212219e+00
 1.2961217165e+00	 6.0073592630e-01	 1.0005043378e+00
 1.4111340001e+00	 3.0089299296e-01	 2.4545120761e+00
 1.4042289412e+00	 3.3162776083e-01	 2.3384390819e+00
 1.3966052061e+00	 3.6239468383e-01	 2.2119184283e+00
 1.3882555030e+00	 3.9317014801e-01	 2.0761499338e+00
 1.3791735121e+00	 4.2392995285e-01	 1.9323338544e+00
 1.3693539315e+00	 4.5464935801e-01	 1.7816638533e+00
 1.3587925205e+00	 4.8530313380e-01	 1.6253196469e+00
 1.3474861400e+00	 5.1586561533e-01	 1.4644593792e+00
 1.3354327900e+00	 5.4631076018e-01	 1.3002117947e+00
 1.3226316433e+00	 5.7661220937e-01	 1.1336682958e+00
 1.3090830758e+00	 6.0674335144e-01	 9.6587498960e-01
 1.4251057495e+00	 3.0387215829e-01	 2.4427795296e+00
 1.4181323230e+00	 3.3491123353e-01	 2.3243031807e+00
 1.4104331047e+00	 3.6598278227e-01	 2.1954279118e+00
 1.4020007306e+00	 3.9706295675e-01	 2.0573581305e+00
 1.3928288182e+00	 4.2812731685e-01	 1.9112981795e+00
 1.3829120131e+00	 4.5915087728e-01	 1.7584453021e+00
 1.3722460328e+00	 4.9010815853e-01	 1.5999822605e+00
 1.3608277069e+00	 5.2097324160e-01	 1.4370696582e+00
 1.3486550157e+00	 5.5171982624e-01	 1.2708380377e+00
 1.3357271238e+00	 5.8232129248e-01	 1.1023798429e+00
 1.3220444109e+00	 6.1275076537e-01	 9.3274135256e-01
 1.4390774793e+00	 3.0685131945e-01	 2.4312610472e+00
 1.4320356854e+00	 3.3819470163e-01	 2.3106133906e+00
 1.4242609840e+00	 3.6957087569e-01	 2.1794511183e+00
 1.4157459389e+00	 4.0095576004e-01	 2.0391409559e+00
 1.4064841051e+00	 4.3232467498e-01	 1.8909133890e+00
 1.3964700758e+00	 4.6365239024e-01	 1.7359675845e+00
 1.3856995262e+00	 4.9491317653e-01	 1.5754877097e+00
 1.3741692551e+00	 5.2608086073e-01	 1.4106352090e+00
 1.3618772229e+00	 5.5712888473e-01	 1.2425408317e+00
 1.3488225860e+00	 5.8803036759e-01	 1.0722965007e+00
 1.3350057279e+00	 6.1875817089e-01	 9.0094713440e-01
 1.4530491961e+00	 3.0983047783e-01	 2.4192239337e+00
 1.4459390348e+00	 3.4147816667e-01	 2.2966615798e+00
 1.4380888504e+00	 3.7315896575e-01	 2.1636383922e+00
 1.4294911344e+00	 4.0484855971e-01	 2.0213232913e+00
 1.4201393793e+00	 4.3652202919e-01	 1.8710105107e+00
 1.4100281258e+00	 4.6815389901e-01	 1.7140660692e+00
 1.3991530071e+00	 4.9971819004e-01	 1.5516753660e+00
 1.3875107909e+00	 5.3118847508e-01	 1.3849991014e+00
 1.3750994178e+00	 5.6253793817e-01	 1.2151666783e+00
 1.3619180360e+00	 5.9373943738e-01	 1.0432679799e+00
 1.3479670327e+00	 6.2476557081e-01	 8.7034507938e-01
 1.4670209063e+00	 3.1280963482e-01	 2.4065012607e+00
 1.4598423778e+00	 3.4476163017e-01	 2.2820844605e+00
 1.4519167104e+00	 3.7674705414e-01	 2.1473151537e+00
 1.4432363235e+00	 4.0874135755e-01	 2.0033594758e+00
 1.4337946472e+00	 4.4071938145e-01	 1.8513827018e+00
 1.4235861694e+00	 4.7265540567e-01	 1.6925848454e+00
 1.4126064816e+00	 5.0452320132e-01	 1.5283933301e+00
 1.4008523204e+00	 5.3629608706e-01	 1.3600131299e+00
 1.3883216065e+00	 5.6794698909e-01	 1.1885707871e+00
 1.3750134799e+00	 5.9944850450e-01	 1.0151526698e+00
 1.3609283316e+00	 6.3077296791e-01	 8.4079656894e-01
 1.4809926166e+00	 3.1578879180e-01	 2.3929584007e+00
 1.4737457207e+00	 3.4804509368e-01	 2.2667490307e+00
 1.4657445703e+00	 3.8033514254e-01	 2.1303135966e+00
 1.4569815126e+00	 4.1263415539e-01	 1.9848142406e+00
 1.4474499150e+00	 4.4491673370e-01	 1.8314111672e+00
 1.4371442131e+00	 4.7715691233e-01	 1.6712564812e+00
 1.4260599562e+00	 5.0932821259e-01	 1.5054980702e+00
 1.4141938499e+00	 5.4140369903e-01	 1.3355374473e+00
 1.4015437952e+00	 5.7335604000e-01	 1.1626167040e+00
 1.3881089238e+00	 6.0515757163e-01	 9.8781726226e-01
 1.3738896304e+00	 6.3678036502e-01	 8.1217124183e-01
 1.4949643334e+00	 3.1876795018e-01	 2.3784665922e+00
 1.4876490701e+00	 3.5132855872e-01	 2.2505281149e+00
 1.4795724367e+00	 3.8392323260e-01	 2.1125080240e+00
 1.4707267081e+00	 4.1652695505e-01	 1.9655632850e+00
 1.4611051892e+00	 4.4911408791e-01	 1.8108477791e+00
 1.4507022631e+00	 4.8165842109e-01	 1.6495061322e+00
 1.4395134371e+00	 5.1413322610e-01	 1.4826673773e+00
 1.4275353857e+00	 5.4651131339e-01	 1.3114402167e+00
 1.4147659900e+00	 5.7876509344e-01	 1.1371759588e+00
 1.4012043738e+00	 6.1086664141e-01	 9.6113639436e-01
 1.3868509352e+00	 6.4278776494e-01	 7.8434663222e-01
 1.5089360632e+00	 3.2174711134e-01	 2.3629026544e+00
 1.5015524325e+00	 3.5461202682e-01	 2.2333000784e+00
 1.4934003160e+00	 3.8751132602e-01	 2.0937782453e+00
 1.4844719164e+00	 4.2041975835e-01	 1.9454877833e+00
 1.4747604761e+00	 4.5331144604e-01	 1.7895750228e+00
 1.4642603257e+00	 4.8615993406e-01	 1.6271758208e+00
 1.4529669305e+00	 5.1893824410e-01	 1.4594092228e+00
 1.4408769339e+00	 5.5161893251e-01	 1.2873710099e+00
 1.4279881972e+00	 5.8417415193e-01	 1.1121277288e+00
 1.4142998360e+00	 6.1657571653e-01	 9.3499230779e-01
 1.3998122522e+00	 6.4879517046e-01	 7.5720782489e-01
 1.5229078126e+00	 3.2472627667e-01	 2.3461487166e+00
 1.5154558143e+00	 3.5789549951e-01	 2.2149485584e+00
 1.5072282146e+00	 3.9109942445e-01	 2.0740093071e+00
 1.4982171440e+00	 4.2431256709e-01	 1.9244741165e+00
 1.4884157822e+00	 4.5750881004e-01	 1.7674805616e+00
 1.4778184073e+00	 4.9066145333e-01	 1.6041544655e+00
 1.4664204428e+00	 5.2374326883e-01	 1.4356035664e+00
 1.4542185008e+00	 5.5672655879e-01	 1.2629110745e+00
 1.4412104230e+00	 5.8958321800e-01	 1.0871291696e+00
 1.4273953166e+00	 6.2228479964e-01	 9.0927452417e-01
 1.4127735873e+00	 6.5480258439e-01	 7.3064712630e-01
 1.5368795881e+00	 3.2770544756e-01	 2.3280919635e+00
 1.5293592221e+00	 3.6117897834e-01	 2.1953622090e+00
 1.5210561391e+00	 3.9468752959e-01	 2.0530912391e+00
 1.5119623972e+00	 4.2820538310e-01	 1.9024136178e+00
 1.5020711138e+00	 4.6170618189e-01	 1.7444569833e+00
 1.4913765143e+00	 4.9516298100e-01	 1.5803358826e+00
 1.4798739801e+00	 5.2854830253e-01	 1.4111454515e+00
 1.4675600926e+00	 5.6183419459e-01	 1.2379549867e+00
 1.4544326734e+00	 5.9499229416e-01	 1.0618014637e+00
 1.4404908216e+00	 6.2799389340e-01	 8.8368305729e-01
 1.4257349466e+00	 6.6081000953e-01	 7.0456375039e-01
 1.2961217165e+00	 6.0073592630e-01	 1.0005043378e+00
 1.2819678480e+00	 6.3037565026e-01	 8.3286172429e-01
 1.2670782810e+00	 6.5979353355e-01	 6.6324847042e-01
 1.2514571071e+00	 6.8896287119e-01	 4.9315108167e-01
 1.2351096861e+00	 7.1785698657e-01	 3.2400097649e-01
 1.2180426524e+00	 7.4644930563e-01	 1.5716627417e-01
 1.2002639171e+00	 7.7471343215e-01	-6.0557675825e-03
 1.1817826648e+00	 8.0262322360e-01	-1.6444552168e-01
 1.1626093447e+00	 8.3015286718e-01	-3.1686683617e-01
 1.1427556564e+00	 8.5727695575e-01	-4.6227184068e-01
 1.1222345306e+00	 8.8397056294e-01	-5.9970462389e-01
 1.3090830758e+00	 6.0674335144e-01	 9.6587498960e-01
 1.2947876671e+00	 6.3667947589e-01	 7.9634152605e-01
 1.2797492027e+00	 6.6639154124e-01	 6.2495786398e-01
 1.2639718154e+00	 6.9585257546e-01	 4.5322927747e-01
 1.2474609184e+00	 7.2503563516e-01	 2.8260413960e-01
 1.2302232125e+00	 7.5391388054e-01	 1.1446540661e-01
 1.2122666879e+00	 7.8246065143e-01	-4.9877226210e-02
 1.1936006210e+00	 8.1064954385e-01	-2.0919434346e-01
 1.1742355656e+00	 8.3845448689e-01	-3.6234286354e-01
 1.1541833383e+00	 8.6584981932e-01	-5.0827100564e-01
 1.1334569989e+00	 8.9281036551e-01	-6.4602207205e-01
 1.3220444109e+00	 6.1275076537e-01	 9.3274135256e-01
 1.3076074622e+00	 6.4298328975e-01	 7.6145152580e-01
 1.2924201008e+00	 6.7298953662e-01	 5.8843145571e-01
 1.2764865004e+00	 7.0274226687e-01	 4.1520207250e-01
 1.2598121277e+00	 7.3221427034e-01	 2.4322563306e-01
 1.2424037499e+00	 7.6137844153e-01	 7.3896910813e-02
 1.2242694363e+00	 7.9020785625e-01	-9.1464919853e-02
 1.2054185552e+00	 8.1867584912e-01	-2.5162354169e-01
 1.1858617648e+00	 8.4675609111e-01	-4.0543174563e-01
 1.1656109988e+00	 8.7442266689e-01	-5.5183654471e-01
 1.1446794464e+00	 9.0165015158e-01	-6.8988304590e-01
 1.3350057279e+00	 6.1875817089e-01	 9.0094713440e-01
 1.3204272394e+00	 6.4928709480e-01	 7.2803845286e-01
 1.3050909812e+00	 6.7958752276e-01	 5.5351909606e-01
 1.2890011678e+00	 7.0963194863e-01	 3.7892263740e-01
 1.2721633197e+00	 7.3939289548e-01	 2.0572224586e-01
 1.2545842702e+00	 7.6884299206e-01	 3.5321589685e-02
 1.2362721679e+00	 7.9795505023e-01	-1.3095354202e-01
 1.2172364729e+00	 8.2670214316e-01	-2.9186272668e-01
 1.1974879478e+00	 8.5505768370e-01	-4.4625734555e-01
 1.1770386434e+00	 8.8299550246e-01	-5.9308583197e-01
 1.1559018781e+00	 9.1048992527e-01	-7.3139761827e-01
 1.3479670327e+00	 6.2476557081e-01	 8.7034507938e-01
 1.3332470047e+00	 6.5559089395e-01	 6.9595802230e-01
 1.3177618498e+00	 6.8618550274e-01	 5.2007955335e-01
 1.3015158236e+00	 7.1652162396e-01	 3.4425297473e-01
 1.2845145001e+00	 7.4657151392e-01	 1.6995949372e-01
 1.2667647791e+00	 7.7630753562e-01	-1.3911528706e-03
 1.2482748883e+00	 8.0570223697e-01	-1.6846933247e-01
 1.2290543795e+00	 8.3472842971e-01	-3.3003322506e-01
 1.2091141199e+00	 8.6335926854e-01	-4.8493543689e-01
 1.1884662773e+00	 8.9156833002e-01	-6.3212837163e-01
 1.1671242993e+00	 9.1932969072e-01	-7.7066823877e-01
 1.3609283316e+00	 6.3077296791e-01	 8.4079656894e-01
 1.3460667639e+00	 6.6189469017e-01	 6.6507453174e-01
 1.3304327124e+00	 6.9278347964e-01	 4.8798010763e-01
 1.3140304735e+00	 7.2341129607e-01	 3.1106351068e-01
 1.2968656748e+00	 7.5375012901e-01	 1.3581120971e-01
 1.2789452824e+00	 7.8377207570e-01	-3.6363720933e-02
 1.2602776031e+00	 8.1344942010e-01	-2.0413048441e-01
 1.2408722806e+00	 8.4275471251e-01	-3.6624848353e-01
 1.2207402866e+00	 8.7166084951e-01	-5.2157410227e-01
 1.1998939058e+00	 9.0014115359e-01	-6.6906618938e-01
 1.1783467153e+00	 9.2816945203e-01	-8.0779011581e-01
 1.3738896304e+00	 6.3678036502e-01	 8.1217124183e-01
 1.3588865232e+00	 6.6819848638e-01	 6.3526047765e-01
 1.3431035750e+00	 6.9938145654e-01	 4.5709616379e-01
 1.3265451234e+00	 7.3030096819e-01	 2.7923270594e-01
 1.3092168494e+00	 7.6092874410e-01	 1.0315915399e-01
 1.2911257856e+00	 7.9123661579e-01	-6.9710716771e-02
 1.2722803179e+00	 8.2119660322e-01	-2.3804753323e-01
 1.2526901817e+00	 8.5078099531e-01	-4.0061445455e-01
 1.2323664533e+00	 8.7996243048e-01	-5.5627411418e-01
 1.2113215344e+00	 9.0871397715e-01	-7.0399420657e-01
 1.1895691313e+00	 9.3700921335e-01	-8.4285158214e-01
 1.3868509352e+00	 6.4278776494e-01	 7.8434663222e-01
 1.3717062884e+00	 6.7450228554e-01	 6.0639618964e-01
 1.3557744436e+00	 7.0597943653e-01	 4.2731088269e-01
 1.3390597792e+00	 7.3719064352e-01	 2.4864668453e-01
 1.3215680299e+00	 7.6810736254e-01	 7.1892641331e-02
 1.3033062946e+00	 7.9870115935e-01	-1.0153931346e-01
 1.2842830382e+00	 8.2894378997e-01	-2.7032372787e-01
 1.2645080883e+00	 8.5880728185e-01	-4.3322996498e-01
 1.2439926254e+00	 8.8826401533e-01	-5.8912929926e-01
 1.2227491683e+00	 9.1728680472e-01	-7.3700059833e-01
 1.2007915526e+00	 9.4584897880e-01	-8.7593444482e-01
 1.3998122522e+00	 6.4879517046e-01	 7.5720782489e-01
 1.3845260656e+00	 6.8080609058e-01	 5.7836948176e-01
 1.3684453240e+00	 7.1257742267e-01	 3.9851482918e-01
 1.3515744466e+00	 7.4408032528e-01	 2.1919887938e-01
 1.3339192218e+00	 7.7528598768e-01	 4.1908185246e-02
 1.3154868149e+00	 8.0616570988e-01	-1.3194961107e-01
 1.2962857698e+00	 8.3669098394e-01	-3.0105538608e-01
 1.2763260060e+00	 8.6683357589e-01	-4.6418706890e-01
 1.2556188084e+00	 8.9656560792e-01	-6.2022688714e-01
 1.2341768128e+00	 9.2585964028e-01	-7.6816713669e-01
 1.2120139843e+00	 9.5468875249e-01	-9.0711432084e-01
 1.4127735873e+00	 6.5480258439e-01	 7.3064712630e-01
 1.3973458607e+00	 6.8710990445e-01	 5.5107531957e-01
 1.3811162221e+00	 7.1917541804e-01	 3.7060563593e-01
 1.3640891316e+00	 7.5097001669e-01	 1.9078969364e-01
 1.3462704311e+00	 7.8246462287e-01	 1.3109157661e-02
 1.3276673523e+00	 8.1363027087e-01	-1.6103497749e-01
 1.3082885182e+00	 8.4443818876e-01	-3.3033223446e-01
 1.2881439401e+00	 8.7485988116e-01	-4.9357138557e-01
 1.2672450076e+00	 9.0486721213e-01	-6.4964784479e-01
 1.2456044734e+00	 9.3443248785e-01	-7.9756951964e-01
 1.2232364317e+00	 9.6352853856e-01	-9.3646095912e-01
 1.4257349466e+00	 6.6081000953e-01	 7.0456375039e-01
 1.4101656798e+00	 6.9341373009e-01	 5.2441550214e-01
 1.3937871438e+00	 7.2577342574e-01	 3.4348768203e-01
 1.3766038399e+00	 7.5785972096e-01	 1.6332617662e-01
 1.3586216634e+00	 7.8964327147e-01	-1.4594536809e-02
 1.3398479124e+00	 8.2109484578e-01	-1.8888237484e-01
 1.3202912890e+00	 8.5218540804e-01	-3.5823773439e-01
 1.2999618964e+00	 8.8288620142e-01	-5.2146242354e-01
 1.2788712286e+00	 9.1316883184e-01	-6.7746719729e-01
 1.2570321553e+00	 9.4300535142e-01	-8.2527768708e-01
 1.2344589001e+00	 9.7236834113e-01	-9.6403854992e-01
 1.1222345306e+00	 8.8397056294e-01	-5.9970462389e-01
 1.1010601006e+00	 9.1020931966e-01	-7.2990382008e-01
 1.0792476632e+00	 9.3596949396e-01	-8.5361726557e-01
 1.0568136520e+00	 9.6122805398e-01	-9.7002313692e-01
 1.0337756005e+00	 9.8596273346e-01	-1.0783661793e+00
 1.0101520967e+00	 1.0101520967e+00	-1.1779573298e+00
 9.8596273346e-01	 1.0337756005e+00	-1.2681725147e+00
 9.6122805398e-01	 1.0568136520e+00	-1.3484507287e+00
 9.3596949396e-01	 1.0792476632e+00	-1.4182915307e+00
 9.1020931966e-01	 1.1010601006e+00	-1.4772521094e+00
 8.8397056294e-01	 1.1222345306e+00	-1.5249440848e+00
 1.1334569989e+00	 8.9281036551e-01	-6.4602207205e-01
 1.1120708224e+00	 9.1931151267e-01	-7.7628572571e-01
 1.0900402582e+00	 9.4532929154e-01	-8.9976548051e-01
 1.0673819044e+00	 9.7084043994e-01	-1.0156506542e+00
 1.0441134698e+00	 9.9582246892e-01	-1.1232004470e+00
 1.0202537285e+00	 1.0202537285e+00	-1.2217433563e+00
 9.9582246892e-01	 1.0441134698e+00	-1.3106757038e+00
 9.7084043994e-01	 1.0673819044e+00	-1.3894593925e+00
 9.4532929154e-01	 1.0900402582e+00	-1.4576190351e+00
 9.1931151267e-01	 1.1120708224e+00	-1.5147386187e+00
 8.9281036551e-01	 1.1334569989e+00	-1.5604578835e+00
 1.1446794464e+00	 9.0165015158e-01	-6.8988304590e-01
 1.1230815236e+00	 9.2841368870e-01	-8.2021454004e-01
 1.1008328330e+00	 9.5468907165e-01	-9.4349095580e-01
 1.0779501371e+00	 9.8045280795e-01	-1.0589121236e+00
 1.0544513199e+00	 1.0056821860e+00	-1.1657506270e+00
 1.0303553413e+00	 1.0303553413e+00	-1.2633510063e+00
 1.0056821860e+00	 1.0544513199e+00	-1.3511280158e+00
 9.8045280795e-01	 1.0779501371e+00	-1.4285640581e+00
 9.5468907165e-01	 1.1008328330e+00	-1.4952059471e+00
 9.2841368870e-01	 1.1230815236e+00	-1.5506611747e+00
 9.0165015158e-01	 1.1446794464e+00	-1.5945938725e+00
 1.1559018781e+00	 9.1048992527e-01	-7.3139761827e-01
 1.1340922094e+00	 9.3751585198e-01	-8.6179156479e-01
 1.1116253928e+00	 9.6404883866e-01	-9.8488415088e-01
 1.0885183550e+00	 9.9006516250e-01	-1.0998851226e+00
 1.0647891555e+00	 1.0155418892e+00	-1.2060794204e+00
 1.0404569401e+00	 1.0404569401e+00	-1.3028261705e+00
 1.0155418892e+00	 1.0647891555e+00	-1.3895566704e+00
 9.9006516250e-01	 1.0885183550e+00	-1.4657715001e+00
 9.6404883866e-01	 1.1116253928e+00	-1.5310369202e+00
 9.3751585198e-01	 1.1340922094e+00	-1.5849807428e+00
 9.1048992527e-01	 1.1559018781e+00	-1.6272878799e+00
 1.1671242993e+00	 9.1932969072e-01	-7.7066823877e-01
 1.1451028849e+00	 9.4661800676e-01	-9.0111077659e-01
 1.1224179424e+00	 9.7340859693e-01	-1.0240285725e+00
 1.0990865630e+00	 9.9967750808e-01	-1.1386407212e+00
 1.0751269815e+00	 1.0254015833e+00	-1.2442435387e+00
 1.0505585294e+00	 1.0505585294e+00	-1.3402093387e+00
 1.0254015833e+00	 1.0751269815e+00	-1.4259841448e+00
 9.9967750808e-01	 1.0990865630e+00	-1.5010844772e+00
 9.7340859693e-01	 1.1224179424e+00	-1.5650933853e+00
 9.4661800676e-01	 1.1451028849e+00	-1.6176559241e+00
 9.1932969072e-01	 1.1671242993e+00	-1.6584742907e+00
 1.1783467153e+00	 9.2816945203e-01	-8.0779011581e-01
 1.1561135553e+00	 9.5572015730e-01	-9.3825919640e-01
 1.1332104870e+00	 9.8276835083e-01	-1.0610011272e+00
 1.1096547661e+00	 1.0092898492e+00	-1.1752438136e+00
 1.0854648026e+00	 1.0352612727e+00	-1.2802940093e+00
 1.0606601140e+00	 1.0606601140e+00	-1.3755358750e+00
 1.0352612727e+00	 1.0854648026e+00	-1.4604284143e+00
 1.0092898492e+00	 1.1096547661e+00	-1.5345019342e+00
 9.8276835083e-01	 1.1332104870e+00	-1.5973537105e+00
 9.5572015730e-01	 1.1561135553e+00	-1.6486430687e+00
 9.2816945203e-01	 1.1783467153e+00	-1.6880861110e+00
 1.1895691313e+00	 9.3700921335e-01	-8.4285158214e-01
 1.1671242256e+00	 9.6482230784e-01	-9.7331724313e-01
 1.1440030317e+00	 9.9212810474e-01	-1.0958724586e+00
 1.1202229692e+00	 1.0189021903e+00	-1.2097534350e+00
 1.0958026237e+00	 1.0451209622e+00	-1.3142764684e+00
 1.0707616986e+00	 1.0707616986e+00	-1.4088362823e+00
 1.0451209622e+00	 1.0958026237e+00	-1.4929031845e+00
 1.0189021903e+00	 1.1202229692e+00	-1.5660191979e+00
 9.9212810474e-01	 1.1440030317e+00	-1.6277933561e+00
 9.6482230784e-01	 1.1671242256e+00	-1.6778963879e+00
 9.3700921335e-01	 1.1895691313e+00	-1.7160550331e+00
 1.2007915526e+00	 9.4584897880e-01	-8.7593444482e-01
 1.1781349011e+00	 9.7392446263e-01	-1.0063590726e+00
 1.1547955813e+00	 1.0014878630e+00	-1.1287072713e+00
 1.1307911772e+00	 1.0285145359e+00	-1.2422230663e+00
 1.1061404497e+00	 1.0549806562e+00	-1.3462314422e+00
 1.0808632879e+00	 1.0808632879e+00	-1.4401364567e+00
 1.0549806562e+00	 1.1061404497e+00	-1.5234181150e+00
 1.0285145359e+00	 1.1307911772e+00	-1.5956281664e+00
 1.0014878630e+00	 1.1547955813e+00	-1.6563850272e+00
 9.7392446263e-01	 1.1781349011e+00	-1.7053680647e+00
 9.4584897880e-01	 1.2007915526e+00	-1.7423115016e+00
 1.2120139843e+00	 9.5468875249e-01	-9.0711432084e-01
 1.1891455869e+00	 9.8302662591e-01	-1.0374529026e+00
 1.1655881411e+00	 1.0108476300e+00	-1.1595646421e+00
 1.1413593951e+00	 1.0381268904e+00	-1.2727009274e+00
 1.1164782853e+00	 1.0648403595e+00	-1.3761946185e+00
 1.0909648867e+00	 1.0909648867e+00	-1.4694579337e+00
 1.0648403595e+00	 1.1164782853e+00	-1.5519790363e+00
 1.0381268904e+00	 1.1413593951e+00	-1.6233174937e+00
 1.0108476300e+00	 1.1655881411e+00	-1.6830988213e+00
 9.8302662591e-01	 1.1891455869e+00	-1.7310083632e+00
 9.5468875249e-01	 1.2120139843e+00	-1.7667847801e+00
 1.2232364317e+00	 9.6352853856e-01	-9.3646095912e-01
 1.2001562881e+00	 9.9212880193e-01	-1.0666613252e+00
 1.1763807159e+00	 1.0202074101e+00	-1.1884983184e+00
 1.1519276278e+00	 1.0477392584e+00	-1.3012302586e+00
 1.1268161354e+00	 1.0747000765e+00	-1.4041971078e+00
 1.1010664996e+00	 1.1010664996e+00	-1.4968181247e+00
 1.0747000765e+00	 1.1268161354e+00	-1.5785881596e+00
 1.0477392584e+00	 1.1519276278e+00	-1.6490727682e+00
 1.0202074101e+00	 1.1763807159e+00	-1.7079023738e+00
 9.9212880193e-01	 1.2001562881e+00	-1.7547657357e+00
 9.6352853856e-01	 1.2232364317e+00	-1.7894030192e+00
 1.2344589001e+00	 9.7236834113e-01	-9.6403854992e-01
 1.2111670099e+00	 1.0012309949e+00	-1.0940416073e+00
 1.1871733109e+00	 1.0295672077e+00	-1.2155570062e+00
 1.1624958802e+00	 1.0573516444e+00	-1.3278495923e+00
 1.1371540047e+00	 1.0845598120e+00	-1.4302656953e+00
 1.1111681313e+00	 1.1111681313e+00	-1.5222305472e+00
 1.0845598120e+00	 1.1371540047e+00	-1.6032442795e+00
 1.0573516444e+00	 1.1624958802e+00	-1.6728766872e+00
 1.0295672077e+00	 1.1871733109e+00	-1.7307609990e+00
 1.0012309949e+00	 1.2111670099e+00	-1.7765869303e+00
 9.7236834113e-01	 1.2344589001e+00	-1.8100933252e+00
 8.8397056294e-01	 1.1222345306e+00	-1.5249440848e+00
 8.5727695575e-01	 1.1427556564e+00	-1.5635551408e+00
 8.3015286718e-01	 1.1626093447e+00	-1.5956127008e+00
 8.0262322360e-01	 1.1817826648e+00	-1.6212718016e+00
 7.7471343215e-01	 1.2002639171e+00	-1.6406780352e+00
 7.4644930563e-01	 1.2180426524e+00	-1.6539649387e+00
 7.1785698657e-01	 1.2351096861e+00	-1.6612524304e+00
 6.8896287119e-01	 1.2514571071e+00	-1.6626463703e+00
 6.5979353355e-01	 1.2670782810e+00	-1.6582392821e+00
 6.3037565026e-01	 1.2819678480e+00	-1.6481122415e+00
 6.0073592630e-01	 1.2961217165e+00	-1.6323378912e+00
 8.9281036551e-01	 1.1334569989e+00	-1.5604578835e+00
 8.6584981932e-01	 1.1541833383e+00	-1.5969109178e+00
 8.3845448689e-01	 1.1742355656e+00	-1.6265800074e+00
 8.1064954385e-01	 1.1936006210e+00	-1.6496597325e+00
 7.8246065143e-01	 1.2122666879e+00	-1.6663322189e+00
 7.5391388054e-01	 1.2302232125e+00	-1.6767641507e+00
 7.2503563516e-01	 1.2474609184e+00	-1.6811049084e+00
 6.9585257546e-01	 1.2639718154e+00	-1.6794859160e+00
 6.6639154124e-01	 1.2797492027e+00	-1.6720212449e+00
 6.3667947589e-01	 1.2947876671e+00	-1.6588094788e+00
 6.0674335144e-01	 1.3090830758e+00	-1.6399368037e+00
 9.0165015158e-01	 1.1446794464e+00	-1.5945938725e+00
 8.7442266689e-01	 1.1656109988e+00	-1.6290776011e+00
 8.4675609111e-01	 1.1858617648e+00	-1.6565489749e+00
 8.1867584912e-01	 1.2054185552e+00	-1.6772479413e+00
 7.9020785625e-01	 1.2242694363e+00	-1.6913992873e+00
 7.6137844153e-01	 1.2424037499e+00	-1.6992091930e+00
 7.3221427034e-01	 1.2598121277e+00	-1.7008629887e+00
 7.0274226687e-01	 1.2764865004e+00	-1.6965242102e+00
 6.7298953662e-01	 1.2924201008e+00	-1.6863350074e+00
 6.4298328975e-01	 1.3076074622e+00	-1.6704179149e+00
 6.1275076537e-01	 1.3220444109e+00	-1.6488789507e+00
 9.1048992527e-01	 1.1559018781e+00	-1.6272878799e+00
 8.8299550246e-01	 1.1770386434e+00	-1.6599666012e+00
 8.5505768370e-01	 1.1974879478e+00	-1.6854092931e+00
 8.2670214316e-01	 1.2172364729e+00	-1.7039069207e+00
 7.9795505023e-01	 1.2362721679e+00	-1.7157328755e+00
 7.6884299206e-01	 1.2545842702e+00	-1.7211389858e+00
 7.3939289548e-01	 1.2721633197e+00	-1.7203528114e+00
 7.0963194863e-01	 1.2890011678e+00	-1.7135763283e+00
 6.7958752276e-01	 1.3050909812e+00	-1.7009860660e+00
 6.4928709480e-01	 1.3204272394e+00	-1.6827347121e+00
 6.1875817089e-01	 1.3350057279e+00	-1.6589541546e+00
 9.1932969072e-01	 1.1671242993e+00	-1.6584742907e+00
 8.9156833002e-01	 1.1884662773e+00	-1.6894887900e+00
 8.6335926854e-01	 1.2091141199e+00	-1.7130509276e+00
 8.3472842971e-01	 1.2290543795e+00	-1.7295081735e+00
 8.0570223697e-01	 1.2482748883e+00	-1.7391882918e+00
 7.7630753562e-01	 1.2667647791e+00	-1.7423947251e+00
 7.4657151392e-01	 1.2845145001e+00	-1.7394033456e+00
 7.1652162396e-01	 1.3015158236e+00	-1.7304606891e+00
 6.8618550274e-01	 1.3177618498e+00	-1.7157837456e+00
 6.5559089395e-01	 1.3332470047e+00	-1.6955613283e+00
 6.2476557081e-01	 1.3479670327e+00	-1.6699569927e+00
 9.2816945203e-01	 1.1783467153e+00	-1.6880861110e+00
 9.0014115359e-01	 1.1998939058e+00	-1.7175545157e+00
 8.7166084951e-01	 1.2207402866e+00	-1.7393640893e+00
 8.4275471251e-01	 1.2408722806e+00	-1.7539241399e+00
 8.1344942010e-01	 1.2602776031e+00	-1.7616224068e+00
 7.8377207570e-01	 1.2789452824e+00	-1.7628197374e+00
 7.5375012901e-01	 1.2968656748e+00	-1.7578462111e+00
 7.2341129607e-01	 1.3140304735e+00	-1.7469988450e+00
 6.9278347964e-01	 1.3304327124e+00	-1.7305409616e+00
 6.6189469017e-01	 1.3460667639e+00	-1.7087032513e+00
 6.3077296791e-01	 1.3609283316e+00	-1.6816865049e+00
 9.3700921335e-01	 1.1895691313e+00	-1.7160550331e+00
 9.0871397715e-01	 1.2113215344e+00	-1.7440736213e+00
 8.7996243048e-01	 1.2323664533e+00	-1.7642392100e+00
 8.5078099531e-01	 1.2526901817e+00	-1.7770281333e+00
 8.2119660322e-01	 1.2722803179e+00	-1.7828935533e+00
 7.9123661579e-01	 1.2911257856e+00	-1.7822593449e+00
 7.6092874410e-01	 1.3092168494e+00	-1.7755155129e+00
 7.3030096819e-01	 1.3265451234e+00	-1.7630152880e+00
 6.9938145654e-01	 1.3431035750e+00	-1.7450739974e+00
 6.6819848638e-01	 1.3588865232e+00	-1.7219697505e+00
 6.3678036502e-01	 1.3738896304e+00	-1.6939459201e+00
 9.4584897880e-01	 1.2007915526e+00	-1.7423115016e+00
 9.1728680472e-01	 1.2227491683e+00	-1.7689554661e+00
 8.8826401533e-01	 1.2439926254e+00	-1.7875669236e+00
 8.5880728185e-01	 1.2645080883e+00	-1.7986942848e+00
 8.2894378997e-01	 1.2842830382e+00	-1.8028614350e+00
 7.9870115935e-01	 1.3033062946e+00	-1.8005607432e+00
 7.6810736254e-01	 1.3215680299e+00	-1.7922476887e+00
 7.3719064352e-01	 1.3390597792e+00	-1.7783372689e+00
 7.0597943653e-01	 1.3557744436e+00	-1.7592022981e+00
 6.7450228554e-01	 1.3717062884e+00	-1.7351736452e+00
 6.4278776494e-01	 1.3868509352e+00	-1.7065424006e+00
 9.5468875249e-01	 1.2120139843e+00	-1.7667847801e+00
 9.2585964028e-01	 1.2341768128e+00	-1.7921089515e+00
 8.9656560792e-01	 1.2556188084e+00	-1.8092380522e+00
 8.6683357589e-01	 1.2763260060e+00	-1.8187974930e+00
 8.3669098394e-01	 1.2962857698e+00	-1.8213870449e+00
 8.0616570988e-01	 1.3154868149e+00	-1.8175728884e+00
 7.7528598768e-01	 1.3339192218e+00	-1.8078813675e+00
 7.4408032528e-01	 1.3515744466e+00	-1.7927946300e+00
 7.1257742267e-01	 1.3684453240e+00	-1.7727482779e+00
 6.8080609058e-01	 1.3845260656e+00	-1.7481310885e+00
 6.4879517046e-01	 1.3998122522e+00	-1.7192868032e+00
 9.6352853856e-01	 1.2232364317e+00	-1.7894030192e+00
 9.3443248785e-01	 1.2456044734e+00	-1.8134425481e+00
 9.0486721213e-01	 1.2672450076e+00	-1.8291435979e+00
 8.7485988116e-01	 1.2881439401e+00	-1.8372133825e+00
 8.4443818876e-01	 1.3082885182e+00	-1.8383325914e+00
 8.1363027087e-01	 1.3276673523e+00	-1.8331463946e+00
 7.8246462287e-01	 1.3462704311e+00	-1.8222572409e+00
 7.5097001669e-01	 1.3640891316e+00	-1.8062196502e+00
 7.1917541804e-01	 1.3811162221e+00	-1.7855371414e+00
 6.8710990445e-01	 1.3973458607e+00	-1.7606613661e+00
 6.5480258439e-01	 1.4127735873e+00	-1.7319934557e+00
 9.7236834113e-01	 1.2344589001e+00	-1.8100933252e+00
 9.4300535142e-01	 1.2570321553e+00	-1.8328643272e+00
 9.1316883184e-01	 1.2788712286e+00	-1.8471747384e+00
 8.8288620142e-01	 1.2999618964e+00	-1.8538182668e+00
 8.5218540804e-01	 1.3202912890e+00	-1.8535614320e+00
 8.2109484578e-01	 1.3398479124e+00	-1.8471334402e+00
 7.8964327147e-01	 1.3586216634e+00	-1.8352179427e+00
 7.5785972096e-01	 1.3766038399e+00	-1.8184469016e+00
 7.2577342574e-01	 1.3937871438e+00	-1.7973967177e+00
 6.9341373009e-01	 1.4101656798e+00	-1.7725867080e+00
 6.6081000953e-01	 1.4257349466e+00	-1.7444799477e+00
 6.0073592630e-01	 1.2961217165e+00	-1.6323378912e+00
 5.7090311561e-01	 1.3095361383e+00	-1.6117498109e+00
 5.4090168402e-01	 1.3222105396e+00	-1.5875717758e+00
 5.1075797952e-01	 1.3341445482e+00	-1.5604092071e+00
 4.8049810011e-01	 1.3453389831e+00	-1.5308019297e+00
 4.5014783034e-01	 1.3557958246e+00	-1.4992304342e+00
 4.1973258100e-01	 1.3655181805e+00	-1.4661229832e+00
 3.8927733199e-01	 1.3745102498e+00	-1.4318633196e+00
 3.5880657870e-01	 1.3827772816e+00	-1.3967987239e+00
 3.2834428200e-01	 1.3903255334e+00	-1.3612481726e+00
 2.9791382207e-01	 1.3971622246e+00	-1.3255103523e+00
 6.0674335144e-01	 1.3090830758e+00	-1.6399368037e+00
 5.7661220937e-01	 1.3226316433e+00	-1.6161098614e+00
 5.4631076018e-01	 1.3354327900e+00	-1.5884752295e+00
 5.1586561533e-01	 1.3474861400e+00	-1.5577192653e+00
 4.8530313380e-01	 1.3587925205e+00	-1.5244559867e+00
 4.5464935801e-01	 1.3693539315e+00	-1.4892333176e+00
 4.2392995285e-01	 1.3791735121e+00	-1.4525402870e+00
 3.9317014801e-01	 1.3882555030e+00	-1.4148149264e+00
 3.6239468383e-01	 1.3966052061e+00	-1.3764526004e+00
 3.3162776083e-01	 1.4042289412e+00	-1.3378145055e+00
 3.0089299296e-01	 1.4111340001e+00	-1.2992360796e+00
 6.1275076537e-01	 1.3220444109e+00	-1.6488789507e+00
 5.8232129248e-01	 1.3357271238e+00	-1.6222969926e+00
 5.5171982624e-01	 1.3486550157e+00	-1.5917265535e+00
 5.2097324160e-01	 1.3608277069e+00	-1.5579200572e+00
 4.9010815853e-01	 1.3722460328e+00	-1.5215511291e+00
 4.5915087728e-01	 1.3829120131e+00	-1.4832209231e+00
 4.2812731685e-01	 1.3928288182e+00	-1.4434655086e+00
 3.9706295675e-01	 1.4020007306e+00	-1.4027640483e+00
 3.6598278227e-01	 1.4104331047e+00	-1.3615474862e+00
 3.3491123353e-01	 1.4181323230e+00	-1.3202074675e+00
 3.0387215829e-01	 1.4251057495e+00	-1.2791052156e+00
 6.1875817089e-01	 1.3350057279e+00	-1.6589541546e+00
 5.8803036759e-01	 1.3488225860e+00	-1.6300945875e+00
 5.5712888473e-01	 1.3618772229e+00	-1.5971038929e+00
 5.2608086073e-01	 1.3741692551e+00	-1.5607860147e+00
 4.9491317653e-01	 1.3856995262e+00	-1.5218599031e+00
 4.6365239024e-01	 1.3964700758e+00	-1.4809660221e+00
 4.3232467498e-01	 1.4064841051e+00	-1.4386740185e+00
 4.0095576004e-01	 1.4157459389e+00	-1.3954912694e+00
 3.6957087569e-01	 1.4242609840e+00	-1.3518720147e+00
 3.3819470163e-01	 1.4320356854e+00	-1.3081326644e+00
 3.0685131945e-01	 1.4390774793e+00	-1.2640811382e+00
 6.2476557081e-01	 1.3479670327e+00	-1.6699569927e+00
 5.9373943738e-01	 1.3619180360e+00	-1.6392912390e+00
 5.6253793817e-01	 1.3750994178e+00	-1.6043910424e+00
 5.3118847508e-01	 1.3875107909e+00	-1.5660976287e+00
 4.9971819004e-01	 1.3991530071e+00	-1.5251612812e+00
 4.6815389901e-01	 1.4100281258e+00	-1.4822481245e+00
 4.3652202919e-01	 1.4201393793e+00	-1.4379481688e+00
 4.0484855971e-01	 1.4294911344e+00	-1.3927776689e+00
 3.7315896575e-01	 1.4380888504e+00	-1.3464795186e+00
 3.4147816667e-01	 1.4459390348e+00	-1.2992575298e+00
 3.0983047783e-01	 1.4530491961e+00	-1.2518562009e+00
 6.3077296791e-01	 1.3609283316e+00	-1.6816865049e+00
 5.9944850450e-01	 1.3750134799e+00	-1.6496804323e+00
 5.6794698909e-01	 1.3883216065e+00	-1.6133771034e+00
 5.3629608706e-01	 1.4008523204e+00	-1.5736410853e+00
 5.0452320132e-01	 1.4126064816e+00	-1.5312402801e+00
 4.7265540567e-01	 1.4235861694e+00	-1.4868530807e+00
 4.4071938145e-01	 1.4337946472e+00	-1.4408450004e+00
 4.0874135755e-01	 1.4432363235e+00	-1.3926227094e+00
 3.7674705414e-01	 1.4519167104e+00	-1.3428782636e+00
 3.4476163017e-01	 1.4598423778e+00	-1.2924430400e+00
 3.1280963482e-01	 1.4670209063e+00	-1.2420723595e+00
 6.3678036502e-01	 1.3738896304e+00	-1.6939459201e+00
 6.0515757163e-01	 1.3881089238e+00	-1.6610602468e+00
 5.7335604000e-01	 1.4015437952e+00	-1.6238561642e+00
 5.4140369903e-01	 1.4141938499e+00	-1.5832079248e+00
 5.0932821259e-01	 1.4260599562e+00	-1.5398876008e+00
 4.7715691233e-01	 1.4371442131e+00	-1.4939345118e+00
 4.4491673370e-01	 1.4474499150e+00	-1.4447803633e+00
 4.1263415539e-01	 1.4569815126e+00	-1.3933768639e+00
 3.8033514254e-01	 1.4657445703e+00	-1.3406459658e+00
 3.4804509368e-01	 1.4737457207e+00	-1.2874257516e+00
 3.1578879180e-01	 1.4809926166e+00	-1.2344739613e+00
 6.4278776494e-01	 1.3868509352e+00	-1.7065424006e+00
 6.1086664141e-01	 1.4012043738e+00	-1.6732330775e+00
 5.7876509344e-01	 1.4147659900e+00	-1.6356269990e+00
 5.4651131339e-01	 1.4275353857e+00	-1.5945947207e+00
 5.1413322610e-01	 1.4395134371e+00	-1.5498455374e+00
 4.8165842109e-01	 1.4507022631e+00	-1.5009091198e+00
 4.4911408791e-01	 1.4611051892e+00	-1.4488822413e+00
 4.1652695505e-01	 1.4707267081e+00	-1.3947790979e+00
 3.8392323260e-01	 1.4795724367e+00	-1.3395233010e+00
 3.5132855872e-01	 1.4876490701e+00	-1.2839508091e+00
 3.1876795018e-01	 1.4949643334e+00	-1.2288136087e+00
 6.4879517046e-01	 1.3998122522e+00	-1.7192868032e+00
 6.1657571653e-01	 1.4142998360e+00	-1.6860053732e+00
 5.8417415193e-01	 1.4279881972e+00	-1.6484927858e+00
 5.5161893251e-01	 1.4408769339e+00	-1.6062595780e+00
 5.1893824410e-01	 1.4529669305e+00	-1.5587983904e+00
 4.8615993406e-01	 1.4642603257e+00	-1.5073094745e+00
 4.5331144604e-01	 1.4747604761e+00	-1.4528989901e+00
 4.2041975835e-01	 1.4844719164e+00	-1.3965769367e+00
 3.8751132602e-01	 1.4934003160e+00	-1.3392593869e+00
 3.5461202682e-01	 1.5015524325e+00	-1.2817715829e+00
 3.2174711134e-01	 1.5089360632e+00	-1.2248518099e+00
 6.5480258439e-01	 1.4127735873e+00	-1.7319934557e+00
 6.2228479964e-01	 1.4273953166e+00	-1.6991873930e+00
 5.8958321800e-01	 1.4412104230e+00	-1.6608397525e+00
 5.5672655879e-01	 1.4542185008e+00	-1.6161671315e+00
 5.2374326883e-01	 1.4664204428e+00	-1.5664535810e+00
 4.9066145333e-01	 1.4778184073e+00	-1.5128951267e+00
 4.5750881004e-01	 1.4884157822e+00	-1.4565872051e+00
 4.2431256709e-01	 1.4982171440e+00	-1.3985261143e+00
 3.9109942445e-01	 1.5072282146e+00	-1.3396114336e+00
 3.5789549951e-01	 1.5154558143e+00	-1.2806493277e+00
 3.2472627667e-01	 1.5229078126e+00	-1.2223566486e+00
 6.6081000953e-01	 1.4257349466e+00	-1.7444799477e+00
 6.2799389340e-01	 1.4404908216e+00	-1.7113313439e+00
 5.9499229416e-01	 1.4544326734e+00	-1.6707623494e+00
 5.6183419459e-01	 1.4675600926e+00	-1.6240855886e+00
 5.2854830253e-01	 1.4798739801e+00	-1.5725832178e+00
 4.9516298100e-01	 1.4913765143e+00	-1.5174334964e+00
 4.6170618189e-01	 1.5020711138e+00	-1.4597113908e+00
 4.2820538310e-01	 1.5119623972e+00	-1.4003902410e+00
 3.9468752959e-01	 1.5210561391e+00	-1.3403444140e+00
 3.6117897834e-01	 1.5293592221e+00	-1.2803528586e+00
 3.2770544756e-01	 1.5368795881e+00	-1.2211034710e+00
 2.9791382207e-01	 1.3971622246e+00	-1.3255103523e+00
 2.6753583722e-01	 1.4032958951e+00	-1.2928564397e+00
 2.3723458483e-01	 1.4087350444e+00	-1.2654751669e+00
 2.0703149792e-01	 1.4134894915e+00	-1.2421025114e+00
 1.7694728091e-01	 1.4175698189e+00	-1.2215894871e+00
 1.4700188301e-01	 1.4209873210e+00	-1.2029122984e+00
 1.1721447557e-01	 1.4237539505e+00	-1.1851801578e+00
 8.7603433220e-02	 1.4258822653e+00	-1.1676407456e+00
 5.8186318747e-02	 1.4273853760e+00	-1.1496833322e+00
 2.8979871629e-02	 1.4282768926e+00	-1.1308396296e+00
 0.0000000000e+00	 1.4285708730e+00	-1.1107824689e+00
 3.0089299296e-01	 1.4111340001e+00	-1.2992360796e+00
 2.7021122493e-01	 1.4173290079e+00	-1.2641543723e+00
 2.3960695669e-01	 1.4228225494e+00	-1.2348146784e+00
 2.0910183560e-01	 1.4276245414e+00	-1.2098209277e+00
 1.7871677312e-01	 1.4317456726e+00	-1.1878306410e+00
 1.4847191796e-01	 1.4351973501e+00	-1.1676218211e+00
 1.1838663318e-01	 1.4379916461e+00	-1.1482802543e+00
 8.8479477159e-02	 1.4401412443e+00	-1.1290059829e+00
 5.8768188315e-02	 1.4416593863e+00	-1.1091143523e+00
 2.9269673523e-02	 1.4425598181e+00	-1.0880420842e+00
 0.0000000000e+00	 1.4428567384e+00	-1.0653520145e+00
 3.0387215829e-01	 1.4251057495e+00	-1.2791052156e+00
 2.7288660765e-01	 1.4313620946e+00	-1.2417728857e+00
 2.4197932413e-01	 1.4369100280e+00	-1.2101907295e+00
 2.1117216942e-01	 1.4417595649e+00	-1.1829707103e+00
 1.8048626203e-01	 1.4459214998e+00	-1.1588922651e+00
 1.4994195017e-01	 1.4494073526e+00	-1.1368211912e+00
 1.1955878861e-01	 1.4522293152e+00	-1.1157209643e+00
 8.9355519462e-02	 1.4544001967e+00	-1.0946626806e+00
 5.9350056796e-02	 1.4559333699e+00	-1.0728335973e+00
 2.9559474876e-02	 1.4568427170e+00	-1.0495442620e+00
 0.0000000000e+00	 1.4571425772e+00	-1.0242342357e+00
 3.0685131945e-01	 1.4390774793e+00	-1.2640811382e+00
 2.7556198662e-01	 1.4453951616e+00	-1.2235984479e+00
 2.4435168824e-01	 1.4509974869e+00	-1.1893091403e+00
 2.1324250034e-01	 1.4558945687e+00	-1.1598088703e+00
 1.8225574847e-01	 1.4600973071e+00	-1.1337621718e+00
 1.5141198032e-01	 1.4636173352e+00	-1.1099163749e+00
 1.2073094239e-01	 1.4664669643e+00	-1.0871141512e+00
 9.0231560538e-02	 1.4686591292e+00	-1.0643046370e+00
 5.9931924463e-02	 1.4702073336e+00	-1.0405531011e+00
 2.9849275823e-02	 1.4711255959e+00	-1.0150491426e+00
 0.0000000000e+00	 1.4714283959e+00	-9.8711341572e-01
 3.0983047783e-01	 1.4530491961e+00	-1.2518562009e+00
 2.7823736310e-01	 1.4594282155e+00	-1.2084372854e+00
 2.4672405014e-01	 1.4650849327e+00	-1.1716789662e+00
 2.1531282933e-01	 1.4700295592e+00	-1.1400770538e+00
 1.8402523325e-01	 1.4742731012e+00	-1.1121905615e+00
 1.5288200909e-01	 1.4778273046e+00	-1.0866568706e+00
 1.2190309507e-01	 1.4807046001e+00	-1.0622054935e+00
 9.1107600796e-02	 1.4829180483e+00	-1.0376703762e+00
 6.0513791587e-02	 1.4844812839e+00	-1.0120006991e+00
 3.0139076500e-02	 1.4854084615e+00	-9.8427015353e-01
 0.0000000000e+00	 1.4857142013e+00	-9.5368468603e-01
 3.1280963482e-01	 1.4670209063e+00	-1.2420723595e+00
 2.8091273832e-01	 1.4734612629e+00	-1.1960340310e+00
 2.4909641093e-01	 1.4791723719e+00	-1.1570517414e+00
 2.1738315735e-01	 1.4841645432e+00	-1.1235314199e+00
 1.8579471720e-01	 1.4884488887e+00	-1.0939356895e+00
 1.5435203718e-01	 1.4920372673e+00	-1.0668002630e+00
 1.2307524721e-01	 1.4949422293e+00	-1.0407489156e+00
 9.1983640646e-02	 1.4971769608e+00	-1.0145069652e+00
 6.1095658438e-02	 1.4987552276e+00	-9.8691321076e-01
 3.0428877041e-02	 1.4996913204e+00	-9.5693029921e-01
 0.0000000000e+00	 1.5000000000e+00	-9.2365350676e-01
 3.1578879180e-01	 1.4809926166e+00	-1.2344739613e+00
 2.8358811355e-01	 1.4874943102e+00	-1.1861415749e+00
 2.5146877173e-01	 1.4932598111e+00	-1.1451869727e+00
 2.1945348537e-01	 1.4982995272e+00	-1.1099359097e+00
 1.8756420116e-01	 1.5026246762e+00	-1.0787635059e+00
 1.5582206527e-01	 1.5062472300e+00	-1.0501118580e+00
 1.2424739935e-01	 1.5091798585e+00	-1.0225062119e+00
 9.2859680495e-02	 1.5114358733e+00	-9.9456961991e-01
 6.1677525290e-02	 1.5130291713e+00	-9.6503602147e-01
 3.0718677582e-02	 1.5139741793e+00	-9.3276171239e-01
 0.0000000000e+00	 1.5142857987e+00	-8.9673517948e-01
 3.1876795018e-01	 1.4949643334e+00	-1.2288136087e+00
 2.8626349002e-01	 1.5015273641e+00	-1.1785207081e+00
 2.5384113363e-01	 1.5073472569e+00	-1.1358517930e+00
 2.2152381435e-01	 1.5124345177e+00	-1.0990619051e+00
 1.8933368594e-01	 1.5168004703e+00	-1.0664473158e+00
 1.5729209405e-01	 1.5204571994e+00	-1.0363643382e+00
 1.2541955203e-01	 1.5234174944e+00	-1.0072466919e+00
 9.3735720753e-02	 1.5256947924e+00	-9.7762133399e-01
 6.2259392413e-02	 1.5273031216e+00	-9.4612268896e-01
 3.1008478258e-02	 1.5282570449e+00	-9.1150523059e-01
 0.0000000000e+00	 1.5285716041e+00	-8.7265438736e-01
 3.2174711134e-01	 1.5089360632e+00	-1.2248518099e+00
 2.8893886899e-01	 1.5155604311e+00	-1.1729397868e+00
 2.5621349774e-01	 1.5214347158e+00	-1.1288206351e+00
 2.2359414527e-01	 1.5265695215e+00	-1.0906879074e+00
 1.9110317237e-01	 1.5309762776e+00	-1.0567674578e+00
 1.5876212420e-01	 1.5346671820e+00	-1.0253374376e+00
 1.2659170581e-01	 1.5376551435e+00	-9.9474684487e-01
 9.4611761829e-02	 1.5399537249e+00	-9.6343252831e-01
 6.2841260080e-02	 1.5415770853e+00	-9.2993457092e-01
 3.1298279206e-02	 1.5425399238e+00	-8.9290999612e-01
 0.0000000000e+00	 1.5428574228e+00	-8.5114476084e-01
 3.2472627667e-01	 1.5229078126e+00	-1.2223566486e+00
 2.9161425171e-01	 1.5295935178e+00	-1.1691744139e+00
 2.5858586517e-01	 1.5355221944e+00	-1.1238749220e+00
 2.2566447909e-01	 1.5407045450e+00	-1.0845992335e+00
 1.9287266128e-01	 1.5451521048e+00	-1.0495110009e+00
 1.6023215640e-01	 1.5488771845e+00	-1.0168176336e+00
 1.2776386123e-01	 1.5518928126e+00	-9.8479002307e-01
 9.5487804132e-02	 1.5542126773e+00	-9.5178071939e-01
 6.3423128561e-02	 1.5558510689e+00	-9.1624047329e-01
 3.1588080558e-02	 1.5568228227e+00	-8.7673307810e-01
 0.0000000000e+00	 1.5571432616e+00	-8.3194846722e-01
 3.2770544756e-01	 1.5368795881e+00	-1.2211034710e+00
 2.9428963942e-01	 1.5436266306e+00	-1.1670071386e+00
 2.6095823704e-01	 1.5496096993e+00	-1.1208027750e+00
 2.2773481677e-01	 1.5548395949e+00	-1.0805877278e+00
 1.9464215349e-01	 1.5593279585e+00	-1.0444714574e+00
 1.6170219135e-01	 1.5630872136e+00	-1.0105978563e+00
 1.2893601884e-01	 1.5661305082e+00	-9.7716614226e-01
 9.6363848071e-02	 1.5684716563e+00	-9.4245020609e-01
 6.4004998129e-02	 1.5701250792e+00	-9.0481631777e-01
 3.1877882452e-02	 1.5711057482e+00	-8.6273911519e-01
 0.0000000000e+00	 1.5714291270e+00	-8.1481582269e-01
 1.5714291270e+00	 0.0000000000e+00	 3.0200000724e+00
 1.5711057482e+00	 3.1877882452e-02	 3.0251196003e+00
 1.5701250792e+00	 6.4004998129e-02	 3.0095665491e+00
 1.5684716563e+00	 9.6363848071e-02	 2.9748273525e+00
 1.5661305082e+00	 1.2893601884e-01	 2.9224430399e+00
 1.5630872136e+00	 1.6170219135e-01	 2.8539993778e+00
 1.5593279585e+00	 1.9464215349e-01	 2.7711160881e+00
 1.5548395949e+00	 2.2773481677e-01	 2.6754351697e+00
 1.5496096993e+00	 2.6095823704e-01	 2.5686083633e+00
 1.5436266306e+00	 2.9428963942e-01	 2.4522838098e+00
 1.5368795881e+00	 3.2770544756e-01	 2.3280919635e+00
 1.5857150240e+00	 0.0000000000e+00	 3.0120717540e+00
 1.5853887055e+00	 3.2167684989e-02	 3.0168133052e+00
 1.5843991212e+00	 6.4586868987e-02	 3.0006579262e+00
 1.5827306669e+00	 9.7239893951e-02	 2.9651242408e+00
 1.5803682354e+00	 1.3010817905e-01	 2.9117824638e+00
 1.5772972741e+00	 1.6317222956e-01	 2.8422440929e+00
 1.5735038435e+00	 1.9641164963e-01	 2.7581506735e+00
 1.5689746762e+00	 2.2980515904e-01	 2.6611616679e+00
 1.5636972355e+00	 2.6333061416e-01	 2.5529414733e+00
 1.5576597746e+00	 2.9696503306e-01	 2.4351456401e+00
 1.5508513945e+00	 3.3068462505e-01	 2.3094063599e+00
 1.6000009511e+00	 0.0000000000e+00	 3.0050715207e+00
 1.5996716927e+00	 3.2457488135e-02	 3.0091409117e+00
 1.5986731931e+00	 6.5168741068e-02	 2.9921524171e+00
 1.5969897075e+00	 9.8115941672e-02	 2.9556510382e+00
 1.5946059925e+00	 1.3128034172e-01	 2.9012298909e+00
 1.5915073645e+00	 1.6464227086e-01	 2.8305194701e+00
 1.5876797584e+00	 1.9818114948e-01	 2.7451759906e+00
 1.5831097871e+00	 2.3187550566e-01	 2.6468688383e+00
 1.5777848012e+00	 2.6570299626e-01	 2.5372671782e+00
 1.5716929480e+00	 2.9964043232e-01	 2.4180257785e+00
 1.5648232303e+00	 3.3366380880e-01	 2.2907701195e+00
 1.6142869048e+00	 0.0000000000e+00	 2.9988820276e+00
 1.6139547065e+00	 3.2747291821e-02	 3.0019897483e+00
 1.6129472916e+00	 6.5750614234e-02	 2.9839408561e+00
 1.6112487747e+00	 9.8991991028e-02	 2.9463011032e+00
 1.6088437762e+00	 1.3245250658e-01	 2.8906804137e+00
 1.6057174814e+00	 1.6611231490e-01	 2.8187217454e+00
 1.6018556997e+00	 1.9995065263e-01	 2.7320890337e+00
 1.5972449245e+00	 2.3394585614e-01	 2.6324542578e+00
 1.5918723933e+00	 2.6807538279e-01	 2.5214836787e+00
 1.5857261476e+00	 3.0231583657e-01	 2.4008233093e+00
 1.5787950921e+00	 3.3664299811e-01	 2.2720836941e+00
 1.6285728819e+00	 0.0000000000e+00	 2.9933906602e+00
 1.6282377438e+00	 3.3037095981e-02	 2.9952517106e+00
 1.6272214135e+00	 6.6332488351e-02	 2.9759185237e+00
 1.6255078652e+00	 9.9868041815e-02	 2.9369721548e+00
 1.6230815831e+00	 1.3362467335e-01	 2.8800334295e+00
 1.6199276215e+00	 1.6758236134e-01	 2.8067514253e+00
 1.6160316641e+00	 2.0172015868e-01	 2.7187910475e+00
 1.6113800849e+00	 2.3601621001e-01	 2.6178197423e+00
 1.6059600083e+00	 2.7044777320e-01	 2.5054934013e+00
 1.5997593701e+00	 3.0499124519e-01	 2.3834415225e+00
 1.5927669768e+00	 3.3962219229e-01	 2.2532517049e+00
 1.6428588790e+00	 0.0000000000e+00	 2.9884893289e+00
 1.6425208010e+00	 3.3326900547e-02	 2.9888230612e+00
 1.6414955554e+00	 6.6914363283e-02	 2.9679849500e+00
 1.6397669756e+00	 1.0074409383e-01	 2.9275660785e+00
 1.6373194100e+00	 1.3479684176e-01	 2.8691924464e+00
 1.6341377815e+00	 1.6905240984e-01	 2.7945130934e+00
 1.6302076485e+00	 2.0348966720e-01	 2.7051873343e+00
 1.6255152651e+00	 2.3808656677e-01	 2.6028711518e+00
 1.6200476431e+00	 2.7282016693e-01	 2.4892028043e+00
 1.6137926123e+00	 3.0766665756e-01	 2.3657877186e+00
 1.6067388811e+00	 3.4260139064e-01	 2.2341827474e+00
 1.6571448927e+00	 0.0000000000e+00	 2.9840742741e+00
 1.6568038748e+00	 3.3616705451e-02	 2.9826042400e+00
 1.6557697139e+00	 6.7496238894e-02	 2.9600437285e+00
 1.6540261027e+00	 1.0162014686e-01	 2.9179887424e+00
 1.6515572535e+00	 1.3596901154e-01	 2.8580649009e+00
 1.6483479581e+00	 1.7052246005e-01	 2.7819152273e+00
 1.6443836493e+00	 2.0525917779e-01	 2.6911870700e+00
 1.6396504618e+00	 2.4015692595e-01	 2.5875182068e+00
 1.6341352943e+00	 2.7519256343e-01	 2.4725221925e+00
 1.6278258709e+00	 3.1034207305e-01	 2.3477730243e+00
 1.6207108016e+00	 3.4558059246e-01	 2.2147892080e+00
 1.6714309198e+00	 0.0000000000e+00	 2.9800458812e+00
 1.6710869620e+00	 3.3906510625e-02	 2.9764996841e+00
 1.6700438857e+00	 6.8078115048e-02	 2.9520023392e+00
 1.6682852431e+00	 1.0249620072e-01	 2.9081498220e+00
 1.6657951103e+00	 1.3714118242e-01	 2.8465619837e+00
 1.6625581480e+00	 1.7199251164e-01	 2.7688700252e+00
 1.6585596634e+00	 2.0702869002e-01	 2.6767031305e+00
 1.6537856717e+00	 2.4222728706e-01	 2.5716743137e+00
 1.6482229587e+00	 2.7756496214e-01	 2.4553655425e+00
 1.6418591425e+00	 3.1301749104e-01	 2.3293122168e+00
 1.6346827352e+00	 3.4855979707e-01	 2.1949870884e+00
 1.6857169568e+00	 0.0000000000e+00	 2.9763085047e+00
 1.6853700592e+00	 3.4196316002e-02	 2.9704176565e+00
 1.6843180675e+00	 6.8659991608e-02	 2.9437719811e+00
 1.6825443935e+00	 1.0337225518e-01	 2.8979626350e+00
 1.6800329770e+00	 1.3831335411e-01	 2.8345984752e+00
 1.6767683478e+00	 1.7346256425e-01	 2.7552932412e+00
 1.6727356874e+00	 2.0879820350e-01	 2.6616519266e+00
 1.6679208915e+00	 2.4429764962e-01	 2.5552563992e+00
 1.6623106329e+00	 2.7993736251e-01	 2.4376503365e+00
 1.6558924240e+00	 3.1569291090e-01	 2.3103235575e+00
 1.6486546786e+00	 3.5153900375e-01	 2.1746958401e+00
 1.7000030006e+00	 0.0000000000e+00	 2.9727703016e+00
 1.6996531631e+00	 3.4486121514e-02	 2.9642700846e+00
 1.6985922560e+00	 6.9241868441e-02	 2.9352674128e+00
 1.6968035505e+00	 1.0424831006e-01	 2.8873439832e+00
 1.6942708504e+00	 1.3948552636e-01	 2.8220925886e+00
 1.6909785542e+00	 1.7493261755e-01	 2.7411040288e+00
 1.6869117180e+00	 2.1056771780e-01	 2.6459532470e+00
 1.6820561178e+00	 2.4636801315e-01	 2.5381847528e+00
 1.6763983137e+00	 2.8230976399e-01	 2.4192974048e+00
 1.6699257120e+00	 3.1836833200e-01	 2.2907286344e+00
 1.6626266284e+00	 3.5451821183e-01	 2.1538382070e+00
 1.7142890476e+00	 0.0000000000e+00	 2.9693430730e+00
 1.7139362703e+00	 3.4775927094e-02	 2.9579724051e+00
 1.7128664478e+00	 6.9823745408e-02	 2.9264068013e+00
 1.7110627108e+00	 1.0512436514e-01	 2.8762140035e+00
 1.7085087271e+00	 1.4065769887e-01	 2.8089658211e+00
 1.7051887640e+00	 1.7640267120e-01	 2.7262247923e+00
 1.7010877519e+00	 2.1233723252e-01	 2.6295301099e+00
 1.6961913475e+00	 2.4843837716e-01	 2.5203828780e+00
 1.6904859978e+00	 2.8468216602e-01	 2.4002307754e+00
 1.6839590033e+00	 3.2104375374e-01	 2.2704522122e+00
 1.6765985816e+00	 3.5749742061e-01	 2.1323400760e+00
 1.5368795881e+00	 3.2770544756e-01	 2.3280919635e+00
 1.5293592221e+00	 3.6117897834e-01	 2.1953622090e+00
 1.5210561391e+00	 3.9468752959e-01	 2.0530912391e+00
 1.5119623972e+00	 4.2820538310e-01	 1.9024136178e+00
 1.5020711138e+00	 4.6170618189e-01	 1.7444569833e+00
 1.4913765143e+00	 4.9516298100e-01	 1.5803358826e+00
 1.4798739801e+00	 5.2854830253e-01	 1.4111454515e+00
 1.4675600926e+00	 5.6183419459e-01	 1.2379549867e+00
 1.4544326734e+00	 5.9499229416e-01	 1.0618014637e+00
 1.4404908216e+00	 6.2799389340e-01	 8.8368305729e-01
 1.4257349466e+00	 6.6081000953e-01	 7.0456375039e-01
 1.5508513945e+00	 3.3068462505e-01	 2.3094063599e+00
 1.5432626608e+00	 3.6446246445e-01	 2.1752013441e+00
 1.5348840942e+00	 3.9827564268e-01	 2.0316704964e+00
 1.5257076809e+00	 4.3209820774e-01	 1.8799371939e+00
 1.5157264756e+00	 4.6590356303e-01	 1.7211164655e+00
 1.5049346513e+00	 4.9966451864e-01	 1.5563088525e+00
 1.4933275473e+00	 5.3335334687e-01	 1.3865941190e+00
 1.4809017140e+00	 5.6694184173e-01	 1.2130248602e+00
 1.4676549531e+00	 6.0040138231e-01	 1.0366200593e+00
 1.4535863556e+00	 6.3370299983e-01	 8.5835865158e-01
 1.4386963347e+00	 6.6681744799e-01	 6.7917316363e-01
 1.5648232303e+00	 3.3366380880e-01	 2.2907701195e+00
 1.5571661286e+00	 3.6774595745e-01	 2.1551307100e+00
 1.5487120783e+00	 4.0186376330e-01	 2.0103982488e+00
 1.5394529935e+00	 4.3599104055e-01	 1.8576809023e+00
 1.5293818661e+00	 4.7010095299e-01	 1.6980769821e+00
 1.5184928167e+00	 5.0416606574e-01	 1.5326688603e+00
 1.5067811428e+00	 5.3815840131e-01	 1.3625167427e+00
 1.4942433634e+00	 5.7204949958e-01	 1.1886523435e+00
 1.4808772605e+00	 6.0581048182e-01	 1.0120725150e+00
 1.4666819171e+00	 6.3941211824e-01	 8.3373288881e-01
 1.4516577499e+00	 6.7282489907e-01	 6.5454159497e-01
 1.5787950921e+00	 3.3664299811e-01	 2.2720836941e+00
 1.5710696223e+00	 3.7102945658e-01	 2.1350524389e+00
 1.5625400883e+00	 4.0545189062e-01	 1.9891783666e+00
 1.5531983317e+00	 4.3988388063e-01	 1.8355505087e+00
 1.5430372821e+00	 4.7429835078e-01	 1.6752464528e+00
 1.5320510075e+00	 5.0866762125e-01	 1.5093263419e+00
 1.5202347633e+00	 5.4296346472e-01	 1.3388267396e+00
 1.5075850376e+00	 5.7715716698e-01	 1.1647544041e+00
 1.4940995927e+00	 6.1121959142e-01	 9.8808002228e-01
 1.4797775031e+00	 6.4512124731e-01	 8.0973196077e-01
 1.4646191894e+00	 6.7883236136e-01	 6.3059009928e-01
 1.5927669768e+00	 3.3962219229e-01	 2.2532517049e+00
 1.5849731388e+00	 3.7431296107e-01	 2.1148727858e+00
 1.5763681208e+00	 4.0904002380e-01	 1.9679187947e+00
 1.5669436924e+00	 4.4377672707e-01	 1.8134558008e+00
 1.5566927204e+00	 4.7849575543e-01	 1.6525367588e+00
 1.5456092204e+00	 5.1316918410e-01	 1.4861956214e+00
 1.5336884059e+00	 5.4776853597e-01	 1.3154413265e+00
 1.5209267337e+00	 5.8226484271e-01	 1.1412517014e+00
 1.5073219465e+00	 6.1662870987e-01	 9.6456733322e-01
 1.4928731105e+00	 6.5083038570e-01	 7.8628546301e-01
 1.4775806500e+00	 6.8483983347e-01	 6.0725396496e-01
 1.6067388811e+00	 3.4260139064e-01	 2.2341827474e+00
 1.5988766748e+00	 3.7759647016e-01	 2.0945019346e+00
 1.5901961727e+00	 4.1262816201e-01	 1.9465313607e+00
 1.5806890723e+00	 4.4766957896e-01	 1.7913103975e+00
 1.5703481778e+00	 4.8269316596e-01	 1.6298635528e+00
 1.5591674523e+00	 5.1767075326e-01	 1.4631947236e+00
 1.5471420673e+00	 5.5257361396e-01	 1.2922813350e+00
 1.5342684485e+00	 5.8737252559e-01	 1.1180684052e+00
 1.5205443187e+00	 6.2203783588e-01	 9.4146258473e-01
 1.5059687362e+00	 6.5653953209e-01	 7.6332622446e-01
 1.4905421288e+00	 6.9084731398e-01	 5.8447153391e-01
 1.6207108016e+00	 3.4558059246e-01	 2.2147892080e+00
 1.6127802270e+00	 3.8087998308e-01	 2.0738538151e+00
 1.6040242408e+00	 4.1621630440e-01	 1.9249315917e+00
 1.5944344683e+00	 4.5156243539e-01	 1.7690315674e+00
 1.5840036511e+00	 4.8689058138e-01	 1.6071460799e+00
 1.5727257000e+00	 5.2217232767e-01	 1.4402451970e+00
 1.5605957443e+00	 5.5737869754e-01	 1.2692710371e+00
 1.5476101788e+00	 5.9248021444e-01	 1.0951320251e+00
 1.5337667064e+00	 6.2744696821e-01	 9.1869713141e-01
 1.5190643771e+00	 6.6224868513e-01	 7.4079014587e-01
 1.5035036227e+00	 6.9685480151e-01	 5.6218404670e-01
 1.6346827352e+00	 3.4855979707e-01	 2.1949870884e+00
 1.6266837921e+00	 3.8416349906e-01	 2.0528459288e+00
 1.6178523217e+00	 4.1980445014e-01	 1.9030385421e+00
 1.6081798771e+00	 4.5545529545e-01	 1.7465400574e+00
 1.5976591372e+00	 4.9108800072e-01	 1.5843070067e+00
 1.5862839604e+00	 5.2667390629e-01	 1.4172719447e+00
 1.5740494339e+00	 5.6218378562e-01	 1.2463379790e+00
 1.5609519216e+00	 5.9758790805e-01	 1.0723732474e+00
 1.5469891064e+00	 6.3285610558e-01	 8.9620538734e-01
 1.5321600303e+00	 6.6795784351e-01	 7.1861604684e-01
 1.5164651287e+00	 7.0286229464e-01	 5.4033549594e-01
 1.6486546786e+00	 3.5153900375e-01	 2.1746958401e+00
 1.6405873670e+00	 3.8744701734e-01	 2.0313991842e+00
 1.6316804124e+00	 4.2339259839e-01	 1.8807746295e+00
 1.6219252955e+00	 4.5934815824e-01	 1.7237599293e+00
 1.6113146329e+00	 4.9528542300e-01	 1.5612722602e+00
 1.5998422302e+00	 5.3117548805e-01	 1.3942030654e+00
 1.5875031330e+00	 5.6698887705e-01	 1.2234128245e+00
 1.5742936737e+00	 6.0269560524e-01	 1.0497257817e+00
 1.5602115157e+00	 6.3826524674e-01	 8.7392467605e-01
 1.5452556927e+00	 6.7366700588e-01	 6.9674552070e-01
 1.5294266437e+00	 7.0886979197e-01	 5.1887248720e-01
 1.6626266284e+00	 3.5451821183e-01	 2.1538382070e+00
 1.6544909483e+00	 3.9073053716e-01	 2.0094377399e+00
 1.6455085094e+00	 4.2698074831e-01	 1.8580654784e+00
 1.6356707203e+00	 4.6324102284e-01	 1.7006184058e+00
 1.6249701349e+00	 4.9948284723e-01	 1.5379708746e+00
 1.6134005064e+00	 5.3567707191e-01	 1.3709697017e+00
 1.6009568383e+00	 5.7179397073e-01	 1.2004292054e+00
 1.5876354321e+00	 6.0780330480e-01	 1.0271262142e+00
 1.5734339312e+00	 6.4367439042e-01	 8.5179508822e-01
 1.5583513612e+00	 6.7937617092e-01	 6.7512279693e-01
 1.5423881648e+00	 7.1487729211e-01	 4.9774410720e-01
 1.6765985816e+00	 3.5749742061e-01	 2.1323400760e+00
 1.6683945330e+00	 3.9401405774e-01	 1.9868888565e+00
 1.6593366097e+00	 4.3056889908e-01	 1.8348397733e+00
 1.6494161483e+00	 4.6713388836e-01	 1.6770457233e+00
 1.6386256401e+00	 5.0368027245e-01	 1.5143348457e+00
 1.6269587858e+00	 5.4017865683e-01	 1.3475058965e+00
 1.6144105468e+00	 5.7659906553e-01	 1.1773235802e+00
 1.6009771935e+00	 6.1291100557e-01	 1.0045138695e+00
 1.5866563497e+00	 6.4908353537e-01	 8.2975934665e-01
 1.5714470327e+00	 6.8508533728e-01	 6.5369461065e-01
 1.5553496890e+00	 7.2088479365e-01	 4.7690179867e-01
 1.4257349466e+00	 6.6081000953e-01	 7.0456375039e-01
 1.4101656798e+00	 6.9341373009e-01	 5.2441550214e-01
 1.3937871438e+00	 7.2577342574e-01	 3.4348768203e-01
 1.3766038399e+00	 7.5785972096e-01	 1.6332617662e-01
 1.3586216634e+00	 7.8964327147e-01	-1.4594536809e-02
 1.3398479124e+00	 8.2109484578e-01	-1.8888237484e-01
 1.3202912890e+00	 8.5218540804e-01	-3.5823773439e-01
 1.2999618964e+00	 8.8288620142e-01	-5.2146242354e-01
 1.2788712286e+00	 9.1316883184e-01	-6.7746719729e-01
 1.2570321553e+00	 9.4300535142e-01	-8.2527768708e-01
 1.2344589001e+00	 9.7236834113e-01	-9.6403854992e-01
 1.4386963347e+00	 6.6681744799e-01	 6.7917316363e-01
 1.4229855273e+00	 6.9971756970e-01	 4.9866300400e-01
 1.4064580937e+00	 7.3237144806e-01	 3.1734461729e-01
 1.3891185759e+00	 7.6474944050e-01	 1.3689586481e-01
 1.3709729231e+00	 7.9682193597e-01	-4.1214953282e-02
 1.3520284995e+00	 8.2855943725e-01	-2.1560354700e-01
 1.3322940864e+00	 8.5993264450e-01	-3.8497998895e-01
 1.3117798788e+00	 8.9091253947e-01	-5.4815786934e-01
 1.2904974753e+00	 9.2147046996e-01	-7.0406200018e-01
 1.2684598625e+00	 9.5157823400e-01	-8.5173444494e-01
 1.2456813934e+00	 9.8120816329e-01	-9.9033868882e-01
 1.4516577499e+00	 6.7282489907e-01	 6.5454159497e-01
 1.4358054017e+00	 7.0602142254e-01	 4.7404599080e-01
 1.4191290702e+00	 7.3896948423e-01	 2.9238657396e-01
 1.4016333383e+00	 7.7163917451e-01	 1.1161685344e-01
 1.3833242087e+00	 8.0400061555e-01	-6.6729372496e-02
 1.3642091122e+00	 8.3602404439e-01	-2.4127121208e-01
 1.3442969091e+00	 8.6767989722e-01	-4.1072389331e-01
 1.3235978861e+00	 8.9893889437e-01	-5.7390819460e-01
 1.3021237464e+00	 9.2977212550e-01	-7.2975836846e-01
 1.2798875937e+00	 9.6015113458e-01	-8.7732832068e-01
 1.2569039102e+00	 9.9004800402e-01	-1.0157958484e+00
 1.4646191894e+00	 6.7883236136e-01	 6.3059009928e-01
 1.4486253000e+00	 7.1232528716e-01	 4.5018744761e-01
 1.4318000703e+00	 7.4556753273e-01	 2.6855317946e-01
 1.4141481240e+00	 7.7852892139e-01	 8.7450124169e-02
 1.3956755174e+00	 8.1117930853e-01	-9.1167981500e-02
 1.3763897476e+00	 8.4348866546e-01	-2.6590641344e-01
 1.3562997541e+00	 8.7542716441e-01	-4.3548109838e-01
 1.3354159154e+00	 9.0696526426e-01	-5.9871547903e-01
 1.3137500393e+00	 9.3807379655e-01	-7.5454870893e-01
 1.2913153462e+00	 9.6872405116e-01	-9.0204203103e-01
 1.2681264479e+00	 9.9888786125e-01	-1.0403831306e+00
 1.4775806500e+00	 6.8483983347e-01	 6.0725396496e-01
 1.4614452193e+00	 7.1862916207e-01	 4.2698838384e-01
 1.4444710911e+00	 7.5216559200e-01	 2.4552035637e-01
 1.4266629301e+00	 7.8541867951e-01	 6.4360882723e-02
 1.4080268463e+00	 8.1835801324e-01	-1.1455708539e-01
 1.3885704029e+00	 8.5095329873e-01	-2.8952666663e-01
 1.3683026187e+00	 8.8317444425e-01	-4.5926008783e-01
 1.3472339641e+00	 9.1499164726e-01	-6.2257899647e-01
 1.3253763511e+00	 9.4637548115e-01	-7.7842297917e-01
 1.3027431175e+00	 9.7729698174e-01	-9.2585619013e-01
 1.2793490040e+00	 1.0077277329e+00	-1.0640718666e+00
 1.4905421288e+00	 6.9084731398e-01	 5.8447153391e-01
 1.4742651565e+00	 7.2493304581e-01	 4.0439348318e-01
 1.4571421297e+00	 7.5876366050e-01	 2.2312748339e-01
 1.4391777538e+00	 7.9230844728e-01	 4.2180141454e-02
 1.4203781924e+00	 8.2553672799e-01	-1.3691930880e-01
 1.4007510753e+00	 8.5841794245e-01	-3.1214615254e-01
 1.3803055001e+00	 8.9092173493e-01	-4.8206636204e-01
 1.3590520292e+00	 9.2301804149e-01	-6.4549538892e-01
 1.3370026792e+00	 9.5467717738e-01	-8.0136885103e-01
 1.3141709047e+00	 9.8586992433e-01	-9.4874946211e-01
 1.2905715759e+00	 1.0165676170e+00	-1.0868317575e+00
 1.5035036227e+00	 6.9685480151e-01	 5.6218404670e-01
 1.4870851087e+00	 7.3123693690e-01	 3.8235012753e-01
 1.4698131830e+00	 7.6536173671e-01	 2.0132877980e-01
 1.4516925920e+00	 7.9919822309e-01	 2.0629984794e-02
 1.4327295530e+00	 8.3271545112e-01	-1.5829428264e-01
 1.4129317619e+00	 8.6588259487e-01	-3.3377590460e-01
 1.3923083956e+00	 8.9866903466e-01	-5.0390261676e-01
 1.3708701082e+00	 9.3104444509e-01	-6.6745883588e-01
 1.3486290209e+00	 9.6297888329e-01	-8.2337187022e-01
 1.3255987052e+00	 9.9444287691e-01	-9.7069871029e-01
 1.3017941608e+00	 1.0254075113e+00	-1.1086310136e+00
 1.5164651287e+00	 7.0286229464e-01	 5.4033549594e-01
 1.4999050729e+00	 7.3754083387e-01	 3.6080825773e-01
 1.4824842482e+00	 7.7195981907e-01	 1.8008080847e-01
 1.4642074420e+00	 8.0608800533e-01	-3.3040659020e-04
 1.4450809251e+00	 8.3989418096e-01	-1.7896698952e-01
 1.4251124598e+00	 8.7334725427e-01	-3.5442399027e-01
 1.4043113022e+00	 9.0641634162e-01	-5.2476891666e-01
 1.3826881982e+00	 9.3907085618e-01	-6.8846121939e-01
 1.3602553734e+00	 9.7128059695e-01	-8.4441561206e-01
 1.3370265164e+00	 1.0030158375e+00	-9.9167914342e-01
 1.3130167561e+00	 1.0342474139e+00	-1.1294364901e+00
 1.5294266437e+00	 7.0886979197e-01	 5.1887248720e-01
 1.5127250460e+00	 7.4384473526e-01	 3.3972024176e-01
 1.4951553222e+00	 7.7855790605e-01	 1.5934235206e-01
 1.4767223007e+00	 8.1297779239e-01	-2.0735256432e-02
 1.4574323058e+00	 8.4707291581e-01	-1.9904456016e-01
 1.4372931663e+00	 8.8081191888e-01	-3.7418534971e-01
 1.4163142172e+00	 9.1416365400e-01	-5.4466286431e-01
 1.3945062965e+00	 9.4709727289e-01	-7.0849228491e-01
 1.3718817340e+00	 9.7958231642e-01	-8.6448183382e-01
 1.3484543356e+00	 1.0115888041e+00	-1.0116644588e+00
 1.3242393594e+00	 1.0430873227e+00	-1.1492138213e+00
 1.5423881648e+00	 7.1487729211e-01	 4.9774410720e-01
 1.5255450251e+00	 7.5014863959e-01	 3.1904074957e-01
 1.5078264021e+00	 7.8515599611e-01	 1.3907429552e-01
 1.4892371652e+00	 8.1986758267e-01	-4.0616903587e-02
 1.4697836923e+00	 8.5425165402e-01	-2.1855206941e-01
 1.4494738784e+00	 8.8827658699e-01	-3.9331819479e-01
 1.4283171379e+00	 9.2191096999e-01	-5.6357976468e-01
 1.4063244002e+00	 9.5512369334e-01	-7.2753979832e-01
 1.3835081001e+00	 9.8788403976e-01	-8.8355062373e-01
 1.3598821602e+00	 1.0201617747e+00	-1.0306269831e+00
 1.3354619678e+00	 1.0519272357e+00	-1.1679275522e+00
 1.5553496890e+00	 7.2088479365e-01	 4.7690179867e-01
 1.5383650072e+00	 7.5645254539e-01	 2.9872663447e-01
 1.5204974850e+00	 7.9175408771e-01	 1.1923951479e-01
 1.5017520327e+00	 8.2675737455e-01	-6.0005905403e-02
 1.4821350817e+00	 8.6143039390e-01	-2.3751303432e-01
 1.4616545934e+00	 8.9574125683e-01	-4.1185285557e-01
 1.4403200613e+00	 9.2965828779e-01	-5.8167407268e-01
 1.4181425068e+00	 9.6315011567e-01	-7.4558969932e-01
 1.3951344689e+00	 9.9618576505e-01	-9.0160054678e-01
 1.3713099874e+00	 1.0287347473e+00	-1.0485378098e+00
 1.3466845789e+00	 1.0607671506e+00	-1.1855412678e+00
 1.2344589001e+00	 9.7236834113e-01	-9.6403854992e-01
 1.2111670099e+00	 1.0012309949e+00	-1.0940416073e+00
 1.1871733109e+00	 1.0295672077e+00	-1.2155570062e+00
 1.1624958802e+00	 1.0573516444e+00	-1.3278495923e+00
 1.1371540047e+00	 1.0845598120e+00	-1.4302656953e+00
 1.1111681313e+00	 1.1111681313e+00	-1.5222305472e+00
 1.0845598120e+00	 1.1371540047e+00	-1.6032442795e+00
 1.0573516444e+00	 1.1624958802e+00	-1.6728766872e+00
 1.0295672077e+00	 1.1871733109e+00	-1.7307609990e+00
 1.0012309949e+00	 1.2111670099e+00	-1.7765869303e+00
 9.7236834113e-01	 1.2344589001e+00	-1.8100933252e+00
 1.2456813934e+00	 9.8120816329e-01	-9.9033868882e-01
 1.2221777561e+00	 1.0103332081e+00	-1.1201148086e+00
 1.1979659298e+00	 1.0389270260e+00	-1.2412740999e+00
 1.1730641561e+00	 1.0669640516e+00	-1.3530914666e+00
 1.1474918970e+00	 1.0944195693e+00	-1.4549232915e+00
 1.1212697855e+00	 1.1212697855e+00	-1.5462045809e+00
 1.0944195693e+00	 1.1474918970e+00	-1.6264446196e+00
 1.0669640516e+00	 1.1730641561e+00	-1.6952213377e+00
 1.0389270260e+00	 1.1979659298e+00	-1.7521746378e+00
 1.0103332081e+00	 1.2221777561e+00	-1.7969989772e+00
 9.8120816329e-01	 1.2456813934e+00	-1.8294355271e+00
 1.2569039102e+00	 9.9004800402e-01	-1.0157958484e+00
 1.2331885253e+00	 1.0194354404e+00	-1.1453436131e+00
 1.2087585714e+00	 1.0482868640e+00	-1.2661258973e+00
 1.1836324541e+00	 1.0765764791e+00	-1.3774349975e+00
 1.1578298110e+00	 1.1042793473e+00	-1.4786453079e+00
 1.1313714608e+00	 1.1313714608e+00	-1.5692101188e+00
 1.1042793473e+00	 1.1578298110e+00	-1.6486568512e+00
 1.0765764791e+00	 1.1836324541e+00	-1.7165809361e+00
 1.0482868640e+00	 1.2087585714e+00	-1.7726386050e+00
 1.0194354404e+00	 1.2331885253e+00	-1.8165388991e+00
 9.9004800402e-01	 1.2569039102e+00	-1.8480352418e+00
 1.2681264479e+00	 9.9888786125e-01	-1.0403831306e+00
 1.2441993152e+00	 1.0285376897e+00	-1.1696927021e+00
 1.2195512331e+00	 1.0576467195e+00	-1.2900707888e+00
 1.1942007719e+00	 1.0861889245e+00	-1.4008342369e+00
 1.1681677443e+00	 1.1141391438e+00	-1.5013832312e+00
 1.1414731550e+00	 1.1414731550e+00	-1.5911976778e+00
 1.1141391438e+00	 1.1681677443e+00	-1.6698319375e+00
 1.0861889245e+00	 1.1942007719e+00	-1.7369081305e+00
 1.0576467195e+00	 1.2195512331e+00	-1.7921082934e+00
 1.0285376897e+00	 1.2441993152e+00	-1.8351657160e+00
 9.9888786125e-01	 1.2681264479e+00	-1.8658558209e+00
 1.2793490040e+00	 1.0077277329e+00	-1.0640718666e+00
 1.2552101230e+00	 1.0376399539e+00	-1.1931252620e+00
 1.2303439125e+00	 1.0670065902e+00	-1.3130658567e+00
 1.2047691069e+00	 1.0958013856e+00	-1.4232420322e+00
 1.1785056945e+00	 1.1239989563e+00	-1.5230873716e+00
 1.1515748657e+00	 1.1515748657e+00	-1.6121165575e+00
 1.1239989563e+00	 1.1785056945e+00	-1.6899195235e+00
 1.0958013856e+00	 1.2047691069e+00	-1.7561540970e+00
 1.0670065902e+00	 1.2303439125e+00	-1.8105374277e+00
 1.0376399539e+00	 1.2552101230e+00	-1.8528365499e+00
 1.0077277329e+00	 1.2793490040e+00	-1.8828584646e+00
 1.2905715759e+00	 1.0165676170e+00	-1.0868317575e+00
 1.2662209462e+00	 1.0467422308e+00	-1.2156031155e+00
 1.2411366069e+00	 1.0763664741e+00	-1.3350669995e+00
 1.2153374567e+00	 1.1054138601e+00	-1.4446101463e+00
 1.1888436592e+00	 1.1338587826e+00	-1.5437069806e+00
 1.1616765906e+00	 1.1616765906e+00	-1.6319149573e+00
 1.1338587826e+00	 1.1888436592e+00	-1.7088680535e+00
 1.1054138601e+00	 1.2153374567e+00	-1.7742686604e+00
 1.0763664741e+00	 1.2411366069e+00	-1.8278781881e+00
 1.0467422308e+00	 1.2662209462e+00	-1.8695067524e+00
 1.0165676170e+00	 1.2905715759e+00	-1.8990023533e+00
 1.3017941608e+00	 1.0254075113e+00	-1.1086310136e+00
 1.2772317823e+00	 1.0558445183e+00	-1.2370868512e+00
 1.2519293140e+00	 1.0857263688e+00	-1.3560290543e+00
 1.2259058189e+00	 1.1150263459e+00	-1.4648893760e+00
 1.1991816359e+00	 1.1437186205e+00	-1.5631903665e+00
 1.1717783272e+00	 1.1717783272e+00	-1.6505400921e+00
 1.1437186205e+00	 1.1991816359e+00	-1.7266248882e+00
 1.1150263459e+00	 1.2259058189e+00	-1.7912004128e+00
 1.0857263688e+00	 1.2519293140e+00	-1.8440813321e+00
 1.0558445183e+00	 1.2772317823e+00	-1.8851300303e+00
 1.0254075113e+00	 1.3017941608e+00	-1.9142447774e+00
 1.3130167561e+00	 1.0342474139e+00	-1.1294364901e+00
 1.2882426287e+00	 1.0649468144e+00	-1.2575359504e+00
 1.2627220311e+00	 1.0950862724e+00	-1.3759059182e+00
 1.2364741909e+00	 1.1246388406e+00	-1.4840296687e+00
 1.2095196222e+00	 1.1535784675e+00	-1.5814850094e+00
 1.1818800733e+00	 1.1818800733e+00	-1.6679383062e+00
 1.1535784675e+00	 1.2095196222e+00	-1.7431364194e+00
 1.1246388406e+00	 1.2364741909e+00	-1.8068968309e+00
 1.0950862724e+00	 1.2627220311e+00	-1.8590963152e+00
 1.0649468144e+00	 1.2882426287e+00	-1.8996585693e+00
 1.0342474139e+00	 1.3130167561e+00	-1.9285412642e+00
 1.3242393594e+00	 1.0430873227e+00	-1.1492138213e+00
 1.2992534828e+00	 1.0740491168e+00	-1.2769089133e+00
 1.2735147558e+00	 1.1044461824e+00	-1.3946506677e+00
 1.2470425703e+00	 1.1342513421e+00	-1.5019802387e+00
 1.2198576158e+00	 1.1634383214e+00	-1.5985376754e+00
 1.1919818264e+00	 1.1919818264e+00	-1.6840551873e+00
 1.1634383214e+00	 1.2198576158e+00	-1.7583481847e+00
 1.1342513421e+00	 1.2470425703e+00	-1.8213043922e+00
 1.1044461824e+00	 1.2735147558e+00	-1.8728714086e+00
 1.0740491168e+00	 1.2992534828e+00	-1.9130431553e+00
 1.0430873227e+00	 1.3242393594e+00	-1.9418457032e+00
 1.3354619678e+00	 1.0519272357e+00	-1.1679275522e+00
 1.3102643420e+00	 1.0831514234e+00	-1.2951633826e+00
 1.2843074855e+00	 1.1138060968e+00	-1.4122156772e+00
 1.2576109546e+00	 1.1438638480e+00	-1.5186896814e+00
 1.2301956143e+00	 1.1732981800e+00	-1.6142945287e+00
 1.2020835843e+00	 1.2020835843e+00	-1.6988356779e+00
 1.1732981800e+00	 1.2301956143e+00	-1.7722049799e+00
 1.1438638480e+00	 1.2576109546e+00	-1.8343686891e+00
 1.1138060968e+00	 1.2843074855e+00	-1.8853538169e+00
 1.0831514234e+00	 1.3102643420e+00	-1.9252332947e+00
 1.0519272357e+00	 1.3354619678e+00	-1.9541104688e+00
 1.3466845789e+00	 1.0607671506e+00	-1.1855412678e+00
 1.3212752037e+00	 1.0922537322e+00	-1.3122562661e+00
 1.2951002177e+00	 1.1231660134e+00	-1.4285527360e+00
 1.2681793414e+00	 1.1534763562e+00	-1.5341060872e+00
 1.2405336151e+00	 1.1831580408e+00	-1.6287012438e+00
 1.2121853445e+00	 1.2121853445e+00	-1.7122241874e+00
 1.1831580408e+00	 1.2405336151e+00	-1.7846509713e+00
 1.1534763562e+00	 1.2681793414e+00	-1.8460345430e+00
 1.1231660134e+00	 1.2951002177e+00	-1.8964897933e+00
 1.0922537322e+00	 1.3212752037e+00	-1.9361773322e+00
 1.0607671506e+00	 1.3466845789e+00	-1.9652865412e+00
 9.7236834113e-01	 1.2344589001e+00	-1.8100933252e+00
 9.4300535142e-01	 1.2570321553e+00	-1.8328643272e+00
 9.1316883184e-01	 1.2788712286e+00	-1.8471747384e+00
 8.8288620142e-01	 1.2999618964e+00	-1.8538182668e+00
 8.5218540804e-01	 1.3202912890e+00	-1.8535614320e+00
 8.2109484578e-01	 1.3398479124e+00	-1.8471334402e+00
 7.8964327147e-01	 1.3586216634e+00	-1.8352179427e+00
 7.5785972096e-01	 1.3766038399e+00	-1.8184469016e+00
 7.2577342574e-01	 1.3937871438e+00	-1.7973967177e+00
 6.9341373009e-01	 1.4101656798e+00	-1.7725867080e+00
 6.6081000953e-01	 1.4257349466e+00	-1.7444799477e+00
 9.8120816329e-01	 1.2456813934e+00	-1.8294355271e+00
 9.5157823400e-01	 1.2684598625e+00	-1.8510381732e+00
 9.2147046996e-01	 1.2904974753e+00	-1.8641084476e+00
 8.9091253947e-01	 1.3117798788e+00	-1.8695255437e+00
 8.5993264450e-01	 1.3322940864e+00	-1.8681401953e+00
 8.2855943725e-01	 1.3520284995e+00	-1.8607634010e+00
 7.9682193597e-01	 1.3709729231e+00	-1.8481571322e+00
 7.6474944050e-01	 1.3891185759e+00	-1.8310272643e+00
 7.3237144806e-01	 1.4064580937e+00	-1.8100189091e+00
 6.9971756970e-01	 1.4229855273e+00	-1.7857142470e+00
 6.6681744799e-01	 1.4386963347e+00	-1.7577284004e+00
 9.9004800402e-01	 1.2569039102e+00	-1.8480352418e+00
 9.6015113458e-01	 1.2798875937e+00	-1.8686675758e+00
 9.2977212550e-01	 1.3021237464e+00	-1.8807702672e+00
 8.9893889437e-01	 1.3235978861e+00	-1.8853015172e+00
 8.6767989722e-01	 1.3442969091e+00	-1.8831883787e+00
 8.3602404439e-01	 1.3642091122e+00	-1.8753143768e+00
 8.0400061555e-01	 1.3833242087e+00	-1.8625092198e+00
 7.7163917451e-01	 1.4016333383e+00	-1.8455408662e+00
 7.3896948423e-01	 1.4191290702e+00	-1.8251101400e+00
 7.0602142254e-01	 1.4358054017e+00	-1.8013917485e+00
 6.7282489907e-01	 1.4516577499e+00	-1.7715939212e+00
 9.9888786125e-01	 1.2681264479e+00	-1.8658558209e+00
 9.6872405116e-01	 1.2913153462e+00	-1.8857179142e+00
 9.3807379655e-01	 1.3137500393e+00	-1.8971225567e+00
 9.0696526426e-01	 1.3354159154e+00	-1.9011007161e+00
 8.7542716441e-01	 1.3562997541e+00	-1.8986481250e+00
 8.4348866546e-01	 1.3763897476e+00	-1.8907118378e+00
 8.1117930853e-01	 1.3956755174e+00	-1.8781789994e+00
 7.7852892139e-01	 1.4141481240e+00	-1.8618681129e+00
 7.4556753273e-01	 1.4318000703e+00	-1.8424342646e+00
 7.1232528716e-01	 1.4486253000e+00	-1.8172854304e+00
 6.7883236136e-01	 1.4646191894e+00	-1.7857878077e+00
 1.0077277329e+00	 1.2793490040e+00	-1.8828584646e+00
 9.7729698174e-01	 1.3027431175e+00	-1.9021522477e+00
 9.4637548115e-01	 1.3253763511e+00	-1.9131253732e+00
 9.1499164726e-01	 1.3472339641e+00	-1.9168755665e+00
 8.8317444425e-01	 1.3683026187e+00	-1.9144598497e+00
 8.5095329873e-01	 1.3885704029e+00	-1.9068800735e+00
 8.1835801324e-01	 1.4080268463e+00	-1.8950707953e+00
 7.8541867951e-01	 1.4266629301e+00	-1.8798898088e+00
 7.5216559200e-01	 1.4444710911e+00	-1.8599292409e+00
 7.1862916207e-01	 1.4614452193e+00	-1.8329467268e+00
 6.8483983347e-01	 1.4775806500e+00	-1.8001015302e+00
 1.0165676170e+00	 1.2905715759e+00	-1.8990023533e+00
 9.8586992433e-01	 1.3141709047e+00	-1.9179314479e+00
 9.5467717738e-01	 1.3370026792e+00	-1.9287365956e+00
 9.2301804149e-01	 1.3590520292e+00	-1.9325764988e+00
 8.9092173493e-01	 1.3803055001e+00	-1.9305623237e+00
 8.5841794245e-01	 1.4007510753e+00	-1.9237422436e+00
 8.2553672799e-01	 1.4203781924e+00	-1.9130884736e+00
 7.9230844728e-01	 1.4391777538e+00	-1.8985350703e+00
 7.5876366050e-01	 1.4571421297e+00	-1.8766831666e+00
 7.2493304581e-01	 1.4742651565e+00	-1.8482102604e+00
 6.9084731398e-01	 1.4905421288e+00	-1.8143335636e+00
 1.0254075113e+00	 1.3017941608e+00	-1.9142447774e+00
 9.9444287691e-01	 1.3255987052e+00	-1.9330143285e+00
 9.6297888329e-01	 1.3486290209e+00	-1.9439120457e+00
 9.3104444509e-01	 1.3708701082e+00	-1.9481520527e+00
 8.9866903466e-01	 1.3923083956e+00	-1.9468927549e+00
 8.6588259487e-01	 1.4129317619e+00	-1.9412204285e+00
 8.3271545112e-01	 1.4327295530e+00	-1.9319935150e+00
 7.9919822309e-01	 1.4516925920e+00	-1.9160146725e+00
 7.6536173671e-01	 1.4698131830e+00	-1.8925682108e+00
 7.3123693690e-01	 1.4870851087e+00	-1.8629162384e+00
 6.9685480151e-01	 1.5035036227e+00	-1.8282891347e+00
 1.0342474139e+00	 1.3130167561e+00	-1.9285412642e+00
 1.0030158375e+00	 1.3370265164e+00	-1.9473577716e+00
 9.7128059695e-01	 1.3602553734e+00	-1.9586056069e+00
 9.3907085618e-01	 1.3826881982e+00	-1.9635489806e+00
 9.0641634162e-01	 1.4043113022e+00	-1.9633868696e+00
 8.7334725427e-01	 1.4251124598e+00	-1.9592356820e+00
 8.3989418096e-01	 1.4450809251e+00	-1.9498604208e+00
 8.0608800533e-01	 1.4642074420e+00	-1.9322008400e+00
 7.7195981907e-01	 1.4824842482e+00	-1.9074609233e+00
 7.3754083387e-01	 1.4999050729e+00	-1.8769102630e+00
 7.0286229464e-01	 1.5164651287e+00	-1.8417799805e+00
 1.0430873227e+00	 1.3242393594e+00	-1.9418457032e+00
 1.0115888041e+00	 1.3484543356e+00	-1.9609168527e+00
 9.7958231642e-01	 1.3718817340e+00	-1.9727693415e+00
 9.4709727289e-01	 1.3945062965e+00	-1.9787123503e+00
 9.1416365400e-01	 1.4163142172e+00	-1.9799789925e+00
 8.8081191888e-01	 1.4372931663e+00	-1.9770970884e+00
 8.4707291581e-01	 1.4574323058e+00	-1.9660550526e+00
 8.1297779239e-01	 1.4767223007e+00	-1.9470012582e+00
 7.7855790605e-01	 1.4951553222e+00	-1.9212420972e+00
 7.4384473526e-01	 1.5127250460e+00	-1.8900431491e+00
 7.0886979197e-01	 1.5294266437e+00	-1.8546241189e+00
 1.0519272357e+00	 1.3354619678e+00	-1.9541104688e+00
 1.0201617747e+00	 1.3598821602e+00	-1.9736449629e+00
 9.8788403976e-01	 1.3835081001e+00	-1.9863536049e+00
 9.5512369334e-01	 1.4063244002e+00	-1.9935856448e+00
 9.2191096999e-01	 1.4283171379e+00	-1.9966021273e+00
 8.8827658699e-01	 1.4494738784e+00	-1.9930502484e+00
 8.5425165402e-01	 1.4697836923e+00	-1.9805112162e+00
 8.1986758267e-01	 1.4892371652e+00	-1.9603268983e+00
 7.8515599611e-01	 1.5078264021e+00	-1.9337966375e+00
 7.5014863959e-01	 1.5255450251e+00	-1.9021707520e+00
 7.1487729211e-01	 1.5423881648e+00	-1.8666456293e+00
 1.0607671506e+00	 1.3466845789e+00	-1.9652865412e+00
 1.0287347473e+00	 1.3713099874e+00	-1.9854939292e+00
 9.9618576505e-01	 1.3951344689e+00	-1.9993071592e+00
 9.6315011567e-01	 1.4181425068e+00	-2.0081108622e+00
 9.2965828779e-01	 1.4403200613e+00	-2.0121158877e+00
 8.9574125683e-01	 1.4616545934e+00	-2.0069513170e+00
 8.6143039390e-01	 1.4821350817e+00	-1.9931652275e+00
 8.2675737455e-01	 1.5017520327e+00	-1.9720919266e+00
 7.9175408771e-01	 1.5204974850e+00	-1.9450134354e+00
 7.5645254539e-01	 1.5383650072e+00	-1.9131538015e+00
 7.2088479365e-01	 1.5553496890e+00	-1.8776744442e+00
 6.6081000953e-01	 1.4257349466e+00	-1.7444799477e+00
 6.2799389340e-01	 1.4404908216e+00	-1.7113313439e+00
 5.9499229416e-01	 1.4544326734e+00	-1.6707623494e+00
 5.6183419459e-01	 1.4675600926e+00	-1.6240855886e+00
 5.2854830253e-01	 1.4798739801e+00	-1.5725832178e+00
 4.9516298100e-01	 1.4913765143e+00	-1.5174334964e+00
 4.6170618189e-01	 1.5020711138e+00	-1.4597113908e+00
 4.2820538310e-01	 1.5119623972e+00	-1.4003902410e+00
 3.9468752959e-01	 1.5210561391e+00	-1.3403444140e+00
 3.6117897834e-01	 1.5293592221e+00	-1.2803528586e+00
 3.2770544756e-01	 1.5368795881e+00	-1.2211034710e+00
 6.6681744799e-01	 1.4386963347e+00	-1.7577284004e+00
 6.3370299983e-01	 1.4535863556e+00	-1.7225643219e+00
 6.0040138231e-01	 1.4676549531e+00	-1.6801521201e+00
 5.6694184173e-01	 1.4809017140e+00	-1.6318566742e+00
 5.3335334687e-01	 1.4933275473e+00	-1.5789378936e+00
 4.9966451864e-01	 1.5049346513e+00	-1.5225503649e+00
 4.6590356303e-01	 1.5157264756e+00	-1.4637441413e+00
 4.3209820774e-01	 1.5257076809e+00	-1.4034666047e+00
 3.9827564268e-01	 1.5348840942e+00	-1.3425653224e+00
 3.6446246445e-01	 1.5432626608e+00	-1.2817918124e+00
 3.3068462505e-01	 1.5508513945e+00	-1.2218061227e+00
 6.7282489907e-01	 1.4516577499e+00	-1.7715939212e+00
 6.3941211824e-01	 1.4666819171e+00	-1.7347425537e+00
 6.0581048182e-01	 1.4808772605e+00	-1.6908551256e+00
 5.7204949958e-01	 1.4942433634e+00	-1.6412689200e+00
 5.3815840131e-01	 1.5067811428e+00	-1.5872172561e+00
 5.0416606574e-01	 1.5184928167e+00	-1.5298292508e+00
 4.7010095299e-01	 1.5293818661e+00	-1.4701307166e+00
 4.3599104055e-01	 1.5394529935e+00	-1.4090461259e+00
 4.0186376330e-01	 1.5487120783e+00	-1.3474015625e+00
 3.6774595745e-01	 1.5571661286e+00	-1.2859285754e+00
 3.3366380880e-01	 1.5648232303e+00	-1.2252688406e+00
 6.7883236136e-01	 1.4646191894e+00	-1.7857878077e+00
 6.4512124731e-01	 1.4797775031e+00	-1.7476153072e+00
 6.1121959142e-01	 1.4940995927e+00	-1.7025963567e+00
 5.7715716698e-01	 1.5075850376e+00	-1.6520337973e+00
 5.4296346472e-01	 1.5202347633e+00	-1.5971300737e+00
 5.0866762125e-01	 1.5320510075e+00	-1.5389870515e+00
 4.7429835078e-01	 1.5430372821e+00	-1.4786069475e+00
 4.3988388063e-01	 1.5531983317e+00	-1.4168943035e+00
 4.0545189062e-01	 1.5625400883e+00	-1.3546589270e+00
 3.7102945658e-01	 1.5710696223e+00	-1.2926197130e+00
 3.3664299811e-01	 1.5787950921e+00	-1.2314092576e+00
 6.8483983347e-01	 1.4775806500e+00	-1.8001015302e+00
 6.5083038570e-01	 1.4928731105e+00	-1.7609402683e+00
 6.1662870987e-01	 1.5073219465e+00	-1.7151099947e+00
 5.8226484271e-01	 1.5209267337e+00	-1.6638723640e+00
 5.4776853597e-01	 1.5336884059e+00	-1.6083947193e+00
 5.1316918410e-01	 1.5456092204e+00	-1.5497499080e+00
 4.7849575543e-01	 1.5566927204e+00	-1.4889171699e+00
 4.4377672707e-01	 1.5669436924e+00	-1.4267840297e+00
 4.0904002380e-01	 1.5763681208e+00	-1.3641491206e+00
 3.7431296107e-01	 1.5849731388e+00	-1.3017258578e+00
 3.3962219229e-01	 1.5927669768e+00	-1.2401468726e+00
 6.9084731398e-01	 1.4905421288e+00	-1.8143335636e+00
 6.5653953209e-01	 1.5059687362e+00	-1.7744832230e+00
 6.2203783588e-01	 1.5205443187e+00	-1.7281390594e+00
 5.8737252559e-01	 1.5342684485e+00	-1.6765148935e+00
 5.5257361396e-01	 1.5471420673e+00	-1.6207387956e+00
 5.1767075326e-01	 1.5591674523e+00	-1.5618528436e+00
 4.8269316596e-01	 1.5703481778e+00	-1.5008138943e+00
 4.4766957896e-01	 1.5806890723e+00	-1.4384953051e+00
 4.1262816201e-01	 1.5901961727e+00	-1.3756895376e+00
 3.7759647016e-01	 1.5988766748e+00	-1.3131115642e+00
 3.4260139064e-01	 1.6067388811e+00	-1.2514029983e+00
 6.9685480151e-01	 1.5035036227e+00	-1.8282891347e+00
 6.6224868513e-01	 1.5190643771e+00	-1.7880177561e+00
 6.2744696821e-01	 1.5337667064e+00	-1.7414350735e+00
 5.9248021444e-01	 1.5476101788e+00	-1.6897005213e+00
 5.5737869754e-01	 1.5605957443e+00	-1.6338987804e+00
 5.2217232767e-01	 1.5727257000e+00	-1.5750394226e+00
 4.8689058138e-01	 1.5840036511e+00	-1.5140574923e+00
 4.5156243539e-01	 1.5944344683e+00	-1.4518149696e+00
 4.1621630440e-01	 1.6040242408e+00	-1.3891030502e+00
 3.8087998308e-01	 1.6127802270e+00	-1.3266451718e+00
 3.4558059246e-01	 1.6207108016e+00	-1.2651007121e+00
 7.0286229464e-01	 1.5164651287e+00	-1.8417799805e+00
 6.6795784351e-01	 1.5321600303e+00	-1.8013249637e+00
 6.3285610558e-01	 1.5469891064e+00	-1.7547577444e+00
 5.9758790805e-01	 1.5609519216e+00	-1.7031769100e+00
 5.6218378562e-01	 1.5740494339e+00	-1.6476196886e+00
 5.2667390629e-01	 1.5862839604e+00	-1.5890614243e+00
 4.9108800072e-01	 1.5976591372e+00	-1.5284158983e+00
 4.5545529545e-01	 1.6081798771e+00	-1.4665364453e+00
 4.1980445014e-01	 1.6178523217e+00	-1.4042178088e+00
 3.8416349906e-01	 1.6266837921e+00	-1.3421986739e+00
 3.4855979707e-01	 1.6346827352e+00	-1.2811648095e+00
 7.0886979197e-01	 1.5294266437e+00	-1.8546241189e+00
 6.7366700588e-01	 1.5452556927e+00	-1.8141931799e+00
 6.3826524674e-01	 1.5602115157e+00	-1.7678746606e+00
 6.0269560524e-01	 1.5742936737e+00	-1.7166999299e+00
 5.6698887705e-01	 1.5875031330e+00	-1.6616547511e+00
 5.3117548805e-01	 1.5998422302e+00	-1.6036785345e+00
 4.9528542300e-01	 1.6113146329e+00	-1.5436643263e+00
 4.5934815824e-01	 1.6219252955e+00	-1.4824594925e+00
 4.2339259839e-01	 1.6316804124e+00	-1.4208670503e+00
 3.8744701734e-01	 1.6405873670e+00	-1.3596475941e+00
 3.5153900375e-01	 1.6486546786e+00	-1.2995217590e+00
 7.1487729211e-01	 1.5423881648e+00	-1.8666456293e+00
 6.7937617092e-01	 1.5583513612e+00	-1.8264177169e+00
 6.4367439042e-01	 1.5734339312e+00	-1.7805610039e+00
 6.0780330480e-01	 1.5876354321e+00	-1.7300333558e+00
 5.7179397073e-01	 1.6009568383e+00	-1.6757651099e+00
 5.3567707191e-01	 1.6134005064e+00	-1.6186580514e+00
 4.9948284723e-01	 1.6249701349e+00	-1.5595850003e+00
 4.6324102284e-01	 1.6356707203e+00	-1.4993899785e+00
 4.2698074831e-01	 1.6455085094e+00	-1.4388889175e+00
 3.9073053716e-01	 1.6544909483e+00	-1.3788708671e+00
 3.5451821183e-01	 1.6626266284e+00	-1.3200996597e+00
 7.2088479365e-01	 1.5553496890e+00	-1.8776744442e+00
 6.8508533728e-01	 1.5714470327e+00	-1.8378006164e+00
 6.4908353537e-01	 1.5866563497e+00	-1.7925992738e+00
 6.1291100557e-01	 1.6009771935e+00	-1.7429485776e+00
 5.7659906553e-01	 1.6144105468e+00	-1.6897195269e+00
 5.4017865683e-01	 1.6269587858e+00	-1.6337746053e+00
 5.0368027245e-01	 1.6386256401e+00	-1.5759668980e+00
 4.6713388836e-01	 1.6494161483e+00	-1.5171396564e+00
 4.3056889908e-01	 1.6593366097e+00	-1.4581262857e+00
 3.9401405774e-01	 1.6683945330e+00	-1.3997507269e+00
 3.5749742061e-01	 1.6765985816e+00	-1.3428282008e+00
 3.2770544756e-01	 1.5368795881e+00	-1.2211034710e+00
 2.9428963942e-01	 1.5436266306e+00	-1.1670071386e+00
 2.6095823704e-01	 1.5496096993e+00	-1.1208027750e+00
 2.2773481677e-01	 1.5548395949e+00	-1.0805877278e+00
 1.9464215349e-01	 1.5593279585e+00	-1.0444714574e+00
 1.6170219135e-01	 1.5630872136e+00	-1.0105978563e+00
 1.2893601884e-01	 1.5661305082e+00	-9.7716614226e-01
 9.6363848071e-02	 1.5684716563e+00	-9.4245020609e-01
 6.4004998129e-02	 1.5701250792e+00	-9.0481631777e-01
 3.1877882452e-02	 1.5711057482e+00	-8.6273911519e-01
 0.0000000000e+00	 1.5714291270e+00	-8.1481582269e-01
 3.3068462505e-01	 1.5508513945e+00	-1.2218061227e+00
 2.9696503306e-01	 1.5576597746e+00	-1.1669634083e+00
 2.6333061416e-01	 1.5636972355e+00	-1.1199567395e+00
 2.2980515904e-01	 1.5689746762e+00	-1.0788594791e+00
 1.9641164963e-01	 1.5735038435e+00	-1.0417438315e+00
 1.6317222956e-01	 1.5772972741e+00	-1.0067043394e+00
 1.3010817905e-01	 1.5803682354e+00	-9.7187998610e-01
 9.7239893951e-02	 1.5827306669e+00	-9.3547477448e-01
 6.4586868987e-02	 1.5843991212e+00	-8.9577667305e-01
 3.2167684989e-02	 1.5853887055e+00	-8.5117484256e-01
 0.0000000000e+00	 1.5857150240e+00	-8.0017507947e-01
 3.3366380880e-01	 1.5648232303e+00	-1.2252688406e+00
 2.9964043232e-01	 1.5716929480e+00	-1.1696940015e+00
 2.6570299626e-01	 1.5777848012e+00	-1.1218388978e+00
 2.3187550566e-01	 1.5831097871e+00	-1.0797833133e+00
 1.9818114948e-01	 1.5876797584e+00	-1.0415878358e+00
 1.6464227086e-01	 1.5915073645e+00	-1.0053185878e+00
 1.3128034172e-01	 1.5946059925e+00	-9.6907062944e-01
 9.8115941672e-02	 1.5969897075e+00	-9.3098988761e-01
 6.5168741068e-02	 1.5986731931e+00	-8.8929348711e-01
 3.2457488135e-02	 1.5996716927e+00	-8.4228838408e-01
 0.0000000000e+00	 1.6000009511e+00	-7.8838822379e-01
 3.3664299811e-01	 1.5787950921e+00	-1.2314092576e+00
 3.0231583657e-01	 1.5857261476e+00	-1.1751743179e+00
 2.6807538279e-01	 1.5918723933e+00	-1.1264652085e+00
 2.3394585614e-01	 1.5972449245e+00	-1.0833979392e+00
 1.9995065263e-01	 1.6018556997e+00	-1.0440465971e+00
 1.6611231490e-01	 1.6057174814e+00	-1.0064693703e+00
 1.3245250658e-01	 1.6088437762e+00	-9.6873333895e-01
 9.8991991028e-02	 1.6112487747e+00	-9.2893787226e-01
 6.5750614234e-02	 1.6129472916e+00	-8.8523648805e-01
 3.2747291821e-02	 1.6139547065e+00	-8.3585705926e-01
 0.0000000000e+00	 1.6142869048e+00	-7.7912027276e-01
 3.3962219229e-01	 1.5927669768e+00	-1.2401468726e+00
 3.0499124519e-01	 1.5997593701e+00	-1.1833795428e+00
 2.7044777320e-01	 1.6059600083e+00	-1.1338499463e+00
 2.3601621001e-01	 1.6113800849e+00	-1.0897395434e+00
 2.0172015868e-01	 1.6160316641e+00	-1.0491605336e+00
 1.6758236134e-01	 1.6199276215e+00	-1.0101832274e+00
 1.3362467335e-01	 1.6230815831e+00	-9.7086231418e-01
 9.9868041815e-02	 1.6255078652e+00	-9.2926184088e-01
 6.6332488351e-02	 1.6272214135e+00	-8.8347874221e-01
 3.3037095981e-02	 1.6282377438e+00	-8.3166478393e-01
 0.0000000000e+00	 1.6285728819e+00	-7.7204680666e-01
 3.4260139064e-01	 1.6067388811e+00	-1.2514029983e+00
 3.0766665756e-01	 1.6137926123e+00	-1.1942846835e+00
 2.7282016693e-01	 1.6200476431e+00	-1.1440057988e+00
 2.3808656677e-01	 1.6255152651e+00	-1.0988419212e+00
 2.0348966720e-01	 1.6302076485e+00	-1.0569674901e+00
 1.6905240984e-01	 1.6341377815e+00	-1.0164845832e+00
 1.3479684176e-01	 1.6373194100e+00	-9.7545074571e-01
 1.0074409383e-01	 1.6397669756e+00	-9.3190566607e-01
 6.6914363283e-02	 1.6414955554e+00	-8.8389651474e-01
 3.3326900547e-02	 1.6425208010e+00	-8.2950178630e-01
 0.0000000000e+00	 1.6428588790e+00	-7.6685350981e-01
 3.4558059246e-01	 1.6207108016e+00	-1.2651007121e+00
 3.1034207305e-01	 1.6278258709e+00	-1.2078646027e+00
 2.7519256343e-01	 1.6341352943e+00	-1.1569439586e+00
 2.4015692595e-01	 1.6396504618e+00	-1.1107366004e+00
 2.0525917779e-01	 1.6443836493e+00	-1.0675028673e+00
 1.7052246005e-01	 1.6483479581e+00	-1.0253958508e+00
 1.3596901154e-01	 1.6515572535e+00	-9.8249087020e-01
 1.0162014686e-01	 1.6540261027e+00	-9.3681395650e-01
 6.7496238894e-02	 1.6557697139e+00	-8.8636913745e-01
 3.3616705451e-02	 1.6568038748e+00	-8.2916433774e-01
 0.0000000000e+00	 1.6571448927e+00	-7.6323573508e-01
 3.4855979707e-01	 1.6346827352e+00	-1.2811648095e+00
 3.1301749104e-01	 1.6418591425e+00	-1.2240940510e+00
 2.7756496214e-01	 1.6482229587e+00	-1.1726742099e+00
 2.4222728706e-01	 1.6537856717e+00	-1.1254529579e+00
 2.0702869002e-01	 1.6585596634e+00	-1.0807997426e+00
 1.7199251164e-01	 1.6625581480e+00	-1.0369375329e+00
 1.3714118242e-01	 1.6657951103e+00	-9.9197402265e-01
 1.0249620072e-01	 1.6682852431e+00	-9.4393203397e-01
 6.8078115048e-02	 1.6700438857e+00	-8.9077888335e-01
 3.3906510625e-02	 1.6710869620e+00	-8.3045449727e-01
 0.0000000000e+00	 1.6714309198e+00	-7.6089809074e-01
 3.5153900375e-01	 1.6486546786e+00	-1.2995217590e+00
 3.1569291090e-01	 1.6558924240e+00	-1.2429476969e+00
 2.7993736251e-01	 1.6623106329e+00	-1.1912050115e+00
 2.4429764962e-01	 1.6679208915e+00	-1.1430183313e+00
 2.0879820350e-01	 1.6727356874e+00	-1.0968889867e+00
 1.7346256425e-01	 1.6767683478e+00	-1.0511283171e+00
 1.3831335411e-01	 1.6800329770e+00	-1.0038906860e+00
 1.0337225518e-01	 1.6825443935e+00	-9.5320591164e-01
 6.8659991608e-02	 1.6843180675e+00	-8.9701084765e-01
 3.4196316002e-02	 1.6853700592e+00	-8.3317986916e-01
 0.0000000000e+00	 1.6857169568e+00	-7.5955404838e-01
 3.5451821183e-01	 1.6626266284e+00	-1.3200996597e+00
 3.1836833200e-01	 1.6699257120e+00	-1.2644001556e+00
 2.8230976399e-01	 1.6763983137e+00	-1.2125435744e+00
 2.4636801315e-01	 1.6820561178e+00	-1.1634581243e+00
 2.1056771780e-01	 1.6869117180e+00	-1.1157993724e+00
 1.7493261755e-01	 1.6909785542e+00	-1.0679851659e+00
 1.3948552636e-01	 1.6942708504e+00	-1.0182305380e+00
 1.0424831006e-01	 1.6968035505e+00	-9.6458227338e-01
 6.9241868441e-02	 1.6985922560e+00	-9.0495283470e-01
 3.4486121514e-02	 1.6996531631e+00	-8.3715337263e-01
 0.0000000000e+00	 1.7000030006e+00	-7.5892557051e-01
 3.5749742061e-01	 1.6765985816e+00	-1.3428282008e+00
 3.2104375374e-01	 1.6839590033e+00	-1.2884260157e+00
 2.8468216602e-01	 1.6904859978e+00	-1.2366959363e+00
 2.4843837716e-01	 1.6961913475e+00	-1.1867959066e+00
 2.1233723252e-01	 1.7010877519e+00	-1.1375576794e+00
 1.7640267120e-01	 1.7051887640e+00	-1.0875234030e+00
 1.4065769887e-01	 1.7085087271e+00	-1.0349824962e+00
 1.0512436514e-01	 1.7110627108e+00	-9.7800845409e-01
 6.9823745408e-02	 1.7128664478e+00	-9.1449525059e-01
 3.4775927094e-02	 1.7139362703e+00	-8.4219302317e-01
 0.0000000000e+00	 1.7142890476e+00	-7.5874275680e-01
 1.7142890476e+00	 0.0000000000e+00	 2.9693430730e+00
 1.7139362703e+00	 3.4775927094e-02	 2.9579724051e+00
 1.7128664478e+00	 6.9823745408e-02	 2.9264068013e+00
 1.7110627108e+00	 1.0512436514e-01	 2.8762140035e+00
 1.7085087271e+00	 1.4065769887e-01	 2.8089658211e+00
 1.7051887640e+00	 1.7640267120e-01	 2.7262247923e+00
 1.7010877519e+00	 2.1233723252e-01	 2.6295301099e+00
 1.6961913475e+00	 2.4843837716e-01	 2.5203828780e+00
 1.6904859978e+00	 2.8468216602e-01	 2.4002307754e+00
 1.6839590033e+00	 3.2104375374e-01	 2.2704522122e+00
 1.6765985816e+00	 3.5749742061e-01	 2.1323400760e+00
 1.7285740955e+00	 0.0000000000e+00	 2.9678981550e+00
 1.7282183785e+00	 3.5065712404e-02	 2.9527036969e+00
 1.7271396413e+00	 7.0405581679e-02	 2.9178520104e+00
 1.7253208739e+00	 1.0600035895e-01	 2.8648729503e+00
 1.7227456080e+00	 1.4182978940e-01	 2.7952918004e+00
 1.7193979799e+00	 1.7787262203e-01	 2.7106158009e+00
 1.7152627943e+00	 2.1410662347e-01	 2.6123199994e+00
 1.7103255886e+00	 2.5050859637e-01	 2.5018324951e+00
 1.7045726966e+00	 2.8705440212e-01	 2.3805191570e+00
 1.6979913131e+00	 3.2371898835e-01	 2.2496679019e+00
 1.6905695575e+00	 3.6047642102e-01	 2.1104726356e+00
 1.7428591451e+00	 0.0000000000e+00	 2.9703395802e+00
 1.7425004884e+00	 3.5355497748e-02	 2.9496786889e+00
 1.7414128364e+00	 7.0987418017e-02	 2.9102999798e+00
 1.7395790386e+00	 1.0687635285e-01	 2.8536527465e+00
 1.7369824905e+00	 1.4300188007e-01	 2.7811703000e+00
 1.7336071974e+00	 1.7934257302e-01	 2.6942565732e+00
 1.7294378384e+00	 2.1587601463e-01	 2.5942721414e+00
 1.7244598313e+00	 2.5257881582e-01	 2.4825197305e+00
 1.7186593970e+00	 2.8942663850e-01	 2.3602292960e+00
 1.7120236246e+00	 3.2639422327e-01	 2.2285427650e+00
 1.7045405351e+00	 3.6345542177e-01	 2.0884985403e+00
 1.7571441980e+00	 0.0000000000e+00	 2.9766328493e+00
 1.7567826016e+00	 3.5645283159e-02	 2.9488712610e+00
 1.7556860349e+00	 7.1569254491e-02	 2.9037268792e+00
 1.7538372067e+00	 1.0775234697e-01	 2.8425269188e+00
 1.7512193764e+00	 1.4417397102e-01	 2.7665684700e+00
 1.7478164183e+00	 1.8081252437e-01	 2.6771053898e+00
 1.7436128858e+00	 2.1764540620e-01	 2.5753347305e+00
 1.7385940773e+00	 2.5464903575e-01	 2.4623827848e+00
 1.7327461007e+00	 2.9179887544e-01	 2.3392908313e+00
 1.7260559393e+00	 3.2906945882e-01	 2.2070006742e+00
 1.7185115159e+00	 3.6643442322e-01	 2.0663400769e+00
 1.7714292559e+00	 0.0000000000e+00	 2.9867451385e+00
 1.7710647198e+00	 3.5935068672e-02	 2.9502566859e+00
 1.7699592384e+00	 7.2151091168e-02	 2.8981101863e+00
 1.7680953797e+00	 1.0862834139e-01	 2.8314703776e+00
 1.7654562673e+00	 1.4534606237e-01	 2.7514550431e+00
 1.7620256441e+00	 1.8228247622e-01	 2.6591223937e+00
 1.7577879382e+00	 2.1941479840e-01	 2.5554581437e+00
 1.7527283282e+00	 2.5671925640e-01	 2.4413623606e+00
 1.7468328094e+00	 2.9417111321e-01	 2.3176361781e+00
 1.7400882589e+00	 3.3174469531e-01	 2.1849684642e+00
 1.7324825016e+00	 3.6941342572e-01	 2.0439225452e+00
 1.7857143204e+00	 0.0000000000e+00	 3.0006452322e+00
 1.7853468447e+00	 3.6224854319e-02	 2.9538115719e+00
 1.7842324485e+00	 7.2732928116e-02	 2.8934286318e+00
 1.7823535594e+00	 1.0950433622e-01	 2.8204593584e+00
 1.7796931648e+00	 1.4651815427e-01	 2.7358002651e+00
 1.7762348765e+00	 1.8375242876e-01	 2.6402695087e+00
 1.7719629972e+00	 2.2118419141e-01	 2.5345948459e+00
 1.7668625858e+00	 2.5878947803e-01	 2.4194015539e+00
 1.7609195246e+00	 2.9654335208e-01	 2.2952004074e+00
 1.7541205851e+00	 3.3441993304e-01	 2.1623758023e+00
 1.7464534939e+00	 3.7239242960e-01	 2.0211741270e+00
 1.7999993933e+00	 0.0000000000e+00	 3.0183034595e+00
 1.7996289779e+00	 3.6514640136e-02	 2.9595138087e+00
 1.7985056669e+00	 7.3314765404e-02	 2.8896621471e+00
 1.7966117474e+00	 1.1038033155e-01	 2.8094713647e+00
 1.7939300706e+00	 1.4769024685e-01	 2.7195758304e+00
 1.7904441173e+00	 1.8522238216e-01	 2.6205103631e+00
 1.7861380644e+00	 2.2295358546e-01	 2.5126992998e+00
 1.7809968516e+00	 2.6085970086e-01	 2.3964457505e+00
 1.7750062480e+00	 2.9891559233e-01	 2.2719211308e+00
 1.7681529195e+00	 3.3709517233e-01	 2.1391550659e+00
 1.7604244943e+00	 3.7537143522e-01	 1.9980257600e+00
 1.8142844762e+00	 0.0000000000e+00	 3.0396916330e+00
 1.8139111211e+00	 3.6804426156e-02	 2.9673425151e+00
 1.8127788954e+00	 7.3896603099e-02	 2.8867918141e+00
 1.8108699454e+00	 1.1125632751e-01	 2.7984851142e+00
 1.8081669863e+00	 1.4886234025e-01	 2.7027548194e+00
 1.8046533680e+00	 1.8669233659e-01	 2.5998102156e+00
 1.8003131416e+00	 2.2472298075e-01	 2.4897278800e+00
 1.7951311272e+00	 2.6292992514e-01	 2.3724425278e+00
 1.7890929813e+00	 3.0128783425e-01	 2.2477383919e+00
 1.7821852637e+00	 3.3977041350e-01	 2.1152412257e+00
 1.7743955044e+00	 3.7835044293e-01	 1.9744110184e+00
 1.8285695708e+00	 0.0000000000e+00	 3.0647829905e+00
 1.8281932760e+00	 3.7094212412e-02	 2.9772779900e+00
 1.8270521355e+00	 7.4478441269e-02	 2.8847998173e+00
 1.8251281550e+00	 1.1213232417e-01	 2.7874804874e+00
 1.8224039137e+00	 1.5003443461e-01	 2.6853116392e+00
 1.8188626303e+00	 1.8816229222e-01	 2.5781358860e+00
 1.8144882303e+00	 2.2649237748e-01	 2.4656387905e+00
 1.8092654145e+00	 2.6500015111e-01	 2.3473415606e+00
 1.8031797261e+00	 3.0366007810e-01	 2.2225945619e+00
 1.7962176193e+00	 3.4244565685e-01	 2.0905717344e+00
 1.7883665260e+00	 3.8132945307e-01	 1.9502659996e+00
 1.8428546786e+00	 0.0000000000e+00	 3.0935521404e+00
 1.8424754442e+00	 3.7383998939e-02	 2.9893016646e+00
 1.8413253889e+00	 7.5060279982e-02	 2.8836693988e+00
 1.8393863780e+00	 1.1300832166e-01	 2.7764384785e+00
 1.8366408544e+00	 1.5120653007e-01	 2.6672219674e+00
 1.8330719058e+00	 1.8963224922e-01	 2.5554556883e+00
 1.8286633323e+00	 2.2826177587e-01	 2.4403919875e+00
 1.8233997149e+00	 2.6707037901e-01	 2.3210945325e+00
 1.8172664841e+00	 3.0603232417e-01	 2.1964342402e+00
 1.8102499881e+00	 3.4512090270e-01	 2.0650864209e+00
 1.8023375606e+00	 3.8430846599e-01	 1.9255292152e+00
 1.8571398015e+00	 0.0000000000e+00	 3.1259750083e+00
 1.8567576274e+00	 3.7673785770e-02	 3.0033960580e+00
 1.8555986573e+00	 7.5642119307e-02	 2.8833848146e+00
 1.8536446159e+00	 1.1388432006e-01	 2.7653411489e+00
 1.8508778101e+00	 1.5237862675e-01	 2.6484626979e+00
 1.8472811963e+00	 1.9110220776e-01	 2.5317393671e+00
 1.8428384492e+00	 2.3003117611e-01	 2.4139491042e+00
 1.8375340302e+00	 2.6914060908e-01	 2.2936550496e+00
 1.8313532568e+00	 3.0840457273e-01	 2.1692041603e+00
 1.8242823715e+00	 3.4779615135e-01	 2.0387273888e+00
 1.8163086099e+00	 3.8728748204e-01	 1.9001414881e+00
 1.6765985816e+00	 3.5749742061e-01	 2.1323400760e+00
 1.6683945330e+00	 3.9401405774e-01	 1.9868888565e+00
 1.6593366097e+00	 4.3056889908e-01	 1.8348397733e+00
 1.6494161483e+00	 4.6713388836e-01	 1.6770457233e+00
 1.6386256401e+00	 5.0368027245e-01	 1.5143348457e+00
 1.6269587858e+00	 5.4017865683e-01	 1.3475058965e+00
 1.6144105468e+00	 5.7659906553e-01	 1.1773235802e+00
 1.6009771935e+00	 6.1291100557e-01	 1.0045138695e+00
 1.5866563497e+00	 6.4908353537e-01	 8.2975934665e-01
 1.5714470327e+00	 6.8508533728e-01	 6.5369461065e-01
 1.5553496890e+00	 7.2088479365e-01	 4.7690179867e-01
 1.6905695575e+00	 3.6047642102e-01	 2.1104726356e+00
 1.6822971451e+00	 3.9729734867e-01	 1.9640927110e+00
 1.6731637429e+00	 4.3415679888e-01	 1.8114762799e+00
 1.6631606150e+00	 4.7102648160e-01	 1.6534327188e+00
 1.6522801903e+00	 5.0787740410e-01	 1.4907446403e+00
 1.6405161168e+00	 5.4467992690e-01	 1.3241635471e+00
 1.6278633143e+00	 5.8140382426e-01	 1.1544054616e+00
 1.6143180218e+00	 6.1801834909e-01	 9.8214655365e-01
 1.5998778435e+00	 6.5449230200e-01	 8.0801880124e-01
 1.5845417883e+00	 6.9079410435e-01	 6.3260572251e-01
 1.5683103066e+00	 7.2689187503e-01	 4.5643822597e-01
 1.7045405351e+00	 3.6345542177e-01	 2.0884985403e+00
 1.6961997590e+00	 4.0058063999e-01	 1.9413809041e+00
 1.6869908777e+00	 4.3774469911e-01	 1.7883457816e+00
 1.6769050833e+00	 4.7491907530e-01	 1.6301633383e+00
 1.6659347420e+00	 5.1207453624e-01	 1.4675752780e+00
 1.6540734495e+00	 5.4918119749e-01	 1.3012907546e+00
 1.6413160833e+00	 5.8620858355e-01	 1.1319822720e+00
 1.6276588517e+00	 6.2312569322e-01	 9.6028159098e-01
 1.6130993388e+00	 6.5990106926e-01	 7.8677567576e-01
 1.5976365454e+00	 6.9650287208e-01	 6.1200271394e-01
 1.5812709257e+00	 7.3289895710e-01	 4.3644825541e-01
 1.7185115159e+00	 3.6643442322e-01	 2.0663400769e+00
 1.7101023760e+00	 4.0386393207e-01	 1.9186771818e+00
 1.7008180157e+00	 4.4133260017e-01	 1.7653743862e+00
 1.6906495548e+00	 4.7881166991e-01	 1.6071668331e+00
 1.6795892969e+00	 5.1627166935e-01	 1.4447598098e+00
 1.6676307853e+00	 5.5368246914e-01	 1.2788248965e+00
 1.6547688555e+00	 5.9101334397e-01	 1.1099961094e+00
 1.6409996847e+00	 6.2823303853e-01	 9.3886605875e-01
 1.6263208372e+00	 6.6530983778e-01	 7.6598214729e-01
 1.6107313056e+00	 7.0221164115e-01	 5.9184284281e-01
 1.5942315478e+00	 7.3890604058e-01	 4.1689406581e-01
 1.7324825016e+00	 3.6941342572e-01	 2.0439225452e+00
 1.7240049979e+00	 4.0714722530e-01	 1.8959082582e+00
 1.7146451585e+00	 4.4492050249e-01	 1.7424910960e+00
 1.7043940311e+00	 4.8270426588e-01	 1.5843752507e+00
 1.6932438566e+00	 5.2046880394e-01	 1.4222339645e+00
 1.6811881259e+00	 5.5818374236e-01	 1.2567058931e+00
 1.6682216324e+00	 5.9581810606e-01	 1.0883914678e+00
 1.6543405224e+00	 6.3334038563e-01	 9.1784927516e-01
 1.6395423402e+00	 6.7071860819e-01	 7.4559247563e-01
 1.6238260704e+00	 7.0792041221e-01	 5.7208529274e-01
 1.6071921745e+00	 7.4491312615e-01	 3.9773961070e-01
 1.7464534939e+00	 3.7239242960e-01	 2.0211741270e+00
 1.7379076264e+00	 4.1043052006e-01	 1.8730036841e+00
 1.7284723078e+00	 4.4850840648e-01	 1.7196276789e+00
 1.7181385138e+00	 4.8659686367e-01	 1.5617233096e+00
 1.7068984227e+00	 5.2466594048e-01	 1.3999360271e+00
 1.6947454728e+00	 5.6268501769e-01	 1.2348760906e+00
 1.6816744156e+00	 6.0062287039e-01	 1.0671151249e+00
 1.6676813663e+00	 6.3844773512e-01	 8.9718269254e-01
 1.6527638494e+00	 6.7612738113e-01	 7.2556290188e-01
 1.6369208413e+00	 7.1362918593e-01	 5.5269107702e-01
 1.6201528072e+00	 7.5092021453e-01	 3.7895052736e-01
 1.7604244943e+00	 3.7537143522e-01	 1.9980257600e+00
 1.7518102629e+00	 4.1371381674e-01	 1.8498957235e+00
 1.7422994652e+00	 4.5209631257e-01	 1.6967185459e+00
 1.7318830045e+00	 4.9048946372e-01	 1.5391482793e+00
 1.7205529967e+00	 5.2886307947e-01	 1.3778067227e+00
 1.7083028276e+00	 5.6718629563e-01	 1.2132801494e+00
 1.6951272067e+00	 6.0542763753e-01	 1.0461160352e+00
 1.6810222180e+00	 6.4355508758e-01	 8.7681979576e-01
 1.6659853663e+00	 6.8153615722e-01	 7.0585155206e-01
 1.6500156198e+00	 7.1933796299e-01	 5.3362294736e-01
 1.6331134475e+00	 7.5692730642e-01	 3.6049405042e-01
 1.7743955044e+00	 3.7835044293e-01	 1.9744110184e+00
 1.7657129091e+00	 4.1699711571e-01	 1.8265192339e+00
 1.7561266322e+00	 4.5568422117e-01	 1.6737006344e+00
 1.7456275048e+00	 4.9438206651e-01	 1.5165898667e+00
 1.7342075803e+00	 5.3306022140e-01	 1.3557891065e+00
 1.7218601919e+00	 5.7168757673e-01	 1.1918649382e+00
 1.7085800071e+00	 6.1023240803e-01	 1.0253452290e+00
 1.6943630790e+00	 6.4866244362e-01	 8.5671600556e-01
 1.6792068925e+00	 6.8694493710e-01	 6.8641834542e-01
 1.6631104075e+00	 7.2504674404e-01	 5.1484530710e-01
 1.6460740968e+00	 7.6293440251e-01	 3.4233892965e-01
 1.7883665260e+00	 3.8132945307e-01	 1.9502659996e+00
 1.7796155667e+00	 4.2028041737e-01	 1.8028115541e+00
 1.7699538106e+00	 4.5927213270e-01	 1.6505132973e+00
 1.7593720164e+00	 4.9827467247e-01	 1.4939901076e+00
 1.7478621750e+00	 5.3725736676e-01	 1.3338284589e+00
 1.7354175672e+00	 5.7618886151e-01	 1.1705794327e+00
 1.7220328186e+00	 6.1503718246e-01	 1.0047557154e+00
 1.7077039509e+00	 6.5376980383e-01	 8.3682858665e-01
 1.6924284294e+00	 6.9235372139e-01	 6.6722490723e-01
 1.6762052059e+00	 7.3075552975e-01	 4.9632412859e-01
 1.6590347568e+00	 7.6894150350e-01	 3.2445535184e-01
 1.8023375606e+00	 3.8430846599e-01	 1.9255292152e+00
 1.7935182373e+00	 4.2356372209e-01	 1.7787123965e+00
 1.7837810018e+00	 4.6286004757e-01	 1.6270981972e+00
 1.7731165408e+00	 5.0216728206e-01	 1.4712932636e+00
 1.7615167825e+00	 5.4145451604e-01	 1.3118721855e+00
 1.7489749552e+00	 5.8069015048e-01	 1.1493746200e+00
 1.7354856426e+00	 6.1984196137e-01	 9.8430239070e-01
 1.7210448352e+00	 6.5887716880e-01	 8.1711656019e-01
 1.7056499787e+00	 6.9776251074e-01	 6.4823448578e-01
 1.6893000165e+00	 7.3646432079e-01	 4.7802687467e-01
 1.6719954288e+00	 7.7494861010e-01	 3.0681486645e-01
 1.8163086099e+00	 3.8728748204e-01	 1.9001414881e+00
 1.8074209225e+00	 4.2684703026e-01	 1.7541637444e+00
 1.7976082076e+00	 4.6644796621e-01	 1.6033992052e+00
 1.7868610796e+00	 5.0605989574e-01	 1.4484457238e+00
 1.7751714043e+00	 5.4565166972e-01	 1.2898697215e+00
 1.7625323575e+00	 5.8519144419e-01	 1.1282034065e+00
 1.7489384807e+00	 6.2464674532e-01	 9.6394195038e-01
 1.7343857336e+00	 6.6398453914e-01	 7.9754062040e-01
 1.7188715419e+00	 7.0317130576e-01	 6.2941187330e-01
 1.7023948409e+00	 7.4217311783e-01	 4.5992242386e-01
 1.6849561144e+00	 7.8095572301e-01	 2.8939031482e-01
 1.5553496890e+00	 7.2088479365e-01	 4.7690179867e-01
 1.5383650072e+00	 7.5645254539e-01	 2.9872663447e-01
 1.5204974850e+00	 7.9175408771e-01	 1.1923951479e-01
 1.5017520327e+00	 8.2675737455e-01	-6.0005905403e-02
 1.4821350817e+00	 8.6143039390e-01	-2.3751303432e-01
 1.4616545934e+00	 8.9574125683e-01	-4.1185285557e-01
 1.4403200613e+00	 9.2965828779e-01	-5.8167407268e-01
 1.4181425068e+00	 9.6315011567e-01	-7.4558969932e-01
 1.3951344689e+00	 9.9618576505e-01	-9.0160054678e-01
 1.3713099874e+00	 1.0287347473e+00	-1.0485378098e+00
 1.3466845789e+00	 1.0607671506e+00	-1.1855412678e+00
 1.5683103066e+00	 7.2689187503e-01	 4.5643822597e-01
 1.5511840927e+00	 7.6275601029e-01	 2.7882651196e-01
 1.5331676817e+00	 7.9835171784e-01	 9.9849929628e-02
 1.5142660248e+00	 8.3364668457e-01	-7.8921508303e-02
 1.4944856072e+00	 8.6860863170e-01	-2.5597421863e-01
 1.4738344565e+00	 9.0320540459e-01	-4.2986188801e-01
 1.4523221453e+00	 9.3740506375e-01	-5.9921596310e-01
 1.4299597868e+00	 9.7117597662e-01	-7.6275562073e-01
 1.4067600246e+00	 1.0044869097e+00	-9.1877631380e-01
 1.3827370153e+00	 1.0373071203e+00	-1.0655809183e+00
 1.3579064051e+00	 1.0696064474e+00	-1.2022861820e+00
 1.5812709257e+00	 7.3289895710e-01	 4.3644825541e-01
 1.5640031796e+00	 7.6905947593e-01	 2.5939111540e-01
 1.5458378799e+00	 8.0494934874e-01	 8.0919274885e-02
 1.5267800185e+00	 8.4053599538e-01	-9.7381601431e-02
 1.5068361342e+00	 8.7578687034e-01	-2.7398157665e-01
 1.4860143210e+00	 9.1066955323e-01	-4.4741761043e-01
 1.4643242306e+00	 9.4515184060e-01	-6.1630439620e-01
 1.4417770681e+00	 9.7920183852e-01	-7.7934469122e-01
 1.4183855816e+00	 1.0127880553e+00	-9.3522293870e-01
 1.3941640446e+00	 1.0458794943e+00	-1.0819406966e+00
 1.3691282326e+00	 1.0784457451e+00	-1.2183936862e+00
 1.5942315478e+00	 7.3890604058e-01	 4.1689406581e-01
 1.5768222696e+00	 7.7536294304e-01	 2.4038754691e-01
 1.5585080810e+00	 8.1154698118e-01	 6.2419851192e-02
 1.5392940150e+00	 8.4742530780e-01	-1.1540838486e-01
 1.5191866640e+00	 8.8296511065e-01	-2.9155148336e-01
 1.4981941884e+00	 9.1813370360e-01	-4.6453022269e-01
 1.4763263187e+00	 9.5289861927e-01	-6.3294302359e-01
 1.4535943522e+00	 9.8722770228e-01	-7.9547664191e-01
 1.4300111413e+00	 1.0210892029e+00	-9.5091617976e-01
 1.4055910765e+00	 1.0544518703e+00	-1.0975837954e+00
 1.3803500627e+00	 1.0872850449e+00	-1.2338230487e+00
 1.6071921745e+00	 7.4491312615e-01	 3.9773961070e-01
 1.5896413640e+00	 7.8166641235e-01	 2.2178453317e-01
 1.5711782865e+00	 8.1814461592e-01	 4.4325426015e-02
 1.5518080159e+00	 8.5431462263e-01	-1.3302275772e-01
 1.5315371982e+00	 8.9014335347e-01	-3.0869918729e-01
 1.5103740600e+00	 9.2559785659e-01	-4.8120898170e-01
 1.4883284111e+00	 9.6064540064e-01	-6.4913474670e-01
 1.4654116405e+00	 9.9525356886e-01	-8.1114763344e-01
 1.4416367050e+00	 1.0293903534e+00	-9.6601772349e-01
 1.4170181125e+00	 1.0630242493e+00	-1.1124762141e+00
 1.3915718967e+00	 1.0961243478e+00	-1.2485331522e+00
 1.6201528072e+00	 7.5092021453e-01	 3.7895052736e-01
 1.6024604644e+00	 7.8796988461e-01	 2.0355233954e-01
 1.5838484980e+00	 8.2474225374e-01	 2.6611153056e-02
 1.5643220227e+00	 8.6120394068e-01	-1.5024439319e-01
 1.5438877381e+00	 8.9732159964e-01	-3.2543887961e-01
 1.5225539372e+00	 9.3306201306e-01	-4.9746226421e-01
 1.5003305090e+00	 9.6839218564e-01	-6.6488177290e-01
 1.4772289342e+00	 1.0032794392e+00	-8.2635332763e-01
 1.4532622743e+00	 1.0376915077e+00	-9.8063230981e-01
 1.4284451538e+00	 1.0715966323e+00	-1.1265834258e+00
 1.4027937360e+00	 1.1049636549e+00	-1.2624826125e+00
 1.6331134475e+00	 7.5692730642e-01	 3.6049405042e-01
 1.6152795723e+00	 7.9427336054e-01	 1.8566268844e-01
 1.5965187168e+00	 8.3133989541e-01	 9.2534956811e-03
 1.5768360368e+00	 8.6809326275e-01	-1.6709180973e-01
 1.5562382852e+00	 9.0449985000e-01	-3.4178375964e-01
 1.5347338216e+00	 9.4052617388e-01	-5.1329762631e-01
 1.5123326140e+00	 9.7613897514e-01	-6.8018566874e-01
 1.4890462349e+00	 1.0113053142e+00	-8.4108893407e-01
 1.4648878502e+00	 1.0459926669e+00	-9.9474840448e-01
 1.4398722017e+00	 1.0801690203e+00	-1.1400152755e+00
 1.4140155818e+00	 1.1138029671e+00	-1.2756298949e+00
 1.6460740968e+00	 7.6293440251e-01	 3.4233892965e-01
 1.6280986892e+00	 8.0057684088e-01	 1.6808868172e-01
 1.6091889446e+00	 8.3793754170e-01	-7.7698458778e-03
 1.5893500596e+00	 8.7498258963e-01	-1.8358243879e-01
 1.5685888410e+00	 9.1167810538e-01	-3.5774609722e-01
 1.5469137145e+00	 9.4799033993e-01	-5.2872186014e-01
 1.5243347273e+00	 9.8388577008e-01	-6.9504741051e-01
 1.5008635438e+00	 1.0193311948e+00	-8.5534925426e-01
 1.4765134344e+00	 1.0542938319e+00	-1.0083542559e+00
 1.4512992576e+00	 1.0887414143e+00	-1.1529003083e+00
 1.4252374355e+00	 1.1226422854e+00	-1.2879334293e+00
 1.6590347568e+00	 7.6894150350e-01	 3.2445535184e-01
 1.6409178165e+00	 8.0688032637e-01	 1.5080472686e-01
 1.6218591826e+00	 8.4453519338e-01	-2.4480003723e-02
 1.6018640926e+00	 8.8187192215e-01	-1.9973268916e-01
 1.5809394069e+00	 9.1885636663e-01	-3.7333729194e-01
 1.5590936174e+00	 9.5545451207e-01	-5.4374104763e-01
 1.5363368505e+00	 9.9163257133e-01	-7.0946743232e-01
 1.5126808624e+00	 1.0273570820e+00	-8.6912872358e-01
 1.4881390280e+00	 1.0625950037e+00	-1.0214379305e+00
 1.4627263229e+00	 1.0973138153e+00	-1.1652198620e+00
 1.4364592983e+00	 1.1314816110e+00	-1.2994211013e+00
 1.6719954288e+00	 7.7494861010e-01	 3.0681486645e-01
 1.6537369558e+00	 8.1318381775e-01	 1.3378646678e-01
 1.6345294325e+00	 8.5113285122e-01	-4.0897008111e-02
 1.6143781374e+00	 8.8876126109e-01	-2.1555800816e-01
 1.5932899843e+00	 9.2603463457e-01	-3.8856792940e-01
 1.5712735316e+00	 9.6291869118e-01	-5.5836061167e-01
 1.5483389849e+00	 9.9937937982e-01	-7.2344567173e-01
 1.5244981920e+00	 1.0353829766e+00	-8.8242145117e-01
 1.4997646324e+00	 1.0708961832e+00	-1.0339873469e+00
 1.4741533988e+00	 1.1058862243e+00	-1.1769552844e+00
 1.4476811716e+00	 1.1403209449e+00	-1.3102600937e+00
 1.6849561144e+00	 7.8095572301e-01	 2.8939031482e-01
 1.6665561086e+00	 8.1948731574e-01	 1.1701071308e-01
 1.6471996957e+00	 8.5773051598e-01	-5.7039850058e-02
 1.6268921952e+00	 8.9565060726e-01	-2.3107293983e-01
 1.6056405746e+00	 9.3321291005e-01	-4.0344783479e-01
 1.5834534587e+00	 9.7038287813e-01	-5.7258536471e-01
 1.5603411318e+00	 1.0071261964e+00	-7.3698161320e-01
 1.5363155340e+00	 1.0434088797e+00	-8.9522125784e-01
 1.5113902491e+00	 1.0791973714e+00	-1.0459903073e+00
 1.4855804868e+00	 1.1144586423e+00	-1.1880879876e+00
 1.4589030567e+00	 1.1491602880e+00	-1.3204375261e+00
 1.3466845789e+00	 1.0607671506e+00	-1.1855412678e+00
 1.3212752037e+00	 1.0922537322e+00	-1.3122562661e+00
 1.2951002177e+00	 1.1231660134e+00	-1.4285527360e+00
 1.2681793414e+00	 1.1534763562e+00	-1.5341060872e+00
 1.2405336151e+00	 1.1831580408e+00	-1.6287012438e+00
 1.2121853445e+00	 1.2121853445e+00	-1.7122241874e+00
 1.1831580408e+00	 1.2405336151e+00	-1.7846509713e+00
 1.1534763562e+00	 1.2681793414e+00	-1.8460345430e+00
 1.1231660134e+00	 1.2951002177e+00	-1.8964897933e+00
 1.0922537322e+00	 1.3212752037e+00	-1.9361773322e+00
 1.0607671506e+00	 1.3466845789e+00	-1.9652865412e+00
 1.3579064051e+00	 1.0696064474e+00	-1.2022861820e+00
 1.3322852954e+00	 1.1013554043e+00	-1.3284759509e+00
 1.3058921951e+00	 1.1325252754e+00	-1.4440165760e+00
 1.2787469891e+00	 1.1630881921e+00	-1.5486573828e+00
 1.2508708929e+00	 1.1930172121e+00	-1.6422634006e+00
 1.2222863982e+00	 1.2222863982e+00	-1.7248059612e+00
 1.1930172121e+00	 1.2508708929e+00	-1.7963506023e+00
 1.1630881921e+00	 1.2787469891e+00	-1.8570426297e+00
 1.1325252754e+00	 1.3058921951e+00	-1.9070907866e+00
 1.1013554043e+00	 1.3322852954e+00	-1.9467495542e+00
 1.0696064474e+00	 1.3579064051e+00	-1.9763006731e+00
 1.3691282326e+00	 1.0784457451e+00	-1.2183936862e+00
 1.3432953884e+00	 1.1104570775e+00	-1.3441103111e+00
 1.3166841738e+00	 1.1418845385e+00	-1.4589602381e+00
 1.2893146380e+00	 1.1727000291e+00	-1.5627682208e+00
 1.2612081719e+00	 1.2028763845e+00	-1.6554813997e+00
 1.2323874530e+00	 1.2323874530e+00	-1.7371589252e+00
 1.2028763845e+00	 1.2612081719e+00	-1.8079587082e+00
 1.1727000291e+00	 1.2893146380e+00	-1.8681216716e+00
 1.1418845385e+00	 1.3166841738e+00	-1.9179539780e+00
 1.1104570775e+00	 1.3432953884e+00	-1.9578077892e+00
 1.0784457451e+00	 1.3691282326e+00	-1.9880611814e+00
 1.3803500627e+00	 1.0872850449e+00	-1.2338230487e+00
 1.3543054839e+00	 1.1195587529e+00	-1.3591113644e+00
 1.3274761549e+00	 1.1512438037e+00	-1.4733292768e+00
 1.2998822893e+00	 1.1823118684e+00	-1.5763784493e+00
 1.2715454533e+00	 1.2127355592e+00	-1.6682901169e+00
 1.2424885102e+00	 1.2424885102e+00	-1.7492137019e+00
 1.2127355592e+00	 1.2715454533e+00	-1.8194023691e+00
 1.1823118684e+00	 1.2998822893e+00	-1.8791959152e+00
 1.1512438037e+00	 1.3274761549e+00	-1.9290014929e+00
 1.1195587529e+00	 1.3543054839e+00	-1.9692727609e+00
 1.0872850449e+00	 1.3803500627e+00	-2.0004881182e+00
 1.3915718967e+00	 1.0961243478e+00	-1.2485331522e+00
 1.3653155833e+00	 1.1286604314e+00	-1.3734309827e+00
 1.3382681399e+00	 1.1606030723e+00	-1.4870692896e+00
 1.3104499444e+00	 1.1919237110e+00	-1.5894280995e+00
 1.2818827384e+00	 1.2225947373e+00	-1.6806247037e+00
 1.2525895710e+00	 1.2525895710e+00	-1.7609012364e+00
 1.2225947373e+00	 1.2818827384e+00	-1.8306089915e+00
 1.1919237110e+00	 1.3104499444e+00	-1.8901898961e+00
 1.1606030723e+00	 1.3382681399e+00	-1.9401556706e+00
 1.1286604314e+00	 1.3653155833e+00	-1.9810652977e+00
 1.0961243478e+00	 1.3915718967e+00	-2.0135014999e+00
 1.4027937360e+00	 1.1049636549e+00	-1.2624826125e+00
 1.3763256878e+00	 1.1377621142e+00	-1.3870210020e+00
 1.3490601299e+00	 1.1699623452e+00	-1.5001260216e+00
 1.3210176044e+00	 1.2015355581e+00	-1.6018574851e+00
 1.2922200282e+00	 1.2324539201e+00	-1.6924206823e+00
 1.2626906365e+00	 1.2626906365e+00	-1.7721528875e+00
 1.2324539201e+00	 1.2922200282e+00	-1.8415063946e+00
 1.2015355581e+00	 1.3210176044e+00	-1.9010285220e+00
 1.1699623452e+00	 1.3490601299e+00	-1.9513391444e+00
 1.1377621142e+00	 1.3763256878e+00	-1.9931064106e+00
 1.1049636549e+00	 1.4027937360e+00	-2.0270213853e+00
 1.4140155818e+00	 1.1138029671e+00	-1.2756298949e+00
 1.3873357987e+00	 1.1468638022e+00	-1.3998333333e+00
 1.3598521261e+00	 1.1793216235e+00	-1.5124454696e+00
 1.3315852705e+00	 1.2111474108e+00	-1.6136073010e+00
 1.3025573241e+00	 1.2423131086e+00	-1.7036140394e+00
 1.2727917078e+00	 1.2727917078e+00	-1.7829005169e+00
 1.2423131086e+00	 1.3025573241e+00	-1.8520228972e+00
 1.2111474108e+00	 1.3315852705e+00	-1.9116371564e+00
 1.1793216235e+00	 1.3598521261e+00	-1.9624749233e+00
 1.1468638022e+00	 1.3873357987e+00	-2.0053173725e+00
 1.1138029671e+00	 1.4140155818e+00	-2.0409679514e+00
 1.4252374355e+00	 1.1226422854e+00	-1.2879334293e+00
 1.3983459174e+00	 1.1559654967e+00	-1.4118200709e+00
 1.3706441300e+00	 1.1886809084e+00	-1.5239739855e+00
 1.3421529441e+00	 1.2207592702e+00	-1.6246187226e+00
 1.3128946272e+00	 1.2521723040e+00	-1.7141413210e+00
 1.2828927863e+00	 1.2828927863e+00	-1.7930765807e+00
 1.2521723040e+00	 1.3128946272e+00	-1.8620874048e+00
 1.2207592702e+00	 1.3421529441e+00	-1.9219417030e+00
 1.1886809084e+00	 1.3706441300e+00	-1.9734864733e+00
 1.1559654967e+00	 1.3983459174e+00	-2.0176197972e+00
 1.1226422854e+00	 1.4252374355e+00	-2.0552615716e+00
 1.4364592983e+00	 1.1314816110e+00	-1.2994211013e+00
 1.4093560450e+00	 1.1650671986e+00	-1.4229336016e+00
 1.3814361426e+00	 1.1980402010e+00	-1.5346583799e+00
 1.3527206262e+00	 1.2303711375e+00	-1.6348335034e+00
 1.3232319388e+00	 1.2620315074e+00	-1.7239397263e+00
 1.2929938730e+00	 1.2929938730e+00	-1.8026142189e+00
 1.2620315074e+00	 1.3232319388e+00	-1.8716294970e+00
 1.2303711375e+00	 1.3527206262e+00	-1.9318686898e+00
 1.1980402010e+00	 1.3814361426e+00	-1.9842977988e+00
 1.1650671986e+00	 1.4093560450e+00	-2.0299357192e+00
 1.1314816110e+00	 1.4364592983e+00	-2.0694276091e+00
 1.4476811716e+00	 1.1403209449e+00	-1.3102600937e+00
 1.4203661829e+00	 1.1741689089e+00	-1.4331267115e+00
 1.3922281653e+00	 1.2073995023e+00	-1.5444460243e+00
 1.3632883183e+00	 1.2399830138e+00	-1.6441940737e+00
 1.3335692600e+00	 1.2718907201e+00	-1.7329472019e+00
 1.3030949691e+00	 1.3030949691e+00	-1.8114473470e+00
 1.2718907201e+00	 1.3335692600e+00	-1.8805795143e+00
 1.2399830138e+00	 1.3632883183e+00	-1.9413453535e+00
 1.2073995023e+00	 1.3922281653e+00	-1.9948335254e+00
 1.1741689089e+00	 1.4203661829e+00	-2.0421876734e+00
 1.1403209449e+00	 1.4476811716e+00	-2.0822701400e+00
 1.4589030567e+00	 1.1491602880e+00	-1.3204375261e+00
 1.4313763324e+00	 1.1832706289e+00	-1.4423611852e+00
 1.4030201994e+00	 1.2167588134e+00	-1.5532849534e+00
 1.3738560214e+00	 1.2495949002e+00	-1.6526436383e+00
 1.3439065921e+00	 1.2817499431e+00	-1.7411025360e+00
 1.3131960758e+00	 1.3131960758e+00	-1.8195107457e+00
 1.2817499431e+00	 1.3439065921e+00	-1.8888686466e+00
 1.2495949002e+00	 1.3738560214e+00	-1.9502997249e+00
 1.2167588134e+00	 1.4030201994e+00	-2.0050189817e+00
 1.1832706289e+00	 1.4313763324e+00	-2.0542525321e+00
 1.1491602880e+00	 1.4589030567e+00	-2.0936959067e+00
 1.0607671506e+00	 1.3466845789e+00	-1.9652865412e+00
 1.0287347473e+00	 1.3713099874e+00	-1.9854939292e+00
 9.9618576505e-01	 1.3951344689e+00	-1.9993071592e+00
 9.6315011567e-01	 1.4181425068e+00	-2.0081108622e+00
 9.2965828779e-01	 1.4403200613e+00	-2.0121158877e+00
 8.9574125683e-01	 1.4616545934e+00	-2.0069513170e+00
 8.6143039390e-01	 1.4821350817e+00	-1.9931652275e+00
 8.2675737455e-01	 1.5017520327e+00	-1.9720919266e+00
 7.9175408771e-01	 1.5204974850e+00	-1.9450134354e+00
 7.5645254539e-01	 1.5383650072e+00	-1.9131538015e+00
 7.2088479365e-01	 1.5553496890e+00	-1.8776744442e+00
 1.0696064474e+00	 1.3579064051e+00	-1.9763006731e+00
 1.0373071203e+00	 1.3827370153e+00	-1.9974285117e+00
 1.0044869097e+00	 1.4067600246e+00	-2.0126156725e+00
 9.7117597662e-01	 1.4299597868e+00	-2.0232635856e+00
 9.3740506375e-01	 1.4523221453e+00	-2.0263474374e+00
 9.0320540459e-01	 1.4738344565e+00	-2.0197881460e+00
 8.6860863170e-01	 1.4944856072e+00	-2.0049590476e+00
 8.3364668457e-01	 1.5142660248e+00	-1.9831780738e+00
 7.9835171784e-01	 1.5331676817e+00	-1.9557012173e+00
 7.6275601029e-01	 1.5511840927e+00	-1.9237170967e+00
 7.2689187503e-01	 1.5683103066e+00	-1.8883426280e+00
 1.0784457451e+00	 1.3691282326e+00	-1.9880611814e+00
 1.0458794943e+00	 1.3941640446e+00	-2.0103940476e+00
 1.0127880553e+00	 1.4183855816e+00	-2.0272461186e+00
 9.7920183852e-01	 1.4417770681e+00	-2.0387580066e+00
 9.4515184060e-01	 1.4643242306e+00	-2.0403044363e+00
 9.1066955323e-01	 1.4860143210e+00	-2.0325441350e+00
 8.7578687034e-01	 1.5068361342e+00	-2.0168372420e+00
 8.4053599538e-01	 1.5267800185e+00	-1.9944783738e+00
 8.0494934874e-01	 1.5458378799e+00	-1.9666903193e+00
 7.6905947593e-01	 1.5640031796e+00	-1.9346189150e+00
 7.3289895710e-01	 1.5812709257e+00	-1.8993291063e+00
 1.0872850449e+00	 1.3803500627e+00	-2.0004881182e+00
 1.0544518703e+00	 1.4055910765e+00	-2.0243095672e+00
 1.0210892029e+00	 1.4300111413e+00	-2.0431008848e+00
 9.8722770228e-01	 1.4535943522e+00	-2.0537227550e+00
 9.5289861927e-01	 1.4763263187e+00	-2.0539421239e+00
 9.1813370360e-01	 1.4981941884e+00	-2.0451681235e+00
 8.8296511065e-01	 1.5191866640e+00	-2.0287412191e+00
 8.4742530780e-01	 1.5392940150e+00	-2.0059259417e+00
 8.1154698118e-01	 1.5585080810e+00	-1.9779048703e+00
 7.7536294304e-01	 1.5768222696e+00	-1.9457738790e+00
 7.3890604058e-01	 1.5942315478e+00	-1.9105386466e+00
 1.0961243478e+00	 1.3915718967e+00	-2.0135014999e+00
 1.0630242493e+00	 1.4170181125e+00	-2.0390939356e+00
 1.0293903534e+00	 1.4416367050e+00	-2.0589243546e+00
 9.9525356886e-01	 1.4654116405e+00	-2.0681202344e+00
 9.6064540064e-01	 1.4883284111e+00	-2.0672177978e+00
 9.2559785659e-01	 1.5103740600e+00	-2.0576111433e+00
 8.9014335347e-01	 1.5315371982e+00	-2.0406147454e+00
 8.5431462263e-01	 1.5518080159e+00	-2.0174564416e+00
 8.1814461592e-01	 1.5711782865e+00	-1.9892717604e+00
 7.8166641235e-01	 1.5896413640e+00	-1.9570995989e+00
 7.4491312615e-01	 1.6071921745e+00	-1.9218792409e+00
 1.1049636549e+00	 1.4027937360e+00	-2.0270213853e+00
 1.0715966323e+00	 1.4284451538e+00	-2.0546659272e+00
 1.0376915077e+00	 1.4532622743e+00	-2.0739251191e+00
 1.0032794392e+00	 1.4772289342e+00	-2.0819147704e+00
 9.6839218564e-01	 1.5003305090e+00	-2.0800907715e+00
 9.3306201306e-01	 1.5225539372e+00	-2.0698263707e+00
 8.9732159964e-01	 1.5438877381e+00	-2.0524038904e+00
 8.6120394068e-01	 1.5643220227e+00	-2.0290080244e+00
 8.2474225374e-01	 1.5838484980e+00	-2.0007205692e+00
 7.8796988461e-01	 1.6024604644e+00	-1.9685165918e+00
 7.5092021453e-01	 1.6201528072e+00	-1.9332620145e+00
 1.1138029671e+00	 1.4140155818e+00	-2.0409679514e+00
 1.0801690203e+00	 1.4398722017e+00	-2.0700823818e+00
 1.0459926669e+00	 1.4648878502e+00	-2.0880730721e+00
 1.0113053142e+00	 1.4890462349e+00	-2.0950725733e+00
 9.7613897514e-01	 1.5123326140e+00	-2.0925223328e+00
 9.4052617388e-01	 1.5347338216e+00	-2.0817690798e+00
 9.0449985000e-01	 1.5562382852e+00	-2.0640569735e+00
 8.6809326275e-01	 1.5768360368e+00	-2.0405212664e+00
 8.3133989541e-01	 1.5965187168e+00	-2.0121834966e+00
 7.9427336054e-01	 1.6152795723e+00	-1.9799482036e+00
 7.5692730642e-01	 1.6331134475e+00	-1.9446011386e+00
 1.1226422854e+00	 1.4252374355e+00	-2.0552615716e+00
 1.0887414143e+00	 1.4512992576e+00	-2.0843886166e+00
 1.0542938319e+00	 1.4765134344e+00	-2.1013399062e+00
 1.0193311948e+00	 1.5008635438e+00	-2.1075617012e+00
 9.8388577008e-01	 1.5243347273e+00	-2.1044757034e+00
 9.4799033993e-01	 1.5469137145e+00	-2.0933965969e+00
 9.1167810538e-01	 1.5685888410e+00	-2.0755245124e+00
 8.7498258963e-01	 1.5893500596e+00	-2.0519391111e+00
 8.3793754170e-01	 1.6091889446e+00	-2.0235952962e+00
 8.0057684088e-01	 1.6280986892e+00	-1.9913205336e+00
 7.6293440251e-01	 1.6460740968e+00	-1.9558137462e+00
 1.1314816110e+00	 1.4364592983e+00	-2.0694276091e+00
 1.0973138153e+00	 1.4627263229e+00	-2.0975602055e+00
 1.0625950037e+00	 1.4881390280e+00	-2.1136990785e+00
 1.0273570820e+00	 1.5126808624e+00	-2.1193520239e+00
 9.9163257133e-01	 1.5363368505e+00	-2.1159159995e+00
 9.5545451207e-01	 1.5590936174e+00	-2.1046682565e+00
 9.1885636663e-01	 1.5809394069e+00	-2.0867591725e+00
 8.8187192215e-01	 1.6018640926e+00	-2.0632068118e+00
 8.4453519338e-01	 1.6218591826e+00	-2.0348932108e+00
 8.0688032637e-01	 1.6409178165e+00	-2.0025623623e+00
 7.6894150350e-01	 1.6590347568e+00	-1.9668198510e+00
 1.1403209449e+00	 1.4476811716e+00	-2.0822701400e+00
 1.1058862243e+00	 1.4741533988e+00	-2.1095746151e+00
 1.0708961832e+00	 1.4997646324e+00	-2.1251257768e+00
 1.0353829766e+00	 1.5244981920e+00	-2.1304151871e+00
 9.9937937982e-01	 1.5483389849e+00	-2.1268101922e+00
 9.6291869118e-01	 1.5712735316e+00	-2.1155453570e+00
 9.2603463457e-01	 1.5932899843e+00	-2.0977157184e+00
 8.8876126109e-01	 1.6143781374e+00	-2.0742718763e+00
 8.5113285122e-01	 1.6345294325e+00	-2.0460169097e+00
 8.1318381775e-01	 1.6537369558e+00	-2.0136050811e+00
 7.7494861010e-01	 1.6719954288e+00	-1.9775422698e+00
 1.1491602880e+00	 1.4589030567e+00	-2.0936959067e+00
 1.1144586423e+00	 1.4855804868e+00	-2.1204110030e+00
 1.0791973714e+00	 1.5113902491e+00	-2.1355968867e+00
 1.0434088797e+00	 1.5363155340e+00	-2.1407245773e+00
 1.0071261964e+00	 1.5603411318e+00	-2.1371270696e+00
 9.7038287813e-01	 1.5834534587e+00	-2.1259911185e+00
 9.3321291005e-01	 1.6056405746e+00	-2.1083509653e+00
 8.9565060726e-01	 1.6268921952e+00	-2.0850840131e+00
 8.5773051598e-01	 1.6471996957e+00	-2.0569084291e+00
 8.1948731574e-01	 1.6665561086e+00	-2.0243826252e+00
 7.8095572301e-01	 1.6849561144e+00	-1.9879065470e+00
 7.2088479365e-01	 1.5553496890e+00	-1.8776744442e+00
 6.8508533728e-01	 1.5714470327e+00	-1.8378006164e+00
 6.4908353537e-01	 1.5866563497e+00	-1.7925992738e+00
 6.1291100557e-01	 1.6009771935e+00	-1.7429485776e+00
 5.7659906553e-01	 1.6144105468e+00	-1.6897195269e+00
 5.4017865683e-01	 1.6269587858e+00	-1.6337746053e+00
 5.0368027245e-01	 1.6386256401e+00	-1.5759668980e+00
 4.6713388836e-01	 1.6494161483e+00	-1.5171396564e+00
 4.3056889908e-01	 1.6593366097e+00	-1.4581262857e+00
 3.9401405774e-01	 1.6683945330e+00	-1.3997507269e+00
 3.5749742061e-01	 1.6765985816e+00	-1.3428282008e+00
 7.2689187503e-01	 1.5683103066e+00	-1.8883426280e+00
 6.9079410435e-01	 1.5845417883e+00	-1.8488791383e+00
 6.5449230200e-01	 1.5998778435e+00	-1.8044369468e+00
 6.1801834909e-01	 1.6143180218e+00	-1.7558102723e+00
 5.8140382426e-01	 1.6278633143e+00	-1.7038076523e+00
 5.4467992690e-01	 1.6405161168e+00	-1.6492502426e+00
 5.0787740410e-01	 1.6522801903e+00	-1.5929704361e+00
 4.7102648160e-01	 1.6631606150e+00	-1.5358107907e+00
 4.3415679888e-01	 1.6731637429e+00	-1.4786232539e+00
 3.9729734867e-01	 1.6822971451e+00	-1.4222686673e+00
 3.6047642102e-01	 1.6905695575e+00	-1.3676165367e+00
 7.3289895710e-01	 1.5812709257e+00	-1.8993291063e+00
 6.9650287208e-01	 1.5976365454e+00	-1.8602485167e+00
 6.5990106926e-01	 1.6130993388e+00	-1.8165845366e+00
 6.2312569322e-01	 1.6276588517e+00	-1.7690451284e+00
 5.8620858355e-01	 1.6413160833e+00	-1.7183740256e+00
 5.4918119749e-01	 1.6540734495e+00	-1.6653486991e+00
 5.1207453624e-01	 1.6659347420e+00	-1.6107784916e+00
 4.7491907530e-01	 1.6769050833e+00	-1.5555029204e+00
 4.3774469911e-01	 1.6869908777e+00	-1.5003901495e+00
 4.0058063999e-01	 1.6961997590e+00	-1.4463356278e+00
 3.6345542177e-01	 1.7045405351e+00	-1.3942608918e+00
 7.3890604058e-01	 1.5942315478e+00	-1.9105386466e+00
 7.0221164115e-01	 1.6107313056e+00	-1.8718030445e+00
 6.6530983778e-01	 1.6263208372e+00	-1.8289248785e+00
 6.2823303853e-01	 1.6409996847e+00	-1.7825235850e+00
 5.9101334397e-01	 1.6547688555e+00	-1.7332757986e+00
 5.5368246914e-01	 1.6676307853e+00	-1.6819130000e+00
 5.1627166935e-01	 1.6795892969e+00	-1.6292191796e+00
 4.7881166991e-01	 1.6906495548e+00	-1.5760285270e+00
 4.4133260017e-01	 1.7008180157e+00	-1.5232231603e+00
 4.0386393207e-01	 1.7101023760e+00	-1.4717309074e+00
 3.6643442322e-01	 1.7185115159e+00	-1.4225231494e+00
 7.4491312615e-01	 1.6071921745e+00	-1.9218792409e+00
 7.0792041221e-01	 1.6238260704e+00	-1.8834404938e+00
 6.7071860819e-01	 1.6395423402e+00	-1.8413445736e+00
 6.3334038563e-01	 1.6543405224e+00	-1.7961201623e+00
 5.9581810606e-01	 1.6682216324e+00	-1.7483745471e+00
 5.5818374236e-01	 1.6811881259e+00	-1.6987909651e+00
 5.2046880394e-01	 1.6932438566e+00	-1.6481258066e+00
 4.8270426588e-01	 1.7043940311e+00	-1.5972057043e+00
 4.4492050249e-01	 1.7146451585e+00	-1.5469245301e+00
 4.0714722530e-01	 1.7240049979e+00	-1.4982403269e+00
 3.6941342572e-01	 1.7324825016e+00	-1.4521722004e+00
 7.5092021453e-01	 1.6201528072e+00	-1.9332620145e+00
 7.1362918593e-01	 1.6369208413e+00	-1.8950620146e+00
 6.7612738113e-01	 1.6527638494e+00	-1.8537338740e+00
 6.3844773512e-01	 1.6676813663e+00	-1.8097133330e+00
 6.0062287039e-01	 1.6816744156e+00	-1.7635361292e+00
 5.6268501769e-01	 1.6947454728e+00	-1.7158350506e+00
 5.2466594048e-01	 1.7068984227e+00	-1.6673366945e+00
 4.8659686367e-01	 1.7181385138e+00	-1.6188579645e+00
 4.4850840648e-01	 1.7284723078e+00	-1.5713023456e+00
 4.1043052006e-01	 1.7379076264e+00	-1.5256559947e+00
 3.7239242960e-01	 1.7464534939e+00	-1.4829836880e+00
 7.5692730642e-01	 1.6331134475e+00	-1.9446011386e+00
 7.1933796299e-01	 1.6500156198e+00	-1.9065720368e+00
 6.8153615722e-01	 1.6659853663e+00	-1.8659865739e+00
 6.4355508758e-01	 1.6810222180e+00	-1.8231854013e+00
 6.0542763753e-01	 1.6951272067e+00	-1.7786305482e+00
 5.6718629563e-01	 1.7083028276e+00	-1.7329021982e+00
 5.2886307947e-01	 1.7205529967e+00	-1.6866950136e+00
 4.9048946372e-01	 1.7318830045e+00	-1.6408140530e+00
 4.5209631257e-01	 1.7422994652e+00	-1.5961703328e+00
 4.1371381674e-01	 1.7518102629e+00	-1.5537760846e+00
 3.7537143522e-01	 1.7604244943e+00	-1.5147397641e+00
 7.6293440251e-01	 1.6460740968e+00	-1.9558137462e+00
 7.2504674404e-01	 1.6631104075e+00	-1.9178781766e+00
 6.8694493710e-01	 1.6792068925e+00	-1.8779999048e+00
 6.4866244362e-01	 1.6943630790e+00	-1.8364223852e+00
 6.1023240803e-01	 1.7085800071e+00	-1.7935318236e+00
 5.7168757673e-01	 1.7218601919e+00	-1.7498536904e+00
 5.3306022140e-01	 1.7342075803e+00	-1.7060486225e+00
 4.9438206651e-01	 1.7456275048e+00	-1.6629077721e+00
 4.5568422117e-01	 1.7561266322e+00	-1.6213476631e+00
 4.1699711571e-01	 1.7657129091e+00	-1.5824046227e+00
 3.7835044293e-01	 1.7743955044e+00	-1.5472288579e+00
 7.6894150350e-01	 1.6590347568e+00	-1.9668198510e+00
 7.3075552975e-01	 1.6762052059e+00	-1.9288911461e+00
 6.9235372139e-01	 1.6924284294e+00	-1.8896744351e+00
 6.5376980383e-01	 1.7077039509e+00	-1.8493139052e+00
 6.1503718246e-01	 1.7220328186e+00	-1.8081178660e+00
 5.7618886151e-01	 1.7354175672e+00	-1.7665550121e+00
 5.3725736676e-01	 1.7478621750e+00	-1.7252499150e+00
 4.9827467247e-01	 1.7593720164e+00	-1.6849778123e+00
 4.5927213270e-01	 1.7699538106e+00	-1.6466587678e+00
 4.2028041737e-01	 1.7796155667e+00	-1.6113512847e+00
 3.8132945307e-01	 1.7883665260e+00	-1.5802454542e+00
 7.7494861010e-01	 1.6719954288e+00	-1.9775422698e+00
 7.3646432079e-01	 1.6893000165e+00	-1.9395246670e+00
 6.9776251074e-01	 1.7056499787e+00	-1.9009139738e+00
 6.5887716880e-01	 1.7210448352e+00	-1.8617530770e+00
 6.1984196137e-01	 1.7354856426e+00	-1.8222703581e+00
 5.8069015048e-01	 1.7489749552e+00	-1.7828757190e+00
 5.4145451604e-01	 1.7615167825e+00	-1.7441556743e+00
 5.0216728206e-01	 1.7731165408e+00	-1.7068675912e+00
 4.6286004757e-01	 1.7837810018e+00	-1.6719331616e+00
 4.2356372209e-01	 1.7935182373e+00	-1.6404312022e+00
 3.8430846599e-01	 1.8023375606e+00	-1.6135898825e+00
 7.8095572301e-01	 1.6849561144e+00	-1.9879065470e+00
 7.4217311783e-01	 1.7023948409e+00	-1.9496953874e+00
 7.0317130576e-01	 1.7188715419e+00	-1.9116254779e+00
 6.6398453914e-01	 1.7343857336e+00	-1.8736364083e+00
 6.2464674532e-01	 1.7489384807e+00	-1.8358746406e+00
 5.8519144419e-01	 1.7625323575e+00	-1.7986893105e+00
 5.4565166972e-01	 1.7751714043e+00	-1.7626269328e+00
 5.0605989574e-01	 1.7868610796e+00	-1.7284250996e+00
 4.6644796621e-01	 1.7976082076e+00	-1.6970052728e+00
 4.2684703026e-01	 1.8074209225e+00	-1.6694647781e+00
 3.8728748204e-01	 1.8163086099e+00	-1.6470681151e+00
 3.5749742061e-01	 1.6765985816e+00	-1.3428282008e+00
 3.2104375374e-01	 1.6839590033e+00	-1.2884260157e+00
 2.8468216602e-01	 1.6904859978e+00	-1.2366959363e+00
 2.4843837716e-01	 1.6961913475e+00	-1.1867959066e+00
 2.1233723252e-01	 1.7010877519e+00	-1.1375576794e+00
 1.7640267120e-01	 1.7051887640e+00	-1.0875234030e+00
 1.4065769887e-01	 1.7085087271e+00	-1.0349824962e+00
 1.0512436514e-01	 1.7110627108e+00	-9.7800845409e-01
 6.9823745408e-02	 1.7128664478e+00	-9.1449525059e-01
 3.4775927094e-02	 1.7139362703e+00	-8.4219302317e-01
 0.0000000000e+00	 1.7142890476e+00	-7.5874275680e-01
 3.6047642102e-01	 1.6905695575e+00	-1.3676165367e+00
 3.2371898835e-01	 1.6979913131e+00	-1.3148438275e+00
 2.8705440212e-01	 1.7045726966e+00	-1.2633791349e+00
 2.5050859637e-01	 1.7103255886e+00	-1.2126569037e+00
 2.1410662347e-01	 1.7152627943e+00	-1.1617309612e+00
 1.7787262203e-01	 1.7193979799e+00	-1.1093124722e+00
 1.4182978940e-01	 1.7227456080e+00	-1.0538085141e+00
 1.0600035895e-01	 1.7253208739e+00	-9.9336088071e-01
 7.0405581679e-02	 1.7271396413e+00	-9.2588474344e-01
 3.5065712404e-02	 1.7282183785e+00	-8.4910682296e-01
 0.0000000000e+00	 1.7285740955e+00	-7.6060275008e-01
 3.6345542177e-01	 1.7045405351e+00	-1.3942608918e+00
 3.2639422327e-01	 1.7120236246e+00	-1.3433264169e+00
 2.8942663850e-01	 1.7186593970e+00	-1.2921558427e+00
 2.5257881582e-01	 1.7244598313e+00	-1.2405266751e+00
 2.1587601463e-01	 1.7294378384e+00	-1.1877837511e+00
 1.7934257302e-01	 1.7336071974e+00	-1.1328779293e+00
 1.4300188007e-01	 1.7369824905e+00	-1.0744057534e+00
 1.0687635285e-01	 1.7395790386e+00	-1.0106496687e+00
 7.0987418017e-02	 1.7414128364e+00	-9.3961838789e-01
 3.5355497748e-02	 1.7425004884e+00	-8.5908702636e-01
 0.0000000000e+00	 1.7428591451e+00	-7.6663665338e-01
 3.6643442322e-01	 1.7185115159e+00	-1.4225231494e+00
 3.2906945882e-01	 1.7260559393e+00	-1.3736299704e+00
 2.9179887544e-01	 1.7327461007e+00	-1.3227993696e+00
 2.5464903575e-01	 1.7385940773e+00	-1.2702167879e+00
 2.1764540620e-01	 1.7436128858e+00	-1.2155852812e+00
 1.8081252437e-01	 1.7478164183e+00	-1.1581643197e+00
 1.4417397102e-01	 1.7512193764e+00	-1.0968099380e+00
 1.0775234697e-01	 1.7538372067e+00	-1.0300157867e+00
 7.1569254491e-02	 1.7556860349e+00	-9.5595465561e-01
 3.5645283159e-02	 1.7567826016e+00	-8.7252005814e-01
 0.0000000000e+00	 1.7571441980e+00	-7.7736749209e-01
 3.6941342572e-01	 1.7324825016e+00	-1.4521722004e+00
 3.3174469531e-01	 1.7400882589e+00	-1.4055177935e+00
 2.9417111321e-01	 1.7468328094e+00	-1.3550895248e+00
 2.5671925640e-01	 1.7527283282e+00	-1.3015440131e+00
 2.1941479840e-01	 1.7577879382e+00	-1.2450080714e+00
 1.8228247622e-01	 1.7620256441e+00	-1.1851169985e+00
 1.4534606237e-01	 1.7654562673e+00	-1.1210546192e+00
 1.0862834139e-01	 1.7680953797e+00	-1.0515946028e+00
 7.2151091168e-02	 1.7699592384e+00	-9.7514260385e-01
 3.5935068672e-02	 1.7710647198e+00	-8.8977878704e-01
 0.0000000000e+00	 1.7714292559e+00	-7.9330032486e-01
 3.7239242960e-01	 1.7464534939e+00	-1.4829836880e+00
 3.3441993304e-01	 1.7541205851e+00	-1.4387600492e+00
 2.9654335208e-01	 1.7609195246e+00	-1.3888123775e+00
 2.5878947803e-01	 1.7668625858e+00	-1.3343301348e+00
 2.2118419141e-01	 1.7719629972e+00	-1.2759278134e+00
 1.8375242876e-01	 1.7762348765e+00	-1.2136821109e+00
 1.4651815427e-01	 1.7796931648e+00	-1.1471712729e+00
 1.0950433622e-01	 1.7823535594e+00	-1.0755161170e+00
 7.2732928116e-02	 1.7842324485e+00	-9.9742225718e-01
 3.6224854319e-02	 1.7853468447e+00	-9.1122307040e-01
 0.0000000000e+00	 1.7857143204e+00	-8.1492296211e-01
 3.7537143522e-01	 1.7604244943e+00	-1.5147397641e+00
 3.3709517233e-01	 1.7681529195e+00	-1.4731335082e+00
 2.9891559233e-01	 1.7750062480e+00	-1.4237600291e+00
 2.6085970086e-01	 1.7809968516e+00	-1.3684017698e+00
 2.2295358546e-01	 1.7861380644e+00	-1.3082232606e+00
 1.8522238216e-01	 1.7904441173e+00	-1.2438065743e+00
 1.4769024685e-01	 1.7939300706e+00	-1.1751893928e+00
 1.1038033155e-01	 1.7966117474e+00	-1.1019051811e+00
 7.3314765404e-02	 1.7985056669e+00	-1.0230249710e+00
 3.6514640136e-02	 1.7996289779e+00	-9.3720027293e-01
 0.0000000000e+00	 1.7999993933e+00	-8.4270665030e-01
 3.7835044293e-01	 1.7743955044e+00	-1.5472288579e+00
 3.3977041350e-01	 1.7821852637e+00	-1.5084213111e+00
 3.0128783425e-01	 1.7890929813e+00	-1.4597303954e+00
 2.6292992514e-01	 1.7951311272e+00	-1.4035901950e+00
 2.2472298075e-01	 1.8003131416e+00	-1.3417761225e+00
 1.8669233659e-01	 1.8046533680e+00	-1.2754380601e+00
 1.4886234025e-01	 1.8081669863e+00	-1.2051365780e+00
 1.1125632751e-01	 1.8108699454e+00	-1.1308817100e+00
 7.3896603099e-02	 1.8127788954e+00	-1.0521737780e+00
 3.6804426156e-02	 1.8139111211e+00	-9.6804576099e-01
 0.0000000000e+00	 1.8142844762e+00	-8.7710672386e-01
 3.8132945307e-01	 1.7883665260e+00	-1.5802454542e+00
 3.4244565685e-01	 1.7962176193e+00	-1.5444127414e+00
 3.0366007810e-01	 1.8031797261e+00	-1.4965269995e+00
 2.6500015111e-01	 1.8092654145e+00	-1.4397311830e+00
 2.2649237748e-01	 1.8144882303e+00	-1.3764709647e+00
 1.8816229222e-01	 1.8188626303e+00	-1.3085249777e+00
 1.5003443461e-01	 1.8224039137e+00	-1.2370386177e+00
 1.1213232417e-01	 1.8251281550e+00	-1.1625608814e+00
 7.4478441269e-02	 1.8270521355e+00	-1.0850837178e+00
 3.7094212412e-02	 1.8281932760e+00	-1.0040833736e+00
 0.0000000000e+00	 1.8285695708e+00	-9.1856322653e-01
 3.8430846599e-01	 1.8023375606e+00	-1.6135898825e+00
 3.4512090270e-01	 1.8102499881e+00	-1.5809030091e+00
 3.0603232417e-01	 1.8172664841e+00	-1.5339587741e+00
 2.6707037901e-01	 1.8233997149e+00	-1.4766648447e+00
 2.2826177587e-01	 1.8286633323e+00	-1.4121951130e+00
 1.8963224922e-01	 1.8330719058e+00	-1.3430164576e+00
 1.5120653007e-01	 1.8366408544e+00	-1.2709195711e+00
 1.1300832166e-01	 1.8393863780e+00	-1.1970533273e+00
 7.5060279982e-02	 1.8413253889e+00	-1.1219621524e+00
 3.7383998939e-02	 1.8424754442e+00	-1.0456258717e+00
 0.0000000000e+00	 1.8428546786e+00	-9.6750150388e-01
 3.8728748204e-01	 1.8163086099e+00	-1.6470681151e+00
 3.4779615135e-01	 1.8242823715e+00	-1.6176930441e+00
 3.0840457273e-01	 1.8313532568e+00	-1.5718398723e+00
 2.6914060908e-01	 1.8375340302e+00	-1.5142354801e+00
 2.3003117611e-01	 1.8428384492e+00	-1.4488385624e+00
 1.9110220776e-01	 1.8472811963e+00	-1.3788623368e+00
 1.5237862675e-01	 1.8508778101e+00	-1.3068018443e+00
 1.1388432006e-01	 1.8536446159e+00	-1.2344653160e+00
 7.5642119307e-02	 1.8555986573e+00	-1.1630090658e+00
 3.7673785770e-02	 1.8567576274e+00	-1.0929753664e+00
 0.0000000000e+00	 1.8571398015e+00	-1.0243327683e+00
 1.8571398015e+00	 0.0000000000e+00	 3.1259750083e+00
 1.8567576274e+00	 3.7673785770e-02	 3.0033960580e+00
 1.8555986573e+00	 7.5642119307e-02	 2.8833848146e+00
 1.8536446159e+00	 1.1388432006e-01	 2.7653411489e+00
 1.8508778101e+00	 1.5237862675e-01	 2.6484626979e+00
 1.8472811963e+00	 1.9110220776e-01	 2.5317393671e+00
 1.8428384492e+00	 2.3003117611e-01	 2.4139491042e+00
 1.8375340302e+00	 2.6914060908e-01	 2.2936550496e+00
 1.8313532568e+00	 3.0840457273e-01	 2.1692041603e+00
 1.8242823715e+00	 3.4779615135e-01	 2.0387273888e+00
 1.8163086099e+00	 3.8728748204e-01	 1.9001414881e+00
 1.8714259389e+00	 0.0000000000e+00	 3.1633232605e+00
 1.8710408249e+00	 3.7963593180e-02	 3.0198574132e+00
 1.8698729393e+00	 7.6223999950e-02	 2.8836303649e+00
 1.8679038664e+00	 1.1476038068e-01	 2.7535642932e+00
 1.8651157767e+00	 1.5355080667e-01	 2.6283449344e+00
 1.8614914959e+00	 1.9257227070e-01	 2.5064184170e+00
 1.8570145727e+00	 2.3180070201e-01	 2.3859897584e+00
 1.8516693492e+00	 2.7121098618e-01	 2.2650231308e+00
 1.8454410299e+00	 3.1077698976e-01	 2.1412439885e+00
 1.8383157515e+00	 3.5047158999e-01	 2.0121431314e+00
 1.8302806514e+00	 3.9026670964e-01	 1.8749827624e+00
 1.8857120812e+00	 0.0000000000e+00	 3.2073254437e+00
 1.8853240273e+00	 3.8253400692e-02	 3.0392965718e+00
 1.8841472263e+00	 7.6805880798e-02	 2.8842759878e+00
 1.8821631218e+00	 1.1563644160e-01	 2.7405555985e+00
 1.8793537484e+00	 1.5472298701e-01	 2.6061550295e+00
 1.8757018004e+00	 1.9404233414e-01	 2.4788219159e+00
 1.8711907011e+00	 2.3357022852e-01	 2.3560343188e+00
 1.8658046731e+00	 2.7328136399e-01	 2.2350053720e+00
 1.8595288079e+00	 3.1314940761e-01	 2.1126902391e+00
 1.8523491364e+00	 3.5314702957e-01	 1.9857954427e+00
 1.8442526977e+00	 3.9324593829e-01	 1.8507905968e+00
 1.8999982169e+00	 0.0000000000e+00	 3.2586362700e+00
 1.8996072231e+00	 3.8543208069e-02	 3.0621619590e+00
 1.8984215067e+00	 7.7387761375e-02	 2.8855795723e+00
 1.8964223706e+00	 1.1651250211e-01	 2.7264017413e+00
 1.8935917134e+00	 1.5589516679e-01	 2.5818313665e+00
 1.8899120983e+00	 1.9551239691e-01	 2.4487664728e+00
 1.8853668230e+00	 2.3533975421e-01	 2.3238077303e+00
 1.8799399905e+00	 2.7535174085e-01	 2.2032687310e+00
 1.8736165794e+00	 3.1552182436e-01	 2.0831890879e+00
 1.8663825147e+00	 3.5582246790e-01	 1.9593503913e+00
 1.8582247375e+00	 3.9622516554e-01	 1.8272950255e+00
 1.9142843343e+00	 0.0000000000e+00	 3.3178914592e+00
 1.9138904006e+00	 3.8833015074e-02	 3.0888891201e+00
 1.9126957687e+00	 7.7969641205e-02	 2.8877917770e+00
 1.9106816011e+00	 1.1738856150e-01	 2.7111872496e+00
 1.9078296602e+00	 1.5706734507e-01	 2.5553145840e+00
 1.9041223779e+00	 1.9698245778e-01	 2.4160745703e+00
 1.8995429267e+00	 2.3710927764e-01	 2.2890435355e+00
 1.8940752897e+00	 2.7742211504e-01	 2.1694904865e+00
 1.8877043328e+00	 3.1789423806e-01	 2.0523976461e+00
 1.8804158751e+00	 3.5849790279e-01	 1.9324843843e+00
 1.8721967594e+00	 3.9920438897e-01	 1.8042345087e+00
 1.9285704216e+00	 0.0000000000e+00	 3.3857084439e+00
 1.9281735481e+00	 3.9122821472e-02	 3.1199011960e+00
 1.9269700008e+00	 7.8551519814e-02	 2.8911562958e+00
 1.9249408017e+00	 1.1826461905e-01	 2.6949945779e+00
 1.9220675770e+00	 1.5823952090e-01	 2.5265474867e+00
 1.9183326278e+00	 1.9845251557e-01	 2.3805743401e+00
 1.9137190005e+00	 2.3887879734e-01	 2.2514835489e+00
 1.9082105592e+00	 2.7949248489e-01	 2.1333578476e+00
 1.9017920566e+00	 3.2026664678e-01	 2.0199835475e+00
 1.8944492059e+00	 3.6117333207e-01	 1.9048837751e+00
 1.8861687519e+00	 4.0218360615e-01	 1.7813556107e+00
 1.9428564673e+00	 0.0000000000e+00	 3.4626870426e+00
 1.9424566539e+00	 3.9412627024e-02	 3.1556093786e+00
 1.9412441912e+00	 7.9133396727e-02	 2.8959101109e+00
 1.9391999606e+00	 1.1914067405e-01	 2.6779041793e+00
 1.9363054523e+00	 1.5941169330e-01	 2.4954749608e+00
 1.9325428361e+00	 1.9992256908e-01	 2.3420993496e+00
 1.9278950331e+00	 2.4064831189e-01	 2.2108775457e+00
 1.9223457875e+00	 2.8156284870e-01	 2.0945675806e+00
 1.9158797393e+00	 3.2263904859e-01	 1.9856245522e+00
 1.9084824959e+00	 3.6384875355e-01	 1.8762444885e+00
 1.9001407037e+00	 4.0516281464e-01	 1.7584126927e+00
 1.9571424596e+00	 0.0000000000e+00	 3.5494101039e+00
 1.9567397063e+00	 3.9702431495e-02	 3.1964133463e+00
 1.9555183284e+00	 7.9715271469e-02	 2.9022837356e+00
 1.9534590664e+00	 1.2001672577e-01	 2.6599945749e+00
 1.9505432745e+00	 1.6058386133e-01	 2.4620438923e+00
 1.9467529915e+00	 2.0139261710e-01	 2.3004883968e+00
 1.9420710127e+00	 2.4241781983e-01	 2.1669829646e+00
 1.9364809631e+00	 2.8363320479e-01	 2.0528256526e+00
 1.9299673694e+00	 3.2501144154e-01	 1.9490081690e+00
 1.9225157334e+00	 3.6652416503e-01	 1.8462716625e+00
 1.9141126033e+00	 4.0814201201e-01	 1.7351676181e+00
 1.9714283870e+00	 0.0000000000e+00	 3.6464441231e+00
 1.9710226938e+00	 3.9992234648e-02	 3.2427016801e+00
 1.9697924006e+00	 8.0297143564e-02	 2.9105014460e+00
 1.9677181072e+00	 1.2089277352e-01	 2.6413424195e+00
 1.9647810319e+00	 1.6175602403e-01	 2.4262030898e+00
 1.9609630821e+00	 2.0286265843e-01	 2.2555853148e+00
 1.9562469278e+00	 2.4418731972e-01	 2.1195646220e+00
 1.9506160743e+00	 2.8570355145e-01	 2.0078468904e+00
 1.9440549354e+00	 3.2738382370e-01	 1.9098312941e+00
 1.9365489071e+00	 3.6919956435e-01	 1.8146793054e+00
 1.9280844394e+00	 4.1112119582e-01	 1.7113894719e+00
 1.9857142377e+00	 0.0000000000e+00	 3.7543398311e+00
 1.9853056047e+00	 4.0282036246e-02	 3.2948522622e+00
 1.9840663961e+00	 8.0879012538e-02	 2.9207815029e+00
 1.9819770716e+00	 1.2176881656e-01	 2.6220225651e+00
 1.9790187128e+00	 1.6292818044e-01	 2.3879032100e+00
 1.9751730965e+00	 2.0433269187e-01	 2.2072387845e+00
 1.9704227669e+00	 2.4595681012e-01	 2.0683944406e+00
 1.9647511096e+00	 2.8777388701e-01	 1.9593546539e+00
 1.9581424259e+00	 3.2975619312e-01	 1.8677998641e+00
 1.9505820055e+00	 3.7187494931e-01	 1.7811899680e+00
 1.9420562004e+00	 4.1410036365e-01	 1.6868542909e+00
 2.0000000000e+00	 0.0000000000e+00	 3.8736327595e+00
 1.9995884272e+00	 4.0571836054e-02	 3.3532326578e+00
 1.9983403035e+00	 8.1460877915e-02	 2.9333363645e+00
 1.9962359477e+00	 1.2264485419e-01	 2.6021081210e+00
 1.9932563058e+00	 1.6410032960e-01	 2.3470966863e+00
 1.9893830231e+00	 2.0580271623e-01	 2.1553021550e+00
 1.9845985183e+00	 2.4772628958e-01	 2.0132511882e+00
 1.9788860576e+00	 2.8984420977e-01	 1.9070805236e+00
 1.9722298292e+00	 3.3212854789e-01	 1.8226285261e+00
 1.9646150171e+00	 3.7455031774e-01	 1.7455344299e+00
 1.9560278751e+00	 4.1707951306e-01	 1.6613448071e+00
 1.8163086099e+00	 3.8728748204e-01	 1.9001414881e+00
 1.8074209225e+00	 4.2684703026e-01	 1.7541637444e+00
 1.7976082076e+00	 4.6644796621e-01	 1.6033992052e+00
 1.7868610796e+00	 5.0605989574e-01	 1.4484457238e+00
 1.7751714043e+00	 5.4565166972e-01	 1.2898697215e+00
 1.7625323575e+00	 5.8519144419e-01	 1.1282034065e+00
 1.7489384807e+00	 6.2464674532e-01	 9.6394195038e-01
 1.7343857336e+00	 6.6398453914e-01	 7.9754062040e-01
 1.7188715419e+00	 7.0317130576e-01	 6.2941187330e-01
 1.7023948409e+00	 7.4217311783e-01	 4.5992242386e-01
 1.6849561144e+00	 7.8095572301e-01	 2.8939031482e-01
 1.8302806514e+00	 3.9026670964e-01	 1.8749827624e+00
 1.8213245950e+00	 4.3013057159e-01	 1.7301613135e+00
 1.8114363953e+00	 4.7003613965e-01	 1.5804179173e+00
 1.8006065945e+00	 5.0995278585e-01	 1.4263672710e+00
 1.7888269958e+00	 5.4984912146e-01	 1.2685929817e+00
 1.7760907225e+00	 5.8969305755e-01	 1.1076446716e+00
 1.7623922742e+00	 6.2945187048e-01	 9.4403502018e-01
 1.7477275794e+00	 6.6909227218e-01	 7.7823674035e-01
 1.7320940440e+00	 7.0858048488e-01	 6.1067949064e-01
 1.7154905951e+00	 7.4788232027e-01	 4.4174673886e-01
 1.6979177205e+00	 7.8696326251e-01	 2.7177260222e-01
 1.8442526977e+00	 3.9324593829e-01	 1.8507905968e+00
 1.8352282723e+00	 4.3341411407e-01	 1.7076147013e+00
 1.8252645878e+00	 4.7362431435e-01	 1.5591206214e+00
 1.8143521142e+00	 5.1384567733e-01	 1.4059871084e+00
 1.8024825921e+00	 5.5404657467e-01	 1.2488613329e+00
 1.7896490923e+00	 5.9419467248e-01	 1.0883554845e+00
 1.7758460723e+00	 6.3425699733e-01	 9.2504328119e-01
 1.7610694298e+00	 6.7420000700e-01	 7.5945638357e-01
 1.7453165507e+00	 7.1398966590e-01	 5.9208072224e-01
 1.7285863540e+00	 7.5359152471e-01	 4.2335275365e-01
 1.7108793310e+00	 7.9297080411e-01	 2.5365567521e-01
 1.8582247375e+00	 3.9622516554e-01	 1.8272950255e+00
 1.8491319431e+00	 4.3669765502e-01	 1.6863377351e+00
 1.8390927739e+00	 4.7721248737e-01	 1.5393976317e+00
 1.8280976275e+00	 5.1773856699e-01	 1.3872637180e+00
 1.8161381820e+00	 5.5824402592e-01	 1.2306921082e+00
 1.8032074557e+00	 5.9869628532e-01	 1.0704017361e+00
 1.7892998642e+00	 6.3906212193e-01	 9.0706993619e-01
 1.7744112740e+00	 6.7930773944e-01	 7.4132789851e-01
 1.7585390512e+00	 7.1939884440e-01	 5.7375601035e-01
 1.7416821068e+00	 7.5930072649e-01	 4.0487910788e-01
 1.7238409356e+00	 7.9897834291e-01	 2.3516167562e-01
 1.8721967594e+00	 3.9920438897e-01	 1.8042345087e+00
 1.8630355961e+00	 4.3998119175e-01	 1.6661501640e+00
 1.8529209422e+00	 4.8080065578e-01	 1.5211428976e+00
 1.8418431231e+00	 5.2163145165e-01	 1.3701571784e+00
 1.8297937544e+00	 5.6244147179e-01	 1.2141024768e+00
 1.8167658018e+00	 6.0319789237e-01	 1.0538476996e+00
 1.8027536389e+00	 6.4386724037e-01	 8.9021545277e-01
 1.7877531011e+00	 6.8441546533e-01	 7.2397614379e-01
 1.7717615348e+00	 7.2480801595e-01	 5.5584194266e-01
 1.7547778427e+00	 7.6500992094e-01	 3.8646063722e-01
 1.7368025235e+00	 8.0498587400e-01	 2.1640943140e-01
 1.8861687519e+00	 4.0218360615e-01	 1.7813556107e+00
 1.8769392200e+00	 4.4326472159e-01	 1.6468774291e+00
 1.8667490815e+00	 4.8438881666e-01	 1.5042538580e+00
 1.8555885899e+00	 5.2552432814e-01	 1.3546290942e+00
 1.8434492981e+00	 5.6663890884e-01	 1.1991094380e+00
 1.8303241193e+00	 6.0769948998e-01	 1.0387560778e+00
 1.8162073853e+00	 6.4867234871e-01	 8.7457765078e-01
 1.8010949001e+00	 6.8952318049e-01	 7.0752260290e-01
 1.7849839906e+00	 7.3021717615e-01	 5.3847137972e-01
 1.7678735512e+00	 7.7071910340e-01	 3.6822849808e-01
 1.7497640841e+00	 8.1099339248e-01	 1.9751456217e-01
 1.9001407037e+00	 4.0516281464e-01	 1.7584126927e+00
 1.8908428032e+00	 4.4654824186e-01	 1.6283504440e+00
 1.8805771804e+00	 4.8797696708e-01	 1.4886313023e+00
 1.8693340166e+00	 5.2941719328e-01	 1.3406425284e+00
 1.8571048020e+00	 5.7083633365e-01	 1.1857298149e+00
 1.8438823974e+00	 6.1220107446e-01	 1.0251880480e+00
 1.8296610924e+00	 6.5347744305e-01	 8.6025178631e-01
 1.8144366603e+00	 6.9463088076e-01	 6.9208549407e-01
 1.7982064079e+00	 7.3562632056e-01	 5.2177357687e-01
 1.7809692214e+00	 7.7642826921e-01	 3.5031028689e-01
 1.7627256070e+00	 8.1700089343e-01	 1.7858958042e-01
 1.9141126033e+00	 4.0814201201e-01	 1.7351676181e+00
 1.9047463346e+00	 4.4983174987e-01	 1.6104053852e+00
 1.8944052278e+00	 4.9156510410e-01	 1.4741792377e+00
 1.8830793920e+00	 5.3331004388e-01	 1.3281619381e+00
 1.8707602549e+00	 5.7503374279e-01	 1.1739802494e+00
 1.8574406248e+00	 6.1670264213e-01	 1.0132033052e+00
 1.8431147493e+00	 6.5828251944e-01	 8.4733063191e-01
 1.8277783707e+00	 6.9973856195e-01	 6.7777987536e-01
 1.8114287758e+00	 7.4103544479e-01	 5.0587430099e-01
 1.7940648428e+00	 7.8213741371e-01	 3.3283015437e-01
 1.7756870815e+00	 8.2300837196e-01	 1.5974398829e-01
 1.9280844394e+00	 4.1112119582e-01	 1.7113894719e+00
 1.9186498027e+00	 4.5311524294e-01	 1.5928834914e+00
 1.9082332122e+00	 4.9515322480e-01	 1.4608047617e+00
 1.8968247048e+00	 5.3720287678e-01	 1.3171531130e+00
 1.8844156457e+00	 5.7923113283e-01	 1.1638771970e+00
 1.8709987905e+00	 6.2120418932e-01	 1.0028601035e+00
 1.8565683450e+00	 6.6308757398e-01	 8.3590455355e-01
 1.8411200203e+00	 7.0484621991e-01	 6.6471774542e-01
 1.8246510835e+00	 7.4644454441e-01	 4.9089594236e-01
 1.8071604046e+00	 7.8784653223e-01	 3.1590891504e-01
 1.7886484970e+00	 8.2901582315e-01	 1.4108437046e-01
 1.9420562004e+00	 4.1410036365e-01	 1.6868542909e+00
 1.9325531962e+00	 4.5639871839e-01	 1.5756308715e+00
 1.9220611224e+00	 4.9874132625e-01	 1.4484179410e+00
 1.9105699439e+00	 5.4109568878e-01	 1.3075831160e+00
 1.8980709632e+00	 5.8342850035e-01	 1.1554369218e+00
 1.8845568835e+00	 6.2570571236e-01	 9.9421529553e-01
 1.8700218686e+00	 6.6789260272e-01	 8.2606158448e-01
 1.8544615984e+00	 7.0995385046e-01	 6.5300814005e-01
 1.8378733203e+00	 7.5185361499e-01	 4.7695762179e-01
 1.8202558961e+00	 7.9355562011e-01	 2.9966415204e-01
 1.8016098430e+00	 8.3502324211e-01	 1.2271448305e-01
 1.9560278751e+00	 4.1707951306e-01	 1.6613448071e+00
 1.9464565037e+00	 4.5968217354e-01	 1.5584983210e+00
 1.9358889471e+00	 5.0232940551e-01	 1.4369316950e+00
 1.9243150980e+00	 5.4498847672e-01	 1.2994202278e+00
 1.9117261962e+00	 5.8762584192e-01	 1.1486754925e+00
 1.8981148926e+00	 6.3020720756e-01	 9.8732437109e-01
 1.8834753089e+00	 6.7269760176e-01	 8.1788749588e-01
 1.8678030939e+00	 7.1506144942e-01	 6.4275722467e-01
 1.8510954753e+00	 7.5726265213e-01	 4.6417529341e-01
 1.8333513066e+00	 7.9926467270e-01	 2.8421031773e-01
 1.8145711088e+00	 8.4103062392e-01	 1.0473533900e-01
 1.6849561144e+00	 7.8095572301e-01	 2.8939031482e-01
 1.6665561086e+00	 8.1948731574e-01	 1.1701071308e-01
 1.6471996957e+00	 8.5773051598e-01	-5.7039850058e-02
 1.6268921952e+00	 8.9565060726e-01	-2.3107293983e-01
 1.6056405746e+00	 9.3321291005e-01	-4.0344783479e-01
 1.5834534587e+00	 9.7038287813e-01	-5.7258536471e-01
 1.5603411318e+00	 1.0071261964e+00	-7.3698161320e-01
 1.5363155340e+00	 1.0434088797e+00	-8.9522125784e-01
 1.5113902491e+00	 1.0791973714e+00	-1.0459903073e+00
 1.4855804868e+00	 1.1144586423e+00	-1.1880879876e+00
 1.4589030567e+00	 1.1491602880e+00	-1.3204375261e+00
 1.6979177205e+00	 7.8696326251e-01	 2.7177260222e-01
 1.6793761717e+00	 8.2579126137e-01	 9.9975621201e-02
 1.6598708587e+00	 8.6432864927e-01	-7.3453096801e-02
 1.6394071418e+00	 9.0254044268e-01	-2.4682184817e-01
 1.6179920421e+00	 9.4039169529e-01	-4.1848561611e-01
 1.5956342506e+00	 9.7784759514e-01	-5.8686020416e-01
 1.5723441311e+00	 1.0148735632e+00	-7.5043626240e-01
 1.5481337152e+00	 1.0514353528e+00	-9.0779297269e-01
 1.5230166914e+00	 1.0874991492e+00	-1.0576111450e+00
 1.4970083862e+00	 1.1230316690e+00	-1.1986854679e+00
 1.4701257387e+00	 1.1580002588e+00	-1.3299356537e+00
 1.7108793310e+00	 7.9297080411e-01	 2.5365567521e-01
 1.6921962393e+00	 8.3209520921e-01	 8.2262879846e-02
 1.6725420261e+00	 8.7092678487e-01	-9.0618095094e-02
 1.6519220927e+00	 9.0943028052e-01	-2.6330682111e-01
 1.6303435138e+00	 9.4757048305e-01	-4.3416900440e-01
 1.6078150469e+00	 9.8531231476e-01	-6.0163082395e-01
 1.5843471346e+00	 1.0226209327e+00	-7.6419318633e-01
 1.5599519006e+00	 1.0594618286e+00	-9.2044565775e-01
 1.5346431377e+00	 1.0958009298e+00	-1.0690798186e+00
 1.5084362896e+00	 1.1316046988e+00	-1.2089017753e+00
 1.4813484247e+00	 1.1668402328e+00	-1.3388435624e+00
 1.7238409356e+00	 7.9897834291e-01	 2.3516167562e-01
 1.7050163009e+00	 8.3839915411e-01	 6.3969957137e-02
 1.6852131876e+00	 8.7752491739e-01	-1.0846301453e-01
 1.6644370378e+00	 9.1632011513e-01	-2.8048235220e-01
 1.6426949798e+00	 9.5474926745e-01	-4.5047921956e-01
 1.6199958374e+00	 9.9277703091e-01	-6.1690528408e-01
 1.5963501325e+00	 1.0303682985e+00	-7.7828710692e-01
 1.5717700804e+00	 1.0674883007e+00	-9.3324022494e-01
 1.5462695786e+00	 1.1041027066e+00	-1.0804826640e+00
 1.5198641877e+00	 1.1401777245e+00	-1.2188476113e+00
 1.4925711054e+00	 1.1756802026e+00	-1.3472949713e+00
 1.7368025235e+00	 8.0498587400e-01	 2.1640943140e-01
 1.7178363460e+00	 8.4470309092e-01	 4.5191742465e-02
 1.6978843328e+00	 8.8412304145e-01	-1.2691783817e-01
 1.6769519668e+00	 9.2320994091e-01	-2.9830396119e-01
 1.6550464299e+00	 9.6192804265e-01	-4.6739770650e-01
 1.6321766123e+00	 1.0002417375e+00	-6.3269106277e-01
 1.6083531149e+00	 1.0381156544e+00	-7.9275136017e-01
 1.5835882451e+00	 1.0755147625e+00	-9.4623540701e-01
 1.5578960046e+00	 1.1124044727e+00	-1.0919030640e+00
 1.5312920711e+00	 1.1487507393e+00	-1.2286299777e+00
 1.5037937717e+00	 1.1845201611e+00	-1.3554191892e+00
 1.7497640841e+00	 8.1099339248e-01	 1.9751456217e-01
 1.7306563643e+00	 8.5100701449e-01	 2.6020623958e-02
 1.7105554514e+00	 8.9072115165e-01	-1.4591431438e-01
 1.6894668695e+00	 9.3009975221e-01	-3.1672817593e-01
 1.6673978541e+00	 9.6910680277e-01	-4.8490614776e-01
 1.6443573617e+00	 1.0077064284e+00	-6.4899509997e-01
 1.6203560722e+00	 1.0458629941e+00	-8.0761797043e-01
 1.5954063849e+00	 1.0835412075e+00	-9.5948786234e-01
 1.5695224062e+00	 1.1207062214e+00	-1.1034215830e+00
 1.5427199306e+00	 1.1573237361e+00	-1.2383523401e+00
 1.5150164144e+00	 1.1933601010e+00	-1.3633413051e+00
 1.7627256070e+00	 8.1700089343e-01	 1.7858958042e-01
 1.7434763451e+00	 8.5731091967e-01	 6.5465626870e-03
 1.7232265331e+00	 8.9731924260e-01	-1.6538591063e-01
 1.7019817358e+00	 9.3698954343e-01	-3.3571251506e-01
 1.6797492423e+00	 9.7628554195e-01	-5.0298647547e-01
 1.6565380755e+00	 1.0151710975e+00	-6.6582383878e-01
 1.6323589945e+00	 1.0536103111e+00	-8.2291772136e-01
 1.6072244903e+00	 1.0915676290e+00	-9.7305227481e-01
 1.5811487738e+00	 1.1290079459e+00	-1.1151160948e+00
 1.5541477567e+00	 1.1658967078e+00	-1.2481147833e+00
 1.5262390244e+00	 1.2022000151e+00	-1.3711823696e+00
 1.7756870815e+00	 8.2300837196e-01	 1.5974398829e-01
 1.7562962781e+00	 8.6361480132e-01	-1.3142836201e-02
 1.7358975675e+00	 9.0391730893e-01	-1.8526776911e-01
 1.7144965553e+00	 9.4387930892e-01	-3.5521547112e-01
 1.6921005844e+00	 9.8346425433e-01	-5.2162088252e-01
 1.6687187438e+00	 1.0226357387e+00	-6.8318326502e-01
 1.6443618720e+00	 1.0613575992e+00	-8.3868022355e-01
 1.6190425516e+00	 1.0995940206e+00	-9.8698144939e-01
 1.5927750981e+00	 1.1373096393e+00	-1.1270619054e+00
 1.5655755401e+00	 1.1744696476e+00	-1.2580141601e+00
 1.5374615925e+00	 1.2110398962e+00	-1.3790595689e+00
 1.7886484970e+00	 8.2901582315e-01	 1.4108437046e-01
 1.7691161528e+00	 8.6991865429e-01	-3.2962255286e-02
 1.7485685442e+00	 9.1051534523e-01	-2.0549666419e-01
 1.7270113179e+00	 9.5076904306e-01	-3.7519649439e-01
 1.7044518703e+00	 9.9064293405e-01	-5.4079183323e-01
 1.6808993568e+00	 1.0301003460e+00	-7.0107894477e-01
 1.6563646948e+00	 1.0691048521e+00	-8.5493397913e-01
 1.6308605591e+00	 1.1076203757e+00	-1.0013264032e+00
 1.6044013695e+00	 1.1456112950e+00	-1.1393318706e+00
 1.5770032715e+00	 1.1830425483e+00	-1.2681442335e+00
 1.5486841095e+00	 1.2198797371e+00	-1.3870863910e+00
 1.8016098430e+00	 8.3502324211e-01	 1.2271448305e-01
 1.7819359587e+00	 8.7622247343e-01	-5.2828599461e-02
 1.7612394529e+00	 9.1711334613e-01	-2.2601096149e-01
 1.7395260133e+00	 9.5765874023e-01	-3.9561597716e-01
 1.7168030898e+00	 9.9782157524e-01	-5.6048207330e-01
 1.6930799043e+00	 1.0375649132e+00	-7.1951606030e-01
 1.6683674532e+00	 1.0768520634e+00	-8.7170644344e-01
 1.6426785031e+00	 1.1156466877e+00	-1.0161364528e+00
 1.6160275784e+00	 1.1539129062e+00	-1.1519965074e+00
 1.5884309417e+00	 1.1916154031e+00	-1.2785958130e+00
 1.5599065664e+00	 1.2287195306e+00	-1.3953727844e+00
 1.8145711088e+00	 8.4103062392e-01	 1.0473533900e-01
 1.7947556852e+00	 8.8252625359e-01	-7.2660933153e-02
 1.7739102832e+00	 9.2371130622e-01	-2.4675057858e-01
 1.7520406314e+00	 9.6454839480e-01	-4.1643523861e-01
 1.7291542331e+00	 1.0050001720e+00	-5.8067463925e-01
 1.7052603765e+00	 1.0450294343e+00	-7.3849944423e-01
 1.6803701375e+00	 1.0845992268e+00	-8.8902408390e-01
 1.6544963742e+00	 1.1236729500e+00	-1.0314592973e+00
 1.6276537155e+00	 1.1622144660e+00	-1.1651241013e+00
 1.5998585411e+00	 1.2001882048e+00	-1.2894568842e+00
 1.5711289538e+00	 1.2375592694e+00	-1.4040253100e+00
 1.4589030567e+00	 1.1491602880e+00	-1.3204375261e+00
 1.4313763324e+00	 1.1832706289e+00	-1.4423611852e+00
 1.4030201994e+00	 1.2167588134e+00	-1.5532849534e+00
 1.3738560214e+00	 1.2495949002e+00	-1.6526436383e+00
 1.3439065921e+00	 1.2817499431e+00	-1.7411025360e+00
 1.3131960758e+00	 1.3131960758e+00	-1.8195107457e+00
 1.2817499431e+00	 1.3439065921e+00	-1.8888686466e+00
 1.2495949002e+00	 1.3738560214e+00	-1.9502997249e+00
 1.2167588134e+00	 1.4030201994e+00	-2.0050189817e+00
 1.1832706289e+00	 1.4313763324e+00	-2.0542525321e+00
 1.1491602880e+00	 1.4589030567e+00	-2.0936959067e+00
 1.4701257387e+00	 1.1580002588e+00	-1.3299356537e+00
 1.4423872638e+00	 1.1923729951e+00	-1.4507262868e+00
 1.4138129998e+00	 1.2261187891e+00	-1.5610361687e+00
 1.3844244750e+00	 1.2592074691e+00	-1.6600329419e+00
 1.3542446582e+00	 1.2916098662e+00	-1.7482791330e+00
 1.3232978998e+00	 1.3232978998e+00	-1.8267340593e+00
 1.2916098662e+00	 1.3542446582e+00	-1.8965148092e+00
 1.2592074691e+00	 1.3844244750e+00	-1.9588662612e+00
 1.2261187891e+00	 1.4138129998e+00	-2.0151274786e+00
 1.1923729951e+00	 1.4423872638e+00	-2.0655691045e+00
 1.1580002588e+00	 1.4701257387e+00	-2.1043477121e+00
 1.4813484247e+00	 1.1668402328e+00	-1.3388435624e+00
 1.4533981990e+00	 1.2014753646e+00	-1.4583333624e+00
 1.4246058040e+00	 1.2354787682e+00	-1.5676883990e+00
 1.3949929323e+00	 1.2688200414e+00	-1.6663361632e+00
 1.3645827280e+00	 1.3014697928e+00	-1.7544596595e+00
 1.3333997274e+00	 1.3333997274e+00	-1.8331320690e+00
 1.3014697928e+00	 1.3645827280e+00	-1.9035869461e+00
 1.2688200414e+00	 1.3949929323e+00	-1.9671863673e+00
 1.2354787682e+00	 1.4246058040e+00	-2.0253852783e+00
 1.2014753646e+00	 1.4533981990e+00	-2.0760992335e+00
 1.1668402328e+00	 1.4813484247e+00	-2.1146856791e+00
 1.4925711054e+00	 1.1756802026e+00	-1.3472949713e+00
 1.4644091290e+00	 1.2105777298e+00	-1.4653317574e+00
 1.4353986032e+00	 1.2448387428e+00	-1.5734305995e+00
 1.4055613847e+00	 1.2784326092e+00	-1.6716806004e+00
 1.3749207930e+00	 1.3113297148e+00	-1.7597462556e+00
 1.3435015503e+00	 1.3435015503e+00	-1.8387675532e+00
 1.3113297148e+00	 1.3749207930e+00	-1.9100942579e+00
 1.2784326092e+00	 1.4055613847e+00	-1.9752015142e+00
 1.2448387428e+00	 1.4353986032e+00	-2.0353969779e+00
 1.2105777298e+00	 1.4644091290e+00	-2.0856673396e+00
 1.1756802026e+00	 1.4925711054e+00	-2.1244267922e+00
 1.5037937717e+00	 1.1845201611e+00	-1.3554191892e+00
 1.4754200450e+00	 1.2196800834e+00	-1.4718659114e+00
 1.4461913885e+00	 1.2541987055e+00	-1.5785892600e+00
 1.4161298235e+00	 1.2880451647e+00	-1.6761892995e+00
 1.3852588447e+00	 1.3211896242e+00	-1.7642374872e+00
 1.3536033602e+00	 1.3536033602e+00	-1.8437007845e+00
 1.3211896242e+00	 1.3852588447e+00	-1.9160449023e+00
 1.2880451647e+00	 1.4161298235e+00	-1.9828539868e+00
 1.2541987055e+00	 1.4461913885e+00	-2.0441082938e+00
 1.2196800834e+00	 1.4754200450e+00	-2.0941042911e+00
 1.1845201611e+00	 1.5037937717e+00	-2.1332976337e+00
 1.5150164144e+00	 1.1933601010e+00	-1.3633413051e+00
 1.4864309378e+00	 1.2287824178e+00	-1.4780755681e+00
 1.4569841512e+00	 1.2635586485e+00	-1.5833233270e+00
 1.4266982401e+00	 1.2976577000e+00	-1.6799813525e+00
 1.3955968747e+00	 1.3310495128e+00	-1.7680286174e+00
 1.3637051488e+00	 1.3637051488e+00	-1.8479897600e+00
 1.3310495128e+00	 1.3955968747e+00	-1.9214461660e+00
 1.2976577000e+00	 1.4266982401e+00	-1.9900869831e+00
 1.2635586485e+00	 1.4569841512e+00	-2.0513551780e+00
 1.2287824178e+00	 1.4864309378e+00	-2.1012471920e+00
 1.1933601010e+00	 1.5150164144e+00	-2.1410340555e+00
 1.5262390244e+00	 1.2022000151e+00	-1.3711823696e+00
 1.4974417985e+00	 1.2378847257e+00	-1.4840959756e+00
 1.4677768824e+00	 1.2729185642e+00	-1.5877699542e+00
 1.4372666258e+00	 1.3072702072e+00	-1.6832530814e+00
 1.4059348745e+00	 1.3409093727e+00	-1.7712118711e+00
 1.3738069081e+00	 1.3738069081e+00	-1.8516904249e+00
 1.3409093727e+00	 1.4059348745e+00	-1.9263046330e+00
 1.3072702072e+00	 1.4372666258e+00	-1.9964667535e+00
 1.2729185642e+00	 1.4677768824e+00	-2.0570666183e+00
 1.2378847257e+00	 1.4974417985e+00	-2.1069391781e+00
 1.2022000151e+00	 1.5262390244e+00	-2.1473808623e+00
 1.5374615925e+00	 1.2110398962e+00	-1.3790595689e+00
 1.5084526181e+00	 1.2469869996e+00	-1.4900580775e+00
 1.4785695733e+00	 1.2822784449e+00	-1.5920619045e+00
 1.4478349722e+00	 1.3168826786e+00	-1.6862780113e+00
 1.4162728357e+00	 1.3507691958e+00	-1.7738766907e+00
 1.3839086296e+00	 1.3839086296e+00	-1.8548568904e+00
 1.3507691958e+00	 1.4162728357e+00	-1.9306263500e+00
 1.3168826786e+00	 1.4478349722e+00	-2.0012423691e+00
 1.2822784449e+00	 1.4785695733e+00	-2.0611749863e+00
 1.2469869996e+00	 1.5084526181e+00	-2.1110292203e+00
 1.2110398962e+00	 1.5374615925e+00	-2.1520915090e+00
 1.5486841095e+00	 1.2198797371e+00	-1.3870863910e+00
 1.5194633876e+00	 1.2560892321e+00	-1.4960886958e+00
 1.4893622151e+00	 1.2916382831e+00	-1.5963277366e+00
 1.4584032704e+00	 1.3264951062e+00	-1.6891784796e+00
 1.4266107499e+00	 1.3606289740e+00	-1.7761099858e+00
 1.3940103051e+00	 1.3940103051e+00	-1.8575416465e+00
 1.3606289740e+00	 1.4266107499e+00	-1.9344169883e+00
 1.3264951062e+00	 1.4584032704e+00	-2.0044000223e+00
 1.2916382831e+00	 1.4893622151e+00	-2.0636159366e+00
 1.2560892321e+00	 1.5194633876e+00	-2.1133719353e+00
 1.2198797371e+00	 1.5486841095e+00	-2.1549278091e+00
 1.5599065664e+00	 1.2287195306e+00	-1.3953727844e+00
 1.5304740980e+00	 1.2651914157e+00	-1.5023107065e+00
 1.5001547989e+00	 1.3009980710e+00	-1.6006919843e+00
 1.4689715119e+00	 1.3361074823e+00	-1.6920692054e+00
 1.4369486087e+00	 1.3704886993e+00	-1.7780692635e+00
 1.4041119265e+00	 1.4041119265e+00	-1.8597957696e+00
 1.3704886993e+00	 1.4369486087e+00	-1.9373648049e+00
 1.3361074823e+00	 1.4689715119e+00	-2.0059457173e+00
 1.3009980710e+00	 1.5001547989e+00	-2.0643283106e+00
 1.2651914157e+00	 1.5304740980e+00	-2.1138274036e+00
 1.2287195306e+00	 1.5599065664e+00	-2.1556596547e+00
 1.5711289538e+00	 1.2375592694e+00	-1.4040253100e+00
 1.5414847404e+00	 1.2742935431e+00	-1.5088432065e+00
 1.5109473161e+00	 1.3103578011e+00	-1.6052753270e+00
 1.4795396881e+00	 1.3457197989e+00	-1.6950613004e+00
 1.4472864035e+00	 1.3803483636e+00	-1.7799876675e+00
 1.4142134854e+00	 1.4142134854e+00	-1.8616691243e+00
 1.3803483636e+00	 1.4472864035e+00	-1.9388675465e+00
 1.3457197989e+00	 1.4795396881e+00	-2.0058866854e+00
 1.3103578011e+00	 1.5109473161e+00	-2.0632540415e+00
 1.2742935431e+00	 1.5414847404e+00	-2.1122609934e+00
 1.2375592694e+00	 1.5711289538e+00	-2.1540647467e+00
 1.1491602880e+00	 1.4589030567e+00	-2.0936959067e+00
 1.1144586423e+00	 1.4855804868e+00	-2.1204110030e+00
 1.0791973714e+00	 1.5113902491e+00	-2.1355968867e+00
 1.0434088797e+00	 1.5363155340e+00	-2.1407245773e+00
 1.0071261964e+00	 1.5603411318e+00	-2.1371270696e+00
 9.7038287813e-01	 1.5834534587e+00	-2.1259911185e+00
 9.3321291005e-01	 1.6056405746e+00	-2.1083509653e+00
 8.9565060726e-01	 1.6268921952e+00	-2.0850840131e+00
 8.5773051598e-01	 1.6471996957e+00	-2.0569084291e+00
 8.1948731574e-01	 1.6665561086e+00	-2.0243826252e+00
 7.8095572301e-01	 1.6849561144e+00	-1.9879065470e+00
 1.1580002588e+00	 1.4701257387e+00	-2.1043477121e+00
 1.1230316690e+00	 1.4970083862e+00	-2.1308632390e+00
 1.0874991492e+00	 1.5230166914e+00	-2.1460314386e+00
 1.0514353528e+00	 1.5481337152e+00	-2.1512793093e+00
 1.0148735632e+00	 1.5723441311e+00	-2.1478877385e+00
 9.7784759514e-01	 1.5956342506e+00	-2.1369836966e+00
 9.4039169529e-01	 1.6179920421e+00	-2.1195344472e+00
 9.0254044268e-01	 1.6394071418e+00	-2.0963437704e+00
 8.6432864927e-01	 1.6598708587e+00	-2.0680501699e+00
 8.2579126137e-01	 1.6793761717e+00	-2.0351270049e+00
 7.8696326251e-01	 1.6979177205e+00	-1.9978844662e+00
 1.1668402328e+00	 1.4813484247e+00	-2.1146856791e+00
 1.1316046988e+00	 1.5084362896e+00	-2.1414781455e+00
 1.0958009298e+00	 1.5346431377e+00	-2.1570638720e+00
 1.0594618286e+00	 1.5599519006e+00	-2.1627836286e+00
 1.0226209327e+00	 1.5843471346e+00	-2.1598357449e+00
 9.8531231476e-01	 1.6078150469e+00	-2.1492687823e+00
 9.4757048305e-01	 1.6303435138e+00	-2.1319761975e+00
 9.0943028052e-01	 1.6519220927e+00	-2.1086929904e+00
 8.7092678487e-01	 1.6725420261e+00	-2.0799942991e+00
 8.3209520921e-01	 1.6921962393e+00	-2.0462958776e+00
 7.9297080411e-01	 1.7108793310e+00	-2.0078563706e+00
 1.1756802026e+00	 1.4925711054e+00	-2.1244267922e+00
 1.1401777245e+00	 1.5198641877e+00	-2.1518772684e+00
 1.1041027066e+00	 1.5462695786e+00	-2.1682583736e+00
 1.0674883007e+00	 1.5717700804e+00	-2.1747832032e+00
 1.0303682985e+00	 1.5963501325e+00	-2.1725376640e+00
 9.9277703091e-01	 1.6199958374e+00	-2.1624736913e+00
 9.5474926745e-01	 1.6426949798e+00	-2.1454043385e+00
 9.1632011513e-01	 1.6644370378e+00	-2.1220007256e+00
 8.7752491739e-01	 1.6852131876e+00	-2.0927908093e+00
 8.3839915411e-01	 1.7050163009e+00	-2.0581599049e+00
 7.9897834291e-01	 1.7238409356e+00	-2.0183528772e+00
 1.1845201611e+00	 1.5037937717e+00	-2.1332976337e+00
 1.1487507393e+00	 1.5312920711e+00	-2.1616945422e+00
 1.1124044727e+00	 1.5578960046e+00	-2.1791931704e+00
 1.0755147625e+00	 1.5835882451e+00	-2.1868382320e+00
 1.0381156544e+00	 1.6083531149e+00	-2.1855739132e+00
 1.0002417375e+00	 1.6321766123e+00	-2.1762377022e+00
 9.6192804265e-01	 1.6550464299e+00	-2.1595558767e+00
 9.2320994091e-01	 1.6769519668e+00	-2.1361406338e+00
 8.8412304145e-01	 1.6978843328e+00	-2.1064888224e+00
 8.4470309092e-01	 1.7178363460e+00	-2.0709822136e+00
 8.0498587400e-01	 1.7368025235e+00	-2.0298892280e+00
 1.1933601010e+00	 1.5150164144e+00	-2.1410340555e+00
 1.1573237361e+00	 1.5427199306e+00	-2.1705758573e+00
 1.1207062214e+00	 1.5695224062e+00	-2.1894600361e+00
 1.0835412075e+00	 1.5954063849e+00	-2.1985229333e+00
 1.0458629941e+00	 1.6203560722e+00	-2.1985382667e+00
 1.0077064284e+00	 1.6443573617e+00	-2.1902116401e+00
 9.6910680277e-01	 1.6673978541e+00	-2.1741764014e+00
 9.3009975221e-01	 1.6894668695e+00	-2.1509908354e+00
 8.9072115165e-01	 1.7105554514e+00	-2.1211366504e+00
 8.5100701449e-01	 1.7306563643e+00	-2.0850187032e+00
 8.1099339248e-01	 1.7497640841e+00	-2.0429658889e+00
 1.2022000151e+00	 1.5262390244e+00	-2.1473808623e+00
 1.1658967078e+00	 1.5541477567e+00	-2.1781786457e+00
 1.1290079459e+00	 1.5811487738e+00	-2.1986638186e+00
 1.0915676290e+00	 1.6072244903e+00	-2.2094250548e+00
 1.0536103111e+00	 1.6323589945e+00	-2.2110373900e+00
 1.0151710975e+00	 1.6565380755e+00	-2.2040574781e+00
 9.7628554195e-01	 1.6797492423e+00	-2.1890197952e+00
 9.3698954343e-01	 1.7019817358e+00	-2.1664337764e+00
 8.9731924260e-01	 1.7232265331e+00	-2.1367818525e+00
 8.5731091967e-01	 1.7434763451e+00	-2.1005183391e+00
 8.1700089343e-01	 1.7627256070e+00	-2.0580691199e+00
 1.2110398962e+00	 1.5374615925e+00	-2.1520915090e+00
 1.1744696476e+00	 1.5655755401e+00	-2.1841714831e+00
 1.1373096393e+00	 1.5927750981e+00	-2.2064219860e+00
 1.0995940206e+00	 1.6190425516e+00	-2.2191454035e+00
 1.0613575992e+00	 1.6443618720e+00	-2.2226903933e+00
 1.0226357387e+00	 1.6687187438e+00	-2.2174479556e+00
 9.8346425433e-01	 1.6921005844e+00	-2.2038479568e+00
 9.4387930892e-01	 1.7144965553e+00	-2.1823560959e+00
 9.0391730893e-01	 1.7358975675e+00	-2.1534712881e+00
 8.6361480132e-01	 1.7562962781e+00	-2.1177234321e+00
 8.2300837196e-01	 1.7756870815e+00	-2.0756715208e+00
 1.2198797371e+00	 1.5486841095e+00	-2.1549278091e+00
 1.1830425483e+00	 1.5770032715e+00	-2.1882337071e+00
 1.1456112950e+00	 1.6044013695e+00	-2.2123641918e+00
 1.1076203757e+00	 1.6308605591e+00	-2.2272973951e+00
 1.0691048521e+00	 1.6563646948e+00	-2.2331284041e+00
 1.0301003460e+00	 1.6808993568e+00	-2.2300662111e+00
 9.9064293405e-01	 1.7044518703e+00	-2.2184305342e+00
 9.5076904306e-01	 1.7270113179e+00	-2.1986484988e+00
 9.1051534523e-01	 1.7485685442e+00	-2.1712511678e+00
 8.6991865429e-01	 1.7691161528e+00	-2.1368699049e+00
 8.2901582315e-01	 1.7886484970e+00	-2.0962325517e+00
 1.2287195306e+00	 1.5599065664e+00	-2.1556596547e+00
 1.1916154031e+00	 1.5884309417e+00	-2.1900550507e+00
 1.1539129062e+00	 1.6160275784e+00	-2.2161318569e+00
 1.1156466877e+00	 1.6426785031e+00	-2.2335066217e+00
 1.0768520634e+00	 1.6683674532e+00	-2.2419941560e+00
 1.0375649132e+00	 1.6930799043e+00	-2.2416054307e+00
 9.9782157524e-01	 1.7168030898e+00	-2.2325446692e+00
 9.5765874023e-01	 1.7395260133e+00	-2.2152056328e+00
 9.1711334613e-01	 1.7612394529e+00	-2.1901671002e+00
 8.7622247343e-01	 1.7819359587e+00	-2.1581875468e+00
 8.3502324211e-01	 1.8016098430e+00	-2.1201990314e+00
 1.2375592694e+00	 1.5711289538e+00	-2.1540647467e+00
 1.2001882048e+00	 1.5998585411e+00	-2.1893352904e+00
 1.1622144660e+00	 1.6276537155e+00	-2.2173777697e+00
 1.1236729500e+00	 1.6544963742e+00	-2.2374104369e+00
 1.0845992268e+00	 1.6803701375e+00	-2.2489415951e+00
 1.0450294343e+00	 1.7052603765e+00	-2.2517685101e+00
 1.0050001720e+00	 1.7291542331e+00	-2.2459747510e+00
 9.6454839480e-01	 1.7520406314e+00	-2.2319259702e+00
 9.2371130622e-01	 1.7739102832e+00	-2.2102641370e+00
 8.8252625359e-01	 1.7947556852e+00	-2.1819002561e+00
 8.4103062392e-01	 1.8145711088e+00	-2.1480056125e+00
 7.8095572301e-01	 1.6849561144e+00	-1.9879065470e+00
 7.4217311783e-01	 1.7023948409e+00	-1.9496953874e+00
 7.0317130576e-01	 1.7188715419e+00	-1.9116254779e+00
 6.6398453914e-01	 1.7343857336e+00	-1.8736364083e+00
 6.2464674532e-01	 1.7489384807e+00	-1.8358746406e+00
 5.8519144419e-01	 1.7625323575e+00	-1.7986893105e+00
 5.4565166972e-01	 1.7751714043e+00	-1.7626269328e+00
 5.0605989574e-01	 1.7868610796e+00	-1.7284250996e+00
 4.6644796621e-01	 1.7976082076e+00	-1.6970052728e+00
 4.2684703026e-01	 1.8074209225e+00	-1.6694647781e+00
 3.8728748204e-01	 1.8163086099e+00	-1.6470681151e+00
 7.8696326251e-01	 1.6979177205e+00	-1.9978844662e+00
 7.4788232027e-01	 1.7154905951e+00	-1.9591242886e+00
 7.0858048488e-01	 1.7320940440e+00	-1.9213218368e+00
 6.6909227218e-01	 1.7477275794e+00	-1.8843474503e+00
 6.2945187048e-01	 1.7623922742e+00	-1.8482847166e+00
 5.8969305755e-01	 1.7760907225e+00	-1.8134264169e+00
 5.4984912146e-01	 1.7888269958e+00	-1.7802693113e+00
 5.0995278585e-01	 1.8006065945e+00	-1.7495078567e+00
 4.7003613965e-01	 1.8114363953e+00	-1.7220269609e+00
 4.3013057159e-01	 1.8213245950e+00	-1.6988938854e+00
 3.9026670964e-01	 1.8302806514e+00	-1.6813494162e+00
 7.9297080411e-01	 1.7108793310e+00	-2.0078563706e+00
 7.5359152471e-01	 1.7285863540e+00	-1.9681026729e+00
 7.1398966590e-01	 1.7453165507e+00	-1.9301784896e+00
 6.7420000700e-01	 1.7610694298e+00	-1.8939544360e+00
 6.3425699733e-01	 1.7758460723e+00	-1.8594910361e+00
 5.9419467248e-01	 1.7896490923e+00	-1.8270355287e+00
 5.5404657467e-01	 1.8024825921e+00	-1.7970176501e+00
 5.1384567733e-01	 1.8143521142e+00	-1.7700444723e+00
 4.7362431435e-01	 1.8252645878e+00	-1.7468943837e+00
 4.3341411407e-01	 1.8352282723e+00	-1.7285103126e+00
 3.9324593829e-01	 1.8442526977e+00	-1.7159922989e+00
 7.9897834291e-01	 1.7238409356e+00	-2.0183528772e+00
 7.5930072649e-01	 1.7416821068e+00	-1.9773896563e+00
 7.1939884440e-01	 1.7585390512e+00	-1.9390805010e+00
 6.7930773944e-01	 1.7744112740e+00	-1.9033650128e+00
 6.3906212193e-01	 1.7892998642e+00	-1.8703200871e+00
 5.9869628532e-01	 1.8032074557e+00	-1.8401582872e+00
 5.5824402592e-01	 1.8161381820e+00	-1.8132255293e+00
 5.1773856699e-01	 1.8280976275e+00	-1.7899981258e+00
 4.7721248737e-01	 1.8390927739e+00	-1.7710792427e+00
 4.3669765502e-01	 1.8491319431e+00	-1.7571948382e+00
 3.9622516554e-01	 1.8582247375e+00	-1.7491891530e+00
 8.0498587400e-01	 1.7368025235e+00	-2.0298892280e+00
 7.6500992094e-01	 1.7547778427e+00	-1.9877220776e+00
 7.2480801595e-01	 1.7717615348e+00	-1.9488868147e+00
 6.8441546533e-01	 1.7877531011e+00	-1.9134599472e+00
 6.4386724037e-01	 1.8027536389e+00	-1.8815738132e+00
 6.0319789237e-01	 1.8167658018e+00	-1.8534172207e+00
 5.6244147179e-01	 1.8297937544e+00	-1.8292359276e+00
 5.2163145165e-01	 1.8418431231e+00	-1.8093329619e+00
 4.8080065578e-01	 1.8529209422e+00	-1.7940687893e+00
 4.3998119175e-01	 1.8630355961e+00	-1.7838613429e+00
 3.9920438897e-01	 1.8721967594e+00	-1.7791859338e+00
 8.1099339248e-01	 1.7497640841e+00	-2.0429658889e+00
 7.7071910340e-01	 1.7678735512e+00	-1.9998153514e+00
 7.3021717615e-01	 1.7849839906e+00	-1.9604312492e+00
 6.8952318049e-01	 1.8010949001e+00	-1.9250941491e+00
 6.4867234871e-01	 1.8162073853e+00	-1.8940305509e+00
 6.0769948998e-01	 1.8303241193e+00	-1.8674164795e+00
 5.6663890884e-01	 1.8434492981e+00	-1.8453816416e+00
 5.2552432814e-01	 1.8555885899e+00	-1.8280140807e+00
 4.8438881666e-01	 1.8667490815e+00	-1.8153652728e+00
 4.4326472159e-01	 1.8769392200e+00	-1.8074556074e+00
 4.0218360615e-01	 1.8861687519e+00	-1.8042802001e+00
 8.1700089343e-01	 1.7627256070e+00	-2.0580691199e+00
 7.7642826921e-01	 1.7809692214e+00	-2.0143642839e+00
 7.3562632056e-01	 1.7982064079e+00	-1.9745234489e+00
 6.9463088076e-01	 1.8144366603e+00	-1.9390976498e+00
 6.5347744305e-01	 1.8296610924e+00	-1.9084459246e+00
 6.1220107446e-01	 1.8438823974e+00	-1.8827425386e+00
 5.7083633365e-01	 1.8571048020e+00	-1.8619856865e+00
 5.2941719328e-01	 1.8693340166e+00	-1.8460075276e+00
 4.8797696708e-01	 1.8805771804e+00	-1.8344854136e+00
 4.4654824186e-01	 1.8908428032e+00	-1.8269541622e+00
 4.0516281464e-01	 1.9001407037e+00	-1.8228192377e+00
 8.2300837196e-01	 1.7756870815e+00	-2.0756715208e+00
 7.8213741371e-01	 1.7940648428e+00	-2.0320438520e+00
 7.4103544479e-01	 1.8114287758e+00	-1.9919497941e+00
 6.9973856195e-01	 1.8277783707e+00	-1.9562765370e+00
 6.5828251944e-01	 1.8431147493e+00	-1.9255537025e+00
 6.1670264213e-01	 1.8574406248e+00	-1.8999648689e+00
 5.7503374279e-01	 1.8707602549e+00	-1.8793616781e+00
 5.3331004388e-01	 1.8830793920e+00	-1.8632802838e+00
 4.9156510410e-01	 1.8944052278e+00	-1.8509598981e+00
 4.4983174987e-01	 1.9047463346e+00	-1.8413631873e+00
 4.0814201201e-01	 1.9141126033e+00	-1.8331982660e+00
 8.2901582315e-01	 1.7886484970e+00	-2.0962325517e+00
 7.8784653223e-01	 1.8071604046e+00	-2.0535099481e+00
 7.4644454441e-01	 1.8246510835e+00	-2.0134742698e+00
 7.0484621991e-01	 1.8411200203e+00	-1.9774138489e+00
 6.6308757398e-01	 1.8565683450e+00	-1.9460666143e+00
 6.2120418932e-01	 1.8709987905e+00	-1.9196365789e+00
 5.7923113283e-01	 1.8844156457e+00	-1.8978141992e+00
 5.3720287678e-01	 1.8968247048e+00	-1.8798002563e+00
 4.9515322480e-01	 1.9082332122e+00	-1.8643328966e+00
 4.5311524294e-01	 1.9186498027e+00	-1.8497174603e+00
 4.1112119582e-01	 1.9280844394e+00	-1.8338587206e+00
 8.3502324211e-01	 1.8016098430e+00	-2.1201990314e+00
 7.9355562011e-01	 1.8202558961e+00	-2.0794000920e+00
 7.5185361499e-01	 1.8378733203e+00	-2.0398392975e+00
 7.0995385046e-01	 1.8544615984e+00	-2.0032704289e+00
 6.6789260272e-01	 1.8700218686e+00	-1.9706771338e+00
 6.2570571236e-01	 1.8845568835e+00	-1.9422950287e+00
 5.8342850035e-01	 1.8980709632e+00	-1.9176391486e+00
 5.4109568878e-01	 1.9105699439e+00	-1.8955362686e+00
 4.9874132625e-01	 1.9220611224e+00	-1.8741616002e+00
 4.5639871839e-01	 1.9325531962e+00	-1.8510793486e+00
 4.1410036365e-01	 1.9420562004e+00	-1.8232866113e+00
 8.4103062392e-01	 1.8145711088e+00	-2.1480056125e+00
 7.9926467270e-01	 1.8333513066e+00	-2.1103341117e+00
 7.5726265213e-01	 1.8510954753e+00	-2.0717665296e+00
 7.1506144942e-01	 1.8678030939e+00	-2.0345857431e+00
 6.7269760176e-01	 1.8834753089e+00	-2.0000582274e+00
 6.3020720756e-01	 1.8981148926e+00	-1.9684624172e+00
 5.8762584192e-01	 1.9117261962e+00	-1.9391240754e+00
 5.4498847672e-01	 1.9243150980e+00	-1.9104580512e+00
 5.0232940551e-01	 1.9358889471e+00	-1.8800157784e+00
 4.5968217354e-01	 1.9464565037e+00	-1.8445378451e+00
 4.1707951306e-01	 1.9560278751e+00	-1.8000109488e+00
 3.8728748204e-01	 1.8163086099e+00	-1.6470681151e+00
 3.4779615135e-01	 1.8242823715e+00	-1.6176930441e+00
 3.0840457273e-01	 1.8313532568e+00	-1.5718398723e+00
 2.6914060908e-01	 1.8375340302e+00	-1.5142354801e+00
 2.3003117611e-01	 1.8428384492e+00	-1.4488385624e+00
 1.9110220776e-01	 1.8472811963e+00	-1.3788623368e+00
 1.5237862675e-01	 1.8508778101e+00	-1.3068018443e+00
 1.1388432006e-01	 1.8536446159e+00	-1.2344653160e+00
 7.5642119307e-02	 1.8555986573e+00	-1.1630090658e+00
 3.7673785770e-02	 1.8567576274e+00	-1.0929753664e+00
 0.0000000000e+00	 1.8571398015e+00	-1.0243327683e+00
 3.9026670964e-01	 1.8302806514e+00	-1.6813494162e+00
 3.5047158999e-01	 1.8383157515e+00	-1.6555916177e+00
 3.1077698976e-01	 1.8454410299e+00	-1.6110092386e+00
 2.7121098618e-01	 1.8516693492e+00	-1.5531725022e+00
 2.3180070201e-01	 1.8570145727e+00	-1.4868900588e+00
 1.9257227070e-01	 1.8614914959e+00	-1.4162250424e+00
 1.5355080667e-01	 1.8651157767e+00	-1.3445161088e+00
 1.1476038068e-01	 1.8679038664e+00	-1.2744029564e+00
 7.6223999950e-02	 1.8698729393e+00	-1.2078558181e+00
 3.7963593180e-02	 1.8710408249e+00	-1.1462083983e+00
 0.0000000000e+00	 1.8714259389e+00	-1.0901937270e+00
 3.9324593829e-01	 1.8442526977e+00	-1.7159922989e+00
 3.5314702957e-01	 1.8523491364e+00	-1.6939089485e+00
 3.1314940761e-01	 1.8595288079e+00	-1.6506303399e+00
 2.7328136399e-01	 1.8658046731e+00	-1.5925628792e+00
 2.3357022852e-01	 1.8711907011e+00	-1.5254372212e+00
 1.9404233414e-01	 1.8757018004e+00	-1.4543130918e+00
 1.5472298701e-01	 1.8793537484e+00	-1.3835891794e+00
 1.1563644160e-01	 1.8821631218e+00	-1.3170176908e+00
 7.6805880798e-02	 1.8841472263e+00	-1.2577231403e+00
 3.8253400692e-02	 1.8853240273e+00	-1.2082249221e+00
 0.0000000000e+00	 1.8857120812e+00	-1.1704632035e+00
 3.9622516554e-01	 1.8582247375e+00	-1.7491891530e+00
 3.5582246790e-01	 1.8663825147e+00	-1.7302646031e+00
 3.1552182436e-01	 1.8736165794e+00	-1.6880760882e+00
 2.7535174085e-01	 1.8799399905e+00	-1.6298565826e+00
 2.3533975421e-01	 1.8853668230e+00	-1.5623272000e+00
 1.9551239691e-01	 1.8899120983e+00	-1.4916862565e+00
 1.5589516679e-01	 1.8935917134e+00	-1.4236031972e+00
 1.1651250211e-01	 1.8964223706e+00	-1.3632171307e+00
 7.7387761375e-02	 1.8984215067e+00	-1.3151396822e+00
 3.8543208069e-02	 1.8996072231e+00	-1.2834618446e+00
 0.0000000000e+00	 1.8999982169e+00	-1.2717644830e+00
 3.9920438897e-01	 1.8721967594e+00	-1.7791859338e+00
 3.5849790279e-01	 1.8804158751e+00	-1.7623487273e+00
 3.1789423806e-01	 1.8877043328e+00	-1.7207972532e+00
 2.7742211504e-01	 1.8940752897e+00	-1.6625790592e+00
 2.3710927764e-01	 1.8995429267e+00	-1.5954706855e+00
 1.9698245778e-01	 1.9041223779e+00	-1.5269465021e+00
 1.5706734507e-01	 1.9078296602e+00	-1.4641519122e+00
 1.1738856150e-01	 1.9106816011e+00	-1.4138808737e+00
 7.7969641205e-02	 1.9126957687e+00	-1.3825576472e+00
 3.8833015074e-02	 1.9138904006e+00	-1.3762226355e+00
 0.0000000000e+00	 1.9142843343e+00	-1.4005221397e+00
 4.0218360615e-01	 1.8861687519e+00	-1.8042802001e+00
 3.6117333207e-01	 1.8944492059e+00	-1.7879194524e+00
 3.2026664678e-01	 1.9017920566e+00	-1.7463195970e+00
 2.7949248489e-01	 1.9082105592e+00	-1.6883284516e+00
 2.3887879734e-01	 1.9137190005e+00	-1.6228395683e+00
 1.9845251557e-01	 1.9183326278e+00	-1.5587364366e+00
 1.5823952090e-01	 1.9220675770e+00	-1.5048402630e+00
 1.1826461905e-01	 1.9249408017e+00	-1.4698615490e+00
 7.8551519814e-02	 1.9269700008e+00	-1.4623556295e+00
 3.9122821472e-02	 1.9281735481e+00	-1.4906822738e+00
 0.0000000000e+00	 1.9285704216e+00	-1.5629693989e+00
 4.0516281464e-01	 1.9001407037e+00	-1.8228192377e+00
 3.6384875355e-01	 1.9084824959e+00	-1.8048004150e+00
 3.2263904859e-01	 1.9158797393e+00	-1.7622411342e+00
 2.8156284870e-01	 1.9223457875e+00	-1.7047729404e+00
 2.4064831189e-01	 1.9278950331e+00	-1.6424647031e+00
 1.9992256908e-01	 1.9325428361e+00	-1.5857378285e+00
 1.5941169330e-01	 1.9363054523e+00	-1.5452839750e+00
 1.1914067405e-01	 1.9391999606e+00	-1.5319858165e+00
 7.9133396727e-02	 1.9412441912e+00	-1.5568413259e+00
 3.9412627024e-02	 1.9424566539e+00	-1.6308919756e+00
 0.0000000000e+00	 1.9428564673e+00	-1.7651551756e+00
 4.0814201201e-01	 1.9141126033e+00	-1.8331982660e+00
 3.6652416503e-01	 1.9225157334e+00	-1.8108783848e+00
 3.2501144154e-01	 1.9299673694e+00	-1.7662295123e+00
 2.8363320479e-01	 1.9364809631e+00	-1.7096482043e+00
 2.4241781983e-01	 1.9420710127e+00	-1.6524337693e+00
 2.0139261710e-01	 1.9467529915e+00	-1.6066701877e+00
 1.6058386133e-01	 1.9505432745e+00	-1.5851091757e+00
 1.2001672577e-01	 1.9534590664e+00	-1.6010553213e+00
 7.9715271469e-02	 1.9555183284e+00	-1.6682541291e+00
 3.9702431495e-02	 1.9567397063e+00	-1.8007837160e+00
 0.0000000000e+00	 1.9571424596e+00	-2.0129508050e+00
 4.1112119582e-01	 1.9280844394e+00	-1.8338587206e+00
 3.6919956435e-01	 1.9365489071e+00	-1.8041009961e+00
 3.2738382370e-01	 1.9440549354e+00	-1.7560195048e+00
 2.8570355145e-01	 1.9506160743e+00	-1.7007549880e+00
 2.4418731972e-01	 1.9562469278e+00	-1.6508892253e+00
 2.0286265843e-01	 1.9609630821e+00	-1.6202894095e+00
 1.6175602403e-01	 1.9647810319e+00	-1.6239520269e+00
 1.2089277352e-01	 1.9677181072e+00	-1.6778476084e+00
 8.0297143564e-02	 1.9697924006e+00	-1.7987676088e+00
 3.9992234648e-02	 1.9710226938e+00	-2.0041745543e+00
 0.0000000000e+00	 1.9714283870e+00	-2.3120564808e+00
 4.1410036365e-01	 1.9420562004e+00	-1.8232866113e+00
 3.7187494931e-01	 1.9505820055e+00	-1.7824745762e+00
 3.2975619312e-01	 1.9581424259e+00	-1.7294106132e+00
 2.8777388701e-01	 1.9647511096e+00	-1.6759567766e+00
 2.4595681012e-01	 1.9704227669e+00	-1.6360263503e+00
 2.0433269187e-01	 1.9751730965e+00	-1.6253864765e+00
 1.6292818044e-01	 1.9790187128e+00	-1.6614583729e+00
 1.2176881656e-01	 1.9819770716e+00	-1.7631169965e+00
 8.0879012538e-02	 1.9840663961e+00	-1.9504918858e+00
 4.0282036246e-02	 1.9853056047e+00	-2.2447707738e+00
 0.0000000000e+00	 1.9857142377e+00	-2.6680074173e+00
 4.1707951306e-01	 1.9560278751e+00	-1.8000109488e+00
 3.7455031774e-01	 1.9646150171e+00	-1.7440620663e+00
 3.3212854789e-01	 1.9722298292e+00	-1.6842647707e+00
 2.8984420977e-01	 1.9788860576e+00	-1.6331775688e+00
 2.4772628958e-01	 1.9845985183e+00	-1.6060913700e+00
 2.0580271623e-01	 1.9893830231e+00	-1.6207862155e+00
 1.6410032960e-01	 1.9932563058e+00	-1.6972834036e+00
 1.2264485419e-01	 1.9962359477e+00	-1.8575954154e+00
 8.1460877915e-02	 1.9983403035e+00	-2.1254759045e+00
 4.0571836054e-02	 1.9995884272e+00	-2.5261718433e+00
 0.0000000000e+00	 2.0000000000e+00	-3.0861797468e+00
