patch_n	x	y	stress_yy
0	 0.000000000000000e+00	 0.000000000000000e+00	 9.277228961352917e-01
0	 0.000000000000000e+00	 1.428576234225853e-01	 3.592495095207641e+00
0	 0.000000000000000e+00	 2.857161301906819e-01	 6.122818981653450e+00
0	 0.000000000000000e+00	 4.285754036348007e-01	 8.482222027238356e+00
0	 0.000000000000000e+00	 5.714353270854531e-01	 1.063422986884824e+01
0	 0.000000000000000e+00	 7.142957838731496e-01	 1.254236630863306e+01
0	 0.000000000000000e+00	 8.571566573284017e-01	 1.417015331412822e+01
0	 0.000000000000000e+00	 1.000017830781720e+00	 1.548111101835349e+01
0	 0.000000000000000e+00	 1.142879187563616e+00	 1.643875771988942e+01
0	 0.000000000000000e+00	 1.285740611004601e+00	 1.700660988293123e+01
0	 0.000000000000000e+00	 1.428601984435185e+00	 1.714818213732036e+01
0	 1.428576234225853e-01	 0.000000000000000e+00	-2.230126819445680e+00
0	 1.428576234225853e-01	 1.428576234225853e-01	 1.690566321547529e+00
0	 1.428576234225853e-01	 2.857161301906819e-01	 5.256999390406013e+00
0	 1.428576234225853e-01	 4.285754036348008e-01	 8.440272523627147e+00
0	 1.428576234225852e-01	 5.714353270854531e-01	 1.121148319164511e+01
0	 1.428576234225853e-01	 7.142957838731498e-01	 1.354172619903084e+01
0	 1.428576234225853e-01	 8.571566573284018e-01	 1.540209368465945e+01
0	 1.428576234225852e-01	 1.000017830781720e+00	 1.676367512184486e+01
0	 1.428576234225852e-01	 1.142879187563616e+00	 1.759755731844189e+01
0	 1.428576234225852e-01	 1.285740611004601e+00	 1.787482441691564e+01
0	 1.428576234225853e-01	 1.428601984435185e+00	 1.756655789437811e+01
0	 2.857161301906819e-01	 0.000000000000000e+00	-4.123839895721739e+00
0	 2.857161301906819e-01	 1.428576234225853e-01	 6.042085621829438e-01
0	 2.857161301906819e-01	 2.857161301906819e-01	 4.824385398821460e+00
0	 2.857161301906818e-01	 4.285754036348007e-01	 8.514643754823593e+00
0	 2.857161301906819e-01	 5.714353270854529e-01	 1.165293357448648e+01
0	 2.857161301906819e-01	 7.142957838731496e-01	 1.421720160600965e+01
0	 2.857161301906818e-01	 8.571566573284015e-01	 1.618539140169102e+01
0	 2.857161301906820e-01	 1.000017830781720e+00	 1.753544331808361e+01
0	 2.857161301906820e-01	 1.142879187563616e+00	 1.824529451611323e+01
0	 2.857161301906819e-01	 1.285740611004601e+00	 1.829287896115690e+01
0	 2.857161301906818e-01	 1.428601984435185e+00	 1.765612742308219e+01
0	 4.285754036348007e-01	 0.000000000000000e+00	-4.929228557767715e+00
0	 4.285754036348006e-01	 1.428576234225853e-01	 2.176699644361491e-01
0	 4.285754036348008e-01	 2.857161301906818e-01	 4.760986856935794e+00
0	 4.285754036348008e-01	 4.285754036348008e-01	 8.684808903696446e+00
0	 4.285754036348007e-01	 5.714353270854531e-01	 1.197321942232815e+01
0	 4.285754036348008e-01	 7.142957838731498e-01	 1.461029826433762e+01
0	 4.285754036348007e-01	 8.571566573284016e-01	 1.658012181533789e+01
0	 4.285754036348007e-01	 1.000017830781720e+00	 1.786676299521520e+01
0	 4.285754036348008e-01	 1.142879187563616e+00	 1.845429125825365e+01
0	 4.285754036348006e-01	 1.285740611004600e+00	 1.832677259321736e+01
0	 4.285754036348007e-01	 1.428601984435185e+00	 1.746826952338998e+01
0	 5.714353270854531e-01	 0.000000000000000e+00	-4.822104685324247e+00
0	 5.714353270854530e-01	 1.428576234225852e-01	 4.151989355669916e-01
0	 5.714353270854530e-01	 2.857161301906819e-01	 5.002813812829752e+00
0	 5.714353270854532e-01	 4.285754036348007e-01	 8.930241309252946e+00
0	 5.714353270854529e-01	 5.714353270854530e-01	 1.218697927082751e+01
0	 5.714353270854530e-01	 7.142957838731496e-01	 1.476252202699984e+01
0	 5.714353270854532e-01	 8.571566573284020e-01	 1.664636039088234e+01
0	 5.714353270854530e-01	 1.000017830781720e+00	 1.782798165942060e+01
0	 5.714353270854532e-01	 1.142879187563616e+00	 1.829686961351792e+01
0	 5.714353270854529e-01	 1.285740611004601e+00	 1.804250451811623e+01
0	 5.714353270854529e-01	 1.428601984435185e+00	 1.705436312223450e+01
0	 7.142957838731496e-01	 0.000000000000000e+00	-3.978279812824419e+00
0	 7.142957838731498e-01	 1.428576234225853e-01	 1.081044142753199e+00
0	 7.142957838731496e-01	 2.857161301906819e-01	 5.485876512614054e+00
0	 7.142957838731497e-01	 4.285754036348007e-01	 9.230414466627298e+00
0	 7.142957838731496e-01	 5.714353270854529e-01	 1.230885178633396e+01
0	 7.142957838731497e-01	 7.142957838731497e-01	 1.471537886518952e+01
0	 7.142957838731497e-01	 8.571566573284020e-01	 1.644418270876512e+01
0	 7.142957838731496e-01	 1.000017830781720e+00	 1.748944693490708e+01
0	 7.142957838731496e-01	 1.142879187563616e+00	 1.784535177385516e+01
0	 7.142957838731497e-01	 1.285740611004601e+00	 1.750607406831906e+01
0	 7.142957838731497e-01	 1.428601984435185e+00	 1.646578727351363e+01
0	 8.571566573284017e-01	 0.000000000000000e+00	-2.573565129416181e+00
0	 8.571566573284018e-01	 1.428576234225853e-01	 2.099454513073836e+00
0	 8.571566573284014e-01	 2.857161301906818e-01	 6.146185400417036e+00
0	 8.571566573284018e-01	 4.285754036348008e-01	 9.564802027071069e+00
0	 8.571566573284018e-01	 5.714353270854531e-01	 1.235347576588081e+01
0	 8.571566573284018e-01	 7.142957838731497e-01	 1.451037486830058e+01
0	 8.571566573284016e-01	 8.571566573284015e-01	 1.603366446457810e+01
0	 8.571566573284016e-01	 1.000017830781720e+00	 1.692150656390024e+01
0	 8.571566573284016e-01	 1.142879187563616e+00	 1.717206005450060e+01
0	 8.571566573284015e-01	 1.285740611004601e+00	 1.678348070372866e+01
0	 8.571566573284016e-01	 1.428601984435186e+00	 1.575392115808091e+01
0	 1.000017830781720e+00	 0.000000000000000e+00	-7.837714789805443e-01
0	 1.000017830781720e+00	 1.428576234225853e-01	 3.354679233495950e+00
0	 1.000017830781720e+00	 2.857161301906819e-01	 6.919751118374755e+00
0	 1.000017830781720e+00	 4.285754036348007e-01	 9.912877797945519e+00
0	 1.000017830781720e+00	 5.714353270854530e-01	 1.233549013717891e+01
0	 1.000017830781720e+00	 7.142957838731496e-01	 1.418901624392170e+01
0	 1.000017830781720e+00	 8.571566573284017e-01	 1.547488146905816e+01
0	 1.000017830781720e+00	 1.000017830781720e+00	 1.619450840663764e+01
0	 1.000017830781720e+00	 1.142879187563616e+00	 1.634931689396841e+01
0	 1.000017830781720e+00	 1.285740611004601e+00	 1.594072401167768e+01
0	 1.000017830781720e+00	 1.428601984435185e+00	 1.497014408373789e+01
0	 1.142879187563616e+00	 0.000000000000000e+00	 1.215290639854483e+00
0	 1.142879187563616e+00	 1.428576234225853e-01	 4.730967750864384e+00
0	 1.142879187563616e+00	 2.857161301906820e-01	 7.742584506623434e+00
0	 1.142879187563616e+00	 4.285754036348008e-01	 1.025411574271582e+01
0	 1.142879187563616e+00	 5.714353270854530e-01	 1.226953395861179e+01
0	 1.142879187563616e+00	 7.142957838731495e-01	 1.379280931783189e+01
0	 1.142879187563616e+00	 8.571566573284016e-01	 1.482790964808270e+01
0	 1.142879187563616e+00	 1.000017830781720e+00	 1.537880044136381e+01
0	 1.142879187563616e+00	 1.142879187563616e+00	 1.544944485404636e+01
0	 1.142879187563616e+00	 1.285740611004601e+00	 1.504380370692277e+01
0	 1.142879187563616e+00	 1.428601984435185e+00	 1.416583548522804e+01
0	 1.285740611004601e+00	 0.000000000000000e+00	 3.247811073704141e+00
0	 1.285740611004601e+00	 1.428576234225853e-01	 6.112569771894824e+00
0	 1.285740611004601e+00	 2.857161301906819e-01	 8.550696603294448e+00
0	 1.285740611004601e+00	 4.285754036348007e-01	 1.056798998094718e+01
0	 1.285740611004601e+00	 5.714353270854530e-01	 1.217024641923244e+01
0	 1.285740611004601e+00	 7.142957838731497e-01	 1.336326053399743e+01
0	 1.285740611004601e+00	 8.571566573284016e-01	 1.415282504266639e+01
0	 1.285740611004601e+00	 1.000017830781720e+00	 1.454473076432674e+01
0	 1.285740611004601e+00	 1.142879187563616e+00	 1.454476661979175e+01
0	 1.285740611004601e+00	 1.285740611004601e+00	 1.415871963164012e+01
0	 1.285740611004601e+00	 1.428601984435186e+00	 1.339237492423224e+01
0	 1.428601984435185e+00	 0.000000000000000e+00	 5.137980014421450e+00
0	 1.428601984435185e+00	 1.428576234225853e-01	 7.383735263169962e+00
0	 1.428601984435185e+00	 2.857161301906819e-01	 9.280098644511643e+00
0	 1.428601984435185e+00	 4.285754036348007e-01	 1.083397478830293e+01
0	 1.428601984435185e+00	 5.714353270854530e-01	 1.205226683876172e+01
0	 1.428601984435185e+00	 7.142957838731498e-01	 1.294187645457020e+01
0	 1.428601984435185e+00	 8.571566573284015e-01	 1.350970380895943e+01
0	 1.428601984435185e+00	 1.000017830781720e+00	 1.376264758977576e+01
0	 1.428601984435185e+00	 1.142879187563616e+00	 1.370760499952909e+01
0	 1.428601984435185e+00	 1.285740611004601e+00	 1.335147175542281e+01
0	 1.428601984435185e+00	 1.428601984435185e+00	 1.270114208936576e+01
0	 0.000000000000000e+00	 1.428601984435185e+00	 1.714818213732036e+01
0	 0.000000000000000e+00	 1.571453213328422e+00	 1.698490149517464e+01
0	 0.000000000000000e+00	 1.714304292230859e+00	 1.667219304918678e+01
0	 0.000000000000000e+00	 1.857155237808251e+00	 1.622458479690829e+01
0	 0.000000000000000e+00	 2.000006066726355e+00	 1.565660478878150e+01
0	 0.000000000000000e+00	 2.142856795650925e+00	 1.498278112813991e+01
0	 0.000000000000000e+00	 2.285707441247718e+00	 1.421764197120836e+01
0	 0.000000000000000e+00	 2.428558020182488e+00	 1.337571552710321e+01
0	 0.000000000000000e+00	 2.571408549120992e+00	 1.247153005783238e+01
0	 0.000000000000000e+00	 2.714259044728984e+00	 1.151961387829528e+01
0	 0.000000000000000e+00	 2.857109523672222e+00	 1.053449535628263e+01
0	 1.428576234225853e-01	 1.428601984435185e+00	 1.756655789437811e+01
0	 1.428576234225853e-01	 1.571453213328422e+00	 1.692472609662420e+01
0	 1.428576234225853e-01	 1.714304292230859e+00	 1.622803727384345e+01
0	 1.428576234225853e-01	 1.857155237808252e+00	 1.548780899733656e+01
0	 1.428576234225853e-01	 2.000006066726355e+00	 1.471535883538279e+01
0	 1.428576234225852e-01	 2.142856795650925e+00	 1.392200435323954e+01
0	 1.428576234225852e-01	 2.285707441247718e+00	 1.311906311314204e+01
0	 1.428576234225853e-01	 2.428558020182487e+00	 1.231785267430313e+01
0	 1.428576234225853e-01	 2.571408549120992e+00	 1.152969059291293e+01
0	 1.428576234225852e-01	 2.714259044728985e+00	 1.076589442213856e+01
0	 1.428576234225852e-01	 2.857109523672222e+00	 1.003778171212385e+01
0	 2.857161301906818e-01	 1.428601984435185e+00	 1.765612742308219e+01
0	 2.857161301906819e-01	 1.571453213328422e+00	 1.667607911742719e+01
0	 2.857161301906819e-01	 1.714304292230859e+00	 1.571396887601758e+01
0	 2.857161301906819e-01	 1.857155237808251e+00	 1.477822557702507e+01
0	 2.857161301906818e-01	 2.000006066726355e+00	 1.387727805399116e+01
0	 2.857161301906819e-01	 2.142856795650925e+00	 1.301955509582644e+01
0	 2.857161301906819e-01	 2.285707441247718e+00	 1.221348544680992e+01
0	 2.857161301906818e-01	 2.428558020182487e+00	 1.146749780658840e+01
0	 2.857161301906819e-01	 2.571408549120991e+00	 1.079002083017593e+01
0	 2.857161301906819e-01	 2.714259044728984e+00	 1.018948312795341e+01
0	 2.857161301906819e-01	 2.857109523672222e+00	 9.674313265668170e+00
0	 4.285754036348007e-01	 1.428601984435185e+00	 1.746826952338998e+01
0	 4.285754036348008e-01	 1.571453213328422e+00	 1.627276957587166e+01
0	 4.285754036348006e-01	 1.714304292230859e+00	 1.514862287731675e+01
0	 4.285754036348008e-01	 1.857155237808252e+00	 1.410169134567372e+01
0	 4.285754036348006e-01	 2.000006066726355e+00	 1.313783682527909e+01
0	 4.285754036348006e-01	 2.142856795650925e+00	 1.226292108685625e+01
0	 4.285754036348008e-01	 2.285707441247718e+00	 1.148280582751459e+01
0	 4.285754036348007e-01	 2.428558020182488e+00	 1.080335267074865e+01
0	 4.285754036348007e-01	 2.571408549120991e+00	 1.023042316643747e+01
0	 4.285754036348007e-01	 2.714259044728984e+00	 9.769878790843999e+00
0	 4.285754036348007e-01	 2.857109523672222e+00	 9.427580946614739e+00
0	 5.714353270854529e-01	 1.428601984435185e+00	 1.705436312223450e+01
0	 5.714353270854529e-01	 1.571453213328422e+00	 1.574860660943913e+01
0	 5.714353270854529e-01	 1.714304292230859e+00	 1.455063440418710e+01
0	 5.714353270854529e-01	 1.857155237808251e+00	 1.346406319847110e+01
0	 5.714353270854530e-01	 2.000006066726355e+00	 1.249250959263971e+01
0	 5.714353270854530e-01	 2.142856795650926e+00	 1.163959009539626e+01
0	 5.714353270854529e-01	 2.285707441247718e+00	 1.090892112379767e+01
0	 5.714353270854531e-01	 2.428558020182488e+00	 1.030411900325353e+01
0	 5.714353270854529e-01	 2.571408549120991e+00	 9.828799967525367e+00
0	 5.714353270854530e-01	 2.714259044728984e+00	 9.486580158725976e+00
0	 5.714353270854531e-01	 2.857109523672222e+00	 9.281075627319035e+00
0	 7.142957838731497e-01	 1.428601984435185e+00	 1.646578727351363e+01
0	 7.142957838731496e-01	 1.571453213328422e+00	 1.513739947479420e+01
0	 7.142957838731497e-01	 1.714304292230859e+00	 1.393863868790430e+01
0	 7.142957838731497e-01	 1.857155237808251e+00	 1.287119811608662e+01
0	 7.142957838731495e-01	 2.000006066726355e+00	 1.193677086218062e+01
0	 7.142957838731497e-01	 2.142856795650925e+00	 1.113704992862122e+01
0	 7.142957838731496e-01	 2.285707441247718e+00	 1.047372821743761e+01
0	 7.142957838731498e-01	 2.428558020182488e+00	 9.948498530252362e+00
0	 7.142957838731497e-01	 2.571408549120993e+00	 9.563053568280532e+00
0	 7.142957838731496e-01	 2.714259044728984e+00	 9.319085932329088e+00
0	 7.142957838731497e-01	 2.857109523672223e+00	 9.218288122796467e+00
0	 8.571566573284016e-01	 1.428601984435186e+00	 1.575392115808091e+01
0	 8.571566573284018e-01	 1.571453213328422e+00	 1.447295754777570e+01
0	 8.571566573284013e-01	 1.714304292230859e+00	 1.333127106456530e+01
0	 8.571566573284015e-01	 1.857155237808251e+00	 1.232895316466374e+01
0	 8.571566573284017e-01	 2.000006066726355e+00	 1.146609520271861e+01
0	 8.571566573284016e-01	 2.142856795650925e+00	 1.074278843180968e+01
0	 8.571566573284014e-01	 2.285707441247718e+00	 1.015912400344774e+01
0	 8.571566573284016e-01	 2.428558020182488e+00	 9.715192967573774e+00
0	 8.571566573284018e-01	 2.571408549120991e+00	 9.411086272558009e+00
0	 8.571566573284018e-01	 2.714259044728983e+00	 9.246894765199414e+00
0	 8.571566573284016e-01	 2.857109523672222e+00	 9.222709190725272e+00
0	 1.000017830781720e+00	 1.428601984435185e+00	 1.497014408373789e+01
0	 1.000017830781720e+00	 1.571453213328422e+00	 1.378909032338934e+01
0	 1.000017830781720e+00	 1.714304292230858e+00	 1.274716697508172e+01
0	 1.000017830781720e+00	 1.857155237808251e+00	 1.184318549581417e+01
0	 1.000017830781720e+00	 2.000006066726355e+00	 1.107595724577506e+01
0	 1.000017830781720e+00	 2.142856795650925e+00	 1.044429348834069e+01
0	 1.000017830781720e+00	 2.285707441247718e+00	 9.947005390074294e+00
0	 1.000017830781720e+00	 2.428558020182488e+00	 9.582904020725099e+00
0	 1.000017830781720e+00	 2.571408549120993e+00	 9.350800353227575e+00
0	 1.000017830781720e+00	 2.714259044728984e+00	 9.249505263700939e+00
0	 1.000017830781720e+00	 2.857109523672222e+00	 9.277829531448731e+00
0	 1.142879187563616e+00	 1.428601984435185e+00	 1.416583548522804e+01
0	 1.142879187563616e+00	 1.571453213328422e+00	 1.311960741580172e+01
0	 1.142879187563616e+00	 1.714304292230859e+00	 1.220496196517436e+01
0	 1.142879187563616e+00	 1.857155237808251e+00	 1.141975234661316e+01
0	 1.142879187563616e+00	 2.000006066726355e+00	 1.076183168557213e+01
0	 1.142879187563616e+00	 2.142856795650926e+00	 1.022905301969112e+01
0	 1.142879187563617e+00	 2.285707441247718e+00	 9.819269298794763e+00
0	 1.142879187563616e+00	 2.428558020182489e+00	 9.530333384891716e+00
0	 1.142879187563616e+00	 2.571408549120992e+00	 9.360098052174001e+00
0	 1.142879187563616e+00	 2.714259044728984e+00	 9.306415987016511e+00
0	 1.142879187563616e+00	 2.857109523672222e+00	 9.367139787976656e+00
0	 1.285740611004601e+00	 1.428601984435186e+00	 1.339237492423224e+01
0	 1.285740611004601e+00	 1.571453213328422e+00	 1.249831855833588e+01
0	 1.285740611004601e+00	 1.714304292230859e+00	 1.172329168536906e+01
0	 1.285740611004601e+00	 1.857155237808252e+00	 1.106451103959582e+01
0	 1.285740611004601e+00	 2.000006066726355e+00	 1.051919327902977e+01
0	 1.285740611004601e+00	 2.142856795650926e+00	 1.008455498543324e+01
0	 1.285740611004601e+00	 2.285707441247718e+00	 9.757812664316315e+00
0	 1.285740611004601e+00	 2.428558020182488e+00	 9.536182744936255e+00
0	 1.285740611004601e+00	 2.571408549120992e+00	 9.416881580296923e+00
0	 1.285740611004601e+00	 2.714259044728984e+00	 9.397125447148282e+00
0	 1.285740611004601e+00	 2.857109523672222e+00	 9.474130545986203e+00
0	 1.428601984435185e+00	 1.428601984435185e+00	 1.270114208936576e+01
0	 1.428601984435185e+00	 1.571453213328422e+00	 1.195903360346832e+01
0	 1.428601984435185e+00	 1.714304292230859e+00	 1.132079189099378e+01
0	 1.428601984435185e+00	 1.857155237808251e+00	 1.078331898275455e+01
0	 1.428601984435185e+00	 2.000006066726356e+00	 1.034351684576345e+01
0	 1.428601984435185e+00	 2.142856795650925e+00	 9.998287383232954e+00
0	 1.428601984435185e+00	 2.285707441247717e+00	 9.744532434574438e+00
0	 1.428601984435185e+00	 2.428558020182488e+00	 9.579153775397678e+00
0	 1.428601984435185e+00	 2.571408549120992e+00	 9.499053117510321e+00
0	 1.428601984435185e+00	 2.714259044728984e+00	 9.501132108917574e+00
0	 1.428601984435186e+00	 2.857109523672222e+00	 9.582292333821950e+00
0	 0.000000000000000e+00	 2.857109523672222e+00	 1.053449535628263e+01
0	 0.000000000000000e+00	 2.999969994316576e+00	 9.634912214067265e+00
0	 0.000000000000000e+00	 3.142830431628385e+00	 8.923776133034185e+00
0	 0.000000000000000e+00	 3.285690802274106e+00	 8.391667252715468e+00
0	 0.000000000000000e+00	 3.428551072920193e+00	 8.029165910002188e+00
0	 0.000000000000000e+00	 3.571411210233102e+00	 7.826852639144598e+00
0	 0.000000000000000e+00	 3.714271180879290e+00	 7.775308171753094e+00
0	 0.000000000000000e+00	 3.857130951525210e+00	 7.865113436799784e+00
0	 0.000000000000000e+00	 3.999990488837320e+00	 8.086849560620804e+00
0	 0.000000000000000e+00	 4.142849759482075e+00	 8.431097866919279e+00
0	 0.000000000000000e+00	 4.285708730125926e+00	 8.888439876768995e+00
0	 1.428576234225852e-01	 2.857109523672222e+00	 1.003778171212385e+01
0	 1.428576234225853e-01	 2.999969994316577e+00	 9.402320159224672e+00
0	 1.428576234225853e-01	 3.142830431628385e+00	 8.904342552246078e+00
0	 1.428576234225852e-01	 3.285690802274106e+00	 8.536815812561109e+00
0	 1.428576234225853e-01	 3.428551072920194e+00	 8.292707004101270e+00
0	 1.428576234225853e-01	 3.571411210233103e+00	 8.164983333356702e+00
0	 1.428576234225853e-01	 3.714271180879289e+00	 8.146612149376907e+00
0	 1.428576234225853e-01	 3.857130951525211e+00	 8.230560943771923e+00
0	 1.428576234225852e-01	 3.999990488837319e+00	 8.409797350713976e+00
0	 1.428576234225853e-01	 4.142849759482075e+00	 8.677289146939742e+00
0	 1.428576234225852e-01	 4.285708730125926e+00	 9.026004251752953e+00
0	 2.857161301906819e-01	 2.857109523672222e+00	 9.674313265668170e+00
0	 2.857161301906819e-01	 2.999969994316575e+00	 9.253715347711552e+00
0	 2.857161301906819e-01	 3.142830431628385e+00	 8.928064585195834e+00
0	 2.857161301906819e-01	 3.285690802274106e+00	 8.692447606805013e+00
0	 2.857161301906819e-01	 3.428551072920194e+00	 8.541951138973662e+00
0	 2.857161301906819e-01	 3.571411210233102e+00	 8.471662005887145e+00
0	 2.857161301906818e-01	 3.714271180879289e+00	 8.476667129482028e+00
0	 2.857161301906819e-01	 3.857130951525211e+00	 8.552053529447049e+00
0	 2.857161301906819e-01	 3.999990488837321e+00	 8.692908323224188e+00
0	 2.857161301906818e-01	 4.142849759482075e+00	 8.894318726010260e+00
0	 2.857161301906819e-01	 4.285708730125925e+00	 9.151372050758805e+00
0	 4.285754036348007e-01	 2.857109523672222e+00	 9.427580946614738e+00
0	 4.285754036348007e-01	 2.999969994316576e+00	 9.177433134794104e+00
0	 4.285754036348007e-01	 3.142830431628386e+00	 8.987430149010617e+00
0	 4.285754036348006e-01	 3.285690802274104e+00	 8.854511262729391e+00
0	 4.285754036348007e-01	 3.428551072920193e+00	 8.775615811382371e+00
0	 4.285754036348008e-01	 3.571411210233103e+00	 8.747683192368507e+00
0	 4.285754036348006e-01	 3.714271180879290e+00	 8.767652865054075e+00
0	 4.285754036348008e-01	 3.857130951525211e+00	 8.832464350773289e+00
0	 4.285754036348007e-01	 3.999990488837320e+00	 8.939057232829031e+00
0	 4.285754036348008e-01	 4.142849759482075e+00	 9.084371156493919e+00
0	 4.285754036348006e-01	 4.285708730125925e+00	 9.265345829011425e+00
0	 5.714353270854531e-01	 2.857109523672222e+00	 9.281075627319035e+00
0	 5.714353270854530e-01	 2.999969994316577e+00	 9.161808815381223e+00
0	 5.714353270854531e-01	 3.142830431628385e+00	 9.074927103761445e+00
0	 5.714353270854531e-01	 3.285690802274106e+00	 9.018955358867474e+00
0	 5.714353270854531e-01	 3.428551072920194e+00	 8.992418481345840e+00
0	 5.714353270854531e-01	 3.571411210233104e+00	 8.993841406081877e+00
0	 5.714353270854531e-01	 3.714271180879290e+00	 9.021749102200021e+00
0	 5.714353270854530e-01	 3.857130951525211e+00	 9.074666573064119e+00
0	 5.714353270854531e-01	 3.999990488837321e+00	 9.151118856277883e+00
0	 5.714353270854530e-01	 4.142849759482074e+00	 9.249631023685552e+00
0	 5.714353270854529e-01	 4.285708730125925e+00	 9.368728181372507e+00
0	 7.142957838731497e-01	 2.857109523672223e+00	 9.218288122796467e+00
0	 7.142957838731497e-01	 2.999969994316576e+00	 9.195177624028466e+00
0	 7.142957838731496e-01	 3.142830431628385e+00	 9.183043252466920e+00
0	 7.142957838731498e-01	 3.285690802274106e+00	 9.181728425006678e+00
0	 7.142957838731496e-01	 3.428551072920193e+00	 9.191076572140291e+00
0	 7.142957838731497e-01	 3.571411210233103e+00	 9.210931137958070e+00
0	 7.142957838731496e-01	 3.714271180879291e+00	 9.241135580148278e+00
0	 7.142957838731497e-01	 3.857130951525210e+00	 9.281533369997266e+00
0	 7.142957838731495e-01	 3.999990488837320e+00	 9.331967992389714e+00
0	 7.142957838731495e-01	 4.142849759482074e+00	 9.392282945808914e+00
0	 7.142957838731496e-01	 4.285708730125926e+00	 9.462321742337091e+00
0	 8.571566573284016e-01	 2.857109523672222e+00	 9.222709190725272e+00
0	 8.571566573284016e-01	 2.999969994316577e+00	 9.265874734941178e+00
0	 8.571566573284016e-01	 3.142830431628385e+00	 9.304266341096262e+00
0	 8.571566573284013e-01	 3.285690802274105e+00	 9.338778942191105e+00
0	 8.571566573284015e-01	 3.428551072920193e+00	 9.370307470301491e+00
0	 8.571566573284016e-01	 3.571411210233102e+00	 9.399746856578517e+00
0	 8.571566573284016e-01	 3.714271180879289e+00	 9.427992031248651e+00
0	 8.571566573284016e-01	 3.857130951525210e+00	 9.455937923613794e+00
0	 8.571566573284018e-01	 3.999990488837320e+00	 9.484479462051302e+00
0	 8.571566573284016e-01	 4.142849759482073e+00	 9.514511574014094e+00
0	 8.571566573284017e-01	 4.285708730125926e+00	 9.546929186030665e+00
0	 1.000017830781720e+00	 2.857109523672222e+00	 9.277829531448731e+00
0	 1.000017830781720e+00	 2.999969994316575e+00	 9.362235261976959e+00
0	 1.000017830781720e+00	 3.142830431628385e+00	 9.431084058571656e+00
0	 1.000017830781720e+00	 3.285690802274106e+00	 9.486055342723546e+00
0	 1.000017830781720e+00	 3.428551072920193e+00	 9.528828525626189e+00
0	 1.000017830781720e+00	 3.571411210233104e+00	 9.561083008175970e+00
0	 1.000017830781720e+00	 3.714271180879289e+00	 9.584498180972227e+00
0	 1.000017830781720e+00	 3.857130951525210e+00	 9.600753424317118e+00
0	 1.000017830781720e+00	 3.999990488837319e+00	 9.611528108215611e+00
0	 1.000017830781720e+00	 4.142849759482075e+00	 9.618501592375381e+00
0	 1.000017830781720e+00	 4.285708730125927e+00	 9.623353226206669e+00
0	 1.142879187563616e+00	 2.857109523672222e+00	 9.367139787976656e+00
0	 1.142879187563616e+00	 2.999969994316576e+00	 9.472594258647378e+00
0	 1.142879187563616e+00	 3.142830431628385e+00	 9.555984036769875e+00
0	 1.142879187563617e+00	 3.285690802274106e+00	 9.619506010166869e+00
0	 1.142879187563616e+00	 3.428551072920193e+00	 9.665357051173000e+00
0	 1.142879187563616e+00	 3.571411210233102e+00	 9.695734016634916e+00
0	 1.142879187563616e+00	 3.714271180879289e+00	 9.712833747911207e+00
0	 1.142879187563616e+00	 3.857130951525209e+00	 9.718853070872331e+00
0	 1.142879187563616e+00	 3.999990488837320e+00	 9.715988795900518e+00
0	 1.142879187563616e+00	 4.142849759482074e+00	 9.706437717889553e+00
0	 1.142879187563616e+00	 4.285708730125926e+00	 9.692396616244533e+00
0	 1.285740611004601e+00	 2.857109523672222e+00	 9.474130545986199e+00
0	 1.285740611004601e+00	 2.999969994316575e+00	 9.585286718118915e+00
0	 1.285740611004601e+00	 3.142830431628385e+00	 9.671453850523248e+00
0	 1.285740611004601e+00	 3.285690802274106e+00	 9.735079279344722e+00
0	 1.285740611004601e+00	 3.428551072920193e+00	 9.778610323262949e+00
0	 1.285740611004601e+00	 3.571411210233102e+00	 9.804494283491641e+00
0	 1.285740611004601e+00	 3.714271180879289e+00	 9.815178443778562e+00
0	 1.285740611004601e+00	 3.857130951525210e+00	 9.813110070405433e+00
0	 1.285740611004601e+00	 3.999990488837320e+00	 9.800736412187749e+00
0	 1.285740611004601e+00	 4.142849759482074e+00	 9.780504700474568e+00
0	 1.285740611004601e+00	 4.285708730125926e+00	 9.754862149148193e+00
0	 1.428601984435186e+00	 2.857109523672222e+00	 9.582292333821949e+00
0	 1.428601984435185e+00	 2.999969994316576e+00	 9.688647573213222e+00
0	 1.428601984435185e+00	 3.142830431628385e+00	 9.769981017619875e+00
0	 1.428601984435185e+00	 3.285690802274106e+00	 9.828723436341750e+00
0	 1.428601984435185e+00	 3.428551072920192e+00	 9.867305581479410e+00
0	 1.428601984435185e+00	 3.571411210233103e+00	 9.888158187934110e+00
0	 1.428601984435185e+00	 3.714271180879290e+00	 9.893711973407767e+00
0	 1.428601984435185e+00	 3.857130951525209e+00	 9.886397638402832e+00
0	 1.428601984435185e+00	 3.999990488837321e+00	 9.868645866222124e+00
0	 1.428601984435185e+00	 4.142849759482075e+00	 9.842887322968616e+00
0	 1.428601984435185e+00	 4.285708730125926e+00	 9.811552657545061e+00
0	 0.000000000000000e+00	 4.285708730125926e+00	 8.888439876768995e+00
0	 0.000000000000000e+00	 4.428567384102075e+00	 9.349591921574762e+00
0	 0.000000000000000e+00	 4.571425771410668e+00	 9.715798836448100e+00
0	 0.000000000000000e+00	 4.714283958718593e+00	 9.993435180486742e+00
0	 0.000000000000000e+00	 4.857142012692742e+00	 1.018887569203691e+01
0	 0.000000000000000e+00	 5.000000000000002e+00	 1.030849528869760e+01
0	 0.000000000000000e+00	 5.142857987307262e+00	 1.035866906732351e+01
0	 0.000000000000000e+00	 5.285716041281409e+00	 1.034577230402676e+01
0	 0.000000000000000e+00	 5.428574228589335e+00	 1.027618045417745e+01
0	 0.000000000000000e+00	 5.571432615897928e+00	 1.015626915240282e+01
0	 0.000000000000000e+00	 5.714291269874075e+00	 9.992414212585237e+00
0	 1.428576234225852e-01	 4.285708730125926e+00	 9.026004251752953e+00
0	 1.428576234225853e-01	 4.428567384102072e+00	 9.376383053938092e+00
0	 1.428576234225853e-01	 4.571425771410667e+00	 9.656696968626703e+00
0	 1.428576234225853e-01	 4.714283958718593e+00	 9.871660660558309e+00
0	 1.428576234225852e-01	 4.857142012692741e+00	 1.002598892645947e+01
0	 1.428576234225853e-01	 5.000000000000004e+00	 1.012439669504705e+01
0	 1.428576234225852e-01	 5.142857987307259e+00	 1.017159902703045e+01
0	 1.428576234225853e-01	 5.285716041281411e+00	 1.017231111511298e+01
0	 1.428576234225853e-01	 5.428574228589334e+00	 1.013124828399224e+01
0	 1.428576234225853e-01	 5.571432615897930e+00	 1.005312599035970e+01
0	 1.428576234225852e-01	 5.714291269874074e+00	 9.942659822899238e+00
0	 2.857161301906819e-01	 4.285708730125925e+00	 9.151372050758805e+00
0	 2.857161301906819e-01	 4.428567384102075e+00	 9.408959112889358e+00
0	 2.857161301906820e-01	 4.571425771410668e+00	 9.617410506310334e+00
0	 2.857161301906819e-01	 4.714283958718593e+00	 9.779973354929622e+00
0	 2.857161301906819e-01	 4.857142012692741e+00	 9.899894875860440e+00
0	 2.857161301906819e-01	 5.000000000000000e+00	 9.980422379423624e+00
0	 2.857161301906819e-01	 5.142857987307260e+00	 1.002480326914935e+01
0	 2.857161301906818e-01	 5.285716041281408e+00	 1.003628504177812e+01
0	 2.857161301906819e-01	 5.428574228589334e+00	 1.001811528726119e+01
0	 2.857161301906819e-01	 5.571432615897928e+00	 9.973541688760243e+00
0	 2.857161301906818e-01	 5.714291269874074e+00	 9.905812022646506e+00
0	 4.285754036348006e-01	 4.285708730125925e+00	 9.265345829011425e+00
0	 4.285754036348007e-01	 4.428567384102075e+00	 9.446542492182031e+00
0	 4.285754036348007e-01	 4.571425771410666e+00	 9.595877142900605e+00
0	 4.285754036348006e-01	 4.714283958718593e+00	 9.715321714087207e+00
0	 4.285754036348006e-01	 4.857142012692742e+00	 9.806848200737893e+00
0	 4.285754036348006e-01	 5.000000000000003e+00	 9.872428659926387e+00
0	 4.285754036348006e-01	 5.142857987307258e+00	 9.914035210805206e+00
0	 4.285754036348007e-01	 5.285716041281407e+00	 9.933640034606480e+00
0	 4.285754036348008e-01	 5.428574228589334e+00	 9.933215374642275e+00
0	 4.285754036348008e-01	 5.571432615897929e+00	 9.914733536304421e+00
0	 4.285754036348007e-01	 5.714291269874075e+00	 9.880166887064012e+00
0	 5.714353270854529e-01	 4.285708730125925e+00	 9.368728181372507e+00
0	 5.714353270854529e-01	 4.428567384102074e+00	 9.488355626822853e+00
0	 5.714353270854532e-01	 4.571425771410667e+00	 9.590034610147949e+00
0	 5.714353270854532e-01	 4.714283958718593e+00	 9.674654220383738e+00
0	 5.714353270854529e-01	 4.857142012692742e+00	 9.743103584338140e+00
0	 5.714353270854531e-01	 5.000000000000000e+00	 9.796271866592175e+00
0	 5.714353270854531e-01	 5.142857987307261e+00	 9.835048269500735e+00
0	 5.714353270854530e-01	 5.285716041281410e+00	 9.860322033193111e+00
0	 5.714353270854530e-01	 5.428574228589335e+00	 9.872982435573247e+00
0	 5.714353270854530e-01	 5.571432615897927e+00	 9.873918792319779e+00
0	 5.714353270854530e-01	 5.714291269874074e+00	 9.864020456885742e+00
0	 7.142957838731496e-01	 4.285708730125926e+00	 9.462321742337091e+00
0	 7.142957838731495e-01	 4.428567384102072e+00	 9.533620993068308e+00
0	 7.142957838731498e-01	 4.571425771410668e+00	 9.597820678148283e+00
0	 7.142957838731498e-01	 4.714283958718593e+00	 9.654919388035250e+00
0	 7.142957838731498e-01	 4.857142012692742e+00	 9.704915732653602e+00
0	 7.142957838731498e-01	 5.000000000000001e+00	 9.747808341394428e+00
0	 7.142957838731497e-01	 5.142857987307260e+00	 9.783595863116041e+00
0	 7.142957838731496e-01	 5.285716041281409e+00	 9.812276966144339e+00
0	 7.142957838731495e-01	 5.428574228589335e+00	 9.833850338272985e+00
0	 7.142957838731496e-01	 5.571432615897927e+00	 9.848314686763500e+00
0	 7.142957838731495e-01	 5.714291269874074e+00	 9.855668738345196e+00
0	 8.571566573284017e-01	 4.285708730125926e+00	 9.546929186030665e+00
0	 8.571566573284016e-01	 4.428567384102075e+00	 9.581561108421587e+00
0	 8.571566573284014e-01	 4.571425771410667e+00	 9.617173155340154e+00
0	 8.571566573284017e-01	 4.714283958718594e+00	 9.653065763118816e+00
0	 8.571566573284016e-01	 4.857142012692740e+00	 9.688539374421124e+00
0	 8.571566573284018e-01	 5.000000000000003e+00	 9.722894438242067e+00
0	 8.571566573284016e-01	 5.142857987307260e+00	 9.755431409908287e+00
0	 8.571566573284016e-01	 5.285716041281410e+00	 9.785450751078306e+00
0	 8.571566573284017e-01	 5.428574228589333e+00	 9.812252929742662e+00
0	 8.571566573284017e-01	 5.571432615897929e+00	 9.835138420224059e+00
0	 8.571566573284017e-01	 5.714291269874074e+00	 9.853407703177385e+00
0	 1.000017830781720e+00	 4.285708730125927e+00	 9.623353226206669e+00
0	 1.000017830781720e+00	 4.428567384102074e+00	 9.631398531630047e+00
0	 1.000017830781720e+00	 4.571425771410668e+00	 9.646029888502465e+00
0	 1.000017830781720e+00	 4.714283958718593e+00	 9.666041923570461e+00
0	 1.000017830781720e+00	 4.857142012692742e+00	 9.690229261120392e+00
0	 1.000017830781720e+00	 5.000000000000001e+00	 9.717386522978607e+00
0	 1.000017830781720e+00	 5.142857987307261e+00	 9.746308328511407e+00
0	 1.000017830781720e+00	 5.285716041281408e+00	 9.775789294625200e+00
0	 1.000017830781720e+00	 5.428574228589335e+00	 9.804624035766603e+00
0	 1.000017830781720e+00	 5.571432615897927e+00	 9.831607163922534e+00
0	 1.000017830781720e+00	 5.714291269874074e+00	 9.855533288620414e+00
0	 1.142879187563616e+00	 4.285708730125926e+00	 9.692396616244533e+00
0	 1.142879187563616e+00	 4.428567384102075e+00	 9.682355862683199e+00
0	 1.142879187563616e+00	 4.571425771410667e+00	 9.682328762752489e+00
0	 1.142879187563616e+00	 4.714283958718593e+00	 9.690796479183541e+00
0	 1.142879187563616e+00	 4.857142012692742e+00	 9.706240166972709e+00
0	 1.142879187563616e+00	 5.000000000000002e+00	 9.727140973381328e+00
0	 1.142879187563616e+00	 5.142857987307260e+00	 9.751980037935786e+00
0	 1.142879187563616e+00	 5.285716041281408e+00	 9.779238492427480e+00
0	 1.142879187563616e+00	 5.428574228589337e+00	 9.807397460912851e+00
0	 1.142879187563616e+00	 5.571432615897928e+00	 9.834938059713584e+00
0	 1.142879187563616e+00	 5.714291269874075e+00	 9.860341397416688e+00
0	 1.285740611004601e+00	 4.285708730125926e+00	 9.754862149148193e+00
0	 1.285740611004600e+00	 4.428567384102075e+00	 9.733655742811193e+00
0	 1.285740611004601e+00	 4.571425771410668e+00	 9.724007701544483e+00
0	 1.285740611004601e+00	 4.714283958718593e+00	 9.724278071607644e+00
0	 1.285740611004601e+00	 4.857142012692742e+00	 9.732826888940060e+00
0	 1.285740611004601e+00	 5.000000000000001e+00	 9.748014179160693e+00
0	 1.285740611004601e+00	 5.142857987307260e+00	 9.768199957568008e+00
0	 1.285740611004601e+00	 5.285716041281409e+00	 9.791744229139869e+00
0	 1.285740611004601e+00	 5.428574228589335e+00	 9.817006988533581e+00
0	 1.285740611004601e+00	 5.571432615897926e+00	 9.842348220086020e+00
0	 1.285740611004601e+00	 5.714291269874075e+00	 9.866127897813715e+00
0	 1.428601984435185e+00	 4.285708730125926e+00	 9.811552657545061e+00
0	 1.428601984435185e+00	 4.428567384102075e+00	 9.784520854483794e+00
0	 1.428601984435185e+00	 4.571425771410667e+00	 9.769004666668780e+00
0	 1.428601984435185e+00	 4.714283958718593e+00	 9.763435374347585e+00
0	 1.428601984435186e+00	 4.857142012692743e+00	 9.766244246724435e+00
0	 1.428601984435185e+00	 5.000000000000001e+00	 9.775862541959834e+00
0	 1.428601984435185e+00	 5.142857987307260e+00	 9.790721507170517e+00
0	 1.428601984435185e+00	 5.285716041281408e+00	 9.809252378429314e+00
0	 1.428601984435185e+00	 5.428574228589335e+00	 9.829886380765124e+00
0	 1.428601984435185e+00	 5.571432615897926e+00	 9.851054728163016e+00
0	 1.428601984435185e+00	 5.714291269874074e+00	 9.871188623564329e+00
0	 0.000000000000000e+00	 5.714291269874075e+00	 9.992414212585237e+00
0	 0.000000000000000e+00	 5.857150240517928e+00	 9.832254419599209e+00
0	 0.000000000000000e+00	 6.000009511162681e+00	 9.716308624010599e+00
0	 0.000000000000000e+00	 6.142869048474791e+00	 9.640272895848327e+00
0	 0.000000000000000e+00	 6.285728819120711e+00	 9.599843336034141e+00
0	 0.000000000000000e+00	 6.428588789766900e+00	 9.590716076381980e+00
0	 0.000000000000000e+00	 6.571448927079809e+00	 9.608587279597300e+00
0	 0.000000000000000e+00	 6.714309197725897e+00	 9.649153139276681e+00
0	 0.000000000000000e+00	 6.857169568371615e+00	 9.708109879907374e+00
0	 0.000000000000000e+00	 7.000030005683427e+00	 9.781153756867095e+00
0	 0.000000000000000e+00	 7.142890476327777e+00	 9.863981056423841e+00
0	 1.428576234225852e-01	 5.714291269874074e+00	 9.942659822899238e+00
0	 1.428576234225853e-01	 5.857150240517929e+00	 9.834142594043342e+00
0	 1.428576234225853e-01	 6.000009511162682e+00	 9.756630153728652e+00
0	 1.428576234225853e-01	 6.142869048474793e+00	 9.706982761253014e+00
0	 1.428576234225853e-01	 6.285728819120714e+00	 9.682060696400201e+00
0	 1.428576234225853e-01	 6.428588789766901e+00	 9.678724259439493e+00
0	 1.428576234225853e-01	 6.571448927079808e+00	 9.693833771125274e+00
0	 1.428576234225852e-01	 6.714309197725895e+00	 9.724249572696717e+00
0	 1.428576234225853e-01	 6.857169568371615e+00	 9.766832025877518e+00
0	 1.428576234225853e-01	 7.000030005683427e+00	 9.818441512875705e+00
0	 1.428576234225852e-01	 7.142890476327777e+00	 9.875938436383629e+00
0	 2.857161301906818e-01	 5.714291269874074e+00	 9.905812022646506e+00
0	 2.857161301906818e-01	 5.857150240517930e+00	 9.838365482741606e+00
0	 2.857161301906818e-01	 6.000009511162683e+00	 9.791066619671533e+00
0	 2.857161301906819e-01	 6.142869048474791e+00	 9.761801324245607e+00
0	 2.857161301906819e-01	 6.285728819120713e+00	 9.748455499706569e+00
0	 2.857161301906818e-01	 6.428588789766899e+00	 9.748915061730361e+00
0	 2.857161301906818e-01	 6.571448927079807e+00	 9.761065938425885e+00
0	 2.857161301906819e-01	 6.714309197725895e+00	 9.782794070334747e+00
0	 2.857161301906820e-01	 6.857169568371617e+00	 9.811985410431216e+00
0	 2.857161301906819e-01	 7.000030005683426e+00	 9.846525924122014e+00
0	 2.857161301906819e-01	 7.142890476327779e+00	 9.884301589246359e+00
0	 4.285754036348007e-01	 5.714291269874075e+00	 9.880166887064012e+00
0	 4.285754036348007e-01	 5.857150240517929e+00	 9.844347817849778e+00
0	 4.285754036348008e-01	 6.000009511162681e+00	 9.819975754535227e+00
0	 4.285754036348006e-01	 6.142869048474791e+00	 9.805823668413652e+00
0	 4.285754036348007e-01	 6.285728819120711e+00	 9.800664537239822e+00
0	 4.285754036348007e-01	 6.428588789766899e+00	 9.803271345229852e+00
0	 4.285754036348006e-01	 6.571448927079808e+00	 9.812417083061064e+00
0	 4.285754036348007e-01	 6.714309197725895e+00	 9.826874747871901e+00
0	 4.285754036348007e-01	 6.857169568371616e+00	 9.845417343261856e+00
0	 4.285754036348006e-01	 7.000030005683423e+00	 9.866817879291414e+00
0	 4.285754036348008e-01	 7.142890476327779e+00	 9.889849372482043e+00
0	 5.714353270854530e-01	 5.714291269874074e+00	 9.864020456885742e+00
0	 5.714353270854529e-01	 5.857150240517927e+00	 9.851514295584307e+00
0	 5.714353270854531e-01	 6.000009511162681e+00	 9.843715256925442e+00
0	 5.714353270854531e-01	 6.142869048474793e+00	 9.840144847710080e+00
0	 5.714353270854531e-01	 6.285728819120712e+00	 9.840324577035194e+00
0	 5.714353270854532e-01	 6.428588789766903e+00	 9.843775956293870e+00
0	 5.714353270854532e-01	 6.571448927079811e+00	 9.850020499175212e+00
0	 5.714353270854529e-01	 6.714309197725896e+00	 9.858579721664313e+00
0	 5.714353270854531e-01	 6.857169568371616e+00	 9.868975142042256e+00
0	 5.714353270854532e-01	 7.000030005683427e+00	 9.880728280886098e+00
0	 5.714353270854531e-01	 7.142890476327779e+00	 9.893360661068867e+00
0	 7.142957838731495e-01	 5.714291269874074e+00	 9.855668738345196e+00
0	 7.142957838731497e-01	 5.857150240517927e+00	 9.859289576224807e+00
0	 7.142957838731496e-01	 6.000009511162681e+00	 9.862642791360106e+00
0	 7.142957838731495e-01	 6.142869048474790e+00	 9.865859886455379e+00
0	 7.142957838731497e-01	 6.285728819120714e+00	 9.869072363878320e+00
0	 7.142957838731496e-01	 6.428588789766899e+00	 9.872411725660163e+00
0	 7.142957838731497e-01	 6.571448927079811e+00	 9.876009473495655e+00
0	 7.142957838731497e-01	 6.714309197725897e+00	 9.879997108743011e+00
0	 7.142957838731497e-01	 6.857169568371618e+00	 9.884506132424015e+00
0	 7.142957838731496e-01	 7.000030005683424e+00	 9.889668045224017e+00
0	 7.142957838731497e-01	 7.142890476327777e+00	 9.895614347491907e+00
0	 8.571566573284017e-01	 5.714291269874074e+00	 9.853407703177385e+00
0	 8.571566573284016e-01	 5.857150240517929e+00	 9.867098284116290e+00
0	 8.571566573284014e-01	 6.000009511162680e+00	 9.877115988271365e+00
0	 8.571566573284015e-01	 6.142869048474793e+00	 9.884063779339353e+00
0	 8.571566573284015e-01	 6.285728819120711e+00	 9.888544619306595e+00
0	 8.571566573284017e-01	 6.428588789766899e+00	 9.891161468449219e+00
0	 8.571566573284016e-01	 6.571448927079809e+00	 9.892517285333078e+00
0	 8.571566573284018e-01	 6.714309197725896e+00	 9.893215026813836e+00
0	 8.571566573284020e-01	 6.857169568371617e+00	 9.893857648037006e+00
0	 8.571566573284017e-01	 7.000030005683426e+00	 9.895048102437945e+00
0	 8.571566573284018e-01	 7.142890476327779e+00	 9.897389341741917e+00
0	 1.000017830781720e+00	 5.714291269874074e+00	 9.855533288620414e+00
0	 1.000017830781720e+00	 5.857150240517928e+00	 9.874365007670811e+00
0	 1.000017830781720e+00	 6.000009511162681e+00	 9.887492444007277e+00
0	 1.000017830781720e+00	 6.142869048474791e+00	 9.895851491422588e+00
0	 1.000017830781720e+00	 6.285728819120713e+00	 9.900378041610319e+00
0	 1.000017830781720e+00	 6.428588789766899e+00	 9.902007984164969e+00
0	 1.000017830781720e+00	 6.571448927079808e+00	 9.901677206581873e+00
0	 1.000017830781720e+00	 6.714309197725897e+00	 9.900321594257404e+00
0	 1.000017830781720e+00	 6.857169568371615e+00	 9.898877030488887e+00
0	 1.000017830781720e+00	 7.000030005683426e+00	 9.898279396474733e+00
0	 1.000017830781720e+00	 7.142890476327778e+00	 9.899464571314422e+00
0	 1.142879187563616e+00	 5.714291269874075e+00	 9.860341397416688e+00
0	 1.142879187563616e+00	 5.857150240517926e+00	 9.880514299368759e+00
0	 1.142879187563616e+00	 6.000009511162683e+00	 9.894129720832948e+00
0	 1.142879187563616e+00	 6.142869048474791e+00	 9.902317958137466e+00
0	 1.142879187563616e+00	 6.285728819120711e+00	 9.906209305833524e+00
0	 1.142879187563616e+00	 6.428588789766899e+00	 9.906934056695370e+00
0	 1.142879187563616e+00	 6.571448927079809e+00	 9.905622501720343e+00
0	 1.142879187563616e+00	 6.714309197725895e+00	 9.903404930128929e+00
0	 1.142879187563616e+00	 6.857169568371615e+00	 9.901411629364777e+00
0	 1.142879187563617e+00	 7.000030005683427e+00	 9.900772885094765e+00
0	 1.142879187563616e+00	 7.142890476327779e+00	 9.902618981208974e+00
0	 1.285740611004601e+00	 5.714291269874075e+00	 9.866127897813715e+00
0	 1.285740611004601e+00	 5.857150240517927e+00	 9.884970675759671e+00
0	 1.285740611004601e+00	 6.000009511162682e+00	 9.897385346931411e+00
0	 1.285740611004601e+00	 6.142869048474791e+00	 9.904558085288906e+00
0	 1.285740611004601e+00	 6.285728819120712e+00	 9.907675063774466e+00
0	 1.285740611004601e+00	 6.428588789766900e+00	 9.907922454312766e+00
0	 1.285740611004601e+00	 6.571448927079807e+00	 9.906486427810872e+00
0	 1.285740611004601e+00	 6.714309197725897e+00	 9.904553154158293e+00
0	 1.285740611004600e+00	 6.857169568371615e+00	 9.903308802227006e+00
0	 1.285740611004601e+00	 7.000030005683425e+00	 9.903939539871493e+00
0	 1.285740611004601e+00	 7.142890476327778e+00	 9.907631533928727e+00
0	 1.428601984435185e+00	 5.714291269874074e+00	 9.871188623564329e+00
0	 1.428601984435185e+00	 5.857150240517928e+00	 9.887158617462603e+00
0	 1.428601984435185e+00	 6.000009511162683e+00	 9.897616816403939e+00
0	 1.428601984435185e+00	 6.142869048474793e+00	 9.903666749054659e+00
0	 1.428601984435185e+00	 6.285728819120713e+00	 9.906411943985958e+00
0	 1.428601984435185e+00	 6.428588789766897e+00	 9.906955929674011e+00
0	 1.428601984435185e+00	 6.571448927079810e+00	 9.906402234499954e+00
0	 1.428601984435185e+00	 6.714309197725895e+00	 9.905854386749885e+00
0	 1.428601984435185e+00	 6.857169568371617e+00	 9.906415914614946e+00
0	 1.428601984435185e+00	 7.000030005683426e+00	 9.909190346191263e+00
0	 1.428601984435185e+00	 7.142890476327780e+00	 9.915281209480046e+00
0	 0.000000000000000e+00	 7.142890476327777e+00	 9.863981056423842e+00
0	 0.000000000000000e+00	 7.285740955271013e+00	 9.938026359185816e+00
0	 0.000000000000000e+00	 7.428591450879007e+00	 9.989605286873022e+00
0	 0.000000000000000e+00	 7.571441979817512e+00	 1.002171759588106e+01
0	 0.000000000000000e+00	 7.714292558752281e+00	 1.003736304882383e+01
0	 0.000000000000000e+00	 7.857143204349074e+00	 1.003954141453357e+01
0	 0.000000000000000e+00	 7.999993933273645e+00	 1.003125246806074e+01
0	 0.000000000000000e+00	 8.142844762191748e+00	 1.001549599067419e+01
0	 0.000000000000000e+00	 8.285695707769140e+00	 9.995271769860931e+00
0	 0.000000000000000e+00	 8.428546786671577e+00	 9.973579599326225e+00
0	 0.000000000000000e+00	 8.571398015564816e+00	 9.953419278993501e+00
0	 1.428576234225852e-01	 7.142890476327777e+00	 9.875938436383629e+00
0	 1.428576234225852e-01	 7.285740955271014e+00	 9.926998566711008e+00
0	 1.428576234225853e-01	 7.428591450879004e+00	 9.962831036266806e+00
0	 1.428576234225853e-01	 7.571441979817511e+00	 9.985583836624773e+00
0	 1.428576234225852e-01	 7.714292558752281e+00	 9.997404963203982e+00
0	 1.428576234225852e-01	 7.857143204349070e+00	 1.000044241526881e+01
0	 1.428576234225853e-01	 7.999993933273643e+00	 9.996844195928944e+00
0	 1.428576234225853e-01	 8.142844762191746e+00	 9.988758312139352e+00
0	 1.428576234225852e-01	 8.285695707769138e+00	 9.978332774700309e+00
0	 1.428576234225853e-01	 8.428546786671577e+00	 9.967715598257316e+00
0	 1.428576234225853e-01	 8.571398015564812e+00	 9.959054801301123e+00
0	 2.857161301906819e-01	 7.142890476327779e+00	 9.884301589246361e+00
0	 2.857161301906819e-01	 7.285740955271013e+00	 9.917825053808722e+00
0	 2.857161301906819e-01	 7.428591450879009e+00	 9.941958400090410e+00
0	 2.857161301906818e-01	 7.571441979817513e+00	 9.958103643825790e+00
0	 2.857161301906819e-01	 7.714292558752285e+00	 9.967662802872919e+00
0	 2.857161301906819e-01	 7.857143204349073e+00	 9.972037897213626e+00
0	 2.857161301906819e-01	 7.999993933273643e+00	 9.972630948953439e+00
0	 2.857161301906818e-01	 8.142844762191745e+00	 9.970843982321584e+00
0	 2.857161301906820e-01	 8.285695707769142e+00	 9.968079023671024e+00
0	 2.857161301906819e-01	 8.428546786671575e+00	 9.965738101478431e+00
0	 2.857161301906819e-01	 8.571398015564814e+00	 9.965223246344120e+00
0	 4.285754036348008e-01	 7.142890476327779e+00	 9.889849372482043e+00
0	 4.285754036348007e-01	 7.285740955271015e+00	 9.910616891465962e+00
0	 4.285754036348007e-01	 7.428591450879010e+00	 9.926554654960144e+00
0	 4.285754036348007e-01	 7.571441979817510e+00	 9.938424488306755e+00
0	 4.285754036348007e-01	 7.714292558752281e+00	 9.946988217814738e+00
0	 4.285754036348006e-01	 7.857143204349070e+00	 9.953007670759805e+00
0	 4.285754036348007e-01	 7.999993933273643e+00	 9.957244675384414e+00
0	 4.285754036348007e-01	 8.142844762191748e+00	 9.960461060897837e+00
0	 4.285754036348008e-01	 8.285695707769142e+00	 9.963418657476049e+00
0	 4.285754036348006e-01	 8.428546786671575e+00	 9.966879296261851e+00
0	 4.285754036348007e-01	 8.571398015564812e+00	 9.971604809364747e+00
0	 5.714353270854531e-01	 7.142890476327779e+00	 9.893360661068867e+00
0	 5.714353270854529e-01	 7.285740955271015e+00	 9.905485169243985e+00
0	 5.714353270854529e-01	 7.428591450879008e+00	 9.916187094826491e+00
0	 5.714353270854532e-01	 7.571441979817512e+00	 9.925693855196785e+00
0	 5.714353270854529e-01	 7.714292558752281e+00	 9.934232868022978e+00
0	 5.714353270854530e-01	 7.857143204349073e+00	 9.942031551260792e+00
0	 5.714353270854530e-01	 7.999993933273642e+00	 9.949317323153613e+00
0	 5.714353270854531e-01	 8.142844762191752e+00	 9.956317602232527e+00
0	 5.714353270854530e-01	 8.285695707769142e+00	 9.963259807316215e+00
0	 5.714353270854530e-01	 8.428546786671575e+00	 9.970371357511086e+00
0	 5.714353270854530e-01	 8.571398015564814e+00	 9.977879672211152e+00
0	 7.142957838731497e-01	 7.142890476327777e+00	 9.895614347491907e+00
0	 7.142957838731496e-01	 7.285740955271013e+00	 9.902540995276871e+00
0	 7.142957838731495e-01	 7.428591450879007e+00	 9.910423030972757e+00
0	 7.142957838731496e-01	 7.571441979817509e+00	 9.919059243930313e+00
0	 7.142957838731496e-01	 7.714292558752281e+00	 9.928248423499859e+00
0	 7.142957838731494e-01	 7.857143204349072e+00	 9.937789359031330e+00
0	 7.142957838731497e-01	 7.999993933273645e+00	 9.947480839874274e+00
0	 7.142957838731496e-01	 8.142844762191745e+00	 9.957121655377867e+00
0	 7.142957838731497e-01	 8.285695707769143e+00	 9.966510594890863e+00
0	 7.142957838731496e-01	 8.428546786671578e+00	 9.975446447761666e+00
0	 7.142957838731497e-01	 8.571398015564816e+00	 9.983728003338298e+00
0	 8.571566573284018e-01	 7.142890476327779e+00	 9.897389341741917e+00
0	 8.571566573284016e-01	 7.285740955271014e+00	 9.901895496270242e+00
0	 8.571566573284017e-01	 7.428591450879007e+00	 9.908829792013981e+00
0	 8.571566573284017e-01	 7.571441979817513e+00	 9.917668168246143e+00
0	 8.571566573284017e-01	 7.714292558752281e+00	 9.927886564255610e+00
0	 8.571566573284017e-01	 7.857143204349077e+00	 9.938960919347075e+00
0	 8.571566573284018e-01	 7.999993933273645e+00	 9.950367172841112e+00
0	 8.571566573284017e-01	 8.142844762191748e+00	 9.961581264074120e+00
0	 8.571566573284018e-01	 8.285695707769142e+00	 9.972079132398347e+00
0	 8.571566573284018e-01	 8.428546786671578e+00	 9.981336717181920e+00
0	 8.571566573284014e-01	 8.571398015564812e+00	 9.988829957808761e+00
0	 1.000017830781720e+00	 7.142890476327778e+00	 9.899464571314422e+00
0	 1.000017830781720e+00	 7.285740955271012e+00	 9.903659817500380e+00
0	 1.000017830781720e+00	 7.428591450879007e+00	 9.910974723895919e+00
0	 1.000017830781720e+00	 7.571441979817512e+00	 9.920668156186668e+00
0	 1.000017830781720e+00	 7.714292558752281e+00	 9.931998980307839e+00
0	 1.000017830781720e+00	 7.857143204349074e+00	 9.944226062444246e+00
0	 1.000017830781720e+00	 7.999993933273646e+00	 9.956608269030255e+00
0	 1.000017830781720e+00	 8.142844762191748e+00	 9.968404466749828e+00
0	 1.000017830781720e+00	 8.285695707769140e+00	 9.978873522536530e+00
0	 1.000017830781720e+00	 8.428546786671575e+00	 9.987274303573454e+00
0	 1.000017830781720e+00	 8.571398015564817e+00	 9.992865677293324e+00
0	 1.142879187563616e+00	 7.142890476327779e+00	 9.902618981208972e+00
0	 1.142879187563616e+00	 7.285740955271014e+00	 9.907945122813366e+00
0	 1.142879187563616e+00	 7.428591450879006e+00	 9.916425189894387e+00
0	 1.142879187563616e+00	 7.571441979817512e+00	 9.927206750097234e+00
0	 1.142879187563616e+00	 7.714292558752280e+00	 9.939437371681139e+00
0	 1.142879187563616e+00	 7.857143204349073e+00	 9.952264623519337e+00
0	 1.142879187563616e+00	 7.999993933273644e+00	 9.964836075099157e+00
0	 1.142879187563616e+00	 8.142844762191750e+00	 9.976299296521917e+00
0	 1.142879187563616e+00	 8.285695707769142e+00	 9.985801858502969e+00
0	 1.142879187563616e+00	 8.428546786671575e+00	 9.992491332371674e+00
0	 1.142879187563617e+00	 8.571398015564817e+00	 9.995515290071449e+00
0	 1.285740611004601e+00	 7.142890476327778e+00	 9.907631533928729e+00
0	 1.285740611004601e+00	 7.285740955271014e+00	 9.914862594624616e+00
0	 1.285740611004601e+00	 7.428591450879005e+00	 9.924748570614760e+00
0	 1.285740611004601e+00	 7.571441979817512e+00	 9.936431506625787e+00
0	 1.285740611004601e+00	 7.714292558752281e+00	 9.949053448406733e+00
0	 1.285740611004601e+00	 7.857143204349072e+00	 9.961756442729051e+00
0	 1.285740611004601e+00	 7.999993933273642e+00	 9.973682537386617e+00
0	 1.285740611004601e+00	 8.142844762191746e+00	 9.983973781195763e+00
0	 1.285740611004601e+00	 8.285695707769138e+00	 9.991772223995154e+00
0	 1.285740611004601e+00	 8.428546786671578e+00	 9.996219916645920e+00
0	 1.285740611004601e+00	 8.571398015564816e+00	 9.996458911031583e+00
0	 1.428601984435185e+00	 7.142890476327780e+00	 9.915281209480046e+00
0	 1.428601984435185e+00	 7.285740955271015e+00	 9.924523433918511e+00
0	 1.428601984435185e+00	 7.428591450879006e+00	 9.935512263991626e+00
0	 1.428601984435185e+00	 7.571441979817510e+00	 9.947489996722528e+00
0	 1.428601984435185e+00	 7.714292558752281e+00	 9.959698930522293e+00
0	 1.428601984435185e+00	 7.857143204349073e+00	 9.971381365189997e+00
0	 1.428601984435185e+00	 7.999993933273643e+00	 9.981779601912635e+00
0	 1.428601984435185e+00	 8.142844762191748e+00	 9.990135943265189e+00
0	 1.428601984435185e+00	 8.285695707769142e+00	 9.995692693210582e+00
0	 1.428601984435185e+00	 8.428546786671578e+00	 9.997692157099680e+00
0	 1.428601984435185e+00	 8.571398015564816e+00	 9.995376641671236e+00
0	 0.000000000000000e+00	 8.571398015564816e+00	 9.953419278993501e+00
0	 0.000000000000000e+00	 8.714259388995400e+00	 9.942054719324185e+00
0	 0.000000000000000e+00	 8.857120812436385e+00	 9.942427428946946e+00
0	 0.000000000000000e+00	 8.999982169218280e+00	 9.951049753314315e+00
0	 0.000000000000000e+00	 9.142843342671599e+00	 9.964434046738258e+00
0	 0.000000000000000e+00	 9.285704216126852e+00	 9.979092672389861e+00
0	 0.000000000000000e+00	 9.428564672914549e+00	 9.991538002299205e+00
0	 0.000000000000000e+00	 9.571424596365201e+00	 9.998282417355480e+00
0	 0.000000000000000e+00	 9.714283869809320e+00	 9.995838307306910e+00
0	 0.000000000000000e+00	 9.857142376577416e+00	 9.980718070761228e+00
0	 0.000000000000000e+00	 1.000000000000000e+01	 9.949434115185657e+00
0	 1.428576234225853e-01	 8.571398015564812e+00	 9.959054801301123e+00
0	 1.428576234225852e-01	 8.714259388995403e+00	 9.956376860539578e+00
0	 1.428576234225852e-01	 8.857120812436385e+00	 9.960663746071276e+00
0	 1.428576234225852e-01	 8.999982169218283e+00	 9.969495255511308e+00
0	 1.428576234225852e-01	 9.142843342671597e+00	 9.980451185425899e+00
0	 1.428576234225853e-01	 9.285704216126856e+00	 9.991111331332274e+00
0	 1.428576234225852e-01	 9.428564672914549e+00	 9.999055487698445e+00
0	 1.428576234225853e-01	 9.571424596365203e+00	 1.000186344794308e+01
0	 1.428576234225853e-01	 9.714283869809318e+00	 9.997115004435107e+00
0	 1.428576234225853e-01	 9.857142376577418e+00	 9.982389948493724e+00
0	 1.428576234225853e-01	 1.000000000000000e+01	 9.955268070387953e+00
0	 2.857161301906819e-01	 8.571398015564814e+00	 9.965223246344120e+00
0	 2.857161301906819e-01	 8.714259388995401e+00	 9.968230163305224e+00
0	 2.857161301906819e-01	 8.857120812436387e+00	 9.974525344752180e+00
0	 2.857161301906819e-01	 8.999982169218281e+00	 9.982617180226837e+00
0	 2.857161301906819e-01	 9.142843342671597e+00	 9.991014052004369e+00
0	 2.857161301906818e-01	 9.285704216126851e+00	 9.998224335093067e+00
0	 2.857161301906819e-01	 9.428564672914549e+00	 1.000275639723416e+01
0	 2.857161301906818e-01	 9.571424596365203e+00	 1.000311859890147e+01
0	 2.857161301906819e-01	 9.714283869809321e+00	 9.997819293300985e+00
0	 2.857161301906818e-01	 9.857142376577416e+00	 9.985366826370425e+00
0	 2.857161301906819e-01	 1.000000000000000e+01	 9.964269536778453e+00
0	 4.285754036348007e-01	 8.571398015564812e+00	 9.971604809364747e+00
0	 4.285754036348007e-01	 8.714259388995398e+00	 9.977748281480144e+00
0	 4.285754036348008e-01	 8.857120812436383e+00	 9.984486212701961e+00
0	 4.285754036348007e-01	 8.999982169218280e+00	 9.991116729757881e+00
0	 4.285754036348008e-01	 9.142843342671599e+00	 9.996937949027146e+00
0	 4.285754036348007e-01	 9.285704216126847e+00	 1.000124797654034e+01
0	 4.285754036348006e-01	 9.428564672914554e+00	 1.000334490797918e+01
0	 4.285754036348007e-01	 9.571424596365203e+00	 1.000252682867618e+01
0	 4.285754036348007e-01	 9.714283869809323e+00	 9.998091813614039e+00
0	 4.285754036348008e-01	 9.857142376577420e+00	 9.989337927425165e+00
0	 4.285754036348007e-01	 9.999999999999998e+00	 9.975563224390875e+00
0	 5.714353270854530e-01	 8.571398015564814e+00	 9.977879672211152e+00
0	 5.714353270854530e-01	 8.714259388995398e+00	 9.985064856664042e+00
0	 5.714353270854531e-01	 8.857120812436383e+00	 9.991020328188073e+00
0	 5.714353270854531e-01	 8.999982169218283e+00	 9.995695100770224e+00
0	 5.714353270854532e-01	 9.142843342671600e+00	 9.999038177548956e+00
0	 5.714353270854529e-01	 9.285704216126854e+00	 1.000099855081413e+01
0	 5.714353270854531e-01	 9.428564672914549e+00	 1.000152520200680e+01
0	 5.714353270854530e-01	 9.571424596365203e+00	 1.000056710171884e+01
0	 5.714353270854531e-01	 9.714283869809321e+00	 9.998073209692564e+00
0	 5.714353270854531e-01	 9.857142376577418e+00	 9.993992474819850e+00
0	 5.714353270854531e-01	 1.000000000000000e+01	 9.988273835141785e+00
0	 7.142957838731497e-01	 8.571398015564816e+00	 9.983728003338298e+00
0	 7.142957838731496e-01	 8.714259388995398e+00	 9.990313518198162e+00
0	 7.142957838731495e-01	 8.857120812436383e+00	 9.994601660033901e+00
0	 7.142957838731496e-01	 8.999982169218281e+00	 9.997053484298979e+00
0	 7.142957838731497e-01	 9.142843342671599e+00	 9.998130037125897e+00
0	 7.142957838731496e-01	 9.285704216126852e+00	 9.998292355326182e+00
0	 7.142957838731498e-01	 9.428564672914550e+00	 9.998001466390239e+00
0	 7.142957838731495e-01	 9.571424596365199e+00	 9.997718388486946e+00
0	 7.142957838731497e-01	 9.714283869809321e+00	 9.997904130463420e+00
0	 7.142957838731498e-01	 9.857142376577418e+00	 9.999019691844273e+00
0	 7.142957838731496e-01	 1.000000000000000e+01	 1.000152606283127e+01
0	 8.571566573284014e-01	 8.571398015564812e+00	 9.988829957808765e+00
0	 8.571566573284017e-01	 8.714259388995398e+00	 9.993627883166104e+00
0	 8.571566573284015e-01	 8.857120812436383e+00	 9.995704167619227e+00
0	 8.571566573284015e-01	 8.999982169218280e+00	 9.995893065748811e+00
0	 8.571566573284016e-01	 9.142843342671599e+00	 9.995028825815508e+00
0	 8.571566573284016e-01	 9.285704216126854e+00	 9.993945689759927e+00
0	 8.571566573284015e-01	 9.428564672914550e+00	 9.993477893202487e+00
0	 8.571566573284016e-01	 9.571424596365201e+00	 9.994459665443223e+00
0	 8.571566573284015e-01	 9.714283869809321e+00	 9.997725229461564e+00
0	 8.571566573284017e-01	 9.857142376577416e+00	 1.000410880191587e+01
0	 8.571566573284017e-01	 1.000000000000000e+01	 1.001444459314317e+01
0	 1.000017830781720e+00	 8.571398015564817e+00	 9.992865677293324e+00
0	 1.000017830781720e+00	 8.714259388995403e+00	 9.995141556394298e+00
0	 1.000017830781720e+00	 8.857120812436385e+00	 9.994801800880667e+00
0	 1.000017830781720e+00	 8.999982169218280e+00	 9.992915024894254e+00
0	 1.000017830781720e+00	 9.142843342671599e+00	 9.990549840176861e+00
0	 1.000017830781720e+00	 9.285704216126852e+00	 9.988774856070208e+00
0	 1.000017830781720e+00	 9.428564672914550e+00	 9.988658679515924e+00
0	 1.000017830781720e+00	 9.571424596365203e+00	 9.991269915055426e+00
0	 1.000017830781720e+00	 9.714283869809321e+00	 9.997677164829843e+00
0	 1.000017830781720e+00	 9.857142376577416e+00	 1.000894902857987e+01
0	 1.000017830781720e+00	 1.000000000000000e+01	 1.002615410364555e+01
0	 1.142879187563617e+00	 8.571398015564817e+00	 9.995515290071451e+00
0	 1.142879187563616e+00	 8.714259388995400e+00	 9.994988130452462e+00
0	 1.142879187563616e+00	 8.857120812436383e+00	 9.992368500312022e+00
0	 1.142879187563616e+00	 8.999982169218283e+00	 9.988820535879874e+00
0	 1.142879187563616e+00	 9.142843342671597e+00	 9.985508375270518e+00
0	 1.142879187563616e+00	 9.285704216126851e+00	 9.983596158483250e+00
0	 1.142879187563616e+00	 9.428564672914549e+00	 9.984248027402113e+00
0	 1.142879187563616e+00	 9.571424596365199e+00	 9.988628125796041e+00
0	 1.142879187563616e+00	 9.714283869809321e+00	 9.997900599318776e+00
0	 1.142879187563616e+00	 9.857142376577420e+00	 1.001322959550912e+01
0	 1.142879187563616e+00	 1.000000000000000e+01	 1.003577926379080e+01
0	 1.285740611004601e+00	 8.571398015564816e+00	 9.996458911031583e+00
0	 1.285740611004601e+00	 8.714259388995401e+00	 9.993301185653879e+00
0	 1.285740611004601e+00	 8.857120812436383e+00	 9.988878196964491e+00
0	 1.285740611004601e+00	 8.999982169218281e+00	 9.984310767220350e+00
0	 1.285740611004601e+00	 9.142843342671600e+00	 9.980719724658611e+00
0	 1.285740611004601e+00	 9.285704216126851e+00	 9.979225903496538e+00
0	 1.285740611004601e+00	 9.428564672914547e+00	 9.980950143931741e+00
0	 1.285740611004601e+00	 9.571424596365203e+00	 9.987013292142144e+00
0	 1.285740611004601e+00	 9.714283869809321e+00	 9.998536200286409e+00
0	 1.285740611004601e+00	 9.857142376577418e+00	 1.001663972650402e+01
0	 1.285740611004601e+00	 1.000000000000000e+01	 1.004244473491582e+01
0	 1.428601984435185e+00	 8.571398015564816e+00	 9.995376641671236e+00
0	 1.428601984435185e+00	 8.714259388995398e+00	 9.990214290055480e+00
0	 1.428601984435185e+00	 8.857120812436385e+00	 9.984804812446683e+00
0	 1.428601984435185e+00	 8.999982169218278e+00	 9.980086881800583e+00
0	 1.428601984435185e+00	 9.142843342671600e+00	 9.976999180404770e+00
0	 1.428601984435185e+00	 9.285704216126854e+00	 9.976480399878820e+00
0	 1.428601984435185e+00	 9.428564672914549e+00	 9.979469241174357e+00
0	 1.428601984435185e+00	 9.571424596365199e+00	 9.986904414575292e+00
0	 1.428601984435185e+00	 9.714283869809321e+00	 9.999724639698156e+00
0	 1.428601984435185e+00	 9.857142376577416e+00	 1.001886864549260e+01
0	 1.428601984435185e+00	 1.000000000000000e+01	 1.004527517024192e+01
0	 1.428601984435185e+00	 0.000000000000000e+00	 5.137980014421450e+00
0	 1.428601984435185e+00	 1.428576234225853e-01	 7.383735263169965e+00
0	 1.428601984435185e+00	 2.857161301906819e-01	 9.280098644511643e+00
0	 1.428601984435185e+00	 4.285754036348007e-01	 1.083397478830293e+01
0	 1.428601984435185e+00	 5.714353270854530e-01	 1.205226683876172e+01
0	 1.428601984435185e+00	 7.142957838731498e-01	 1.294187645457020e+01
0	 1.428601984435185e+00	 8.571566573284015e-01	 1.350970380895943e+01
0	 1.428601984435185e+00	 1.000017830781720e+00	 1.376264758977576e+01
0	 1.428601984435185e+00	 1.142879187563616e+00	 1.370760499952909e+01
0	 1.428601984435185e+00	 1.285740611004601e+00	 1.335147175542281e+01
0	 1.428601984435185e+00	 1.428601984435185e+00	 1.270114208936576e+01
0	 1.571453213328422e+00	 0.000000000000000e+00	 6.714473983063154e+00
0	 1.571453213328422e+00	 1.428576234225853e-01	 8.428562802427260e+00
0	 1.571453213328422e+00	 2.857161301906819e-01	 9.861827988847185e+00
0	 1.571453213328422e+00	 4.285754036348008e-01	 1.102182357404983e+01
0	 1.571453213328422e+00	 5.714353270854531e-01	 1.191610245973721e+01
0	 1.571453213328422e+00	 7.142957838731496e-01	 1.255221641766385e+01
0	 1.571453213328422e+00	 8.571566573284016e-01	 1.293771608970034e+01
0	 1.571453213328422e+00	 1.000017830781720e+00	 1.308015098788306e+01
0	 1.571453213328422e+00	 1.142879187563616e+00	 1.298706949445007e+01
0	 1.571453213328422e+00	 1.285740611004601e+00	 1.266601886186312e+01
0	 1.571453213328422e+00	 1.428601984435185e+00	 1.212454521281589e+01
0	 1.714304292230859e+00	 0.000000000000000e+00	 7.950662672582412e+00
0	 1.714304292230859e+00	 1.428576234225852e-01	 9.228917005537379e+00
0	 1.714304292230859e+00	 2.857161301906819e-01	 1.028405636491978e+01
0	 1.714304292230859e+00	 4.285754036348007e-01	 1.112408780962084e+01
0	 1.714304292230859e+00	 5.714353270854531e-01	 1.175701756457276e+01
0	 1.714304292230859e+00	 7.142957838731497e-01	 1.219085102080518e+01
0	 1.714304292230859e+00	 8.571566573284017e-01	 1.243359273549144e+01
0	 1.714304292230858e+00	 1.000017830781720e+00	 1.249324643198453e+01
0	 1.714304292230859e+00	 1.142879187563616e+00	 1.237781499984296e+01
0	 1.714304292230859e+00	 1.285740611004601e+00	 1.209530049484633e+01
0	 1.714304292230859e+00	 1.428601984435186e+00	 1.165370413900067e+01
0	 1.857155237808251e+00	 0.000000000000000e+00	 8.887406613211461e+00
0	 1.857155237808251e+00	 1.428576234225853e-01	 9.815449847568814e+00
0	 1.857155237808251e+00	 2.857161301906819e-01	 1.056835628350248e+01
0	 1.857155237808251e+00	 4.285754036348007e-01	 1.115438958981096e+01
0	 1.857155237808251e+00	 5.714353270854530e-01	 1.158181284338507e+01
0	 1.857155237808251e+00	 7.142957838731497e-01	 1.185888852924751e+01
0	 1.857155237808252e+00	 8.571566573284018e-01	 1.199387854058513e+01
0	 1.857155237808252e+00	 1.000017830781720e+00	 1.199504417877388e+01
0	 1.857155237808251e+00	 1.142879187563616e+00	 1.187064615339665e+01
0	 1.857155237808252e+00	 1.285740611004601e+00	 1.162894458225367e+01
0	 1.857155237808251e+00	 1.428601984435185e+00	 1.127819899136588e+01
0	 2.000006066726355e+00	 0.000000000000000e+00	 9.565566330004213e+00
0	 2.000006066726355e+00	 1.428576234225853e-01	 1.021881330075068e+01
0	 2.000006066726355e+00	 2.857161301906818e-01	 1.073630025396382e+01
0	 2.000006066726355e+00	 4.285754036348007e-01	 1.112635100867921e+01
0	 2.000006066726355e+00	 5.714353270854530e-01	 1.139728898559485e+01
0	 2.000006066726355e+00	 7.142957838731495e-01	 1.155743720709736e+01
0	 2.000006066726355e+00	 8.571566573284018e-01	 1.161511829728320e+01
0	 2.000006066726355e+00	 1.000017830781720e+00	 1.157865448197509e+01
0	 2.000006066726355e+00	 1.142879187563616e+00	 1.145636758873354e+01
0	 2.000006066726356e+00	 1.285740611004601e+00	 1.125657904686343e+01
0	 2.000006066726355e+00	 1.428601984435186e+00	 1.098760988741583e+01
0	 2.142856795650925e+00	 0.000000000000000e+00	 1.002600234283625e+01
0	 2.142856795650926e+00	 1.428576234225853e-01	 1.046965933447275e+01
0	 2.142856795650925e+00	 2.857161301906819e-01	 1.080946078426784e+01
0	 2.142856795650925e+00	 4.285754036348007e-01	 1.105359415954868e+01
0	 2.142856795650925e+00	 5.714353270854529e-01	 1.121024667992689e+01
0	 2.142856795650925e+00	 7.142957838731496e-01	 1.128760531731447e+01
0	 2.142856795650925e+00	 8.571566573284015e-01	 1.129385679593677e+01
0	 2.142856795650925e+00	 1.000017830781720e+00	 1.123718759234226e+01
0	 2.142856795650926e+00	 1.142879187563616e+00	 1.112578393540950e+01
0	 2.142856795650927e+00	 1.285740611004601e+00	 1.096783180635086e+01
0	 2.142856795650926e+00	 1.428601984435185e+00	 1.077151693871333e+01
0	 2.285707441247718e+00	 0.000000000000000e+00	 1.030957516640485e+01
0	 2.285707441247718e+00	 1.428576234225853e-01	 1.059863991528542e+01
0	 2.285707441247719e+00	 2.857161301906819e-01	 1.080941038097411e+01
0	 2.285707441247718e+00	 4.285754036348008e-01	 1.094974113500654e+01
0	 2.285707441247718e+00	 5.714353270854529e-01	 1.102748661441001e+01
0	 2.285707441247717e+00	 7.142957838731495e-01	 1.105050112171185e+01
0	 2.285707441247718e+00	 8.571566573284017e-01	 1.102663882494631e+01
0	 2.285707441247718e+00	 1.000017830781720e+00	 1.096375375765970e+01
0	 2.285707441247718e+00	 1.142879187563616e+00	 1.086969981891390e+01
0	 2.285707441247717e+00	 1.285740611004601e+00	 1.075233077328820e+01
0	 2.285707441247718e+00	 1.428601984435185e+00	 1.061950025087959e+01
0	 2.428558020182488e+00	 0.000000000000000e+00	 1.045714531022895e+01
0	 2.428558020182488e+00	 1.428576234225853e-01	 1.063640700689972e+01
0	 2.428558020182488e+00	 2.857161301906818e-01	 1.075772154923770e+01
0	 2.428558020182488e+00	 4.285754036348008e-01	 1.082841402690405e+01
0	 2.428558020182489e+00	 5.714353270854529e-01	 1.085580947637711e+01
0	 2.428558020182488e+00	 7.142957838731497e-01	 1.084723288095569e+01
0	 2.428558020182489e+00	 8.571566573284017e-01	 1.081000917076165e+01
0	 2.428558020182489e+00	 1.000017830781720e+00	 1.075146322274186e+01
0	 2.428558020182488e+00	 1.142879187563616e+00	 1.067891986066947e+01
0	 2.428558020182488e+00	 1.285740611004601e+00	 1.059970385514458e+01
0	 2.428558020182489e+00	 1.428601984435185e+00	 1.052113992359425e+01
0	 2.571408549120992e+00	 0.000000000000000e+00	 1.050957327864915e+01
0	 2.571408549120992e+00	 1.428576234225853e-01	 1.061361257018736e+01
0	 2.571408549120992e+00	 2.857161301906819e-01	 1.067596679280929e+01
0	 2.571408549120991e+00	 4.285754036348006e-01	 1.070323492635656e+01
0	 2.571408549120992e+00	 5.714353270854530e-01	 1.070201595246519e+01
0	 2.571408549120993e+00	 7.142957838731497e-01	 1.067890885456548e+01
0	 2.571408549120992e+00	 8.571566573284017e-01	 1.064051261788197e+01
0	 2.571408549120992e+00	 1.000017830781720e+00	 1.059342622943336e+01
0	 2.571408549120992e+00	 1.142879187563616e+00	 1.054424867803242e+01
0	 2.571408549120992e+00	 1.285740611004601e+00	 1.049957895428607e+01
0	 2.571408549120992e+00	 1.428601984435185e+00	 1.046601605059530e+01
0	 2.714259044728984e+00	 0.000000000000000e+00	 1.050771957082780e+01
0	 2.714259044728984e+00	 1.428576234225853e-01	 1.056090856318074e+01
0	 2.714259044728984e+00	 2.857161301906819e-01	 1.058571861403509e+01
0	 2.714259044728985e+00	 4.285754036348008e-01	 1.058782592374356e+01
0	 2.714259044728984e+00	 5.714353270854529e-01	 1.057290672861532e+01
0	 2.714259044728984e+00	 7.142957838731496e-01	 1.054663730091395e+01
0	 2.714259044728984e+00	 8.571566573284018e-01	 1.051469394885582e+01
0	 2.714259044728985e+00	 1.000017830781720e+00	 1.048275301660898e+01
0	 2.714259044728984e+00	 1.142879187563616e+00	 1.045649088429239e+01
0	 2.714259044728985e+00	 1.285740611004601e+00	 1.044158396797564e+01
0	 2.714259044728984e+00	 1.428601984435185e+00	 1.044370871967911e+01
0	 2.857109523672222e+00	 0.000000000000000e+00	 1.049244468074894e+01
0	 2.857109523672222e+00	 1.428576234225852e-01	 1.050894694107298e+01
0	 2.857109523672222e+00	 2.857161301906819e-01	 1.050854951385695e+01
0	 2.857109523672222e+00	 4.285754036348007e-01	 1.049580910870871e+01
0	 2.857109523672222e+00	 5.714353270854530e-01	 1.047528249007274e+01
0	 2.857109523672223e+00	 7.142957838731496e-01	 1.045152647722709e+01
0	 2.857109523672222e+00	 8.571566573284017e-01	 1.042909794428109e+01
0	 2.857109523672222e+00	 1.000017830781720e+00	 1.041255382017368e+01
0	 2.857109523672222e+00	 1.142879187563616e+00	 1.040645108867241e+01
0	 2.857109523672222e+00	 1.285740611004601e+00	 1.041534678837314e+01
0	 2.857109523672221e+00	 1.428601984435185e+00	 1.044379801270040e+01
0	 1.428601984435185e+00	 1.428601984435185e+00	 1.270114208936576e+01
0	 1.428601984435185e+00	 1.571453213328422e+00	 1.195903360346832e+01
0	 1.428601984435185e+00	 1.714304292230859e+00	 1.132079189099378e+01
0	 1.428601984435185e+00	 1.857155237808251e+00	 1.078331898275455e+01
0	 1.428601984435185e+00	 2.000006066726356e+00	 1.034351684576345e+01
0	 1.428601984435185e+00	 2.142856795650925e+00	 9.998287383232954e+00
0	 1.428601984435185e+00	 2.285707441247717e+00	 9.744532434574438e+00
0	 1.428601984435185e+00	 2.428558020182488e+00	 9.579153775397678e+00
0	 1.428601984435185e+00	 2.571408549120992e+00	 9.499053117510321e+00
0	 1.428601984435185e+00	 2.714259044728984e+00	 9.501132108917574e+00
0	 1.428601984435186e+00	 2.857109523672222e+00	 9.582292333821950e+00
0	 1.571453213328422e+00	 1.428601984435185e+00	 1.212454521281590e+01
0	 1.571453213328422e+00	 1.571453213328422e+00	 1.152077687290183e+01
0	 1.571453213328422e+00	 1.714304292230858e+00	 1.100557352072825e+01
0	 1.571453213328422e+00	 1.857155237808251e+00	 1.057571374526868e+01
0	 1.571453213328422e+00	 2.000006066726356e+00	 1.022797608362929e+01
0	 1.571453213328421e+00	 2.142856795650926e+00	 9.959139021048204e+00
0	 1.571453213328422e+00	 2.285707441247719e+00	 9.765980990894947e+00
0	 1.571453213328422e+00	 2.428558020182489e+00	 9.645280374669984e+00
0	 1.571453213328422e+00	 2.571408549120992e+00	 9.593815502004347e+00
0	 1.571453213328422e+00	 2.714259044728984e+00	 9.608364650659341e+00
0	 1.571453213328422e+00	 2.857109523672223e+00	 9.685706046526361e+00
0	 1.714304292230859e+00	 1.428601984435186e+00	 1.165370413900066e+01
0	 1.714304292230859e+00	 1.571453213328422e+00	 1.117338648218017e+01
0	 1.714304292230858e+00	 1.714304292230858e+00	 1.076711235607415e+01
0	 1.714304292230859e+00	 1.857155237808251e+00	 1.043159762610846e+01
0	 1.714304292230859e+00	 2.000006066726355e+00	 1.016355811693439e+01
0	 1.714304292230859e+00	 2.142856795650926e+00	 9.959709612428126e+00
0	 1.714304292230859e+00	 2.285707441247718e+00	 9.816767855690301e+00
0	 1.714304292230858e+00	 2.428558020182488e+00	 9.731448549045641e+00
0	 1.714304292230859e+00	 2.571408549120993e+00	 9.700467354042669e+00
0	 1.714304292230858e+00	 2.714259044728984e+00	 9.720539891453498e+00
0	 1.714304292230859e+00	 2.857109523672222e+00	 9.788381741273632e+00
0	 1.857155237808251e+00	 1.428601984435185e+00	 1.127819899136588e+01
0	 1.857155237808251e+00	 1.571453213328422e+00	 1.090699532973897e+01
0	 1.857155237808251e+00	 1.714304292230859e+00	 1.059616639620685e+01
0	 1.857155237808251e+00	 1.857155237808251e+00	 1.034242605113779e+01
0	 1.857155237808251e+00	 2.000006066726356e+00	 1.014248812432827e+01
0	 1.857155237808251e+00	 2.142856795650925e+00	 9.993066415002582e+00
0	 1.857155237808251e+00	 2.285707441247719e+00	 9.890874691812490e+00
0	 1.857155237808252e+00	 2.428558020182488e+00	 9.832626692836946e+00
0	 1.857155237808251e+00	 2.571408549120991e+00	 9.815036125581866e+00
0	 1.857155237808251e+00	 2.714259044728984e+00	 9.834816666979972e+00
0	 1.857155237808251e+00	 2.857109523672222e+00	 9.888681963390665e+00
0	 2.000006066726355e+00	 1.428601984435186e+00	 1.098760988741583e+01
0	 2.000006066726356e+00	 1.571453213328422e+00	 1.071173630753964e+01
0	 2.000006066726355e+00	 1.714304292230859e+00	 1.048349363358788e+01
0	 2.000006066726355e+00	 1.857155237808252e+00	 1.029965443951779e+01
0	 2.000006066726356e+00	 2.000006066726356e+00	 1.015699127797693e+01
0	 2.000006066726355e+00	 2.142856795650925e+00	 1.005227668030292e+01
0	 2.000006066726356e+00	 2.285707441247718e+00	 9.982283156523161e+00
0	 2.000006066726355e+00	 2.428558020182488e+00	 9.943783195354730e+00
0	 2.000006066726355e+00	 2.571408549120992e+00	 9.933549264204105e+00
0	 2.000006066726355e+00	 2.714259044728985e+00	 9.948353809167124e+00
0	 2.000006066726355e+00	 2.857109523672223e+00	 9.984969255028838e+00
0	 2.142856795650926e+00	 1.428601984435185e+00	 1.077151693871333e+01
0	 2.142856795650925e+00	 1.571453213328422e+00	 1.057774230106923e+01
0	 2.142856795650927e+00	 1.714304292230859e+00	 1.041985205396481e+01
0	 2.142856795650926e+00	 1.857155237808252e+00	 1.029473820370674e+01
0	 2.142856795650926e+00	 2.000006066726356e+00	 1.019929274356280e+01
0	 2.142856795650925e+00	 2.142856795650925e+00	 1.013040765376184e+01
0	 2.142856795650925e+00	 2.285707441247718e+00	 1.008497490149354e+01
0	 2.142856795650925e+00	 2.428558020182488e+00	 1.005988644090830e+01
0	 2.142856795650926e+00	 2.571408549120991e+00	 1.005203421311716e+01
0	 2.142856795650926e+00	 2.714259044728985e+00	 1.005831014619169e+01
0	 2.142856795650926e+00	 2.857109523672222e+00	 1.007560615516393e+01
0	 2.285707441247718e+00	 1.428601984435185e+00	 1.061950025087959e+01
0	 2.285707441247718e+00	 1.571453213328422e+00	 1.049514618934041e+01
0	 2.285707441247718e+00	 1.714304292230859e+00	 1.039599963637125e+01
0	 2.285707441247718e+00	 1.857155237808251e+00	 1.031913274945999e+01
0	 2.285707441247718e+00	 2.000006066726355e+00	 1.026161768028470e+01
0	 2.285707441247718e+00	 2.142856795650926e+00	 1.022052657471347e+01
0	 2.285707441247717e+00	 2.285707441247718e+00	 1.019293157280437e+01
0	 2.285707441247718e+00	 2.428558020182488e+00	 1.017590480880537e+01
0	 2.285707441247718e+00	 2.571408549120993e+00	 1.016651841115430e+01
0	 2.285707441247718e+00	 2.714259044728984e+00	 1.016184450247875e+01
0	 2.285707441247718e+00	 2.857109523672222e+00	 1.015895519959611e+01
0	 2.428558020182489e+00	 1.428601984435185e+00	 1.052113992359424e+01
0	 2.428558020182489e+00	 1.571453213328422e+00	 1.045408084489150e+01
0	 2.428558020182489e+00	 1.714304292230859e+00	 1.040269435312673e+01
0	 2.428558020182488e+00	 1.857155237808252e+00	 1.036429347582996e+01
0	 2.428558020182488e+00	 2.000006066726355e+00	 1.033619124085772e+01
0	 2.428558020182488e+00	 2.142856795650925e+00	 1.031570067639316e+01
0	 2.428558020182488e+00	 2.285707441247718e+00	 1.030013481094587e+01
0	 2.428558020182488e+00	 2.428558020182488e+00	 1.028680667335204e+01
0	 2.428558020182488e+00	 2.571408549120991e+00	 1.027302929277429e+01
0	 2.428558020182488e+00	 2.714259044728984e+00	 1.025611569870171e+01
0	 2.428558020182489e+00	 2.857109523672223e+00	 1.023337892094987e+01
0	 2.571408549120992e+00	 1.428601984435185e+00	 1.046601605059530e+01
0	 2.571408549120992e+00	 1.571453213328422e+00	 1.044467913378631e+01
0	 2.571408549120992e+00	 1.714304292230859e+00	 1.043069416983679e+01
0	 2.571408549120992e+00	 1.857155237808251e+00	 1.042167577516607e+01
0	 2.571408549120992e+00	 2.000006066726356e+00	 1.041523857151330e+01
0	 2.571408549120993e+00	 2.142856795650926e+00	 1.040899718593755e+01
0	 2.571408549120992e+00	 2.285707441247718e+00	 1.040056625081775e+01
0	 2.571408549120991e+00	 2.428558020182488e+00	 1.038756040385274e+01
0	 2.571408549120993e+00	 2.571408549120992e+00	 1.036759428806132e+01
0	 2.571408549120991e+00	 2.714259044728984e+00	 1.033828255178221e+01
0	 2.571408549120992e+00	 2.857109523672221e+00	 1.029723984867406e+01
0	 2.714259044728984e+00	 1.428601984435185e+00	 1.044370871967912e+01
0	 2.714259044728984e+00	 1.571453213328422e+00	 1.045707391561424e+01
0	 2.714259044728985e+00	 1.714304292230859e+00	 1.047075704539281e+01
0	 2.714259044728985e+00	 1.857155237808251e+00	 1.048273503311470e+01
0	 2.714259044728984e+00	 2.000006066726354e+00	 1.049098481199909e+01
0	 2.714259044728984e+00	 2.142856795650925e+00	 1.049348332438455e+01
0	 2.714259044728985e+00	 2.285707441247718e+00	 1.048820752172909e+01
0	 2.714259044728984e+00	 2.428558020182488e+00	 1.047313436461024e+01
0	 2.714259044728985e+00	 2.571408549120992e+00	 1.044624082272506e+01
0	 2.714259044728984e+00	 2.714259044728984e+00	 1.040550387489018e+01
0	 2.714259044728984e+00	 2.857109523672222e+00	 1.034890050904179e+01
0	 2.857109523672221e+00	 1.428601984435185e+00	 1.044379801270041e+01
0	 2.857109523672222e+00	 1.571453213328422e+00	 1.048139804349019e+01
0	 2.857109523672222e+00	 1.714304292230858e+00	 1.051364093197212e+01
0	 2.857109523672222e+00	 1.857155237808251e+00	 1.053892662861927e+01
0	 2.857109523672223e+00	 2.000006066726356e+00	 1.055565509557901e+01
0	 2.857109523672222e+00	 2.142856795650926e+00	 1.056222630667324e+01
0	 2.857109523672222e+00	 2.285707441247718e+00	 1.055704024739841e+01
0	 2.857109523672223e+00	 2.428558020182489e+00	 1.053849691492558e+01
0	 2.857109523672222e+00	 2.571408549120993e+00	 1.050499631810054e+01
0	 2.857109523672222e+00	 2.714259044728984e+00	 1.045493847744376e+01
0	 2.857109523672222e+00	 2.857109523672222e+00	 1.038672342515048e+01
0	 1.428601984435186e+00	 2.857109523672222e+00	 9.582292333821949e+00
0	 1.428601984435185e+00	 2.999969994316576e+00	 9.688647573213219e+00
0	 1.428601984435185e+00	 3.142830431628385e+00	 9.769981017619875e+00
0	 1.428601984435185e+00	 3.285690802274106e+00	 9.828723436341750e+00
0	 1.428601984435185e+00	 3.428551072920192e+00	 9.867305581479410e+00
0	 1.428601984435185e+00	 3.571411210233103e+00	 9.888158187934110e+00
0	 1.428601984435185e+00	 3.714271180879290e+00	 9.893711973407768e+00
0	 1.428601984435185e+00	 3.857130951525209e+00	 9.886397638402830e+00
0	 1.428601984435185e+00	 3.999990488837321e+00	 9.868645866222126e+00
0	 1.428601984435185e+00	 4.142849759482075e+00	 9.842887322968615e+00
0	 1.428601984435185e+00	 4.285708730125926e+00	 9.811552657545059e+00
0	 1.571453213328422e+00	 2.857109523672223e+00	 9.685706046526361e+00
0	 1.571453213328422e+00	 2.999969994316576e+00	 9.780940680488465e+00
0	 1.571453213328422e+00	 3.142830431628386e+00	 9.852819064313470e+00
0	 1.571453213328422e+00	 3.285690802274106e+00	 9.903616265146322e+00
0	 1.571453213328422e+00	 3.428551072920193e+00	 9.935607334593708e+00
0	 1.571453213328422e+00	 3.571411210233101e+00	 9.951067308724030e+00
0	 1.571453213328422e+00	 3.714271180879290e+00	 9.952271208067318e+00
0	 1.571453213328422e+00	 3.857130951525211e+00	 9.941494037615197e+00
0	 1.571453213328422e+00	 3.999990488837320e+00	 9.921010786820633e+00
0	 1.571453213328422e+00	 4.142849759482073e+00	 9.893096429597749e+00
0	 1.571453213328422e+00	 4.285708730125926e+00	 9.860025924321548e+00
0	 1.714304292230859e+00	 2.857109523672222e+00	 9.788381741273632e+00
0	 1.714304292230859e+00	 2.999969994316576e+00	 9.867893718611752e+00
0	 1.714304292230859e+00	 3.142830431628386e+00	 9.926558981409464e+00
0	 1.714304292230859e+00	 3.285690802274106e+00	 9.966485617291749e+00
0	 1.714304292230859e+00	 3.428551072920194e+00	 9.989781701025054e+00
0	 1.714304292230860e+00	 3.571411210233104e+00	 9.998555294517338e+00
0	 1.714304292230858e+00	 3.714271180879289e+00	 9.994914446818020e+00
0	 1.714304292230859e+00	 3.857130951525210e+00	 9.980967194117824e+00
0	 1.714304292230859e+00	 3.999990488837320e+00	 9.958821559748669e+00
0	 1.714304292230859e+00	 4.142849759482074e+00	 9.930585554183494e+00
0	 1.714304292230859e+00	 4.285708730125926e+00	 9.898367175035954e+00
0	 1.857155237808251e+00	 2.857109523672222e+00	 9.888681963390665e+00
0	 1.857155237808251e+00	 2.999969994316575e+00	 9.949017397293829e+00
0	 1.857155237808251e+00	 3.142830431628385e+00	 9.991676053557518e+00
0	 1.857155237808251e+00	 3.285690802274106e+00	 1.001858776342889e+01
0	 1.857155237808252e+00	 3.428551072920193e+00	 1.003168234873815e+01
0	 1.857155237808251e+00	 3.571411210233102e+00	 1.003288962189856e+01
0	 1.857155237808252e+00	 3.714271180879290e+00	 1.002413938590631e+01
0	 1.857155237808252e+00	 3.857130951525211e+00	 1.000736143434053e+01
0	 1.857155237808251e+00	 3.999990488837319e+00	 9.984485551363102e+00
0	 1.857155237808251e+00	 4.142849759482074e+00	 9.957441511718571e+00
0	 1.857155237808252e+00	 4.285708730125926e+00	 9.928159080733865e+00
0	 2.000006066726355e+00	 2.857109523672223e+00	 9.984969255028838e+00
0	 2.000006066726356e+00	 2.999969994316577e+00	 1.002382242356513e+01
0	 2.000006066726355e+00	 3.142830431628385e+00	 1.004864556314069e+01
0	 2.000006066726356e+00	 3.285690802274107e+00	 1.006117897228231e+01
0	 2.000006066726356e+00	 3.428551072920194e+00	 1.006316294404611e+01
0	 2.000006066726355e+00	 3.571411210233103e+00	 1.005633776601748e+01
0	 2.000006066726355e+00	 3.714271180879289e+00	 1.004244372031110e+01
0	 2.000006066726355e+00	 3.857130951525210e+00	 1.002322108357084e+01
0	 2.000006066726355e+00	 3.999990488837319e+00	 1.000041012696967e+01
0	 2.000006066726355e+00	 4.142849759482075e+00	 9.975751116209588e+00
0	 2.000006066726355e+00	 4.285708730125926e+00	 9.950984311521491e+00
0	 2.142856795650926e+00	 2.857109523672222e+00	 1.007560615516393e+01
0	 2.142856795650925e+00	 2.999969994316576e+00	 1.009181950177565e+01
0	 2.142856795650925e+00	 3.142830431628386e+00	 1.009794279027544e+01
0	 2.142856795650925e+00	 3.285690802274106e+00	 1.009551551065026e+01
0	 2.142856795650926e+00	 3.428551072920193e+00	 1.008607715161035e+01
0	 2.142856795650925e+00	 3.571411210233102e+00	 1.007116720058926e+01
0	 2.142856795650925e+00	 3.714271180879290e+00	 1.005232514374378e+01
0	 2.142856795650925e+00	 3.857130951525211e+00	 1.003109046595393e+01
0	 2.142856795650926e+00	 3.999990488837319e+00	 1.000900265082290e+01
0	 2.142856795650925e+00	 4.142849759482074e+00	 9.987601180677022e+00
0	 2.142856795650926e+00	 4.285708730125926e+00	 9.968425536565690e+00
0	 2.285707441247718e+00	 2.857109523672222e+00	 1.015895519959611e+01
0	 2.285707441247718e+00	 2.999969994316576e+00	 1.015251933359500e+01
0	 2.285707441247718e+00	 3.142830431628385e+00	 1.014004301281162e+01
0	 2.285707441247718e+00	 3.285690802274106e+00	 1.012285364340463e+01
0	 2.285707441247718e+00	 3.428551072920193e+00	 1.010227863444066e+01
0	 2.285707441247719e+00	 3.571411210233103e+00	 1.007964539789431e+01
0	 2.285707441247718e+00	 3.714271180879290e+00	 1.005628134864814e+01
0	 2.285707441247718e+00	 3.857130951525210e+00	 1.003351390449262e+01
0	 2.285707441247717e+00	 3.999990488837320e+00	 1.001267048612617e+01
0	 2.285707441247718e+00	 4.142849759482075e+00	 9.995078517155163e+00
0	 2.285707441247718e+00	 4.285708730125926e+00	 9.982065424093916e+00
0	 2.428558020182489e+00	 2.857109523672223e+00	 1.023337892094987e+01
0	 2.428558020182488e+00	 2.999969994316576e+00	 1.020543261801229e+01
0	 2.428558020182489e+00	 3.142830431628386e+00	 1.017542150633239e+01
0	 2.428558020182488e+00	 3.285690802274105e+00	 1.014444963349096e+01
0	 2.428558020182489e+00	 3.428551072920194e+00	 1.011362105389515e+01
0	 2.428558020182488e+00	 3.571411210233103e+00	 1.008403982877838e+01
0	 2.428558020182488e+00	 3.714271180879290e+00	 1.005681002620042e+01
0	 2.428558020182489e+00	 3.857130951525211e+00	 1.003303572104736e+01
0	 2.428558020182488e+00	 3.999990488837320e+00	 1.001382099503165e+01
0	 2.428558020182488e+00	 4.142849759482074e+00	 1.000026993669215e+01
0	 2.428558020182488e+00	 4.285708730125926e+00	 9.993486641394263e+00
0	 2.571408549120992e+00	 2.857109523672221e+00	 1.029723984867406e+01
0	 2.571408549120992e+00	 2.999969994316576e+00	 1.025007005133617e+01
0	 2.571408549120993e+00	 3.142830431628386e+00	 1.020455354415423e+01
0	 2.571408549120993e+00	 3.285690802274106e+00	 1.016155974192840e+01
0	 2.571408549120992e+00	 3.428551072920193e+00	 1.012195806968019e+01
0	 2.571408549120992e+00	 3.571411210233103e+00	 1.008661796265244e+01
0	 2.571408549120992e+00	 3.714271180879290e+00	 1.005640886630928e+01
0	 2.571408549120992e+00	 3.857130951525210e+00	 1.003220023633625e+01
0	 2.571408549120992e+00	 3.999990488837320e+00	 1.001486153864030e+01
0	 2.571408549120992e+00	 4.142849759482074e+00	 1.000526224934995e+01
0	 2.571408549120992e+00	 4.285708730125926e+00	 1.000427185481539e+01
0	 2.714259044728984e+00	 2.857109523672222e+00	 1.034890050904179e+01
0	 2.714259044728984e+00	 2.999969994316575e+00	 1.028594232719477e+01
0	 2.714259044728984e+00	 3.142830431628386e+00	 1.022791439732693e+01
0	 2.714259044728984e+00	 3.285690802274106e+00	 1.017544022780969e+01
0	 2.714259044728985e+00	 3.428551072920193e+00	 1.012914333985049e+01
0	 2.714259044728985e+00	 3.571411210233103e+00	 1.008964726749272e+01
0	 2.714259044728984e+00	 3.714271180879289e+00	 1.005757555761575e+01
0	 2.714259044728984e+00	 3.857130951525210e+00	 1.003355176993497e+01
0	 2.714259044728984e+00	 3.999990488837320e+00	 1.001819947700190e+01
0	 2.714259044728985e+00	 4.142849759482074e+00	 1.001214226420434e+01
0	 2.714259044728984e+00	 4.285708730125926e+00	 1.001600372976658e+01
0	 2.857109523672222e+00	 2.857109523672222e+00	 1.038672342515048e+01
0	 2.857109523672222e+00	 2.999969994316576e+00	 1.031256013653572e+01
0	 2.857109523672223e+00	 3.142830431628385e+00	 1.024597933463354e+01
0	 2.857109523672222e+00	 3.285690802274106e+00	 1.018734734830114e+01
0	 2.857109523672222e+00	 3.428551072920193e+00	 1.013703052080898e+01
0	 2.857109523672223e+00	 3.571411210233103e+00	 1.009539520984072e+01
0	 2.857109523672222e+00	 3.714271180879290e+00	 1.006280778749327e+01
0	 2.857109523672222e+00	 3.857130951525211e+00	 1.003963464027682e+01
0	 2.857109523672222e+00	 3.999990488837320e+00	 1.002624216911497e+01
0	 2.857109523672223e+00	 4.142849759482074e+00	 1.002299678934494e+01
0	 2.857109523672222e+00	 4.285708730125926e+00	 1.003026493071772e+01
0	 1.428601984435185e+00	 4.285708730125926e+00	 9.811552657545059e+00
0	 1.428601984435185e+00	 4.428567384102075e+00	 9.784520854483794e+00
0	 1.428601984435185e+00	 4.571425771410667e+00	 9.769004666668778e+00
0	 1.428601984435185e+00	 4.714283958718593e+00	 9.763435374347585e+00
0	 1.428601984435186e+00	 4.857142012692743e+00	 9.766244246724437e+00
0	 1.428601984435185e+00	 5.000000000000001e+00	 9.775862541959832e+00
0	 1.428601984435185e+00	 5.142857987307260e+00	 9.790721507170515e+00
0	 1.428601984435185e+00	 5.285716041281408e+00	 9.809252378429317e+00
0	 1.428601984435185e+00	 5.428574228589335e+00	 9.829886380765124e+00
0	 1.428601984435185e+00	 5.571432615897926e+00	 9.851054728163014e+00
0	 1.428601984435185e+00	 5.714291269874074e+00	 9.871188623564329e+00
0	 1.571453213328422e+00	 4.285708730125926e+00	 9.860025924321548e+00
0	 1.571453213328422e+00	 4.428567384102075e+00	 9.830908316221874e+00
0	 1.571453213328422e+00	 4.571425771410668e+00	 9.812400310308824e+00
0	 1.571453213328422e+00	 4.714283958718593e+00	 9.803098335003734e+00
0	 1.571453213328422e+00	 4.857142012692742e+00	 9.801598808101692e+00
0	 1.571453213328422e+00	 5.000000000000001e+00	 9.806498136771268e+00
0	 1.571453213328422e+00	 5.142857987307262e+00	 9.816392717554333e+00
0	 1.571453213328422e+00	 5.285716041281408e+00	 9.829878936365928e+00
0	 1.571453213328422e+00	 5.428574228589334e+00	 9.845553168494281e+00
0	 1.571453213328422e+00	 5.571432615897931e+00	 9.862011778600763e+00
0	 1.571453213328422e+00	 5.714291269874074e+00	 9.877851120720047e+00
0	 1.714304292230859e+00	 4.285708730125926e+00	 9.898367175035954e+00
0	 1.714304292230860e+00	 4.428567384102076e+00	 9.869981482379274e+00
0	 1.714304292230859e+00	 4.571425771410667e+00	 9.851009599769469e+00
0	 1.714304292230859e+00	 4.714283958718593e+00	 9.840208603373453e+00
0	 1.714304292230858e+00	 4.857142012692743e+00	 9.836335559989161e+00
0	 1.714304292230859e+00	 5.000000000000002e+00	 9.838147527045450e+00
0	 1.714304292230859e+00	 5.142857987307260e+00	 9.844401552601806e+00
0	 1.714304292230859e+00	 5.285716041281409e+00	 9.853854675348281e+00
0	 1.714304292230859e+00	 5.428574228589334e+00	 9.865263924605394e+00
0	 1.714304292230859e+00	 5.571432615897928e+00	 9.877386320324154e+00
0	 1.714304292230859e+00	 5.714291269874075e+00	 9.888978873086163e+00
0	 1.857155237808252e+00	 4.285708730125926e+00	 9.928159080733865e+00
0	 1.857155237808251e+00	 4.428567384102076e+00	 9.902761838025622e+00
0	 1.857155237808251e+00	 4.571425771410667e+00	 9.885362344396544e+00
0	 1.857155237808252e+00	 4.714283958718594e+00	 9.874873824290173e+00
0	 1.857155237808251e+00	 4.857142012692741e+00	 9.870209494684065e+00
0	 1.857155237808251e+00	 5.000000000000002e+00	 9.870282565089633e+00
0	 1.857155237808252e+00	 5.142857987307262e+00	 9.874006237551946e+00
0	 1.857155237808251e+00	 5.285716041281407e+00	 9.880293706649613e+00
0	 1.857155237808252e+00	 5.428574228589336e+00	 9.888058159494676e+00
0	 1.857155237808251e+00	 5.571432615897928e+00	 9.896212775732634e+00
0	 1.857155237808252e+00	 5.714291269874074e+00	 9.903670727542476e+00
0	 2.000006066726355e+00	 4.285708730125926e+00	 9.950984311521491e+00
0	 2.000006066726355e+00	 4.428567384102075e+00	 9.930270867326843e+00
0	 2.000006066726355e+00	 4.571425771410667e+00	 9.915988352660541e+00
0	 2.000006066726355e+00	 4.714283958718594e+00	 9.907201641736375e+00
0	 2.000006066726355e+00	 4.857142012692742e+00	 9.902975603656090e+00
0	 2.000006066726355e+00	 5.000000000000000e+00	 9.902375102409209e+00
0	 2.000006066726355e+00	 5.142857987307261e+00	 9.904464996872923e+00
0	 2.000006066726355e+00	 5.285716041281410e+00	 9.908310140811903e+00
0	 2.000006066726356e+00	 5.428574228589337e+00	 9.912975382878287e+00
0	 2.000006066726356e+00	 5.571432615897928e+00	 9.917525566611612e+00
0	 2.000006066726356e+00	 5.714291269874075e+00	 9.921025530438785e+00
0	 2.142856795650926e+00	 4.285708730125926e+00	 9.968425536565690e+00
0	 2.142856795650926e+00	 4.428567384102076e+00	 9.953530053545096e+00
0	 2.142856795650925e+00	 4.571425771410667e+00	 9.943417432156622e+00
0	 2.142856795650925e+00	 4.714283958718593e+00	 9.937299698843550e+00
0	 2.142856795650926e+00	 4.857142012692742e+00	 9.934388877547374e+00
0	 2.142856795650925e+00	 5.000000000000001e+00	 9.933896989707664e+00
0	 2.142856795650926e+00	 5.142857987307262e+00	 9.935036054261998e+00
0	 2.142856795650926e+00	 5.285716041281409e+00	 9.937018087645804e+00
0	 2.142856795650926e+00	 5.428574228589335e+00	 9.939055103792292e+00
0	 2.142856795650926e+00	 5.571432615897929e+00	 9.940359114132420e+00
0	 2.142856795650925e+00	 5.714291269874074e+00	 9.940142127594793e+00
0	 2.285707441247718e+00	 4.285708730125926e+00	 9.982065424093916e+00
0	 2.285707441247718e+00	 4.428567384102075e+00	 9.973560879038789e+00
0	 2.285707441247718e+00	 4.571425771410667e+00	 9.968179389604629e+00
0	 2.285707441247718e+00	 4.714283958718593e+00	 9.965275637892191e+00
0	 2.285707441247718e+00	 4.857142012692743e+00	 9.964204306172475e+00
0	 2.285707441247717e+00	 5.000000000000001e+00	 9.964320076886565e+00
0	 2.285707441247719e+00	 5.142857987307262e+00	 9.964977632645599e+00
0	 2.285707441247718e+00	 5.285716041281411e+00	 9.965531656230647e+00
0	 2.285707441247718e+00	 5.428574228589335e+00	 9.965336830592666e+00
0	 2.285707441247718e+00	 5.571432615897928e+00	 9.963747838852367e+00
0	 2.285707441247718e+00	 5.714291269874074e+00	 9.960119364300168e+00
0	 2.428558020182488e+00	 4.285708730125926e+00	 9.993486641394263e+00
0	 2.428558020182488e+00	 4.428567384102074e+00	 9.991384825262585e+00
0	 2.428558020182488e+00	 4.571425771410667e+00	 9.990804030849016e+00
0	 2.428558020182488e+00	 4.714283958718593e+00	 9.991237100311782e+00
0	 2.428558020182488e+00	 4.857142012692741e+00	 9.992176878518391e+00
0	 2.428558020182489e+00	 5.000000000000002e+00	 9.993116213045575e+00
0	 2.428558020182488e+00	 5.142857987307261e+00	 9.993547954179244e+00
0	 2.428558020182487e+00	 5.285716041281407e+00	 9.992964954914452e+00
0	 2.428558020182488e+00	 5.428574228589335e+00	 9.990860070955254e+00
0	 2.428558020182488e+00	 5.571432615897928e+00	 9.986726160714676e+00
0	 2.428558020182488e+00	 5.714291269874074e+00	 9.980056085314542e+00
0	 2.571408549120992e+00	 4.285708730125926e+00	 1.000427185481539e+01
0	 2.571408549120992e+00	 4.428567384102076e+00	 1.000802337276735e+01
0	 2.571408549120992e+00	 4.571425771410667e+00	 1.001182116085891e+01
0	 2.571408549120992e+00	 4.714283958718593e+00	 1.001529172668080e+01
0	 2.571408549120993e+00	 4.857142012692743e+00	 1.001806158274454e+01
0	 2.571408549120992e+00	 5.000000000000002e+00	 1.001975724648243e+01
0	 2.571408549120992e+00	 5.142857987307260e+00	 1.002000524024759e+01
0	 2.571408549120992e+00	 5.285716041281410e+00	 1.001843209131388e+01
0	 2.571408549120992e+00	 5.428574228589335e+00	 1.001466433187583e+01
0	 2.571408549120991e+00	 5.571432615897927e+00	 1.000832849904852e+01
0	 2.571408549120992e+00	 5.714291269874074e+00	 9.999051134867413e+00
0	 2.714259044728984e+00	 4.285708730125926e+00	 1.001600372976658e+01
0	 2.714259044728984e+00	 4.428567384102075e+00	 1.002449800120018e+01
0	 2.714259044728985e+00	 4.571425771410668e+00	 1.003176058372807e+01
0	 2.714259044728985e+00	 4.714283958718593e+00	 1.003754715672672e+01
0	 2.714259044728984e+00	 4.857142012692742e+00	 1.004161340618274e+01
0	 2.714259044728985e+00	 5.000000000000001e+00	 1.004371502469294e+01
0	 2.714259044728984e+00	 5.142857987307259e+00	 1.004360771146437e+01
0	 2.714259044728984e+00	 5.285716041281410e+00	 1.004104717231428e+01
0	 2.714259044728984e+00	 5.428574228589335e+00	 1.003578911967002e+01
0	 2.714259044728985e+00	 5.571432615897929e+00	 1.002758927256895e+01
0	 2.714259044728984e+00	 5.714291269874074e+00	 1.001620335665824e+01
0	 2.857109523672222e+00	 4.285708730125926e+00	 1.003026493071772e+01
0	 2.857109523672222e+00	 4.428567384102073e+00	 1.004183018930439e+01
0	 2.857109523672223e+00	 4.571425771410668e+00	 1.005115210267488e+01
0	 2.857109523672222e+00	 4.714283958718593e+00	 1.005811102932598e+01
0	 2.857109523672223e+00	 4.857142012692742e+00	 1.006258733533724e+01
0	 2.857109523672222e+00	 5.000000000000001e+00	 1.006446139437098e+01
0	 2.857109523672222e+00	 5.142857987307261e+00	 1.006361358767243e+01
0	 2.857109523672222e+00	 5.285716041281408e+00	 1.005992430406962e+01
0	 2.857109523672222e+00	 5.428574228589336e+00	 1.005327393997333e+01
0	 2.857109523672222e+00	 5.571432615897928e+00	 1.004354289937697e+01
0	 2.857109523672222e+00	 5.714291269874074e+00	 1.003061159385640e+01
0	 1.428601984435185e+00	 5.714291269874074e+00	 9.871188623564329e+00
0	 1.428601984435185e+00	 5.857150240517928e+00	 9.887158617462600e+00
0	 1.428601984435185e+00	 6.000009511162683e+00	 9.897616816403939e+00
0	 1.428601984435185e+00	 6.142869048474793e+00	 9.903666749054659e+00
0	 1.428601984435185e+00	 6.285728819120713e+00	 9.906411943985960e+00
0	 1.428601984435185e+00	 6.428588789766897e+00	 9.906955929674011e+00
0	 1.428601984435185e+00	 6.571448927079810e+00	 9.906402234499955e+00
0	 1.428601984435185e+00	 6.714309197725895e+00	 9.905854386749885e+00
0	 1.428601984435185e+00	 6.857169568371617e+00	 9.906415914614943e+00
0	 1.428601984435185e+00	 7.000030005683426e+00	 9.909190346191263e+00
0	 1.428601984435185e+00	 7.142890476327780e+00	 9.915281209480044e+00
0	 1.571453213328422e+00	 5.714291269874074e+00	 9.877851120720047e+00
0	 1.571453213328422e+00	 5.857150240517929e+00	 9.890435514592095e+00
0	 1.571453213328422e+00	 6.000009511162682e+00	 9.898702532557634e+00
0	 1.571453213328421e+00	 6.142869048474790e+00	 9.903608400154337e+00
0	 1.571453213328422e+00	 6.285728819120711e+00	 9.906109343682274e+00
0	 1.571453213328422e+00	 6.428588789766901e+00	 9.907161590203900e+00
0	 1.571453213328422e+00	 6.571448927079809e+00	 9.907721367544070e+00
0	 1.571453213328422e+00	 6.714309197725895e+00	 9.908744904289984e+00
0	 1.571453213328422e+00	 6.857169568371619e+00	 9.911188429791313e+00
0	 1.571453213328422e+00	 7.000030005683425e+00	 9.916008174160098e+00
0	 1.571453213328422e+00	 7.142890476327778e+00	 9.924160368270829e+00
0	 1.714304292230859e+00	 5.714291269874075e+00	 9.888978873086163e+00
0	 1.714304292230859e+00	 5.857150240517928e+00	 9.898007778946543e+00
0	 1.714304292230859e+00	 6.000009511162682e+00	 9.903813302516561e+00
0	 1.714304292230859e+00	 6.142869048474791e+00	 9.907213551316389e+00
0	 1.714304292230859e+00	 6.285728819120713e+00	 9.909026634374808e+00
0	 1.714304292230859e+00	 6.428588789766902e+00	 9.910070662229192e+00
0	 1.714304292230859e+00	 6.571448927079810e+00	 9.911163746925499e+00
0	 1.714304292230859e+00	 6.714309197725897e+00	 9.913124002018233e+00
0	 1.714304292230859e+00	 6.857169568371616e+00	 9.916769542570497e+00
0	 1.714304292230859e+00	 7.000030005683427e+00	 9.922918485153966e+00
0	 1.714304292230858e+00	 7.142890476327779e+00	 9.932388947848859e+00
0	 1.857155237808252e+00	 5.714291269874074e+00	 9.903670727542476e+00
0	 1.857155237808251e+00	 5.857150240517927e+00	 9.909073215412757e+00
0	 1.857155237808251e+00	 6.000009511162682e+00	 9.912245444215149e+00
0	 1.857155237808251e+00	 6.142869048474791e+00	 9.913876588710711e+00
0	 1.857155237808251e+00	 6.285728819120710e+00	 9.914655825803452e+00
0	 1.857155237808252e+00	 6.428588789766900e+00	 9.915272334540335e+00
0	 1.857155237808251e+00	 6.571448927079809e+00	 9.916415296111211e+00
0	 1.857155237808251e+00	 6.714309197725896e+00	 9.918773893848831e+00
0	 1.857155237808252e+00	 6.857169568371618e+00	 9.923037313228814e+00
0	 1.857155237808251e+00	 7.000030005683427e+00	 9.929894741869662e+00
0	 1.857155237808251e+00	 7.142890476327776e+00	 9.940035369532765e+00
0	 2.000006066726356e+00	 5.714291269874075e+00	 9.921025530438785e+00
0	 2.000006066726355e+00	 5.857150240517928e+00	 9.922829628451000e+00
0	 2.000006066726354e+00	 6.000009511162681e+00	 9.923295275279447e+00
0	 2.000006066726356e+00	 6.142869048474791e+00	 9.922991898325298e+00
0	 2.000006066726355e+00	 6.285728819120711e+00	 9.922488927654484e+00
0	 2.000006066726355e+00	 6.428588789766899e+00	 9.922355795997811e+00
0	 2.000006066726355e+00	 6.571448927079810e+00	 9.923161938750804e+00
0	 2.000006066726356e+00	 6.714309197725895e+00	 9.925476793973729e+00
0	 2.000006066726355e+00	 6.857169568371618e+00	 9.929869802391551e+00
0	 2.000006066726356e+00	 7.000030005683427e+00	 9.936910407393947e+00
0	 2.000006066726356e+00	 7.142890476327779e+00	 9.947168055035283e+00
0	 2.142856795650925e+00	 5.714291269874074e+00	 9.940142127594793e+00
0	 2.142856795650925e+00	 5.857150240517930e+00	 9.938474822095014e+00
0	 2.142856795650925e+00	 6.000009511162682e+00	 9.936259113027219e+00
0	 2.142856795650924e+00	 6.142869048474789e+00	 9.933953865966242e+00
0	 2.142856795650926e+00	 6.285728819120711e+00	 9.932017949560533e+00
0	 2.142856795650925e+00	 6.428588789766899e+00	 9.930910235532107e+00
0	 2.142856795650925e+00	 6.571448927079810e+00	 9.931089598676483e+00
0	 2.142856795650925e+00	 6.714309197725895e+00	 9.933014916862664e+00
0	 2.142856795650924e+00	 6.857169568371615e+00	 9.937145071033058e+00
0	 2.142856795650925e+00	 7.000030005683426e+00	 9.943938945203513e+00
0	 2.142856795650926e+00	 7.142890476327779e+00	 9.953855426463299e+00
0	 2.285707441247718e+00	 5.714291269874074e+00	 9.960119364300168e+00
0	 2.285707441247718e+00	 5.857150240517929e+00	 9.955206599952021e+00
0	 2.285707441247718e+00	 6.000009511162681e+00	 9.950433274467819e+00
0	 2.285707441247718e+00	 6.142869048474792e+00	 9.946156877257730e+00
0	 2.285707441247718e+00	 6.285728819120712e+00	 9.942734901100572e+00
0	 2.285707441247717e+00	 6.428588789766896e+00	 9.940524842143711e+00
0	 2.285707441247718e+00	 6.571448927079809e+00	 9.939884199903096e+00
0	 2.285707441247718e+00	 6.714309197725896e+00	 9.941170477263142e+00
0	 2.285707441247718e+00	 6.857169568371615e+00	 9.944741180476688e+00
0	 2.285707441247718e+00	 7.000030005683426e+00	 9.950953819165012e+00
0	 2.285707441247717e+00	 7.142890476327776e+00	 9.960165906317796e+00
0	 2.428558020182488e+00	 5.714291269874074e+00	 9.980056085314542e+00
0	 2.428558020182488e+00	 5.857150240517927e+00	 9.972222765202641e+00
0	 2.428558020182488e+00	 6.000009511162683e+00	 9.965114076302273e+00
0	 2.428558020182489e+00	 6.142869048474793e+00	 9.958995317642040e+00
0	 2.428558020182488e+00	 6.285728819120712e+00	 9.954131791799904e+00
0	 2.428558020182488e+00	 6.428588789766899e+00	 9.950788804903116e+00
0	 2.428558020182488e+00	 6.571448927079808e+00	 9.949231666628089e+00
0	 2.428558020182488e+00	 6.714309197725898e+00	 9.949725690200429e+00
0	 2.428558020182489e+00	 6.857169568371618e+00	 9.952536192394820e+00
0	 2.428558020182488e+00	 7.000030005683427e+00	 9.957928493535032e+00
0	 2.428558020182488e+00	 7.142890476327778e+00	 9.966167917493923e+00
0	 2.571408549120992e+00	 5.714291269874074e+00	 9.999051134867413e+00
0	 2.571408549120992e+00	 5.857150240517928e+00	 9.988721120600967e+00
0	 2.571408549120993e+00	 6.000009511162682e+00	 9.979597834923210e+00
0	 2.571408549120992e+00	 6.142869048474792e+00	 9.971863572379476e+00
0	 2.571408549120992e+00	 6.285728819120712e+00	 9.965700631130215e+00
0	 2.571408549120992e+00	 6.428588789766901e+00	 9.961291312950801e+00
0	 2.571408549120992e+00	 6.571448927079809e+00	 9.958817923231535e+00
0	 2.571408549120992e+00	 6.714309197725898e+00	 9.958462770977572e+00
0	 2.571408549120992e+00	 6.857169568371617e+00	 9.960408168808879e+00
0	 2.571408549120992e+00	 7.000030005683427e+00	 9.964836432960162e+00
0	 2.571408549120992e+00	 7.142890476327778e+00	 9.971929883280909e+00
0	 2.714259044728984e+00	 5.714291269874074e+00	 1.001620335665824e+01
0	 2.714259044728985e+00	 5.857150240517928e+00	 1.000389946847453e+01
0	 2.714259044728985e+00	 6.000009511162683e+00	 9.993180866414933e+00
0	 2.714259044728985e+00	 6.142869048474791e+00	 9.984156026548508e+00
0	 2.714259044728985e+00	 6.285728819120712e+00	 9.976933428509502e+00
0	 2.714259044728985e+00	 6.428588789766901e+00	 9.971621555497260e+00
0	 2.714259044728985e+00	 6.571448927079810e+00	 9.968328894276118e+00
0	 2.714259044728984e+00	 6.714309197725896e+00	 9.967163935175391e+00
0	 2.714259044728985e+00	 6.857169568371617e+00	 9.968235172089296e+00
0	 2.714259044728984e+00	 7.000030005683426e+00	 9.971651102476899e+00
0	 2.714259044728984e+00	 7.142890476327777e+00	 9.977520227362167e+00
0	 2.857109523672222e+00	 5.714291269874074e+00	 1.003061159385640e+01
0	 2.857109523672222e+00	 5.857150240517928e+00	 1.001695561072427e+01
0	 2.857109523672222e+00	 6.000009511162682e+00	 1.000515948655332e+01
0	 2.857109523672222e+00	 6.142869048474791e+00	 9.995267065045569e+00
0	 2.857109523672222e+00	 6.285728819120712e+00	 9.987322193302109e+00
0	 2.857109523672222e+00	 6.428588789766900e+00	 9.981368721822971e+00
0	 2.857109523672222e+00	 6.571448927079808e+00	 9.977450504507150e+00
0	 2.857109523672222e+00	 6.714309197725895e+00	 9.975611398652463e+00
0	 2.857109523672222e+00	 6.857169568371616e+00	 9.975895264955520e+00
0	 2.857109523672222e+00	 7.000030005683426e+00	 9.978345967511725e+00
0	 2.857109523672222e+00	 7.142890476327777e+00	 9.983007373815205e+00
0	 1.428601984435185e+00	 7.142890476327780e+00	 9.915281209480044e+00
0	 1.428601984435185e+00	 7.285740955271015e+00	 9.924523433918511e+00
0	 1.428601984435185e+00	 7.428591450879006e+00	 9.935512263991626e+00
0	 1.428601984435185e+00	 7.571441979817510e+00	 9.947489996722528e+00
0	 1.428601984435185e+00	 7.714292558752281e+00	 9.959698930522293e+00
0	 1.428601984435185e+00	 7.857143204349073e+00	 9.971381365189995e+00
0	 1.428601984435185e+00	 7.999993933273643e+00	 9.981779601912640e+00
0	 1.428601984435185e+00	 8.142844762191748e+00	 9.990135943265189e+00
0	 1.428601984435185e+00	 8.285695707769142e+00	 9.995692693210579e+00
0	 1.428601984435185e+00	 8.428546786671578e+00	 9.997692157099680e+00
0	 1.428601984435185e+00	 8.571398015564816e+00	 9.995376641671236e+00
0	 1.571453213328422e+00	 7.142890476327778e+00	 9.924160368270829e+00
0	 1.571453213328422e+00	 7.285740955271012e+00	 9.934894573939834e+00
0	 1.571453213328422e+00	 7.428591450879007e+00	 9.946416472191030e+00
0	 1.571453213328422e+00	 7.571441979817513e+00	 9.958114345751174e+00
0	 1.571453213328422e+00	 7.714292558752281e+00	 9.969376478987925e+00
0	 1.571453213328422e+00	 7.857143204349074e+00	 9.979591157909786e+00
0	 1.571453213328422e+00	 7.999993933273642e+00	 9.988146670166147e+00
0	 1.571453213328422e+00	 8.142844762191748e+00	 9.994431305047243e+00
0	 1.571453213328422e+00	 8.285695707769140e+00	 9.997833353484159e+00
0	 1.571453213328422e+00	 8.428546786671575e+00	 9.997741108048825e+00
0	 1.571453213328422e+00	 8.571398015564816e+00	 9.993542862953976e+00
0	 1.714304292230858e+00	 7.142890476327779e+00	 9.932388947848859e+00
0	 1.714304292230858e+00	 7.285740955271012e+00	 9.943971859415061e+00
0	 1.714304292230859e+00	 7.428591450879006e+00	 9.955594318817433e+00
0	 1.714304292230859e+00	 7.571441979817509e+00	 9.966776307132562e+00
0	 1.714304292230859e+00	 7.714292558752282e+00	 9.977037807216409e+00
0	 1.714304292230859e+00	 7.857143204349075e+00	 9.985898803704373e+00
0	 1.714304292230859e+00	 7.999993933273643e+00	 9.992879283011282e+00
0	 1.714304292230859e+00	 8.142844762191748e+00	 9.997499233331343e+00
0	 1.714304292230859e+00	 8.285695707769138e+00	 9.999278644638148e+00
0	 1.714304292230859e+00	 8.428546786671577e+00	 9.997737508684708e+00
0	 1.714304292230859e+00	 8.571398015564817e+00	 9.992395819003317e+00
0	 1.857155237808251e+00	 7.142890476327776e+00	 9.940035369532765e+00
0	 1.857155237808251e+00	 7.285740955271015e+00	 9.951907548177781e+00
0	 1.857155237808252e+00	 7.428591450879008e+00	 9.963260110898831e+00
0	 1.857155237808251e+00	 7.571441979817511e+00	 9.973730449669500e+00
0	 1.857155237808251e+00	 7.714292558752279e+00	 9.982955958282274e+00
0	 1.857155237808251e+00	 7.857143204349076e+00	 9.990574032348508e+00
0	 1.857155237808251e+00	 7.999993933273644e+00	 9.996222069298373e+00
0	 1.857155237808251e+00	 8.142844762191746e+00	 9.999537468380890e+00
0	 1.857155237808251e+00	 8.285695707769142e+00	 1.000015763066391e+01
0	 1.857155237808251e+00	 8.428546786671578e+00	 9.997719959034105e+00
0	 1.857155237808251e+00	 8.571398015564816e+00	 9.991861858196941e+00
0	 2.000006066726356e+00	 7.142890476327779e+00	 9.947168055035284e+00
0	 2.000006066726354e+00	 7.285740955271012e+00	 9.958853898419482e+00
0	 2.000006066726355e+00	 7.428591450879006e+00	 9.969628155751572e+00
0	 2.000006066726355e+00	 7.571441979817512e+00	 9.979231342360592e+00
0	 2.000006066726355e+00	 7.714292558752281e+00	 9.987403975350073e+00
0	 2.000006066726355e+00	 7.857143204349074e+00	 9.993886573597958e+00
0	 2.000006066726355e+00	 7.999993933273642e+00	 9.998419657756624e+00
0	 2.000006066726355e+00	 8.142844762191750e+00	 1.000074375025287e+01
0	 2.000006066726355e+00	 8.285695707769138e+00	 1.000059937528789e+01
0	 2.000006066726355e+00	 8.428546786671578e+00	 9.997727058837318e+00
0	 2.000006066726356e+00	 8.571398015564817e+00	 9.991867328651109e+00
0	 2.142856795650926e+00	 7.142890476327779e+00	 9.953855426463299e+00
0	 2.142856795650925e+00	 7.285740955271012e+00	 9.964963168689501e+00
0	 2.142856795650926e+00	 7.428591450879009e+00	 9.974912760980470e+00
0	 2.142856795650925e+00	 7.571441979817511e+00	 9.983533554400262e+00
0	 2.142856795650925e+00	 7.714292558752279e+00	 9.990654901674334e+00
0	 2.142856795650926e+00	 7.857143204349076e+00	 9.996106157189544e+00
0	 2.142856795650925e+00	 7.999993933273642e+00	 9.999716676994174e+00
0	 2.142856795650926e+00	 8.142844762191746e+00	 1.000131581879787e+01
0	 2.142856795650927e+00	 8.285695707769140e+00	 1.000073294197170e+01
0	 2.142856795650926e+00	 8.428546786671577e+00	 9.997797407548077e+00
0	 2.142856795650926e+00	 8.571398015564816e+00	 9.992338578220766e+00
0	 2.285707441247717e+00	 7.142890476327776e+00	 9.960165906317796e+00
0	 2.285707441247718e+00	 7.285740955271015e+00	 9.970387617894975e+00
0	 2.285707441247718e+00	 7.428591450879007e+00	 9.979328234478732e+00
0	 2.285707441247718e+00	 7.571441979817510e+00	 9.986891655178699e+00
0	 2.285707441247717e+00	 7.714292558752281e+00	 9.992981780599601e+00
0	 2.285707441247718e+00	 7.857143204349073e+00	 9.997502512841130e+00
0	 2.285707441247718e+00	 7.999993933273644e+00	 1.000035775549803e+01
0	 2.285707441247717e+00	 8.142844762191748e+00	 1.000145141366007e+01
0	 2.285707441247718e+00	 8.285695707769140e+00	 1.000068739391200e+01
0	 2.285707441247718e+00	 8.428546786671577e+00	 9.997969604333568e+00
0	 2.285707441247718e+00	 8.571398015564814e+00	 9.993201954499511e+00
0	 2.428558020182488e+00	 7.142890476327778e+00	 9.966167917493923e+00
0	 2.428558020182489e+00	 7.285740955271015e+00	 9.975279505300971e+00
0	 2.428558020182488e+00	 7.428591450879007e+00	 9.983088884427957e+00
0	 2.428558020182488e+00	 7.571441979817509e+00	 9.989560214281909e+00
0	 2.428558020182488e+00	 7.714292558752281e+00	 9.994657655560408e+00
0	 2.428558020182487e+00	 7.857143204349071e+00	 9.998345370251604e+00
0	 2.428558020182489e+00	 7.999993933273646e+00	 1.000058752163413e+01
0	 2.428558020182488e+00	 8.142844762191750e+00	 1.000134827427722e+01
0	 2.428558020182489e+00	 8.285695707769140e+00	 1.000059179404058e+01
0	 2.428558020182488e+00	 8.428546786671580e+00	 9.998282248074462e+00
0	 2.428558020182489e+00	 8.571398015564816e+00	 9.994383804819570e+00
0	 2.571408549120992e+00	 7.142890476327778e+00	 9.971929883280909e+00
0	 2.571408549120992e+00	 7.285740955271014e+00	 9.979791090530405e+00
0	 2.571408549120992e+00	 7.428591450879006e+00	 9.986409019298222e+00
0	 2.571408549120991e+00	 7.571441979817509e+00	 9.991793801491678e+00
0	 2.571408549120992e+00	 7.714292558752282e+00	 9.995955570081321e+00
0	 2.571408549120993e+00	 7.857143204349073e+00	 9.998904459100872e+00
0	 2.571408549120992e+00	 7.999993933273645e+00	 1.000065060364728e+01
0	 2.571408549120992e+00	 8.142844762191748e+00	 1.000120413988066e+01
0	 2.571408549120993e+00	 8.285695707769142e+00	 1.000057520502435e+01
0	 2.571408549120992e+00	 8.428546786671578e+00	 9.998773937364838e+00
0	 2.571408549120992e+00	 8.571398015564814e+00	 9.995810476251796e+00
0	 2.714259044728984e+00	 7.142890476327777e+00	 9.977520227362168e+00
0	 2.714259044728984e+00	 7.285740955271013e+00	 9.984074633564017e+00
0	 2.714259044728984e+00	 7.428591450879007e+00	 9.989502947847960e+00
0	 2.714259044728985e+00	 7.571441979817512e+00	 9.993846986785602e+00
0	 2.714259044728984e+00	 7.714292558752279e+00	 9.997148567776872e+00
0	 2.714259044728984e+00	 7.857143204349073e+00	 9.999449509049921e+00
0	 2.714259044728984e+00	 7.999993933273641e+00	 1.000079162966117e+01
0	 2.714259044728985e+00	 8.142844762191748e+00	 1.000121674949530e+01
0	 2.714259044728985e+00	 8.285695707769142e+00	 1.000076668926528e+01
0	 2.714259044728985e+00	 8.428546786671577e+00	 9.999483270512268e+00
0	 2.714259044728985e+00	 8.571398015564816e+00	 9.997408315605695e+00
0	 2.857109523672222e+00	 7.142890476327777e+00	 9.983007373815205e+00
0	 2.857109523672222e+00	 7.285740955271015e+00	 9.988282394740473e+00
0	 2.857109523672222e+00	 7.428591450879006e+00	 9.992584979124066e+00
0	 2.857109523672222e+00	 7.571441979817511e+00	 9.995974340337103e+00
0	 2.857109523672222e+00	 7.714292558752279e+00	 9.998509692351629e+00
0	 2.857109523672223e+00	 7.857143204349073e+00	 1.000025024974071e+01
0	 2.857109523672223e+00	 7.999993933273644e+00	 1.000125522767840e+01
0	 2.857109523672222e+00	 8.142844762191746e+00	 1.000158384193965e+01
0	 2.857109523672222e+00	 8.285695707769142e+00	 1.000129530890047e+01
0	 2.857109523672222e+00	 8.428546786671577e+00	 1.000044884553775e+01
0	 2.857109523672222e+00	 8.571398015564816e+00	 9.999103669429395e+00
0	 1.428601984435185e+00	 8.571398015564816e+00	 9.995376641671236e+00
0	 1.428601984435185e+00	 8.714259388995398e+00	 9.990214290055478e+00
0	 1.428601984435185e+00	 8.857120812436385e+00	 9.984804812446681e+00
0	 1.428601984435185e+00	 8.999982169218278e+00	 9.980086881800581e+00
0	 1.428601984435185e+00	 9.142843342671600e+00	 9.976999180404770e+00
0	 1.428601984435185e+00	 9.285704216126854e+00	 9.976480399878820e+00
0	 1.428601984435185e+00	 9.428564672914549e+00	 9.979469241174357e+00
0	 1.428601984435185e+00	 9.571424596365199e+00	 9.986904414575292e+00
0	 1.428601984435185e+00	 9.714283869809321e+00	 9.999724639698156e+00
0	 1.428601984435185e+00	 9.857142376577416e+00	 1.001886864549260e+01
0	 1.428601984435185e+00	 1.000000000000000e+01	 1.004527517024192e+01
0	 1.571453213328422e+00	 8.571398015564816e+00	 9.993542862953980e+00
0	 1.571453213328423e+00	 8.714259388995400e+00	 9.987191416257716e+00
0	 1.571453213328422e+00	 8.857120812436383e+00	 9.981515930047550e+00
0	 1.571453213328422e+00	 8.999982169218281e+00	 9.977217898792704e+00
0	 1.571453213328422e+00	 9.142843342671600e+00	 9.974998828469507e+00
0	 1.571453213328422e+00	 9.285704216126851e+00	 9.975560236561279e+00
0	 1.571453213328422e+00	 9.428564672914550e+00	 9.979603652058522e+00
0	 1.571453213328422e+00	 9.571424596365205e+00	 9.987830615459199e+00
0	 1.571453213328422e+00	 9.714283869809321e+00	 1.000094267876923e+01
0	 1.571453213328422e+00	 9.857142376577416e+00	 1.001964140550291e+01
0	 1.571453213328422e+00	 1.000000000000000e+01	 1.004462837068380e+01
0	 1.714304292230859e+00	 8.571398015564817e+00	 9.992395819003317e+00
0	 1.714304292230859e+00	 8.714259388995401e+00	 9.985487603060770e+00
0	 1.714304292230859e+00	 8.857120812436387e+00	 9.979896626847184e+00
0	 1.714304292230859e+00	 8.999982169218281e+00	 9.976115947942432e+00
0	 1.714304292230859e+00	 9.142843342671600e+00	 9.974638636484734e+00
0	 1.714304292230859e+00	 9.285704216126851e+00	 9.975957775170601e+00
0	 1.714304292230858e+00	 9.428564672914549e+00	 9.980566459255154e+00
0	 1.714304292230859e+00	 9.571424596365203e+00	 9.988957796552242e+00
0	 1.714304292230859e+00	 9.714283869809323e+00	 1.000162490743502e+01
0	 1.714304292230859e+00	 9.857142376577420e+00	 1.001906092483655e+01
0	 1.714304292230859e+00	 1.000000000000000e+01	 1.004175899425060e+01
0	 1.857155237808251e+00	 8.571398015564816e+00	 9.991861858196941e+00
0	 1.857155237808252e+00	 8.714259388995401e+00	 9.984923794368694e+00
0	 1.857155237808251e+00	 8.857120812436383e+00	 9.979697941448851e+00
0	 1.857155237808251e+00	 8.999982169218280e+00	 9.976497661718307e+00
0	 1.857155237808251e+00	 9.142843342671602e+00	 9.975636330117748e+00
0	 1.857155237808252e+00	 9.285704216126852e+00	 9.977427334247693e+00
0	 1.857155237808251e+00	 9.428564672914549e+00	 9.982184074368678e+00
0	 1.857155237808251e+00	 9.571424596365201e+00	 9.990219963401513e+00
0	 1.857155237808251e+00	 9.714283869809321e+00	 1.000184842692775e+01
0	 1.857155237808251e+00	 9.857142376577416e+00	 1.001738290319032e+01
0	 1.857155237808251e+00	 1.000000000000000e+01	 1.003713684309426e+01
0	 2.000006066726356e+00	 8.571398015564817e+00	 9.991867328651111e+00
0	 2.000006066726355e+00	 8.714259388995401e+00	 9.985320933901196e+00
0	 2.000006066726355e+00	 8.857120812436383e+00	 9.980670912385158e+00
0	 2.000006066726355e+00	 8.999982169218280e+00	 9.978079672648567e+00
0	 2.000006066726355e+00	 9.142843342671599e+00	 9.977709635222411e+00
0	 2.000006066726355e+00	 9.285704216126852e+00	 9.979723232623119e+00
0	 2.000006066726355e+00	 9.428564672914552e+00	 9.984282909352682e+00
0	 2.000006066726356e+00	 9.571424596365203e+00	 9.991551121898951e+00
0	 2.000006066726355e+00	 9.714283869809320e+00	 1.000169033873601e+01
0	 2.000006066726355e+00	 9.857142376577414e+00	 1.001486304032474e+01
0	 2.000006066726355e+00	 1.000000000000000e+01	 1.003123171911371e+01
0	 2.142856795650926e+00	 8.571398015564816e+00	 9.992338578220771e+00
0	 2.142856795650926e+00	 8.714259388995398e+00	 9.986499965193653e+00
0	 2.142856795650926e+00	 8.857120812436383e+00	 9.982566578118083e+00
0	 2.142856795650925e+00	 8.999982169218281e+00	 9.980578613321160e+00
0	 2.142856795650925e+00	 9.142843342671597e+00	 9.980576277839099e+00
0	 2.142856795650925e+00	 9.285704216126858e+00	 9.982599789417186e+00
0	 2.142856795650925e+00	 9.428564672914547e+00	 9.986689376509910e+00
0	 2.142856795650926e+00	 9.571424596365203e+00	 9.992885278281156e+00
0	 2.142856795650926e+00	 9.714283869809318e+00	 1.000122774460462e+01
0	 2.142856795650926e+00	 9.857142376577418e+00	 1.001175703606433e+01
0	 2.142856795650925e+00	 9.999999999999998e+00	 1.002451342395504e+01
0	 2.285707441247718e+00	 8.571398015564814e+00	 9.993201954499513e+00
0	 2.285707441247717e+00	 8.714259388995398e+00	 9.988281831597101e+00
0	 2.285707441247719e+00	 8.857120812436385e+00	 9.985135977039013e+00
0	 2.285707441247719e+00	 8.999982169218285e+00	 9.983711116383791e+00
0	 2.285707441247717e+00	 9.142843342671600e+00	 9.983953984194747e+00
0	 2.285707441247718e+00	 9.285704216126852e+00	 9.985811324039943e+00
0	 2.285707441247717e+00	 9.428564672914549e+00	 9.989229888492225e+00
0	 2.285707441247718e+00	 9.571424596365201e+00	 9.994156439129489e+00
0	 2.285707441247718e+00	 9.714283869809321e+00	 1.000053774653484e+01
0	 2.285707441247718e+00	 9.857142376577418e+00	 1.000832059029714e+01
0	 2.285707441247718e+00	 1.000000000000000e+01	 1.001745175901138e+01
0	 2.428558020182489e+00	 8.571398015564816e+00	 9.994383804819570e+00
0	 2.428558020182489e+00	 8.714259388995400e+00	 9.990487476278187e+00
0	 2.428558020182488e+00	 8.857120812436387e+00	 9.988130147468670e+00
0	 2.428558020182488e+00	 8.999982169218281e+00	 9.987193814543808e+00
0	 2.428558020182487e+00	 9.142843342671599e+00	 9.987560480702776e+00
0	 2.428558020182488e+00	 9.285704216126851e+00	 9.989112156191108e+00
0	 2.428558020182488e+00	 9.428564672914550e+00	 9.991730858300738e+00
0	 2.428558020182488e+00	 9.571424596365203e+00	 9.995298611370043e+00
0	 2.428558020182489e+00	 9.714283869809321e+00	 9.999697446784216e+00
0	 2.428558020182488e+00	 9.857142376577418e+00	 1.000480940297535e+01
0	 2.428558020182488e+00	 1.000000000000000e+01	 1.001051652542295e+01
0	 2.571408549120992e+00	 8.571398015564814e+00	 9.995810476251796e+00
0	 2.571408549120992e+00	 8.714259388995401e+00	 9.992937842219225e+00
0	 2.571408549120992e+00	 8.857120812436385e+00	 9.991300127657173e+00
0	 2.571408549120992e+00	 8.999982169218280e+00	 9.990743340568301e+00
0	 2.571408549120991e+00	 9.142843342671599e+00	 9.991113493963159e+00
0	 2.571408549120992e+00	 9.285704216126854e+00	 9.992256605860179e+00
0	 2.571408549120992e+00	 9.428564672914547e+00	 9.994018699285624e+00
0	 2.571408549120992e+00	 9.571424596365201e+00	 9.996245802273666e+00
0	 2.571408549120992e+00	 9.714283869809323e+00	 9.998783947866528e+00
0	 2.571408549120991e+00	 9.857142376577414e+00	 1.000147917411469e+01
0	 2.571408549120992e+00	 1.000000000000000e+01	 1.000417752407691e+01
0	 2.714259044728985e+00	 8.571398015564816e+00	 9.997408315605695e+00
0	 2.714259044728985e+00	 8.714259388995400e+00	 9.995453872218139e+00
0	 2.714259044728984e+00	 8.857120812436385e+00	 9.994396955783991e+00
0	 2.714259044728984e+00	 8.999982169218283e+00	 9.994076327284064e+00
0	 2.714259044728985e+00	 9.142843342671599e+00	 9.994330750762414e+00
0	 2.714259044728985e+00	 9.285704216126852e+00	 9.994998993326330e+00
0	 2.714259044728984e+00	 9.428564672914550e+00	 9.995919825146290e+00
0	 2.714259044728984e+00	 9.571424596365201e+00	 9.996932019455905e+00
0	 2.714259044728984e+00	 9.714283869809320e+00	 9.997874352552030e+00
0	 2.714259044728984e+00	 9.857142376577416e+00	 9.998585603794785e+00
0	 2.714259044728984e+00	 1.000000000000000e+01	 9.998904555607609e+00
0	 2.857109523672222e+00	 8.571398015564816e+00	 9.999103669429395e+00
0	 2.857109523672221e+00	 8.714259388995400e+00	 9.997856508888539e+00
0	 2.857109523672223e+00	 8.857120812436383e+00	 9.997171669958007e+00
0	 2.857109523672222e+00	 8.999982169218281e+00	 9.996909407577588e+00
0	 2.857109523672222e+00	 9.142843342671597e+00	 9.996929978073549e+00
0	 2.857109523672223e+00	 9.285704216126852e+00	 9.997093639158495e+00
0	 2.857109523672222e+00	 9.428564672914550e+00	 9.997260649931308e+00
0	 2.857109523672222e+00	 9.571424596365199e+00	 9.997291270877110e+00
0	 2.857109523672222e+00	 9.714283869809323e+00	 9.997045763867199e+00
0	 2.857109523672223e+00	 9.857142376577418e+00	 9.996384392159097e+00
0	 2.857109523672222e+00	 9.999999999999998e+00	 9.995167420396507e+00
0	 2.857109523672222e+00	 0.000000000000000e+00	 1.049244468074894e+01
0	 2.857109523672222e+00	 1.428576234225852e-01	 1.050894694107298e+01
0	 2.857109523672222e+00	 2.857161301906819e-01	 1.050854951385695e+01
0	 2.857109523672222e+00	 4.285754036348007e-01	 1.049580910870871e+01
0	 2.857109523672222e+00	 5.714353270854530e-01	 1.047528249007274e+01
0	 2.857109523672223e+00	 7.142957838731496e-01	 1.045152647722709e+01
0	 2.857109523672222e+00	 8.571566573284017e-01	 1.042909794428109e+01
0	 2.857109523672222e+00	 1.000017830781720e+00	 1.041255382017368e+01
0	 2.857109523672222e+00	 1.142879187563616e+00	 1.040645108867241e+01
0	 2.857109523672222e+00	 1.285740611004601e+00	 1.041534678837314e+01
0	 2.857109523672221e+00	 1.428601984435185e+00	 1.044379801270040e+01
0	 2.999969994316576e+00	 0.000000000000000e+00	 1.048398478628852e+01
0	 2.999969994316577e+00	 1.428576234225853e-01	 1.047305401667314e+01
0	 2.999969994316576e+00	 2.857161301906819e-01	 1.045469967701069e+01
0	 2.999969994316576e+00	 4.285754036348007e-01	 1.043233477509160e+01
0	 2.999969994316576e+00	 5.714353270854530e-01	 1.040937238201236e+01
0	 2.999969994316576e+00	 7.142957838731496e-01	 1.038922563217232e+01
0	 2.999969994316577e+00	 8.571566573284015e-01	 1.037530772327098e+01
0	 2.999969994316576e+00	 1.000017830781720e+00	 1.037103191630632e+01
0	 2.999969994316576e+00	 1.142879187563616e+00	 1.037981153557364e+01
0	 2.999969994316575e+00	 1.285740611004601e+00	 1.040505996866540e+01
0	 2.999969994316576e+00	 1.428601984435186e+00	 1.045019066647173e+01
0	 3.142830431628385e+00	 0.000000000000000e+00	 1.047452482975999e+01
0	 3.142830431628385e+00	 1.428576234225852e-01	 1.044642276530579e+01
0	 3.142830431628386e+00	 2.857161301906819e-01	 1.041765187189689e+01
0	 3.142830431628386e+00	 4.285754036348007e-01	 1.039062993697291e+01
0	 3.142830431628385e+00	 5.714353270854531e-01	 1.036777481155951e+01
0	 3.142830431628386e+00	 7.142957838731496e-01	 1.035150441026500e+01
0	 3.142830431628385e+00	 8.571566573284017e-01	 1.034423671127807e+01
0	 3.142830431628385e+00	 1.000017830781720e+00	 1.034838975636591e+01
0	 3.142830431628385e+00	 1.142879187563616e+00	 1.036638165087346e+01
0	 3.142830431628385e+00	 1.285740611004601e+00	 1.040063056372316e+01
0	 3.142830431628386e+00	 1.428601984435185e+00	 1.045355472741570e+01
0	 3.285690802274106e+00	 0.000000000000000e+00	 1.046284667029800e+01
0	 3.285690802274106e+00	 1.428576234225852e-01	 1.042649642872045e+01
0	 3.285690802274106e+00	 2.857161301906819e-01	 1.039382913821802e+01
0	 3.285690802274105e+00	 4.285754036348007e-01	 1.036641583878955e+01
0	 3.285690802274106e+00	 5.714353270854532e-01	 1.034582762767039e+01
0	 3.285690802274106e+00	 7.142957838731496e-01	 1.033363565932961e+01
0	 3.285690802274106e+00	 8.571566573284016e-01	 1.033141114546791e+01
0	 3.285690802274107e+00	 1.000017830781720e+00	 1.034072535501629e+01
0	 3.285690802274105e+00	 1.142879187563616e+00	 1.036314961413538e+01
0	 3.285690802274106e+00	 1.285740611004601e+00	 1.040025530621542e+01
0	 3.285690802274106e+00	 1.428601984435185e+00	 1.045361387187711e+01
0	 3.428551072920193e+00	 0.000000000000000e+00	 1.044773213928060e+01
0	 3.428551072920194e+00	 1.428576234225853e-01	 1.041071822693396e+01
0	 3.428551072920194e+00	 2.857161301906819e-01	 1.037965449849765e+01
0	 3.428551072920193e+00	 4.285754036348008e-01	 1.035541371109080e+01
0	 3.428551072920193e+00	 5.714353270854530e-01	 1.033886866765052e+01
0	 3.428551072920193e+00	 7.142957838731495e-01	 1.033089221692992e+01
0	 3.428551072920193e+00	 8.571566573284016e-01	 1.033235725349662e+01
0	 3.428551072920194e+00	 1.000017830781720e+00	 1.034413671773189e+01
0	 3.428551072920193e+00	 1.142879187563616e+00	 1.036710359583029e+01
0	 3.428551072920193e+00	 1.285740611004601e+00	 1.040213091979989e+01
0	 3.428551072920193e+00	 1.428601984435185e+00	 1.045009176746312e+01
0	 3.571411210233102e+00	 0.000000000000000e+00	 1.042796304032929e+01
0	 3.571411210233103e+00	 1.428576234225853e-01	 1.039653135823046e+01
0	 3.571411210233102e+00	 2.857161301906819e-01	 1.037155095808039e+01
0	 3.571411210233102e+00	 4.285754036348007e-01	 1.035334477053837e+01
0	 3.571411210233104e+00	 5.714353270854531e-01	 1.034223575715461e+01
0	 3.571411210233103e+00	 7.142957838731496e-01	 1.033854691036907e+01
0	 3.571411210233102e+00	 8.571566573284015e-01	 1.034260125351085e+01
0	 3.571411210233103e+00	 1.000017830781720e+00	 1.035472184079776e+01
0	 3.571411210233103e+00	 1.142879187563616e+00	 1.037523175733651e+01
0	 3.571411210233103e+00	 1.285740611004601e+00	 1.040445411912300e+01
0	 3.571411210233102e+00	 1.428601984435185e+00	 1.044271207304325e+01
0	 3.714271180879290e+00	 0.000000000000000e+00	 1.040232114930880e+01
0	 3.714271180879289e+00	 1.428576234225853e-01	 1.038137899916130e+01
0	 3.714271180879289e+00	 2.857161301906817e-01	 1.036594150513178e+01
0	 3.714271180879289e+00	 4.285754036348006e-01	 1.035593021990635e+01
0	 3.714271180879290e+00	 5.714353270854531e-01	 1.035126671018658e+01
0	 3.714271180879290e+00	 7.142957838731496e-01	 1.035187255668952e+01
0	 3.714271180879290e+00	 8.571566573284020e-01	 1.035766935414769e+01
0	 3.714271180879290e+00	 1.000017830781720e+00	 1.036857871130952e+01
0	 3.714271180879290e+00	 1.142879187563616e+00	 1.038452225093970e+01
0	 3.714271180879289e+00	 1.285740611004600e+00	 1.040542160981984e+01
0	 3.714271180879290e+00	 1.428601984435185e+00	 1.043119843874934e+01
0	 3.857130951525210e+00	 0.000000000000000e+00	 1.036958821432693e+01
0	 3.857130951525211e+00	 1.428576234225853e-01	 1.036270430454485e+01
0	 3.857130951525210e+00	 2.857161301906819e-01	 1.035924911063821e+01
0	 3.857130951525211e+00	 4.285754036348007e-01	 1.035889124808102e+01
0	 3.857130951525211e+00	 5.714353270854530e-01	 1.036129932909948e+01
0	 3.857130951525211e+00	 7.142957838731497e-01	 1.036614196267292e+01
0	 3.857130951525210e+00	 8.571566573284017e-01	 1.037308775453474e+01
0	 3.857130951525211e+00	 1.000017830781720e+00	 1.038180530717331e+01
0	 3.857130951525210e+00	 1.142879187563616e+00	 1.039196321983284e+01
0	 3.857130951525210e+00	 1.285740611004601e+00	 1.040323008851417e+01
0	 3.857130951525211e+00	 1.428601984435185e+00	 1.041527450597556e+01
0	 3.999990488837320e+00	 0.000000000000000e+00	 1.032854595573417e+01
0	 3.999990488837321e+00	 1.428576234225852e-01	 1.033795040746625e+01
0	 3.999990488837321e+00	 2.857161301906820e-01	 1.034789672840664e+01
0	 3.999990488837319e+00	 4.285754036348006e-01	 1.035794903006075e+01
0	 3.999990488837320e+00	 5.714353270854531e-01	 1.036767140459526e+01
0	 3.999990488837319e+00	 7.142957838731496e-01	 1.037662792484004e+01
0	 3.999990488837319e+00	 8.571566573284016e-01	 1.038438264428983e+01
0	 3.999990488837321e+00	 1.000017830781720e+00	 1.039049959710568e+01
0	 3.999990488837320e+00	 1.142879187563616e+00	 1.039454279811615e+01
0	 3.999990488837320e+00	 1.285740611004601e+00	 1.039607624281827e+01
0	 3.999990488837321e+00	 1.428601984435185e+00	 1.039466390737829e+01
0	 4.142849759482075e+00	 0.000000000000000e+00	 1.027797606612331e+01
0	 4.142849759482075e+00	 1.428576234225853e-01	 1.030456041927704e+01
0	 4.142849759482075e+00	 2.857161301906819e-01	 1.032830729506438e+01
0	 4.142849759482075e+00	 4.285754036348008e-01	 1.034882472695573e+01
0	 4.142849759482075e+00	 5.714353270854531e-01	 1.036572071572467e+01
0	 4.142849759482074e+00	 7.142957838731497e-01	 1.037860322945060e+01
0	 4.142849759482073e+00	 8.571566573284016e-01	 1.038708020352104e+01
0	 4.142849759482074e+00	 1.000017830781720e+00	 1.039075954063350e+01
0	 4.142849759482075e+00	 1.142879187563616e+00	 1.038924911079696e+01
0	 4.142849759482075e+00	 1.285740611004601e+00	 1.038215675133289e+01
0	 4.142849759482075e+00	 1.428601984435185e+00	 1.036909026687602e+01
0	 4.285708730125926e+00	 0.000000000000000e+00	 1.021666021032893e+01
0	 4.285708730125926e+00	 1.428576234225852e-01	 1.025997742959478e+01
0	 4.285708730125926e+00	 2.857161301906819e-01	 1.029690373005874e+01
0	 4.285708730125925e+00	 4.285754036348007e-01	 1.032723948598777e+01
0	 4.285708730125926e+00	 5.714353270854531e-01	 1.035078502988704e+01
0	 4.285708730125926e+00	 7.142957838731496e-01	 1.036734065250307e+01
0	 4.285708730125925e+00	 8.571566573284017e-01	 1.037670660282640e+01
0	 4.285708730125926e+00	 1.000017830781720e+00	 1.037868308809373e+01
0	 4.285708730125926e+00	 1.142879187563616e+00	 1.037307027378951e+01
0	 4.285708730125926e+00	 1.285740611004601e+00	 1.035966828364707e+01
0	 4.285708730125926e+00	 1.428601984435185e+00	 1.033827719964922e+01
0	 2.857109523672221e+00	 1.428601984435185e+00	 1.044379801270040e+01
0	 2.857109523672222e+00	 1.571453213328422e+00	 1.048139804349019e+01
0	 2.857109523672222e+00	 1.714304292230858e+00	 1.051364093197212e+01
0	 2.857109523672222e+00	 1.857155237808251e+00	 1.053892662861926e+01
0	 2.857109523672223e+00	 2.000006066726356e+00	 1.055565509557901e+01
0	 2.857109523672222e+00	 2.142856795650926e+00	 1.056222630667324e+01
0	 2.857109523672222e+00	 2.285707441247718e+00	 1.055704024739841e+01
0	 2.857109523672223e+00	 2.428558020182489e+00	 1.053849691492558e+01
0	 2.857109523672222e+00	 2.571408549120993e+00	 1.050499631810054e+01
0	 2.857109523672222e+00	 2.714259044728984e+00	 1.045493847744376e+01
0	 2.857109523672222e+00	 2.857109523672222e+00	 1.038672342515048e+01
0	 2.999969994316576e+00	 1.428601984435186e+00	 1.045019066647173e+01
0	 2.999969994316576e+00	 1.571453213328422e+00	 1.050212037199227e+01
0	 2.999969994316577e+00	 1.714304292230859e+00	 1.054471528819090e+01
0	 2.999969994316576e+00	 1.857155237808251e+00	 1.057680130931632e+01
0	 2.999969994316577e+00	 2.000006066726356e+00	 1.059720434259259e+01
0	 2.999969994316576e+00	 2.142856795650925e+00	 1.060475030821919e+01
0	 2.999969994316576e+00	 2.285707441247718e+00	 1.059826513937123e+01
0	 2.999969994316576e+00	 2.428558020182489e+00	 1.057657478219941e+01
0	 2.999969994316576e+00	 2.571408549120992e+00	 1.053850519583020e+01
0	 2.999969994316576e+00	 2.714259044728983e+00	 1.048288235236579e+01
0	 2.999969994316576e+00	 2.857109523672223e+00	 1.040853223688419e+01
0	 3.142830431628386e+00	 1.428601984435185e+00	 1.045355472741569e+01
0	 3.142830431628386e+00	 1.571453213328422e+00	 1.051113105409457e+01
0	 3.142830431628386e+00	 1.714304292230860e+00	 1.055719768523314e+01
0	 3.142830431628386e+00	 1.857155237808252e+00	 1.059095151090276e+01
0	 3.142830431628386e+00	 2.000006066726355e+00	 1.061158943435082e+01
0	 3.142830431628386e+00	 2.142856795650926e+00	 1.061830837200084e+01
0	 3.142830431628385e+00	 2.285707441247718e+00	 1.061030525345259e+01
0	 3.142830431628386e+00	 2.428558020182489e+00	 1.058677702148221e+01
0	 3.142830431628385e+00	 2.571408549120992e+00	 1.054692063204221e+01
0	 3.142830431628386e+00	 2.714259044728985e+00	 1.048993305426157e+01
0	 3.142830431628385e+00	 2.857109523672222e+00	 1.041501127044578e+01
0	 3.285690802274106e+00	 1.428601984435185e+00	 1.045361387187711e+01
0	 3.285690802274105e+00	 1.571453213328422e+00	 1.050970054979767e+01
0	 3.285690802274106e+00	 1.714304292230859e+00	 1.055362688903229e+01
0	 3.285690802274106e+00	 1.857155237808252e+00	 1.058490582645167e+01
0	 3.285690802274106e+00	 2.000006066726355e+00	 1.060305031139776e+01
0	 3.285690802274107e+00	 2.142856795650926e+00	 1.060757330568400e+01
0	 3.285690802274105e+00	 2.285707441247717e+00	 1.059798778359536e+01
0	 3.285690802274106e+00	 2.428558020182488e+00	 1.057380673188846e+01
0	 3.285690802274106e+00	 2.571408549120993e+00	 1.053454314979158e+01
0	 3.285690802274106e+00	 2.714259044728985e+00	 1.047971004900481e+01
0	 3.285690802274106e+00	 2.857109523672222e+00	 1.040882045369991e+01
0	 3.428551072920193e+00	 1.428601984435185e+00	 1.045009176746312e+01
0	 3.428551072920193e+00	 1.571453213328422e+00	 1.049909931099077e+01
0	 3.428551072920193e+00	 1.714304292230859e+00	 1.053654165835993e+01
0	 3.428551072920193e+00	 1.857155237808252e+00	 1.056219284306989e+01
0	 3.428551072920194e+00	 2.000006066726356e+00	 1.057582690967616e+01
0	 3.428551072920193e+00	 2.142856795650926e+00	 1.057721791379054e+01
0	 3.428551072920194e+00	 2.285707441247719e+00	 1.056613992208114e+01
0	 3.428551072920194e+00	 2.428558020182488e+00	 1.054236701227261e+01
0	 3.428551072920194e+00	 2.571408549120992e+00	 1.050567327314608e+01
0	 3.428551072920194e+00	 2.714259044728985e+00	 1.045583280453925e+01
0	 3.428551072920193e+00	 2.857109523672222e+00	 1.039261971734637e+01
0	 3.571411210233102e+00	 1.428601984435185e+00	 1.044271207304325e+01
0	 3.571411210233102e+00	 1.571453213328422e+00	 1.048059778145172e+01
0	 3.571411210233102e+00	 1.714304292230859e+00	 1.050848074482561e+01
0	 3.571411210233103e+00	 1.857155237808252e+00	 1.052634114189802e+01
0	 3.571411210233102e+00	 2.000006066726355e+00	 1.053415916052752e+01
0	 3.571411210233103e+00	 2.142856795650926e+00	 1.053191499769831e+01
0	 3.571411210233104e+00	 2.285707441247719e+00	 1.051958885952028e+01
0	 3.571411210233103e+00	 2.428558020182488e+00	 1.049716096122907e+01
0	 3.571411210233103e+00	 2.571408549120992e+00	 1.046461152718615e+01
0	 3.571411210233102e+00	 2.714259044728984e+00	 1.042192079087877e+01
0	 3.571411210233103e+00	 2.857109523672223e+00	 1.036906899492005e+01
0	 3.714271180879290e+00	 1.428601984435185e+00	 1.043119843874934e+01
0	 3.714271180879289e+00	 1.571453213328422e+00	 1.045546639684698e+01
0	 3.714271180879289e+00	 1.714304292230859e+00	 1.047198289287709e+01
0	 3.714271180879290e+00	 1.857155237808251e+00	 1.048087929811041e+01
0	 3.714271180879290e+00	 2.000006066726356e+00	 1.048228699069200e+01
0	 3.714271180879290e+00	 2.142856795650925e+00	 1.047633735564123e+01
0	 3.714271180879290e+00	 2.285707441247718e+00	 1.046316178485191e+01
0	 3.714271180879290e+00	 2.428558020182488e+00	 1.044289167709226e+01
0	 3.714271180879289e+00	 2.571408549120992e+00	 1.041565843800500e+01
0	 3.714271180879289e+00	 2.714259044728984e+00	 1.038159348010734e+01
0	 3.714271180879290e+00	 2.857109523672222e+00	 1.034082822279105e+01
0	 3.857130951525211e+00	 1.428601984435185e+00	 1.041527450597555e+01
0	 3.857130951525211e+00	 1.571453213328422e+00	 1.042497558473167e+01
0	 3.857130951525211e+00	 1.714304292230859e+00	 1.042958683980009e+01
0	 3.857130951525210e+00	 1.857155237808251e+00	 1.042933588091515e+01
0	 3.857130951525211e+00	 2.000006066726355e+00	 1.042445032230851e+01
0	 3.857130951525211e+00	 2.142856795650925e+00	 1.041515778270928e+01
0	 3.857130951525210e+00	 2.285707441247718e+00	 1.040168588534396e+01
0	 3.857130951525210e+00	 2.428558020182488e+00	 1.038426225793657e+01
0	 3.857130951525211e+00	 2.571408549120992e+00	 1.036311453270862e+01
0	 3.857130951525210e+00	 2.714259044728984e+00	 1.033847034637914e+01
0	 3.857130951525211e+00	 2.857109523672221e+00	 1.031055734016467e+01
0	 3.999990488837321e+00	 1.428601984435185e+00	 1.039466390737829e+01
0	 3.999990488837320e+00	 1.571453213328422e+00	 1.039039576454937e+01
0	 3.999990488837320e+00	 1.714304292230859e+00	 1.038383131571839e+01
0	 3.999990488837320e+00	 1.857155237808251e+00	 1.037523945355405e+01
0	 3.999990488837320e+00	 2.000006066726355e+00	 1.036488907291468e+01
0	 3.999990488837319e+00	 2.142856795650925e+00	 1.035304907084843e+01
0	 3.999990488837319e+00	 2.285707441247717e+00	 1.033998834659313e+01
0	 3.999990488837319e+00	 2.428558020182487e+00	 1.032597580157647e+01
0	 3.999990488837320e+00	 2.571408549120991e+00	 1.031128033941584e+01
0	 3.999990488837320e+00	 2.714259044728984e+00	 1.029617086591850e+01
0	 3.999990488837320e+00	 2.857109523672222e+00	 1.028091628908148e+01
0	 4.142849759482075e+00	 1.428601984435185e+00	 1.036909026687602e+01
0	 4.142849759482074e+00	 1.571453213328422e+00	 1.035299734763212e+01
0	 4.142849759482074e+00	 1.714304292230859e+00	 1.033725504359369e+01
0	 4.142849759482075e+00	 1.857155237808251e+00	 1.032211857330253e+01
0	 4.142849759482075e+00	 2.000006066726355e+00	 1.030784315544674e+01
0	 4.142849759482074e+00	 2.142856795650925e+00	 1.029468400886067e+01
0	 4.142849759482075e+00	 2.285707441247718e+00	 1.028289635252493e+01
0	 4.142849759482075e+00	 2.428558020182488e+00	 1.027273540556641e+01
0	 4.142849759482074e+00	 2.571408549120992e+00	 1.026445638725831e+01
0	 4.142849759482075e+00	 2.714259044728986e+00	 1.025831451702005e+01
0	 4.142849759482075e+00	 2.857109523672223e+00	 1.025456501441736e+01
0	 4.285708730125926e+00	 1.428601984435185e+00	 1.033827719964922e+01
0	 4.285708730125925e+00	 1.571453213328422e+00	 1.031405073720029e+01
0	 4.285708730125926e+00	 1.714304292230859e+00	 1.029239673922546e+01
0	 4.285708730125926e+00	 1.857155237808252e+00	 1.027350179146961e+01
0	 4.285708730125926e+00	 2.000006066726355e+00	 1.025755247823955e+01
0	 4.285708730125927e+00	 2.142856795650926e+00	 1.024473538240401e+01
0	 4.285708730125925e+00	 2.285707441247717e+00	 1.023523708539365e+01
0	 4.285708730125926e+00	 2.428558020182488e+00	 1.022924416720102e+01
0	 4.285708730125926e+00	 2.571408549120993e+00	 1.022694320638058e+01
0	 4.285708730125926e+00	 2.714259044728984e+00	 1.022852078004868e+01
0	 4.285708730125926e+00	 2.857109523672222e+00	 1.023416346388355e+01
0	 2.857109523672222e+00	 2.857109523672222e+00	 1.038672342515048e+01
0	 2.857109523672222e+00	 2.999969994316576e+00	 1.031256013653572e+01
0	 2.857109523672223e+00	 3.142830431628385e+00	 1.024597933463354e+01
0	 2.857109523672222e+00	 3.285690802274106e+00	 1.018734734830114e+01
0	 2.857109523672222e+00	 3.428551072920193e+00	 1.013703052080898e+01
0	 2.857109523672223e+00	 3.571411210233103e+00	 1.009539520984073e+01
0	 2.857109523672222e+00	 3.714271180879290e+00	 1.006280778749327e+01
0	 2.857109523672222e+00	 3.857130951525211e+00	 1.003963464027682e+01
0	 2.857109523672222e+00	 3.999990488837320e+00	 1.002624216911497e+01
0	 2.857109523672223e+00	 4.142849759482074e+00	 1.002299678934494e+01
0	 2.857109523672222e+00	 4.285708730125926e+00	 1.003026493071772e+01
0	 2.999969994316576e+00	 2.857109523672223e+00	 1.040853223688419e+01
0	 2.999969994316576e+00	 2.999969994316576e+00	 1.032903622521652e+01
0	 2.999969994316576e+00	 3.142830431628386e+00	 1.025885250186623e+01
0	 2.999969994316577e+00	 3.285690802274106e+00	 1.019810462278092e+01
0	 2.999969994316577e+00	 3.428551072920193e+00	 1.014691615868231e+01
0	 2.999969994316576e+00	 3.571411210233103e+00	 1.010541069506623e+01
0	 2.999969994316576e+00	 3.714271180879289e+00	 1.007371183220266e+01
0	 2.999969994316577e+00	 3.857130951525210e+00	 1.005194318513578e+01
0	 2.999969994316577e+00	 3.999990488837320e+00	 1.004022838368406e+01
0	 2.999969994316575e+00	 4.142849759482073e+00	 1.003869107244051e+01
0	 2.999969994316576e+00	 4.285708730125926e+00	 1.004745491077283e+01
0	 3.142830431628385e+00	 2.857109523672222e+00	 1.041501127044578e+01
0	 3.142830431628385e+00	 2.999969994316576e+00	 1.033589754590302e+01
0	 3.142830431628386e+00	 3.142830431628385e+00	 1.026682853019985e+01
0	 3.142830431628385e+00	 3.285690802274106e+00	 1.020772512869009e+01
0	 3.142830431628385e+00	 3.428551072920193e+00	 1.015850826077943e+01
0	 3.142830431628385e+00	 3.571411210233102e+00	 1.011909885992544e+01
0	 3.142830431628385e+00	 3.714271180879290e+00	 1.008941787363752e+01
0	 3.142830431628385e+00	 3.857130951525210e+00	 1.006938626347704e+01
0	 3.142830431628386e+00	 3.999990488837320e+00	 1.005892500505738e+01
0	 3.142830431628385e+00	 4.142849759482072e+00	 1.005795508804416e+01
0	 3.142830431628385e+00	 4.285708730125926e+00	 1.006639751615543e+01
0	 3.285690802274106e+00	 2.857109523672222e+00	 1.040882045369991e+01
0	 3.285690802274106e+00	 2.999969994316576e+00	 1.033478068418327e+01
0	 3.285690802274106e+00	 3.142830431628386e+00	 1.027067168830783e+01
0	 3.285690802274105e+00	 3.285690802274105e+00	 1.021625184259779e+01
0	 3.285690802274106e+00	 3.428551072920194e+00	 1.017127953603515e+01
0	 3.285690802274106e+00	 3.571411210233103e+00	 1.013551317005981e+01
0	 3.285690802274104e+00	 3.714271180879289e+00	 1.010871115856952e+01
0	 3.285690802274106e+00	 3.857130951525210e+00	 1.009063192792000e+01
0	 3.285690802274106e+00	 3.999990488837320e+00	 1.008103391692495e+01
0	 3.285690802274106e+00	 4.142849759482074e+00	 1.007967557685627e+01
0	 3.285690802274106e+00	 4.285708730125926e+00	 1.008631537144418e+01
0	 3.428551072920193e+00	 2.857109523672222e+00	 1.039261971734637e+01
0	 3.428551072920192e+00	 2.999969994316576e+00	 1.032732222889837e+01
0	 3.428551072920193e+00	 3.142830431628385e+00	 1.027114624822161e+01
0	 3.428551072920194e+00	 3.285690802274106e+00	 1.022372774427903e+01
0	 3.428551072920193e+00	 3.428551072920192e+00	 1.018470269623716e+01
0	 3.428551072920194e+00	 3.571411210233104e+00	 1.015370709346612e+01
0	 3.428551072920192e+00	 3.714271180879289e+00	 1.013037693553962e+01
0	 3.428551072920194e+00	 3.857130951525211e+00	 1.011434823223495e+01
0	 3.428551072920193e+00	 3.999990488837320e+00	 1.010525700353314e+01
0	 3.428551072920193e+00	 4.142849759482074e+00	 1.010273927961899e+01
0	 3.428551072920193e+00	 4.285708730125926e+00	 1.010643110088125e+01
0	 3.571411210233103e+00	 2.857109523672223e+00	 1.036906899492005e+01
0	 3.571411210233102e+00	 2.999969994316576e+00	 1.031515877214262e+01
0	 3.571411210233103e+00	 3.142830431628385e+00	 1.026901648533055e+01
0	 3.571411210233103e+00	 3.285690802274106e+00	 1.023019581671462e+01
0	 3.571411210233103e+00	 3.428551072920193e+00	 1.019825045602604e+01
0	 3.571411210233104e+00	 3.571411210233103e+00	 1.017273410049646e+01
0	 3.571411210233103e+00	 3.714271180879290e+00	 1.015320045485795e+01
0	 3.571411210233101e+00	 3.857130951525210e+00	 1.013920323134301e+01
0	 3.571411210233103e+00	 3.999990488837321e+00	 1.013029614968462e+01
0	 3.571411210233102e+00	 4.142849759482074e+00	 1.012603293711632e+01
0	 3.571411210233103e+00	 4.285708730125926e+00	 1.012596732837231e+01
0	 3.714271180879290e+00	 2.857109523672222e+00	 1.034082822279105e+01
0	 3.714271180879289e+00	 2.999969994316576e+00	 1.029992690926344e+01
0	 3.714271180879290e+00	 3.142830431628385e+00	 1.026504667838204e+01
0	 3.714271180879288e+00	 3.285690802274104e+00	 1.023569904609124e+01
0	 3.714271180879289e+00	 3.428551072920193e+00	 1.021139553289526e+01
0	 3.714271180879290e+00	 3.571411210233103e+00	 1.019164766385819e+01
0	 3.714271180879290e+00	 3.714271180879290e+00	 1.017596696860392e+01
0	 3.714271180879290e+00	 3.857130951525211e+00	 1.016386498131616e+01
0	 3.714271180879289e+00	 3.999990488837319e+00	 1.015485324073841e+01
0	 3.714271180879289e+00	 4.142849759482075e+00	 1.014844329017411e+01
0	 3.714271180879289e+00	 4.285708730125926e+00	 1.014414667748653e+01
0	 3.857130951525211e+00	 2.857109523672221e+00	 1.031055734016467e+01
0	 3.857130951525211e+00	 2.999969994316577e+00	 1.028326323886145e+01
0	 3.857130951525210e+00	 3.142830431628385e+00	 1.026000110948149e+01
0	 3.857130951525210e+00	 3.285690802274106e+00	 1.024028042180145e+01
0	 3.857130951525210e+00	 3.428551072920193e+00	 1.022361064719125e+01
0	 3.857130951525210e+00	 3.571411210233102e+00	 1.020950125861404e+01
0	 3.857130951525211e+00	 3.714271180879290e+00	 1.019746173062617e+01
0	 3.857130951525210e+00	 3.857130951525210e+00	 1.018700153937720e+01
0	 3.857130951525209e+00	 3.999990488837319e+00	 1.017763016260985e+01
0	 3.857130951525210e+00	 4.142849759482075e+00	 1.016885707965998e+01
0	 3.857130951525211e+00	 4.285708730125926e+00	 1.016019177145661e+01
0	 3.999990488837320e+00	 2.857109523672222e+00	 1.028091628908148e+01
0	 3.999990488837319e+00	 2.999969994316575e+00	 1.026680436279053e+01
0	 3.999990488837319e+00	 3.142830431628385e+00	 1.025464406409241e+01
0	 3.999990488837320e+00	 3.285690802274106e+00	 1.024398293644379e+01
0	 3.999990488837320e+00	 3.428551072920193e+00	 1.023436852211341e+01
0	 3.999990488837320e+00	 3.571411210233103e+00	 1.022534836218209e+01
0	 3.999990488837319e+00	 3.714271180879289e+00	 1.021646999654265e+01
0	 3.999990488837321e+00	 3.857130951525211e+00	 1.020728096389991e+01
0	 3.999990488837320e+00	 3.999990488837320e+00	 1.019732880177061e+01
0	 3.999990488837320e+00	 4.142849759482075e+00	 1.018616104648339e+01
0	 3.999990488837320e+00	 4.285708730125926e+00	 1.017332523317871e+01
0	 4.142849759482075e+00	 2.857109523672223e+00	 1.025456501441736e+01
0	 4.142849759482072e+00	 2.999969994316575e+00	 1.025218688615787e+01
0	 4.142849759482074e+00	 3.142830431628385e+00	 1.024973983103644e+01
0	 4.142849759482075e+00	 3.285690802274106e+00	 1.024684958582275e+01
0	 4.142849759482075e+00	 3.428551072920193e+00	 1.024314188371416e+01
0	 4.142849759482074e+00	 3.571411210233103e+00	 1.023824245433582e+01
0	 4.142849759482075e+00	 3.714271180879290e+00	 1.023177702374059e+01
0	 4.142849759482075e+00	 3.857130951525210e+00	 1.022337131440887e+01
0	 4.142849759482075e+00	 3.999990488837320e+00	 1.021265104524873e+01
0	 4.142849759482075e+00	 4.142849759482075e+00	 1.019924193159564e+01
0	 4.142849759482073e+00	 4.285708730125925e+00	 1.018276968521252e+01
0	 4.285708730125926e+00	 2.857109523672222e+00	 1.023416346388356e+01
0	 4.285708730125926e+00	 2.999969994316576e+00	 1.024104741732402e+01
0	 4.285708730125926e+00	 3.142830431628385e+00	 1.024605270249347e+01
0	 4.285708730125926e+00	 3.285690802274106e+00	 1.024892336894890e+01
0	 4.285708730125926e+00	 3.428551072920192e+00	 1.024940346089902e+01
0	 4.285708730125926e+00	 3.571411210233102e+00	 1.024723701720423e+01
0	 4.285708730125926e+00	 3.714271180879290e+00	 1.024216807137657e+01
0	 4.285708730125926e+00	 3.857130951525210e+00	 1.023394065157965e+01
0	 4.285708730125926e+00	 3.999990488837321e+00	 1.022229878062858e+01
0	 4.285708730125926e+00	 4.142849759482074e+00	 1.020698647598984e+01
0	 4.285708730125926e+00	 4.285708730125926e+00	 1.018774774978118e+01
0	 2.857109523672222e+00	 4.285708730125926e+00	 1.003026493071772e+01
0	 2.857109523672222e+00	 4.428567384102073e+00	 1.004183018930439e+01
0	 2.857109523672223e+00	 4.571425771410668e+00	 1.005115210267488e+01
0	 2.857109523672222e+00	 4.714283958718593e+00	 1.005811102932598e+01
0	 2.857109523672223e+00	 4.857142012692742e+00	 1.006258733533724e+01
0	 2.857109523672222e+00	 5.000000000000001e+00	 1.006446139437098e+01
0	 2.857109523672222e+00	 5.142857987307261e+00	 1.006361358767243e+01
0	 2.857109523672222e+00	 5.285716041281408e+00	 1.005992430406963e+01
0	 2.857109523672222e+00	 5.428574228589336e+00	 1.005327393997334e+01
0	 2.857109523672222e+00	 5.571432615897928e+00	 1.004354289937697e+01
0	 2.857109523672222e+00	 5.714291269874074e+00	 1.003061159385640e+01
0	 2.999969994316576e+00	 4.285708730125926e+00	 1.004745491077283e+01
0	 2.999969994316576e+00	 4.428567384102075e+00	 1.005996947138771e+01
0	 2.999969994316576e+00	 4.571425771410667e+00	 1.006959666074496e+01
0	 2.999969994316576e+00	 4.714283958718593e+00	 1.007632865570024e+01
0	 2.999969994316576e+00	 4.857142012692742e+00	 1.008015764081212e+01
0	 2.999969994316576e+00	 5.000000000000002e+00	 1.008107580834209e+01
0	 2.999969994316576e+00	 5.142857987307261e+00	 1.007907535825467e+01
0	 2.999969994316576e+00	 5.285716041281409e+00	 1.007414849821736e+01
0	 2.999969994316576e+00	 5.428574228589337e+00	 1.006628744360054e+01
0	 2.999969994316576e+00	 5.571432615897927e+00	 1.005548441747738e+01
0	 2.999969994316576e+00	 5.714291269874074e+00	 1.004173165062362e+01
0	 3.142830431628385e+00	 4.285708730125926e+00	 1.006639751615543e+01
0	 3.142830431628385e+00	 4.428567384102073e+00	 1.007791891226619e+01
0	 3.142830431628384e+00	 4.571425771410667e+00	 1.008629371828565e+01
0	 3.142830431628386e+00	 4.714283958718592e+00	 1.009160468232559e+01
0	 3.142830431628385e+00	 4.857142012692742e+00	 1.009393455956858e+01
0	 3.142830431628386e+00	 5.000000000000002e+00	 1.009336611226805e+01
0	 3.142830431628385e+00	 5.142857987307261e+00	 1.008998210974831e+01
0	 3.142830431628386e+00	 5.285716041281408e+00	 1.008386532840455e+01
0	 3.142830431628385e+00	 5.428574228589335e+00	 1.007509855170271e+01
0	 3.142830431628386e+00	 5.571432615897928e+00	 1.006376457017942e+01
0	 3.142830431628385e+00	 5.714291269874074e+00	 1.004994618144177e+01
0	 3.285690802274106e+00	 4.285708730125926e+00	 1.008631537144418e+01
0	 3.285690802274106e+00	 4.428567384102074e+00	 1.009528408686212e+01
0	 3.285690802274105e+00	 4.571425771410666e+00	 1.010117490535849e+01
0	 3.285690802274106e+00	 4.714283958718593e+00	 1.010413989850427e+01
0	 3.285690802274105e+00	 4.857142012692742e+00	 1.010433114371618e+01
0	 3.285690802274106e+00	 5.000000000000000e+00	 1.010190072425676e+01
0	 3.285690802274106e+00	 5.142857987307260e+00	 1.009700072923438e+01
0	 3.285690802274107e+00	 5.285716041281410e+00	 1.008978325360317e+01
0	 3.285690802274106e+00	 5.428574228589335e+00	 1.008040039816301e+01
0	 3.285690802274106e+00	 5.571432615897930e+00	 1.006900426955932e+01
0	 3.285690802274106e+00	 5.714291269874074e+00	 1.005574698028300e+01
0	 3.428551072920193e+00	 4.285708730125926e+00	 1.010643110088125e+01
0	 3.428551072920194e+00	 4.428567384102075e+00	 1.011167056956096e+01
0	 3.428551072920194e+00	 4.571425771410667e+00	 1.011417185145053e+01
0	 3.428551072920191e+00	 4.714283958718593e+00	 1.011413509305926e+01
0	 3.428551072920193e+00	 4.857142012692742e+00	 1.011176044508352e+01
0	 3.428551072920193e+00	 5.000000000000001e+00	 1.010724806240684e+01
0	 3.428551072920192e+00	 5.142857987307259e+00	 1.010079810409987e+01
0	 3.428551072920193e+00	 5.285716041281409e+00	 1.009261073342031e+01
0	 3.428551072920194e+00	 5.428574228589336e+00	 1.008288611781287e+01
0	 3.428551072920193e+00	 5.571432615897928e+00	 1.007182442890912e+01
0	 3.428551072920193e+00	 5.714291269874074e+00	 1.005962584252738e+01
0	 3.571411210233103e+00	 4.285708730125926e+00	 1.012596732837231e+01
0	 3.571411210233102e+00	 4.428567384102075e+00	 1.012668393421147e+01
0	 3.571411210233102e+00	 4.571425771410667e+00	 1.012521618547445e+01
0	 3.571411210233101e+00	 4.714283958718593e+00	 1.012179105433430e+01
0	 3.571411210233102e+00	 4.857142012692742e+00	 1.011663551521823e+01
0	 3.571411210233104e+00	 5.000000000000002e+00	 1.010997654480756e+01
0	 3.571411210233102e+00	 5.142857987307260e+00	 1.010204112203769e+01
0	 3.571411210233101e+00	 5.285716041281408e+00	 1.009305622809804e+01
0	 3.571411210233103e+00	 5.428574228589335e+00	 1.008324884643195e+01
0	 3.571411210233102e+00	 5.571432615897927e+00	 1.007284596273663e+01
0	 3.571411210233102e+00	 5.714291269874074e+00	 1.006207456496300e+01
0	 3.714271180879289e+00	 4.285708730125926e+00	 1.014414667748653e+01
0	 3.714271180879290e+00	 4.428567384102074e+00	 1.013992975412559e+01
0	 3.714271180879290e+00	 4.571425771410668e+00	 1.013423953576843e+01
0	 3.714271180879290e+00	 4.714283958718593e+00	 1.012730857019389e+01
0	 3.714271180879290e+00	 4.857142012692742e+00	 1.011936940538701e+01
0	 3.714271180879290e+00	 5.000000000000003e+00	 1.011065458953889e+01
0	 3.714271180879289e+00	 5.142857987307260e+00	 1.010139667104669e+01
0	 3.714271180879290e+00	 5.285716041281409e+00	 1.009182819851348e+01
0	 3.714271180879289e+00	 5.428574228589335e+00	 1.008218172074818e+01
0	 3.714271180879290e+00	 5.571432615897928e+00	 1.007268978676552e+01
0	 3.714271180879289e+00	 5.714291269874075e+00	 1.006358494578589e+01
0	 3.857130951525211e+00	 4.285708730125926e+00	 1.016019177145661e+01
0	 3.857130951525210e+00	 4.428567384102076e+00	 1.015101360207851e+01
0	 3.857130951525209e+00	 4.571425771410667e+00	 1.014117353009622e+01
0	 3.857130951525211e+00	 4.714283958718594e+00	 1.013088842802323e+01
0	 3.857130951525210e+00	 4.857142012692740e+00	 1.012037516657553e+01
0	 3.857130951525210e+00	 5.000000000000001e+00	 1.010985061467148e+01
0	 3.857130951525210e+00	 5.142857987307262e+00	 1.009953163943165e+01
0	 3.857130951525211e+00	 5.285716041281410e+00	 1.008963510617878e+01
0	 3.857130951525210e+00	 5.428574228589335e+00	 1.008037787843771e+01
0	 3.857130951525211e+00	 5.571432615897929e+00	 1.007197681793523e+01
0	 3.857130951525210e+00	 5.714291269874074e+00	 1.006464878460008e+01
0	 3.999990488837320e+00	 4.285708730125926e+00	 1.017332523317871e+01
0	 3.999990488837320e+00	 4.428567384102074e+00	 1.015954105030863e+01
0	 3.999990488837321e+00	 4.571425771410668e+00	 1.014594979564712e+01
0	 3.999990488837320e+00	 4.714283958718593e+00	 1.013273141472827e+01
0	 3.999990488837320e+00	 4.857142012692742e+00	 1.012006584948854e+01
0	 3.999990488837321e+00	 5.000000000000001e+00	 1.010813303826663e+01
0	 3.999990488837319e+00	 5.142857987307260e+00	 1.009711291580326e+01
0	 3.999990488837319e+00	 5.285716041281409e+00	 1.008718541324118e+01
0	 3.999990488837320e+00	 5.428574228589336e+00	 1.007853045812497e+01
0	 3.999990488837319e+00	 5.571432615897927e+00	 1.007132797440105e+01
0	 3.999990488837321e+00	 5.714291269874074e+00	 1.006575788241761e+01
0	 4.142849759482073e+00	 4.285708730125925e+00	 1.018276968521252e+01
0	 4.142849759482074e+00	 4.428567384102074e+00	 1.016511767051755e+01
0	 4.142849759482074e+00	 4.571425771410667e+00	 1.014849995903596e+01
0	 4.142849759482075e+00	 4.714283958718593e+00	 1.013303831673567e+01
0	 4.142849759482075e+00	 4.857142012692742e+00	 1.011885450454978e+01
0	 4.142849759482074e+00	 5.000000000000000e+00	 1.010607027837633e+01
0	 4.142849759482075e+00	 5.142857987307260e+00	 1.009480738907819e+01
0	 4.142849759482074e+00	 5.285716041281408e+00	 1.008518758248292e+01
0	 4.142849759482074e+00	 5.428574228589335e+00	 1.007733259938266e+01
0	 4.142849759482074e+00	 5.571432615897927e+00	 1.007136417553411e+01
0	 4.142849759482075e+00	 5.714291269874074e+00	 1.006740404165849e+01
0	 4.285708730125926e+00	 4.285708730125926e+00	 1.018774774978118e+01
0	 4.285708730125926e+00	 4.428567384102075e+00	 1.016734903387006e+01
0	 4.285708730125926e+00	 4.571425771410667e+00	 1.014875564630308e+01
0	 4.285708730125926e+00	 4.714283958718593e+00	 1.013200991999280e+01
0	 4.285708730125926e+00	 4.857142012692742e+00	 1.011715418190197e+01
0	 4.285708730125926e+00	 5.000000000000001e+00	 1.010423075304323e+01
0	 4.285708730125926e+00	 5.142857987307262e+00	 1.009328194847900e+01
0	 4.285708730125926e+00	 5.285716041281411e+00	 1.008435007732131e+01
0	 4.285708730125925e+00	 5.428574228589334e+00	 1.007747744273175e+01
0	 4.285708730125926e+00	 5.571432615897929e+00	 1.007270634192140e+01
0	 4.285708730125925e+00	 5.714291269874074e+00	 1.007007906615084e+01
0	 2.857109523672222e+00	 5.714291269874074e+00	 1.003061159385640e+01
0	 2.857109523672222e+00	 5.857150240517928e+00	 1.001695561072427e+01
0	 2.857109523672222e+00	 6.000009511162682e+00	 1.000515948655332e+01
0	 2.857109523672222e+00	 6.142869048474791e+00	 9.995267065045574e+00
0	 2.857109523672222e+00	 6.285728819120712e+00	 9.987322193302107e+00
0	 2.857109523672222e+00	 6.428588789766900e+00	 9.981368721822971e+00
0	 2.857109523672222e+00	 6.571448927079808e+00	 9.977450504507150e+00
0	 2.857109523672222e+00	 6.714309197725895e+00	 9.975611398652461e+00
0	 2.857109523672222e+00	 6.857169568371616e+00	 9.975895264955518e+00
0	 2.857109523672222e+00	 7.000030005683426e+00	 9.978345967511725e+00
0	 2.857109523672222e+00	 7.142890476327777e+00	 9.983007373815205e+00
0	 2.999969994316576e+00	 5.714291269874074e+00	 1.004173165062362e+01
0	 2.999969994316576e+00	 5.857150240517929e+00	 1.002751073659498e+01
0	 2.999969994316576e+00	 6.000009511162682e+00	 1.001530124068590e+01
0	 2.999969994316577e+00	 6.142869048474792e+00	 1.000509235939740e+01
0	 2.999969994316576e+00	 6.285728819120711e+00	 9.996873292350895e+00
0	 2.999969994316576e+00	 6.428588789766899e+00	 9.990633242288130e+00
0	 2.999969994316577e+00	 6.571448927079809e+00	 9.986361415071080e+00
0	 2.999969994316576e+00	 6.714309197725897e+00	 9.984047019681929e+00
0	 2.999969994316576e+00	 6.857169568371617e+00	 9.983679268222998e+00
0	 2.999969994316576e+00	 7.000030005683427e+00	 9.985247375916700e+00
0	 2.999969994316576e+00	 7.142890476327779e+00	 9.988740561105576e+00
0	 3.142830431628385e+00	 5.714291269874074e+00	 1.004994618144177e+01
0	 3.142830431628385e+00	 5.857150240517927e+00	 1.003594801648286e+01
0	 3.142830431628385e+00	 6.000009511162681e+00	 1.002398306412145e+01
0	 3.142830431628385e+00	 6.142869048474791e+00	 1.001399666606859e+01
0	 3.142830431628385e+00	 6.285728819120711e+00	 1.000593416678536e+01
0	 3.142830431628386e+00	 6.428588789766899e+00	 9.999740913482944e+00
0	 3.142830431628385e+00	 6.571448927079808e+00	 9.995362256122434e+00
0	 3.142830431628385e+00	 6.714309197725898e+00	 9.992743547414833e+00
0	 3.142830431628385e+00	 6.857169568371616e+00	 9.991830142821039e+00
0	 3.142830431628385e+00	 7.000030005683426e+00	 9.992567400551717e+00
0	 3.142830431628385e+00	 7.142890476327778e+00	 9.994900681567390e+00
0	 3.285690802274106e+00	 5.714291269874074e+00	 1.005574698028300e+01
0	 3.285690802274106e+00	 5.857150240517927e+00	 1.004261068775043e+01
0	 3.285690802274105e+00	 6.000009511162682e+00	 1.003141765638076e+01
0	 3.285690802274106e+00	 6.142869048474791e+00	 1.002208016528807e+01
0	 3.285690802274105e+00	 6.285728819120711e+00	 1.001451049589984e+01
0	 3.285690802274106e+00	 6.428588789766898e+00	 1.000862093195684e+01
0	 3.285690802274105e+00	 6.571448927079808e+00	 1.000432375951315e+01
0	 3.285690802274106e+00	 6.714309197725895e+00	 1.000153126693600e+01
0	 3.285690802274106e+00	 6.857169568371618e+00	 1.000015574490589e+01
0	 3.285690802274106e+00	 7.000030005683427e+00	 1.000010948641639e+01
0	 3.285690802274106e+00	 7.142890476327779e+00	 1.000130478677422e+01
0	 3.428551072920193e+00	 5.714291269874074e+00	 1.005962584252738e+01
0	 3.428551072920193e+00	 5.857150240517929e+00	 1.004784198926266e+01
0	 3.428551072920193e+00	 6.000009511162683e+00	 1.003781771849152e+01
0	 3.428551072920192e+00	 6.142869048474789e+00	 1.002944303872130e+01
0	 3.428551072920193e+00	 6.285728819120712e+00	 1.002260796029483e+01
0	 3.428551072920193e+00	 6.428588789766898e+00	 1.001720249539040e+01
0	 3.428551072920193e+00	 6.571448927079810e+00	 1.001311665802165e+01
0	 3.428551072920193e+00	 6.714309197725896e+00	 1.001024046403764e+01
0	 3.428551072920193e+00	 6.857169568371617e+00	 1.000846393112269e+01
0	 3.428551072920193e+00	 7.000030005683425e+00	 1.000767707879643e+01
0	 3.428551072920194e+00	 7.142890476327778e+00	 1.000776992841376e+01
0	 3.571411210233102e+00	 5.714291269874074e+00	 1.006207456496300e+01
0	 3.571411210233102e+00	 5.857150240517928e+00	 1.005198516138700e+01
0	 3.571411210233104e+00	 6.000009511162683e+00	 1.004339595298835e+01
0	 3.571411210233102e+00	 6.142869048474791e+00	 1.003618546947011e+01
0	 3.571411210233103e+00	 6.285728819120713e+00	 1.003023224187699e+01
0	 3.571411210233103e+00	 6.428588789766900e+00	 1.002541480259530e+01
0	 3.571411210233103e+00	 6.571448927079809e+00	 1.002161168535294e+01
0	 3.571411210233102e+00	 6.714309197725896e+00	 1.001870142521934e+01
0	 3.571411210233102e+00	 6.857169568371615e+00	 1.001656255860544e+01
0	 3.571411210233103e+00	 7.000030005683426e+00	 1.001507362326365e+01
0	 3.571411210233103e+00	 7.142890476327778e+00	 1.001411315828786e+01
0	 3.714271180879289e+00	 5.714291269874075e+00	 1.006358494578589e+01
0	 3.714271180879290e+00	 5.857150240517928e+00	 1.005538344599336e+01
0	 3.714271180879290e+00	 6.000009511162684e+00	 1.004836506391282e+01
0	 3.714271180879289e+00	 6.142869048474791e+00	 1.004240764207282e+01
0	 3.714271180879289e+00	 6.285728819120712e+00	 1.003738902385911e+01
0	 3.714271180879290e+00	 6.428588789766899e+00	 1.003318705351440e+01
0	 3.714271180879289e+00	 6.571448927079808e+00	 1.002967957613848e+01
0	 3.714271180879290e+00	 6.714309197725897e+00	 1.002674443768812e+01
0	 3.714271180879290e+00	 6.857169568371616e+00	 1.002425948497704e+01
0	 3.714271180879291e+00	 7.000030005683426e+00	 1.002210256567596e+01
0	 3.714271180879291e+00	 7.142890476327779e+00	 1.002015152831247e+01
0	 3.857130951525210e+00	 5.714291269874074e+00	 1.006464878460008e+01
0	 3.857130951525211e+00	 5.857150240517927e+00	 1.005838008645416e+01
0	 3.857130951525210e+00	 6.000009511162681e+00	 1.005293775681338e+01
0	 3.857130951525210e+00	 6.142869048474790e+00	 1.004820974250421e+01
0	 3.857130951525210e+00	 6.285728819120711e+00	 1.004408399076015e+01
0	 3.857130951525210e+00	 6.428588789766899e+00	 1.004044844922169e+01
0	 3.857130951525210e+00	 6.571448927079809e+00	 1.003719106593629e+01
0	 3.857130951525211e+00	 6.714309197725898e+00	 1.003419978935839e+01
0	 3.857130951525210e+00	 6.857169568371615e+00	 1.003136256834932e+01
0	 3.857130951525210e+00	 7.000030005683426e+00	 1.002856735217734e+01
0	 3.857130951525211e+00	 7.142890476327778e+00	 1.002570209051768e+01
0	 3.999990488837321e+00	 5.714291269874074e+00	 1.006575788241761e+01
0	 3.999990488837320e+00	 5.857150240517927e+00	 1.006131832764427e+01
0	 3.999990488837320e+00	 6.000009511162682e+00	 1.005732673874549e+01
0	 3.999990488837320e+00	 6.142869048474791e+00	 1.005369195817551e+01
0	 3.999990488837320e+00	 6.285728819120711e+00	 1.005032282840525e+01
0	 3.999990488837319e+00	 6.428588789766900e+00	 1.004712819192230e+01
0	 3.999990488837319e+00	 6.571448927079809e+00	 1.004401689123091e+01
0	 3.999990488837320e+00	 6.714309197725894e+00	 1.004089776885195e+01
0	 3.999990488837320e+00	 6.857169568371616e+00	 1.003767966732292e+01
0	 3.999990488837320e+00	 7.000030005683426e+00	 1.003427142919793e+01
0	 3.999990488837320e+00	 7.142890476327778e+00	 1.003058189704766e+01
0	 4.142849759482075e+00	 5.714291269874074e+00	 1.006740404165849e+01
0	 4.142849759482075e+00	 5.857150240517927e+00	 1.006454141594110e+01
0	 4.142849759482075e+00	 6.000009511162682e+00	 1.006174471827155e+01
0	 4.142849759482075e+00	 6.142869048474791e+00	 1.005895447793446e+01
0	 4.142849759482075e+00	 6.285728819120713e+00	 1.005611122392573e+01
0	 4.142849759482075e+00	 6.428588789766899e+00	 1.005315548495255e+01
0	 4.142849759482074e+00	 6.571448927079809e+00	 1.005002778943341e+01
0	 4.142849759482075e+00	 6.714309197725896e+00	 1.004666866549803e+01
0	 4.142849759482073e+00	 6.857169568371615e+00	 1.004301864098743e+01
0	 4.142849759482074e+00	 7.000030005683427e+00	 1.003901824345385e+01
0	 4.142849759482075e+00	 7.142890476327779e+00	 1.003460800016075e+01
0	 4.285708730125925e+00	 5.714291269874074e+00	 1.007007906615084e+01
0	 4.285708730125926e+00	 5.857150240517928e+00	 1.006839259922459e+01
0	 4.285708730125926e+00	 6.000009511162682e+00	 1.006640440546094e+01
0	 4.285708730125926e+00	 6.142869048474793e+00	 1.006409749206529e+01
0	 4.285708730125926e+00	 6.285728819120710e+00	 1.006145486575909e+01
0	 4.285708730125925e+00	 6.428588789766899e+00	 1.005845953277993e+01
0	 4.285708730125926e+00	 6.571448927079809e+00	 1.005509449888142e+01
0	 4.285708730125926e+00	 6.714309197725895e+00	 1.005134276933328e+01
0	 4.285708730125926e+00	 6.857169568371619e+00	 1.004718734892134e+01
0	 4.285708730125926e+00	 7.000030005683427e+00	 1.004261124194740e+01
0	 4.285708730125926e+00	 7.142890476327779e+00	 1.003759745222937e+01
0	 2.857109523672222e+00	 7.142890476327777e+00	 9.983007373815205e+00
0	 2.857109523672222e+00	 7.285740955271015e+00	 9.988282394740473e+00
0	 2.857109523672222e+00	 7.428591450879006e+00	 9.992584979124066e+00
0	 2.857109523672222e+00	 7.571441979817511e+00	 9.995974340337103e+00
0	 2.857109523672222e+00	 7.714292558752279e+00	 9.998509692351629e+00
0	 2.857109523672223e+00	 7.857143204349073e+00	 1.000025024974072e+01
0	 2.857109523672223e+00	 7.999993933273644e+00	 1.000125522767840e+01
0	 2.857109523672222e+00	 8.142844762191746e+00	 1.000158384193966e+01
0	 2.857109523672222e+00	 8.285695707769142e+00	 1.000129530890047e+01
0	 2.857109523672222e+00	 8.428546786671577e+00	 1.000044884553775e+01
0	 2.857109523672222e+00	 8.571398015564816e+00	 9.999103669429397e+00
0	 2.999969994316576e+00	 7.142890476327779e+00	 9.988740561105580e+00
0	 2.999969994316575e+00	 7.285740955271011e+00	 9.992765048633458e+00
0	 2.999969994316576e+00	 7.428591450879006e+00	 9.995980025373743e+00
0	 2.999969994316575e+00	 7.571441979817511e+00	 9.998453220420034e+00
0	 2.999969994316576e+00	 7.714292558752281e+00	 1.000025236326004e+01
0	 2.999969994316576e+00	 7.857143204349073e+00	 1.000144518377543e+01
0	 2.999969994316577e+00	 7.999993933273647e+00	 1.000209941224201e+01
0	 2.999969994316576e+00	 8.142844762191746e+00	 1.000228277932954e+01
0	 2.999969994316576e+00	 8.285695707769140e+00	 1.000206301610189e+01
0	 2.999969994316576e+00	 8.428546786671577e+00	 1.000150785401690e+01
0	 2.999969994316576e+00	 8.571398015564817e+00	 1.000068502492649e+01
0	 3.142830431628385e+00	 7.142890476327778e+00	 9.994900681567387e+00
0	 3.142830431628385e+00	 7.285740955271012e+00	 9.997664247586293e+00
0	 3.142830431628385e+00	 7.428591450879007e+00	 9.999777733430959e+00
0	 3.142830431628386e+00	 7.571441979817511e+00	 1.000131390820440e+01
0	 3.142830431628386e+00	 7.714292558752282e+00	 1.000234554121976e+01
0	 3.142830431628386e+00	 7.857143204349076e+00	 1.000294540200026e+01
0	 3.142830431628385e+00	 7.999993933273643e+00	 1.000318626027919e+01
0	 3.142830431628385e+00	 8.142844762191746e+00	 1.000314088599995e+01
0	 3.142830431628385e+00	 8.285695707769140e+00	 1.000288204931602e+01
0	 3.142830431628386e+00	 8.428546786671578e+00	 1.000248252059095e+01
0	 3.142830431628386e+00	 8.571398015564814e+00	 1.000201507039837e+01
0	 3.285690802274106e+00	 7.142890476327779e+00	 1.000130478677422e+01
0	 3.285690802274106e+00	 7.285740955271013e+00	 1.000281960522427e+01
0	 3.285690802274105e+00	 7.428591450879005e+00	 1.000384017537348e+01
0	 3.285690802274105e+00	 7.571441979817509e+00	 1.000444083061321e+01
0	 3.285690802274106e+00	 7.714292558752280e+00	 1.000469590438407e+01
0	 3.285690802274107e+00	 7.857143204349074e+00	 1.000467973017581e+01
0	 3.285690802274106e+00	 7.999993933273643e+00	 1.000446664152741e+01
0	 3.285690802274106e+00	 8.142844762191746e+00	 1.000413097202699e+01
0	 3.285690802274106e+00	 8.285695707769142e+00	 1.000374705531186e+01
0	 3.285690802274106e+00	 8.428546786671577e+00	 1.000338922506850e+01
0	 3.285690802274106e+00	 8.571398015564814e+00	 1.000313181503263e+01
0	 3.428551072920194e+00	 7.142890476327778e+00	 1.000776992841376e+01
0	 3.428551072920193e+00	 7.285740955271015e+00	 1.000807073515751e+01
0	 3.428551072920192e+00	 7.428591450879003e+00	 1.000802942317556e+01
0	 3.428551072920193e+00	 7.571441979817511e+00	 1.000771841441389e+01
0	 3.428551072920192e+00	 7.714292558752280e+00	 1.000721013072981e+01
0	 3.428551072920192e+00	 7.857143204349075e+00	 1.000657699389202e+01
0	 3.428551072920194e+00	 7.999993933273646e+00	 1.000589142558069e+01
0	 3.428551072920194e+00	 8.142844762191752e+00	 1.000522584738732e+01
0	 3.428551072920193e+00	 8.285695707769140e+00	 1.000465268081484e+01
0	 3.428551072920194e+00	 8.428546786671578e+00	 1.000424434727757e+01
0	 3.428551072920193e+00	 8.571398015564817e+00	 1.000407326810125e+01
0	 3.571411210233103e+00	 7.142890476327778e+00	 1.001411315828786e+01
0	 3.571411210233103e+00	 7.285740955271015e+00	 1.001325725098082e+01
0	 3.571411210233103e+00	 7.428591450879006e+00	 1.001220754870796e+01
0	 3.571411210233103e+00	 7.571441979817511e+00	 1.001103108621824e+01
0	 3.571411210233102e+00	 7.714292558752281e+00	 1.000979489805742e+01
0	 3.571411210233103e+00	 7.857143204349074e+00	 1.000856601856807e+01
0	 3.571411210233102e+00	 7.999993933273643e+00	 1.000741148188960e+01
0	 3.571411210233103e+00	 8.142844762191748e+00	 1.000639832195821e+01
0	 3.571411210233103e+00	 8.285695707769140e+00	 1.000559357250689e+01
0	 3.571411210233103e+00	 8.428546786671577e+00	 1.000506426706545e+01
0	 3.571411210233103e+00	 8.571398015564816e+00	 1.000487743896055e+01
0	 3.714271180879291e+00	 7.142890476327779e+00	 1.002015152831247e+01
0	 3.714271180879289e+00	 7.285740955271014e+00	 1.001821876627386e+01
0	 3.714271180879290e+00	 7.428591450879007e+00	 1.001623662373785e+01
0	 3.714271180879291e+00	 7.571441979817512e+00	 1.001426327248240e+01
0	 3.714271180879290e+00	 7.714292558752281e+00	 1.001235688399096e+01
0	 3.714271180879289e+00	 7.857143204349073e+00	 1.001057562945246e+01
0	 3.714271180879289e+00	 7.999993933273643e+00	 1.000897767976134e+01
0	 3.714271180879291e+00	 8.142844762191750e+00	 1.000762120551752e+01
0	 3.714271180879291e+00	 8.285695707769142e+00	 1.000656437702637e+01
0	 3.714271180879290e+00	 8.428546786671582e+00	 1.000586536429880e+01
0	 3.714271180879290e+00	 8.571398015564814e+00	 1.000558233705121e+01
0	 3.857130951525211e+00	 7.142890476327778e+00	 1.002570209051768e+01
0	 3.857130951525211e+00	 7.285740955271013e+00	 1.002279489460101e+01
0	 3.857130951525210e+00	 7.428591450879006e+00	 1.001997871992889e+01
0	 3.857130951525211e+00	 7.571441979817513e+00	 1.001729939950689e+01
0	 3.857130951525211e+00	 7.714292558752282e+00	 1.001480276597804e+01
0	 3.857130951525212e+00	 7.857143204349074e+00	 1.001253465162292e+01
0	 3.857130951525211e+00	 7.999993933273644e+00	 1.001054088835960e+01
0	 3.857130951525211e+00	 8.142844762191748e+00	 1.000886730774364e+01
0	 3.857130951525210e+00	 8.285695707769142e+00	 1.000755974096811e+01
0	 3.857130951525210e+00	 8.428546786671575e+00	 1.000666401886362e+01
0	 3.857130951525211e+00	 8.571398015564816e+00	 1.000622597189821e+01
0	 3.999990488837320e+00	 7.142890476327778e+00	 1.003058189704766e+01
0	 3.999990488837320e+00	 7.285740955271015e+00	 1.002682524951140e+01
0	 3.999990488837320e+00	 7.428591450879008e+00	 1.002329590884122e+01
0	 3.999990488837320e+00	 7.571441979817513e+00	 1.002002389343658e+01
0	 3.999990488837320e+00	 7.714292558752280e+00	 1.001703922128990e+01
0	 3.999990488837320e+00	 7.857143204349073e+00	 1.001437190998649e+01
0	 3.999990488837320e+00	 7.999993933273644e+00	 1.001205197670465e+01
0	 3.999990488837320e+00	 8.142844762191746e+00	 1.001010943821558e+01
0	 3.999990488837320e+00	 8.285695707769142e+00	 1.000857431088340e+01
0	 3.999990488837320e+00	 8.428546786671577e+00	 1.000747661066519e+01
0	 3.999990488837320e+00	 8.571398015564817e+00	 1.000684635311095e+01
0	 4.142849759482075e+00	 7.142890476327779e+00	 1.003460800016075e+01
0	 4.142849759482075e+00	 7.285740955271015e+00	 1.003014944453894e+01
0	 4.142849759482073e+00	 7.428591450879008e+00	 1.002605026193140e+01
0	 4.142849759482075e+00	 7.571441979817511e+00	 1.002232118026069e+01
0	 4.142849759482074e+00	 7.714292558752280e+00	 1.001897292702129e+01
0	 4.142849759482075e+00	 7.857143204349073e+00	 1.001601622927946e+01
0	 4.142849759482074e+00	 7.999993933273645e+00	 1.001346181367333e+01
0	 4.142849759482075e+00	 8.142844762191748e+00	 1.001132040641289e+01
0	 4.142849759482075e+00	 8.285695707769140e+00	 1.000960273327996e+01
0	 4.142849759482074e+00	 8.428546786671577e+00	 1.000831951962819e+01
0	 4.142849759482075e+00	 8.571398015564816e+00	 1.000748149038312e+01
0	 4.285708730125926e+00	 7.142890476327779e+00	 1.003759745222937e+01
0	 4.285708730125926e+00	 7.285740955271015e+00	 1.003260709320227e+01
0	 4.285708730125926e+00	 7.428591450879009e+00	 1.002810385055243e+01
0	 4.285708730125926e+00	 7.571441979817511e+00	 1.002407568581278e+01
0	 4.285708730125925e+00	 7.714292558752280e+00	 1.002051056009057e+01
0	 4.285708730125926e+00	 7.857143204349074e+00	 1.001739643406734e+01
0	 4.285708730125926e+00	 7.999993933273643e+00	 1.001472126799898e+01
0	 4.285708730125926e+00	 8.142844762191748e+00	 1.001247302171568e+01
0	 4.285708730125926e+00	 8.285695707769140e+00	 1.001063965462194e+01
0	 4.285708730125926e+00	 8.428546786671578e+00	 1.000920912569658e+01
0	 4.285708730125926e+00	 8.571398015564817e+00	 1.000816939349273e+01
0	 2.857109523672222e+00	 8.571398015564816e+00	 9.999103669429395e+00
0	 2.857109523672221e+00	 8.714259388995400e+00	 9.997856508888539e+00
0	 2.857109523672223e+00	 8.857120812436383e+00	 9.997171669958007e+00
0	 2.857109523672222e+00	 8.999982169218281e+00	 9.996909407577590e+00
0	 2.857109523672222e+00	 9.142843342671597e+00	 9.996929978073547e+00
0	 2.857109523672223e+00	 9.285704216126852e+00	 9.997093639158495e+00
0	 2.857109523672222e+00	 9.428564672914550e+00	 9.997260649931306e+00
0	 2.857109523672222e+00	 9.571424596365199e+00	 9.997291270877108e+00
0	 2.857109523672222e+00	 9.714283869809323e+00	 9.997045763867199e+00
0	 2.857109523672223e+00	 9.857142376577418e+00	 9.996384392159097e+00
0	 2.857109523672222e+00	 9.999999999999998e+00	 9.995167420396507e+00
0	 2.999969994316576e+00	 8.571398015564817e+00	 1.000068502492650e+01
0	 2.999969994316575e+00	 8.714259388995396e+00	 9.999926466289081e+00
0	 2.999969994316575e+00	 8.857120812436383e+00	 9.999448656878293e+00
0	 2.999969994316575e+00	 8.999982169218280e+00	 9.999145944732490e+00
0	 2.999969994316577e+00	 9.142843342671600e+00	 9.998912678004428e+00
0	 2.999969994316576e+00	 9.285704216126854e+00	 9.998643204961217e+00
0	 2.999969994316576e+00	 9.428564672914550e+00	 9.998231873984135e+00
0	 2.999969994316575e+00	 9.571424596365199e+00	 9.997573033568614e+00
0	 2.999969994316576e+00	 9.714283869809320e+00	 9.996561032324184e+00
0	 2.999969994316576e+00	 9.857142376577418e+00	 9.995090218974335e+00
0	 2.999969994316576e+00	 1.000000000000000e+01	 9.993054942356327e+00
0	 3.142830431628386e+00	 8.571398015564814e+00	 1.000201507039837e+01
0	 3.142830431628386e+00	 8.714259388995401e+00	 1.000160002970237e+01
0	 3.142830431628385e+00	 8.857120812436383e+00	 1.000125921186391e+01
0	 3.142830431628385e+00	 8.999982169218281e+00	 1.000091751043004e+01
0	 3.142830431628385e+00	 9.142843342671600e+00	 1.000049981818474e+01
0	 3.142830431628386e+00	 9.285704216126852e+00	 9.999931027149044e+00
0	 3.142830431628385e+00	 9.428564672914550e+00	 9.999136028580754e+00
0	 3.142830431628385e+00	 9.571424596365199e+00	 9.998039712974485e+00
0	 3.142830431628385e+00	 9.714283869809320e+00	 9.996566970061433e+00
0	 3.142830431628385e+00	 9.857142376577414e+00	 9.994642688809268e+00
0	 3.142830431628385e+00	 1.000000000000000e+01	 9.992191757422086e+00
0	 3.285690802274106e+00	 8.571398015564814e+00	 1.000313181503263e+01
0	 3.285690802274106e+00	 8.714259388995401e+00	 1.000293197868698e+01
0	 3.285690802274106e+00	 8.857120812436385e+00	 1.000266526751883e+01
0	 3.285690802274106e+00	 8.999982169218281e+00	 1.000228357302742e+01
0	 3.285690802274106e+00	 9.142843342671599e+00	 1.000173878541920e+01
0	 3.285690802274105e+00	 9.285704216126852e+00	 1.000098279360776e+01
0	 3.285690802274106e+00	 9.428564672914550e+00	 9.999967485213727e+00
0	 3.285690802274105e+00	 9.571424596365201e+00	 9.998644746564597e+00
0	 3.285690802274106e+00	 9.714283869809321e+00	 9.996966462694697e+00
0	 3.285690802274106e+00	 9.857142376577416e+00	 9.994884517344989e+00
0	 3.285690802274106e+00	 1.000000000000000e+01	 9.992350792962757e+00
0	 3.428551072920193e+00	 8.571398015564817e+00	 1.000407326810125e+01
0	 3.428551072920193e+00	 8.714259388995401e+00	 1.000397709294810e+01
0	 3.428551072920193e+00	 8.857120812436383e+00	 1.000372875664812e+01
0	 3.428551072920193e+00	 8.999982169218280e+00	 1.000330360112493e+01
0	 3.428551072920194e+00	 9.142843342671600e+00	 1.000267696677992e+01
0	 3.428551072920195e+00	 9.285704216126854e+00	 1.000182419249223e+01
0	 3.428551072920193e+00	 9.428564672914550e+00	 1.000072061561869e+01
0	 3.428551072920193e+00	 9.571424596365203e+00	 9.999341571993607e+00
0	 3.428551072920193e+00	 9.714283869809320e+00	 9.997662395928673e+00
0	 3.428551072920193e+00	 9.857142376577414e+00	 9.995658420212802e+00
0	 3.428551072920193e+00	 1.000000000000000e+01	 9.993304976111949e+00
0	 3.571411210233103e+00	 8.571398015564816e+00	 1.000487743896055e+01
0	 3.571411210233103e+00	 8.714259388995401e+00	 1.000479015233754e+01
0	 3.571411210233103e+00	 8.857120812436387e+00	 1.000451161225813e+01
0	 3.571411210233103e+00	 8.999982169218281e+00	 1.000403706356592e+01
0	 3.571411210233103e+00	 9.142843342671602e+00	 1.000336174960631e+01
0	 3.571411210233102e+00	 9.285704216126851e+00	 1.000248091222632e+01
0	 3.571411210233104e+00	 9.428564672914549e+00	 1.000138979177449e+01
0	 3.571411210233102e+00	 9.571424596365199e+00	 1.000008362710087e+01
0	 3.571411210233103e+00	 9.714283869809320e+00	 9.998557655556722e+00
0	 3.571411210233102e+00	 9.857142376577418e+00	 9.996807112994592e+00
0	 3.571411210233102e+00	 1.000000000000000e+01	 9.994827233767813e+00
0	 3.714271180879290e+00	 8.571398015564814e+00	 1.000558233705121e+01
0	 3.714271180879289e+00	 8.714259388995401e+00	 1.000542593685373e+01
0	 3.714271180879289e+00	 8.857120812436383e+00	 1.000507576755629e+01
0	 3.714271180879290e+00	 8.999982169218281e+00	 1.000454342943685e+01
0	 3.714271180879289e+00	 9.142843342671599e+00	 1.000384052150521e+01
0	 3.714271180879290e+00	 9.285704216126851e+00	 1.000297864150286e+01
0	 3.714271180879290e+00	 9.428564672914549e+00	 1.000196938590300e+01
0	 3.714271180879289e+00	 9.571424596365201e+00	 1.000082434991034e+01
0	 3.714271180879289e+00	 9.714283869809320e+00	 9.999555127461029e+00
0	 3.714271180879290e+00	 9.857142376577416e+00	 9.998173311222455e+00
0	 3.714271180879290e+00	 1.000000000000000e+01	 9.996690492593164e+00
0	 3.857130951525211e+00	 8.571398015564816e+00	 1.000622597189821e+01
0	 3.857130951525210e+00	 8.714259388995401e+00	 1.000593922664169e+01
0	 3.857130951525210e+00	 8.857120812436385e+00	 1.000548315595126e+01
0	 3.857130951525210e+00	 8.999982169218280e+00	 1.000488216806723e+01
0	 3.857130951525209e+00	 9.142843342671599e+00	 1.000416067035070e+01
0	 3.857130951525210e+00	 9.285704216126852e+00	 1.000334306928377e+01
0	 3.857130951525211e+00	 9.428564672914550e+00	 1.000245377046928e+01
0	 3.857130951525210e+00	 9.571424596365201e+00	 1.000151717863079e+01
0	 3.857130951525211e+00	 9.714283869809320e+00	 1.000055769761244e+01
0	 3.857130951525209e+00	 9.857142376577420e+00	 9.999599730378918e+00
0	 3.857130951525210e+00	 1.000000000000000e+01	 9.998667679015142e+00
0	 3.999990488837320e+00	 8.571398015564817e+00	 1.000684635311095e+01
0	 3.999990488837320e+00	 8.714259388995400e+00	 1.000638480199308e+01
0	 3.999990488837319e+00	 8.857120812436383e+00	 1.000579571105293e+01
0	 3.999990488837321e+00	 8.999982169218281e+00	 1.000511274902962e+01
0	 3.999990488837320e+00	 9.142843342671600e+00	 1.000436958428427e+01
0	 3.999990488837321e+00	 9.285704216126854e+00	 1.000359988479991e+01
0	 3.999990488837319e+00	 9.428564672914549e+00	 1.000283731818145e+01
0	 3.999990488837321e+00	 9.571424596365201e+00	 1.000211555165559e+01
0	 3.999990488837320e+00	 9.714283869809320e+00	 1.000146825207077e+01
0	 3.999990488837320e+00	 9.857142376577416e+00	 1.000092908589693e+01
0	 3.999990488837320e+00	 1.000000000000000e+01	 1.000053171922577e+01
0	 4.142849759482075e+00	 8.571398015564816e+00	 1.000748149038312e+01
0	 4.142849759482074e+00	 8.714259388995400e+00	 1.000681744334611e+01
0	 4.142849759482075e+00	 8.857120812436387e+00	 1.000607536667222e+01
0	 4.142849759482075e+00	 8.999982169218281e+00	 1.000529464213969e+01
0	 4.142849759482074e+00	 9.142843342671602e+00	 1.000451465171471e+01
0	 4.142849759482075e+00	 9.285704216126852e+00	 1.000377477755117e+01
0	 4.142849759482074e+00	 9.428564672914547e+00	 1.000311440199075e+01
0	 4.142849759482073e+00	 9.571424596365198e+00	 1.000257290756277e+01
0	 4.142849759482074e+00	 9.714283869809320e+00	 1.000218967698427e+01
0	 4.142849759482074e+00	 9.857142376577416e+00	 1.000200409315976e+01
0	 4.142849759482075e+00	 1.000000000000000e+01	 1.000205553918135e+01
0	 4.285708730125926e+00	 8.571398015564817e+00	 1.000816939349273e+01
0	 4.285708730125926e+00	 8.714259388995401e+00	 1.000729193128567e+01
0	 4.285708730125926e+00	 8.857120812436385e+00	 1.000638405682133e+01
0	 4.285708730125925e+00	 8.999982169218280e+00	 1.000548731745621e+01
0	 4.285708730125926e+00	 9.142843342671600e+00	 1.000464326131818e+01
0	 4.285708730125925e+00	 9.285704216126851e+00	 1.000389343730648e+01
0	 4.285708730125926e+00	 9.428564672914549e+00	 1.000327939509153e+01
0	 4.285708730125926e+00	 9.571424596365203e+00	 1.000284268511513e+01
0	 4.285708730125926e+00	 9.714283869809318e+00	 1.000262485859021e+01
0	 4.285708730125926e+00	 9.857142376577416e+00	 1.000266746750096e+01
0	 4.285708730125926e+00	 1.000000000000000e+01	 1.000301206460268e+01
0	 4.285708730125926e+00	 0.000000000000000e+00	 1.021666021032893e+01
0	 4.285708730125926e+00	 1.428576234225852e-01	 1.025997742959478e+01
0	 4.285708730125926e+00	 2.857161301906819e-01	 1.029690373005874e+01
0	 4.285708730125925e+00	 4.285754036348007e-01	 1.032723948598777e+01
0	 4.285708730125926e+00	 5.714353270854531e-01	 1.035078502988704e+01
0	 4.285708730125926e+00	 7.142957838731496e-01	 1.036734065250307e+01
0	 4.285708730125925e+00	 8.571566573284017e-01	 1.037670660282640e+01
0	 4.285708730125926e+00	 1.000017830781720e+00	 1.037868308809373e+01
0	 4.285708730125926e+00	 1.142879187563616e+00	 1.037307027378951e+01
0	 4.285708730125926e+00	 1.285740611004601e+00	 1.035966828364707e+01
0	 4.285708730125926e+00	 1.428601984435185e+00	 1.033827719964922e+01
0	 4.428567384102075e+00	 0.000000000000000e+00	 1.015818377579874e+01
0	 4.428567384102074e+00	 1.428576234225852e-01	 1.021375608101026e+01
0	 4.428567384102073e+00	 2.857161301906819e-01	 1.026013466088545e+01
0	 4.428567384102075e+00	 4.285754036348007e-01	 1.029736598998043e+01
0	 4.428567384102074e+00	 5.714353270854529e-01	 1.032549649745903e+01
0	 4.428567384102073e+00	 7.142957838731495e-01	 1.034457256709616e+01
0	 4.428567384102075e+00	 8.571566573284016e-01	 1.035464053728050e+01
0	 4.428567384102075e+00	 1.000017830781720e+00	 1.035574670101675e+01
0	 4.428567384102074e+00	 1.142879187563616e+00	 1.034793730592722e+01
0	 4.428567384102074e+00	 1.285740611004601e+00	 1.033125855425290e+01
0	 4.428567384102075e+00	 1.428601984435185e+00	 1.030575660285409e+01
0	 4.571425771410668e+00	 0.000000000000000e+00	 1.011581510349060e+01
0	 4.571425771410667e+00	 1.428576234225853e-01	 1.017673331071502e+01
0	 4.571425771410667e+00	 2.857161301906819e-01	 1.022698835626524e+01
0	 4.571425771410665e+00	 4.285754036348007e-01	 1.026683192305041e+01
0	 4.571425771410667e+00	 5.714353270854531e-01	 1.029651564985688e+01
0	 4.571425771410668e+00	 7.142957838731497e-01	 1.031629113135133e+01
0	 4.571425771410667e+00	 8.571566573284016e-01	 1.032640991808336e+01
0	 4.571425771410667e+00	 1.000017830781720e+00	 1.032712351648759e+01
0	 4.571425771410666e+00	 1.142879187563616e+00	 1.031868338888513e+01
0	 4.571425771410668e+00	 1.285740611004601e+00	 1.030134095348467e+01
0	 4.571425771410668e+00	 1.428601984435185e+00	 1.027534758438279e+01
0	 4.714283958718593e+00	 0.000000000000000e+00	 1.008786024681395e+01
0	 4.714283958718593e+00	 1.428576234225853e-01	 1.014827561700582e+01
0	 4.714283958718593e+00	 2.857161301906819e-01	 1.019769717092627e+01
0	 4.714283958718594e+00	 4.285754036348007e-01	 1.023654091290660e+01
0	 4.714283958718592e+00	 5.714353270854531e-01	 1.026522280837103e+01
0	 4.714283958718593e+00	 7.142957838731497e-01	 1.028415878383944e+01
0	 4.714283958718595e+00	 8.571566573284018e-01	 1.029376472692966e+01
0	 4.714283958718593e+00	 1.000017830781720e+00	 1.029445648635924e+01
0	 4.714283958718593e+00	 1.142879187563616e+00	 1.028664987194678e+01
0	 4.714283958718593e+00	 1.285740611004601e+00	 1.027076065461278e+01
0	 4.714283958718593e+00	 1.428601984435185e+00	 1.024720456637999e+01
0	 4.857142012692742e+00	 0.000000000000000e+00	 1.007262523134925e+01
0	 4.857142012692741e+00	 1.428576234225852e-01	 1.012774947561732e+01
0	 4.857142012692741e+00	 2.857161301906819e-01	 1.017249344136779e+01
0	 4.857142012692742e+00	 4.285754036348007e-01	 1.020739657254275e+01
0	 4.857142012692742e+00	 5.714353270854530e-01	 1.023299828238567e+01
0	 4.857142012692742e+00	 7.142957838731497e-01	 1.024983795344352e+01
0	 4.857142012692740e+00	 8.571566573284016e-01	 1.025845493756860e+01
0	 4.857142012692743e+00	 1.000017830781720e+00	 1.025938855591995e+01
0	 4.857142012692742e+00	 1.142879187563616e+00	 1.025317809896435e+01
0	 4.857142012692741e+00	 1.285740611004601e+00	 1.024036282647705e+01
0	 4.857142012692742e+00	 1.428601984435186e+00	 1.022148196754195e+01
0	 5.000000000000002e+00	 0.000000000000000e+00	 1.006841605484741e+01
0	 5.000000000000002e+00	 1.428576234225853e-01	 1.011452133972162e+01
0	 5.000000000000001e+00	 2.857161301906819e-01	 1.015160948585970e+01
0	 5.000000000000002e+00	 4.285754036348007e-01	 1.018030250023717e+01
0	 5.000000000000001e+00	 5.714353270854530e-01	 1.020122236937852e+01
0	 5.000000000000000e+00	 7.142957838731497e-01	 1.021499105935857e+01
0	 5.000000000000002e+00	 8.571566573284017e-01	 1.022223051580377e+01
0	 5.000000000000002e+00	 1.000017830781720e+00	 1.022356266389306e+01
0	 5.000000000000003e+00	 1.142879187563616e+00	 1.021960940835868e+01
0	 4.999999999999998e+00	 1.285740611004601e+00	 1.021099263348657e+01
0	 5.000000000000000e+00	 1.428601984435185e+00	 1.019833420311656e+01
0	 5.142857987307262e+00	 0.000000000000000e+00	 1.007353868722931e+01
0	 5.142857987307259e+00	 1.428576234225852e-01	 1.010795763992788e+01
0	 5.142857987307259e+00	 2.857161301906819e-01	 1.013527760444223e+01
0	 5.142857987307262e+00	 4.285754036348008e-01	 1.015616227955245e+01
0	 5.142857987307260e+00	 5.714353270854531e-01	 1.017127535492061e+01
0	 5.142857987307262e+00	 7.142957838731497e-01	 1.018128051109144e+01
0	 5.142857987307260e+00	 8.571566573284015e-01	 1.018684141949297e+01
0	 5.142857987307261e+00	 1.000017830781720e+00	 1.018862174243690e+01
0	 5.142857987307260e+00	 1.142879187563616e+00	 1.018728513311907e+01
0	 5.142857987307261e+00	 1.285740611004601e+00	 1.018349523561963e+01
0	 5.142857987307260e+00	 1.428601984435185e+00	 1.017791568490324e+01
0	 5.285716041281409e+00	 0.000000000000000e+00	 1.008629907058555e+01
0	 5.285716041281410e+00	 1.428576234225853e-01	 1.010742478428211e+01
0	 5.285716041281411e+00	 2.857161301906819e-01	 1.012373007892586e+01
0	 5.285716041281408e+00	 4.285754036348006e-01	 1.013587947933537e+01
0	 5.285716041281410e+00	 5.714353270854531e-01	 1.014453751267617e+01
0	 5.285716041281409e+00	 7.142957838731496e-01	 1.015036870846069e+01
0	 5.285716041281409e+00	 8.571566573284018e-01	 1.015403759854819e+01
0	 5.285716041281410e+00	 1.000017830781720e+00	 1.015620871714477e+01
0	 5.285716041281408e+00	 1.142879187563616e+00	 1.015754660080336e+01
0	 5.285716041281409e+00	 1.285740611004601e+00	 1.015871578842380e+01
0	 5.285716041281408e+00	 1.428601984435185e+00	 1.016038082125291e+01
0	 5.428574228589335e+00	 0.000000000000000e+00	 1.010500311917645e+01
0	 5.428574228589335e+00	 1.428576234225853e-01	 1.011228915826715e+01
0	 5.428574228589333e+00	 2.857161301906818e-01	 1.011719917289119e+01
0	 5.428574228589334e+00	 4.285754036348007e-01	 1.012035765371685e+01
0	 5.428574228589335e+00	 5.714353270854531e-01	 1.012238910440266e+01
0	 5.428574228589335e+00	 7.142957838731496e-01	 1.012391804159663e+01
0	 5.428574228589334e+00	 8.571566573284018e-01	 1.012556899493562e+01
0	 5.428574228589335e+00	 1.000017830781720e+00	 1.012796650704489e+01
0	 5.428574228589335e+00	 1.142879187563616e+00	 1.013173513353783e+01
0	 5.428574228589333e+00	 1.285740611004601e+00	 1.013749944301577e+01
0	 5.428574228589335e+00	 1.428601984435185e+00	 1.014588401706809e+01
0	 5.571432615897928e+00	 0.000000000000000e+00	 1.012795671943214e+01
0	 5.571432615897929e+00	 1.428576234225852e-01	 1.012191712480278e+01
0	 5.571432615897928e+00	 2.857161301906818e-01	 1.011591713168912e+01
0	 5.571432615897927e+00	 4.285754036348007e-01	 1.011050034211206e+01
0	 5.571432615897928e+00	 5.714353270854531e-01	 1.010621037995078e+01
0	 5.571432615897928e+00	 7.142957838731496e-01	 1.010359089094134e+01
0	 5.571432615897929e+00	 8.571566573284016e-01	 1.010318554267563e+01
0	 5.571432615897928e+00	 1.000017830781720e+00	 1.010553802460052e+01
0	 5.571432615897929e+00	 1.142879187563616e+00	 1.011119204801734e+01
0	 5.571432615897929e+00	 1.285740611004601e+00	 1.012069134608156e+01
0	 5.571432615897927e+00	 1.428601984435185e+00	 1.013457967380281e+01
0	 5.714291269874075e+00	 0.000000000000000e+00	 1.015346572995294e+01
0	 5.714291269874074e+00	 1.428576234225853e-01	 1.013567502424599e+01
0	 5.714291269874074e+00	 2.857161301906819e-01	 1.012011618244099e+01
0	 5.714291269874074e+00	 4.285754036348008e-01	 1.010721106922056e+01
0	 5.714291269874074e+00	 5.714353270854531e-01	 1.009738157726463e+01
0	 5.714291269874074e+00	 7.142957838731496e-01	 1.009104962724881e+01
0	 5.714291269874074e+00	 8.571566573284018e-01	 1.008863716784293e+01
0	 5.714291269874075e+00	 1.000017830781720e+00	 1.009056617570996e+01
0	 5.714291269874074e+00	 1.142879187563616e+00	 1.009725865550531e+01
0	 5.714291269874074e+00	 1.285740611004601e+00	 1.010913663987643e+01
0	 5.714291269874074e+00	 1.428601984435185e+00	 1.012662218946280e+01
0	 4.285708730125926e+00	 1.428601984435185e+00	 1.033827719964922e+01
0	 4.285708730125925e+00	 1.571453213328422e+00	 1.031405073720029e+01
0	 4.285708730125926e+00	 1.714304292230859e+00	 1.029239673922546e+01
0	 4.285708730125926e+00	 1.857155237808252e+00	 1.027350179146961e+01
0	 4.285708730125926e+00	 2.000006066726355e+00	 1.025755247823955e+01
0	 4.285708730125927e+00	 2.142856795650926e+00	 1.024473538240401e+01
0	 4.285708730125925e+00	 2.285707441247717e+00	 1.023523708539365e+01
0	 4.285708730125926e+00	 2.428558020182488e+00	 1.022924416720102e+01
0	 4.285708730125926e+00	 2.571408549120993e+00	 1.022694320638058e+01
0	 4.285708730125926e+00	 2.714259044728984e+00	 1.022852078004868e+01
0	 4.285708730125926e+00	 2.857109523672222e+00	 1.023416346388355e+01
0	 4.428567384102075e+00	 1.428601984435185e+00	 1.030575660285409e+01
0	 4.428567384102075e+00	 1.571453213328422e+00	 1.027784537210604e+01
0	 4.428567384102074e+00	 1.714304292230859e+00	 1.025396908005100e+01
0	 4.428567384102076e+00	 1.857155237808252e+00	 1.023422557269301e+01
0	 4.428567384102075e+00	 2.000006066726356e+00	 1.021871269361920e+01
0	 4.428567384102076e+00	 2.142856795650926e+00	 1.020752828399983e+01
0	 4.428567384102074e+00	 2.285707441247718e+00	 1.020077018258820e+01
0	 4.428567384102075e+00	 2.428558020182488e+00	 1.019853622572065e+01
0	 4.428567384102076e+00	 2.571408549120992e+00	 1.020092424731658e+01
0	 4.428567384102075e+00	 2.714259044728984e+00	 1.020803207887843e+01
0	 4.428567384102074e+00	 2.857109523672222e+00	 1.021995754949165e+01
0	 4.571425771410668e+00	 1.428601984435185e+00	 1.027534758438279e+01
0	 4.571425771410668e+00	 1.571453213328422e+00	 1.024744728418555e+01
0	 4.571425771410667e+00	 1.714304292230858e+00	 1.022422816522202e+01
0	 4.571425771410667e+00	 1.857155237808251e+00	 1.020571408019546e+01
0	 4.571425771410667e+00	 2.000006066726355e+00	 1.019192887897109e+01
0	 4.571425771410668e+00	 2.142856795650926e+00	 1.018289640857603e+01
0	 4.571425771410667e+00	 2.285707441247718e+00	 1.017864051319933e+01
0	 4.571425771410666e+00	 2.428558020182488e+00	 1.017918503419188e+01
0	 4.571425771410667e+00	 2.571408549120992e+00	 1.018455381006647e+01
0	 4.571425771410668e+00	 2.714259044728985e+00	 1.019477067649770e+01
0	 4.571425771410667e+00	 2.857109523672223e+00	 1.020985946632209e+01
0	 4.714283958718593e+00	 1.428601984435185e+00	 1.024720456637999e+01
0	 4.714283958718593e+00	 1.571453213328421e+00	 1.022229175825430e+01
0	 4.714283958718595e+00	 1.714304292230859e+00	 1.020202783677114e+01
0	 4.714283958718594e+00	 1.857155237808252e+00	 1.018637740856206e+01
0	 4.714283958718594e+00	 2.000006066726355e+00	 1.017530507746068e+01
0	 4.714283958718594e+00	 2.142856795650925e+00	 1.016877544450265e+01
0	 4.714283958718594e+00	 2.285707441247718e+00	 1.016675310792566e+01
0	 4.714283958718593e+00	 2.428558020182488e+00	 1.016920266316941e+01
0	 4.714283958718593e+00	 2.571408549120991e+00	 1.017608870287553e+01
0	 4.714283958718594e+00	 2.714259044728985e+00	 1.018737581688771e+01
0	 4.714283958718593e+00	 2.857109523672222e+00	 1.020302859225155e+01
0	 4.857142012692742e+00	 1.428601984435186e+00	 1.022148196754195e+01
0	 4.857142012692742e+00	 1.571453213328422e+00	 1.020181407673168e+01
0	 4.857142012692741e+00	 1.714304292230858e+00	 1.018622193544189e+01
0	 4.857142012692741e+00	 1.857155237808251e+00	 1.017462565220919e+01
0	 4.857142012692741e+00	 2.000006066726355e+00	 1.016694533317728e+01
0	 4.857142012692742e+00	 2.142856795650926e+00	 1.016310108209691e+01
0	 4.857142012692742e+00	 2.285707441247718e+00	 1.016301300032590e+01
0	 4.857142012692741e+00	 2.428558020182488e+00	 1.016660118682908e+01
0	 4.857142012692742e+00	 2.571408549120992e+00	 1.017378573817831e+01
0	 4.857142012692742e+00	 2.714259044728984e+00	 1.018448674855247e+01
0	 4.857142012692742e+00	 2.857109523672222e+00	 1.019862430973743e+01
0	 5.000000000000000e+00	 1.428601984435185e+00	 1.019833420311656e+01
0	 4.999999999999999e+00	 1.571453213328422e+00	 1.018544951964096e+01
0	 5.000000000000002e+00	 1.714304292230859e+00	 1.017566430068869e+01
0	 5.000000000000000e+00	 1.857155237808251e+00	 1.016886890538458e+01
0	 5.000000000000001e+00	 2.000006066726355e+00	 1.016495369113410e+01
0	 5.000000000000002e+00	 2.142856795650926e+00	 1.016380901362331e+01
0	 5.000000000000002e+00	 2.285707441247718e+00	 1.016532522681886e+01
0	 5.000000000000001e+00	 2.428558020182488e+00	 1.016939268296801e+01
0	 5.000000000000001e+00	 2.571408549120992e+00	 1.017590173259856e+01
0	 5.000000000000001e+00	 2.714259044728985e+00	 1.018474272451892e+01
0	 5.000000000000000e+00	 2.857109523672223e+00	 1.019580600581806e+01
0	 5.142857987307260e+00	 1.428601984435185e+00	 1.017791568490324e+01
0	 5.142857987307262e+00	 1.571453213328422e+00	 1.017263336460928e+01
0	 5.142857987307260e+00	 1.714304292230859e+00	 1.016920877067686e+01
0	 5.142857987307261e+00	 1.857155237808252e+00	 1.016751726216732e+01
0	 5.142857987307260e+00	 2.000006066726355e+00	 1.016743419726829e+01
0	 5.142857987307262e+00	 2.142856795650926e+00	 1.016883493329364e+01
0	 5.142857987307261e+00	 2.285707441247718e+00	 1.017159482668361e+01
0	 5.142857987307263e+00	 2.428558020182489e+00	 1.017558923300462e+01
0	 5.142857987307261e+00	 2.571408549120992e+00	 1.018069350694943e+01
0	 5.142857987307259e+00	 2.714259044728984e+00	 1.018678300233703e+01
0	 5.142857987307262e+00	 2.857109523672222e+00	 1.019373307211272e+01
0	 5.285716041281408e+00	 1.428601984435185e+00	 1.016038082125291e+01
0	 5.285716041281407e+00	 1.571453213328422e+00	 1.016280088686762e+01
0	 5.285716041281409e+00	 1.714304292230859e+00	 1.016570918228263e+01
0	 5.285716041281407e+00	 1.857155237808252e+00	 1.016898081646785e+01
0	 5.285716041281409e+00	 2.000006066726355e+00	 1.017249089844090e+01
0	 5.285716041281407e+00	 2.142856795650926e+00	 1.017611453726708e+01
0	 5.285716041281408e+00	 2.285707441247718e+00	 1.017972684205946e+01
0	 5.285716041281408e+00	 2.428558020182487e+00	 1.018320292197878e+01
0	 5.285716041281409e+00	 2.571408549120992e+00	 1.018641788623350e+01
0	 5.285716041281410e+00	 2.714259044728984e+00	 1.018924684407986e+01
0	 5.285716041281409e+00	 2.857109523672222e+00	 1.019156490482176e+01
0	 5.428574228589335e+00	 1.428601984435185e+00	 1.014588401706809e+01
0	 5.428574228589335e+00	 1.571453213328422e+00	 1.015538735925086e+01
0	 5.428574228589335e+00	 1.714304292230859e+00	 1.016401937109316e+01
0	 5.428574228589335e+00	 1.857155237808251e+00	 1.017166966202802e+01
0	 5.428574228589335e+00	 2.000006066726355e+00	 1.017822784243701e+01
0	 5.428574228589334e+00	 2.142856795650926e+00	 1.018358352365015e+01
0	 5.428574228589335e+00	 2.285707441247718e+00	 1.018762631794603e+01
0	 5.428574228589336e+00	 2.428558020182489e+00	 1.019024583855173e+01
0	 5.428574228589334e+00	 2.571408549120992e+00	 1.019133169964287e+01
0	 5.428574228589336e+00	 2.714259044728985e+00	 1.019077351634360e+01
0	 5.428574228589336e+00	 2.857109523672222e+00	 1.018846090472662e+01
0	 5.571432615897927e+00	 1.428601984435185e+00	 1.013457967380281e+01
0	 5.571432615897930e+00	 1.571453213328422e+00	 1.014982805219778e+01
0	 5.571432615897928e+00	 1.714304292230859e+00	 1.016299317140656e+01
0	 5.571432615897928e+00	 1.857155237808251e+00	 1.017399389242112e+01
0	 5.571432615897928e+00	 2.000006066726355e+00	 1.018274907796569e+01
0	 5.571432615897928e+00	 2.142856795650925e+00	 1.018917759249681e+01
0	 5.571432615897927e+00	 2.285707441247717e+00	 1.019319830220327e+01
0	 5.571432615897928e+00	 2.428558020182489e+00	 1.019473007500619e+01
0	 5.571432615897929e+00	 2.571408549120992e+00	 1.019369178055902e+01
0	 5.571432615897929e+00	 2.714259044728985e+00	 1.019000229024754e+01
0	 5.571432615897929e+00	 2.857109523672223e+00	 1.018358047718984e+01
0	 5.714291269874074e+00	 1.428601984435185e+00	 1.012662218946280e+01
0	 5.714291269874074e+00	 1.571453213328422e+00	 1.014555823375112e+01
0	 5.714291269874076e+00	 1.714304292230859e+00	 1.016148441623194e+01
0	 5.714291269874074e+00	 1.857155237808252e+00	 1.017436360105185e+01
0	 5.714291269874074e+00	 2.000006066726355e+00	 1.018415865466003e+01
0	 5.714291269874074e+00	 2.142856795650926e+00	 1.019083244580838e+01
0	 5.714291269874074e+00	 2.285707441247718e+00	 1.019434784555139e+01
0	 5.714291269874074e+00	 2.428558020182487e+00	 1.019466772724629e+01
0	 5.714291269874074e+00	 2.571408549120992e+00	 1.019175496655299e+01
0	 5.714291269874075e+00	 2.714259044728984e+00	 1.018557244143411e+01
0	 5.714291269874074e+00	 2.857109523672222e+00	 1.017608303215501e+01
0	 4.285708730125926e+00	 2.857109523672222e+00	 1.023416346388356e+01
0	 4.285708730125926e+00	 2.999969994316576e+00	 1.024104741732402e+01
0	 4.285708730125926e+00	 3.142830431628385e+00	 1.024605270249347e+01
0	 4.285708730125926e+00	 3.285690802274106e+00	 1.024892336894890e+01
0	 4.285708730125926e+00	 3.428551072920192e+00	 1.024940346089902e+01
0	 4.285708730125926e+00	 3.571411210233102e+00	 1.024723701720423e+01
0	 4.285708730125926e+00	 3.714271180879290e+00	 1.024216807137657e+01
0	 4.285708730125926e+00	 3.857130951525210e+00	 1.023394065157965e+01
0	 4.285708730125926e+00	 3.999990488837321e+00	 1.022229878062858e+01
0	 4.285708730125926e+00	 4.142849759482074e+00	 1.020698647598984e+01
0	 4.285708730125926e+00	 4.285708730125926e+00	 1.018774774978118e+01
0	 4.428567384102074e+00	 2.857109523672222e+00	 1.021995754949165e+01
0	 4.428567384102074e+00	 2.999969994316576e+00	 1.023276396329711e+01
0	 4.428567384102072e+00	 3.142830431628384e+00	 1.024236203640796e+01
0	 4.428567384102076e+00	 3.285690802274106e+00	 1.024862372648485e+01
0	 4.428567384102074e+00	 3.428551072920194e+00	 1.025142098482814e+01
0	 4.428567384102075e+00	 3.571411210233103e+00	 1.025062575637789e+01
0	 4.428567384102073e+00	 3.714271180879290e+00	 1.024610997971380e+01
0	 4.428567384102075e+00	 3.857130951525210e+00	 1.023774558705516e+01
0	 4.428567384102073e+00	 3.999990488837320e+00	 1.022540450426073e+01
0	 4.428567384102074e+00	 4.142849759482075e+00	 1.020895865082865e+01
0	 4.428567384102075e+00	 4.285708730125926e+00	 1.018827993989628e+01
0	 4.571425771410667e+00	 2.857109523672223e+00	 1.020985946632209e+01
0	 4.571425771410667e+00	 2.999969994316576e+00	 1.022542655075511e+01
0	 4.571425771410667e+00	 3.142830431628384e+00	 1.023704592048115e+01
0	 4.571425771410667e+00	 3.285690802274106e+00	 1.024469651245520e+01
0	 4.571425771410667e+00	 3.428551072920193e+00	 1.024835725695717e+01
0	 4.571425771410667e+00	 3.571411210233102e+00	 1.024800707759183e+01
0	 4.571425771410667e+00	 3.714271180879289e+00	 1.024362489128884e+01
0	 4.571425771410667e+00	 3.857130951525209e+00	 1.023518960830264e+01
0	 4.571425771410667e+00	 3.999990488837321e+00	 1.022268013221231e+01
0	 4.571425771410666e+00	 4.142849759482074e+00	 1.020607535992153e+01
0	 4.571425771410667e+00	 4.285708730125927e+00	 1.018535418165839e+01
0	 4.714283958718593e+00	 2.857109523672222e+00	 1.020302859225155e+01
0	 4.714283958718593e+00	 2.999969994316575e+00	 1.021873982325715e+01
0	 4.714283958718593e+00	 3.142830431628386e+00	 1.023026674692477e+01
0	 4.714283958718592e+00	 3.285690802274106e+00	 1.023767435067065e+01
0	 4.714283958718593e+00	 3.428551072920193e+00	 1.024102761549581e+01
0	 4.714283958718593e+00	 3.571411210233102e+00	 1.024039151598602e+01
0	 4.714283958718593e+00	 3.714271180879290e+00	 1.023583102031180e+01
0	 4.714283958718593e+00	 3.857130951525210e+00	 1.022741109022829e+01
0	 4.714283958718593e+00	 3.999990488837320e+00	 1.021519668107520e+01
0	 4.714283958718593e+00	 4.142849759482074e+00	 1.019925274177668e+01
0	 4.714283958718594e+00	 4.285708730125926e+00	 1.017964421484121e+01
0	 4.857142012692742e+00	 2.857109523672222e+00	 1.019862430973743e+01
0	 4.857142012692742e+00	 2.999969994316576e+00	 1.021240842870073e+01
0	 4.857142012692742e+00	 3.142830431628386e+00	 1.022218691178813e+01
0	 4.857142012692742e+00	 3.285690802274105e+00	 1.022808986807882e+01
0	 4.857142012692743e+00	 3.428551072920193e+00	 1.023024740094883e+01
0	 4.857142012692740e+00	 3.571411210233101e+00	 1.022878960807095e+01
0	 4.857142012692742e+00	 3.714271180879290e+00	 1.022384658141469e+01
0	 4.857142012692740e+00	 3.857130951525209e+00	 1.021554840724622e+01
0	 4.857142012692742e+00	 3.999990488837320e+00	 1.020402516612832e+01
0	 4.857142012692741e+00	 4.142849759482074e+00	 1.018940693292025e+01
0	 4.857142012692742e+00	 4.285708730125926e+00	 1.017182377677767e+01
0	 5.000000000000000e+00	 2.857109523672223e+00	 1.019580600581806e+01
0	 5.000000000000003e+00	 2.999969994316577e+00	 1.020613701932183e+01
0	 5.000000000000002e+00	 3.142830431628385e+00	 1.021296881495812e+01
0	 5.000000000000000e+00	 3.285690802274106e+00	 1.021647569476429e+01
0	 5.000000000000001e+00	 3.428551072920193e+00	 1.021683195611608e+01
0	 5.000000000000002e+00	 3.571411210233103e+00	 1.021421189172765e+01
0	 5.000000000000001e+00	 3.714271180879289e+00	 1.020878978965152e+01
0	 5.000000000000001e+00	 3.857130951525210e+00	 1.020073993327851e+01
0	 5.000000000000000e+00	 3.999990488837320e+00	 1.019023660133771e+01
0	 5.000000000000000e+00	 4.142849759482074e+00	 1.017745406789639e+01
0	 5.000000000000001e+00	 4.285708730125926e+00	 1.016256660235984e+01
0	 5.142857987307262e+00	 2.857109523672222e+00	 1.019373307211272e+01
0	 5.142857987307260e+00	 2.999969994316576e+00	 1.019963025169501e+01
0	 5.142857987307260e+00	 3.142830431628385e+00	 1.020277486015948e+01
0	 5.142857987307260e+00	 3.285690802274106e+00	 1.020336446394874e+01
0	 5.142857987307260e+00	 3.428551072920194e+00	 1.020159662609255e+01
0	 5.142857987307260e+00	 3.571411210233103e+00	 1.019766890620775e+01
0	 5.142857987307260e+00	 3.714271180879289e+00	 1.019177886049830e+01
0	 5.142857987307261e+00	 3.857130951525211e+00	 1.018412404175522e+01
0	 5.142857987307261e+00	 3.999990488837321e+00	 1.017490199935650e+01
0	 5.142857987307260e+00	 4.142849759482073e+00	 1.016431027926716e+01
0	 5.142857987307261e+00	 4.285708730125926e+00	 1.015254642403902e+01
0	 5.285716041281409e+00	 2.857109523672222e+00	 1.019156490482176e+01
0	 5.285716041281408e+00	 2.999969994316576e+00	 1.019259278673347e+01
0	 5.285716041281408e+00	 3.142830431628385e+00	 1.019176745495466e+01
0	 5.285716041281409e+00	 3.285690802274106e+00	 1.018928881199099e+01
0	 5.285716041281409e+00	 3.428551072920194e+00	 1.018535675826846e+01
0	 5.285716041281409e+00	 3.571411210233102e+00	 1.018017119213355e+01
0	 5.285716041281407e+00	 3.714271180879289e+00	 1.017393200985310e+01
0	 5.285716041281409e+00	 3.857130951525211e+00	 1.016683910561437e+01
0	 5.285716041281408e+00	 3.999990488837321e+00	 1.015909237152491e+01
0	 5.285716041281407e+00	 4.142849759482074e+00	 1.015089169761264e+01
0	 5.285716041281409e+00	 4.285708730125927e+00	 1.014243697182566e+01
0	 5.428574228589336e+00	 2.857109523672222e+00	 1.018846090472662e+01
0	 5.428574228589336e+00	 2.999969994316576e+00	 1.018472928968911e+01
0	 5.428574228589334e+00	 3.142830431628385e+00	 1.018010901074403e+01
0	 5.428574228589334e+00	 3.285690802274106e+00	 1.017478137838698e+01
0	 5.428574228589336e+00	 3.428551072920194e+00	 1.016892770232927e+01
0	 5.428574228589334e+00	 3.571411210233102e+00	 1.016272929149801e+01
0	 5.428574228589335e+00	 3.714271180879290e+00	 1.015636745403608e+01
0	 5.428574228589334e+00	 3.857130951525209e+00	 1.015002349730207e+01
0	 5.428574228589335e+00	 3.999990488837320e+00	 1.014387872787031e+01
0	 5.428574228589334e+00	 4.142849759482074e+00	 1.013811445153085e+01
0	 5.428574228589334e+00	 4.285708730125926e+00	 1.013291197328944e+01
0	 5.571432615897929e+00	 2.857109523672223e+00	 1.018358047718984e+01
0	 5.571432615897927e+00	 2.999969994316576e+00	 1.017574443015252e+01
0	 5.571432615897928e+00	 3.142830431628385e+00	 1.016796194276576e+01
0	 5.571432615897929e+00	 3.285690802274106e+00	 1.016037480576986e+01
0	 5.571432615897929e+00	 3.428551072920193e+00	 1.015312481025570e+01
0	 5.571432615897928e+00	 3.571411210233103e+00	 1.014635374766485e+01
0	 5.571432615897928e+00	 3.714271180879289e+00	 1.014020340978949e+01
0	 5.571432615897928e+00	 3.857130951525211e+00	 1.013481558877248e+01
0	 5.571432615897930e+00	 3.999990488837320e+00	 1.013033207710725e+01
0	 5.571432615897927e+00	 4.142849759482075e+00	 1.012689466763795e+01
0	 5.571432615897930e+00	 4.285708730125927e+00	 1.012464515355929e+01
0	 5.714291269874074e+00	 2.857109523672222e+00	 1.017608303215500e+01
0	 5.714291269874075e+00	 2.999969994316577e+00	 1.016534288205295e+01
0	 5.714291269874075e+00	 3.142830431628385e+00	 1.015548867009590e+01
0	 5.714291269874075e+00	 3.285690802274106e+00	 1.014660173990996e+01
0	 5.714291269874073e+00	 3.428551072920192e+00	 1.013876343632376e+01
0	 5.714291269874074e+00	 3.571411210233103e+00	 1.013205510536846e+01
0	 5.714291269874074e+00	 3.714271180879289e+00	 1.012655809427776e+01
0	 5.714291269874074e+00	 3.857130951525209e+00	 1.012235375148786e+01
0	 5.714291269874074e+00	 3.999990488837320e+00	 1.011952342663753e+01
0	 5.714291269874074e+00	 4.142849759482075e+00	 1.011814847056809e+01
0	 5.714291269874074e+00	 4.285708730125924e+00	 1.011831023532343e+01
0	 4.285708730125926e+00	 4.285708730125926e+00	 1.018774774978118e+01
0	 4.285708730125926e+00	 4.428567384102075e+00	 1.016734903387006e+01
0	 4.285708730125926e+00	 4.571425771410667e+00	 1.014875564630308e+01
0	 4.285708730125926e+00	 4.714283958718593e+00	 1.013200991999280e+01
0	 4.285708730125926e+00	 4.857142012692742e+00	 1.011715418190197e+01
0	 4.285708730125926e+00	 5.000000000000001e+00	 1.010423075304323e+01
0	 4.285708730125926e+00	 5.142857987307262e+00	 1.009328194847900e+01
0	 4.285708730125926e+00	 5.285716041281411e+00	 1.008435007732131e+01
0	 4.285708730125925e+00	 5.428574228589334e+00	 1.007747744273175e+01
0	 4.285708730125926e+00	 5.571432615897929e+00	 1.007270634192140e+01
0	 4.285708730125925e+00	 5.714291269874074e+00	 1.007007906615084e+01
0	 4.428567384102075e+00	 4.285708730125926e+00	 1.018827993989628e+01
0	 4.428567384102076e+00	 4.428567384102075e+00	 1.016663887858431e+01
0	 4.428567384102074e+00	 4.571425771410668e+00	 1.014736462209623e+01
0	 4.428567384102077e+00	 4.714283958718594e+00	 1.013041704625158e+01
0	 4.428567384102074e+00	 4.857142012692742e+00	 1.011575602064115e+01
0	 4.428567384102075e+00	 5.000000000000002e+00	 1.010334140862685e+01
0	 4.428567384102073e+00	 5.142857987307260e+00	 1.009313306734143e+01
0	 4.428567384102075e+00	 5.285716041281407e+00	 1.008509084768845e+01
0	 4.428567384102074e+00	 5.428574228589333e+00	 1.007917459434215e+01
0	 4.428567384102076e+00	 5.571432615897928e+00	 1.007534414574735e+01
0	 4.428567384102075e+00	 5.714291269874074e+00	 1.007355933411957e+01
0	 4.571425771410667e+00	 4.285708730125927e+00	 1.018535418165839e+01
0	 4.571425771410668e+00	 4.428567384102075e+00	 1.016392570294872e+01
0	 4.571425771410667e+00	 4.571425771410667e+00	 1.014514152562859e+01
0	 4.571425771410666e+00	 4.714283958718593e+00	 1.012889427493070e+01
0	 4.571425771410668e+00	 4.857142012692742e+00	 1.011507657014898e+01
0	 4.571425771410667e+00	 5.000000000000000e+00	 1.010358102463835e+01
0	 4.571425771410667e+00	 5.142857987307259e+00	 1.009430024581457e+01
0	 4.571425771410667e+00	 5.285716041281408e+00	 1.008712683515409e+01
0	 4.571425771410667e+00	 5.428574228589335e+00	 1.008195338819401e+01
0	 4.571425771410667e+00	 5.571432615897928e+00	 1.007867249453196e+01
0	 4.571425771410667e+00	 5.714291269874074e+00	 1.007717673782622e+01
0	 4.714283958718594e+00	 4.285708730125926e+00	 1.017964421484121e+01
0	 4.714283958718594e+00	 4.428567384102076e+00	 1.015961721584533e+01
0	 4.714283958718593e+00	 4.571425771410667e+00	 1.014226829238689e+01
0	 4.714283958718593e+00	 4.714283958718592e+00	 1.012743802630007e+01
0	 4.714283958718593e+00	 4.857142012692741e+00	 1.011496699422618e+01
0	 4.714283958718593e+00	 5.000000000000000e+00	 1.010469576761360e+01
0	 4.714283958718594e+00	 5.142857987307262e+00	 1.009646491271750e+01
0	 4.714283958718593e+00	 5.285716041281408e+00	 1.009011499059982e+01
0	 4.714283958718595e+00	 5.428574228589335e+00	 1.008548655712908e+01
0	 4.714283958718593e+00	 5.571432615897927e+00	 1.008242016298046e+01
0	 4.714283958718594e+00	 5.714291269874074e+00	 1.008075635363571e+01
0	 4.857142012692742e+00	 4.285708730125926e+00	 1.017182377677767e+01
0	 4.857142012692741e+00	 4.428567384102073e+00	 1.015412112350868e+01
0	 4.857142012692743e+00	 4.571425771410669e+00	 1.013892685523007e+01
0	 4.857142012692741e+00	 4.714283958718593e+00	 1.012604471820513e+01
0	 4.857142012692742e+00	 4.857142012692743e+00	 1.011527845459368e+01
0	 4.857142012692742e+00	 5.000000000000001e+00	 1.010643180245185e+01
0	 4.857142012692742e+00	 5.142857987307261e+00	 1.009930849573199e+01
0	 4.857142012692740e+00	 5.285716041281407e+00	 1.009371226428254e+01
0	 4.857142012692741e+00	 5.428574228589335e+00	 1.008944683384797e+01
0	 4.857142012692740e+00	 5.571432615897928e+00	 1.008631592606867e+01
0	 4.857142012692742e+00	 5.714291269874074e+00	 1.008412325848102e+01
0	 5.000000000000001e+00	 4.285708730125926e+00	 1.016256660235984e+01
0	 5.000000000000001e+00	 4.428567384102074e+00	 1.014784512952582e+01
0	 5.000000000000000e+00	 4.571425771410667e+00	 1.013529914438920e+01
0	 5.000000000000001e+00	 4.714283958718593e+00	 1.012471076606701e+01
0	 5.000000000000001e+00	 4.857142012692741e+00	 1.011586211089265e+01
0	 5.000000000000001e+00	 5.000000000000001e+00	 1.010853529241585e+01
0	 5.000000000000001e+00	 5.142857987307262e+00	 1.010251242140250e+01
0	 5.000000000000002e+00	 5.285716041281410e+00	 1.009757560583460e+01
0	 5.000000000000001e+00	 5.428574228589334e+00	 1.009350695091012e+01
0	 5.000000000000001e+00	 5.571432615897929e+00	 1.009008855904304e+01
0	 5.000000000000001e+00	 5.714291269874074e+00	 1.008710252986323e+01
0	 5.142857987307261e+00	 4.285708730125926e+00	 1.015254642403902e+01
0	 5.142857987307262e+00	 4.428567384102074e+00	 1.014119693483625e+01
0	 5.142857987307259e+00	 4.571425771410667e+00	 1.013156708746753e+01
0	 5.142857987307261e+00	 4.714283958718593e+00	 1.012343258288235e+01
0	 5.142857987307261e+00	 4.857142012692742e+00	 1.011656912068447e+01
0	 5.142857987307261e+00	 5.000000000000000e+00	 1.011075239913175e+01
0	 5.142857987307260e+00	 5.142857987307262e+00	 1.010575811513615e+01
0	 5.142857987307261e+00	 5.285716041281408e+00	 1.010136196426357e+01
0	 5.142857987307260e+00	 5.428574228589334e+00	 1.009733964073384e+01
0	 5.142857987307259e+00	 5.571432615897927e+00	 1.009346683742064e+01
0	 5.142857987307261e+00	 5.714291269874074e+00	 1.008951924585145e+01
0	 5.285716041281409e+00	 4.285708730125927e+00	 1.014243697182566e+01
0	 5.285716041281409e+00	 4.428567384102076e+00	 1.013458423773200e+01
0	 5.285716041281408e+00	 4.571425771410667e+00	 1.012791260944041e+01
0	 5.285716041281408e+00	 4.714283958718593e+00	 1.012220657922341e+01
0	 5.285716041281410e+00	 4.857142012692742e+00	 1.011725063945070e+01
0	 5.285716041281409e+00	 5.000000000000002e+00	 1.011282928258914e+01
0	 5.285716041281409e+00	 5.142857987307262e+00	 1.010872700120273e+01
0	 5.285716041281409e+00	 5.285716041281410e+00	 1.010472828795246e+01
0	 5.285716041281407e+00	 5.428574228589334e+00	 1.010061763559633e+01
0	 5.285716041281408e+00	 5.571432615897927e+00	 1.009617953698923e+01
0	 5.285716041281408e+00	 5.714291269874074e+00	 1.009119848508291e+01
0	 5.428574228589334e+00	 4.285708730125926e+00	 1.013291197328944e+01
0	 5.428574228589336e+00	 4.428567384102075e+00	 1.012841473385756e+01
0	 5.428574228589333e+00	 4.571425771410667e+00	 1.012451763265540e+01
0	 5.428574228589334e+00	 4.714283958718593e+00	 1.012102916323803e+01
0	 5.428574228589336e+00	 4.857142012692742e+00	 1.011775782059314e+01
0	 5.428574228589336e+00	 5.000000000000002e+00	 1.011451210114107e+01
0	 5.428574228589335e+00	 5.142857987307261e+00	 1.011110050273473e+01
0	 5.428574228589335e+00	 5.285716041281408e+00	 1.010733152465961e+01
0	 5.428574228589336e+00	 5.428574228589335e+00	 1.010301366763363e+01
0	 5.428574228589335e+00	 5.571432615897928e+00	 1.009795543380716e+01
0	 5.428574228589334e+00	 5.714291269874074e+00	 1.009196532676288e+01
0	 5.571432615897930e+00	 4.285708730125927e+00	 1.012464515355929e+01
0	 5.571432615897929e+00	 4.428567384102076e+00	 1.012309611621001e+01
0	 5.571432615897928e+00	 4.571425771410667e+00	 1.012156407683224e+01
0	 5.571432615897928e+00	 4.714283958718594e+00	 1.011989674064968e+01
0	 5.571432615897928e+00	 4.857142012692741e+00	 1.011794181543384e+01
0	 5.571432615897928e+00	 5.000000000000001e+00	 1.011554701150403e+01
0	 5.571432615897926e+00	 5.142857987307259e+00	 1.011256004172737e+01
0	 5.571432615897927e+00	 5.285716041281408e+00	 1.010882862151873e+01
0	 5.571432615897929e+00	 5.428574228589335e+00	 1.010420046884068e+01
0	 5.571432615897929e+00	 5.571432615897928e+00	 1.009852330420344e+01
0	 5.571432615897928e+00	 5.714291269874074e+00	 1.009164485066477e+01
0	 5.714291269874074e+00	 4.285708730125924e+00	 1.011831023532343e+01
0	 5.714291269874074e+00	 4.428567384102074e+00	 1.011903607513899e+01
0	 5.714291269874074e+00	 4.571425771410667e+00	 1.011923385906291e+01
0	 5.714291269874073e+00	 4.714283958718594e+00	 1.011880571475751e+01
0	 5.714291269874074e+00	 4.857142012692742e+00	 1.011765377321512e+01
0	 5.714291269874074e+00	 5.000000000000001e+00	 1.011568016875804e+01
0	 5.714291269874076e+00	 5.142857987307261e+00	 1.011278703903854e+01
0	 5.714291269874075e+00	 5.285716041281409e+00	 1.010887652503891e+01
0	 5.714291269874074e+00	 5.428574228589336e+00	 1.010385077107131e+01
0	 5.714291269874074e+00	 5.571432615897928e+00	 1.009761192477776e+01
0	 5.714291269874074e+00	 5.714291269874073e+00	 1.009006213713001e+01
0	 4.285708730125925e+00	 5.714291269874074e+00	 1.007007906615084e+01
0	 4.285708730125926e+00	 5.857150240517928e+00	 1.006839259922459e+01
0	 4.285708730125926e+00	 6.000009511162682e+00	 1.006640440546094e+01
0	 4.285708730125926e+00	 6.142869048474793e+00	 1.006409749206529e+01
0	 4.285708730125926e+00	 6.285728819120710e+00	 1.006145486575909e+01
0	 4.285708730125925e+00	 6.428588789766899e+00	 1.005845953277993e+01
0	 4.285708730125926e+00	 6.571448927079809e+00	 1.005509449888142e+01
0	 4.285708730125926e+00	 6.714309197725895e+00	 1.005134276933328e+01
0	 4.285708730125926e+00	 6.857169568371619e+00	 1.004718734892134e+01
0	 4.285708730125926e+00	 7.000030005683427e+00	 1.004261124194740e+01
0	 4.285708730125926e+00	 7.142890476327779e+00	 1.003759745222937e+01
0	 4.428567384102075e+00	 5.714291269874074e+00	 1.007355933411957e+01
0	 4.428567384102074e+00	 5.857150240517929e+00	 1.007248162091449e+01
0	 4.428567384102074e+00	 6.000009511162681e+00	 1.007081694061606e+01
0	 4.428567384102074e+00	 6.142869048474792e+00	 1.006859182989631e+01
0	 4.428567384102074e+00	 6.285728819120711e+00	 1.006583282487538e+01
0	 4.428567384102075e+00	 6.428588789766899e+00	 1.006256646112161e+01
0	 4.428567384102075e+00	 6.571448927079810e+00	 1.005881927365145e+01
0	 4.428567384102073e+00	 6.714309197725895e+00	 1.005461779692947e+01
0	 4.428567384102073e+00	 6.857169568371615e+00	 1.004998856486841e+01
0	 4.428567384102074e+00	 7.000030005683424e+00	 1.004495811082908e+01
0	 4.428567384102074e+00	 7.142890476327777e+00	 1.003955296762045e+01
0	 4.571425771410667e+00	 5.714291269874074e+00	 1.007717673782622e+01
0	 4.571425771410666e+00	 5.857150240517928e+00	 1.007614476035021e+01
0	 4.571425771410667e+00	 6.000009511162683e+00	 1.007436773732479e+01
0	 4.571425771410667e+00	 6.142869048474791e+00	 1.007190704699373e+01
0	 4.571425771410667e+00	 6.285728819120711e+00	 1.006882406709270e+01
0	 4.571425771410667e+00	 6.428588789766899e+00	 1.006518017484934e+01
0	 4.571425771410667e+00	 6.571448927079809e+00	 1.006103674698319e+01
0	 4.571425771410668e+00	 6.714309197725896e+00	 1.005645515970574e+01
0	 4.571425771410667e+00	 6.857169568371616e+00	 1.005149678872036e+01
0	 4.571425771410667e+00	 7.000030005683426e+00	 1.004622300922237e+01
0	 4.571425771410667e+00	 7.142890476327776e+00	 1.004069519589895e+01
0	 4.714283958718594e+00	 5.714291269874074e+00	 1.008075635363571e+01
0	 4.714283958718593e+00	 5.857150240517928e+00	 1.007931507095781e+01
0	 4.714283958718593e+00	 6.000009511162683e+00	 1.007708091726918e+01
0	 4.714283958718593e+00	 6.142869048474791e+00	 1.007414142456338e+01
0	 4.714283958718595e+00	 6.285728819120714e+00	 1.007058412445780e+01
0	 4.714283958718593e+00	 6.428588789766899e+00	 1.006649654819361e+01
0	 4.714283958718593e+00	 6.571448927079810e+00	 1.006196622663574e+01
0	 4.714283958718593e+00	 6.714309197725897e+00	 1.005708069027288e+01
0	 4.714283958718592e+00	 6.857169568371615e+00	 1.005192746921750e+01
0	 4.714283958718592e+00	 7.000030005683425e+00	 1.004659409320580e+01
0	 4.714283958718593e+00	 7.142890476327778e+00	 1.004116809159773e+01
0	 4.857142012692742e+00	 5.714291269874074e+00	 1.008412325848102e+01
0	 4.857142012692742e+00	 5.857150240517928e+00	 1.008192560688313e+01
0	 4.857142012692741e+00	 6.000009511162681e+00	 1.007898060287006e+01
0	 4.857142012692742e+00	 6.142869048474791e+00	 1.007539324446072e+01
0	 4.857142012692742e+00	 6.285728819120712e+00	 1.007126852949397e+01
0	 4.857142012692741e+00	 6.428588789766898e+00	 1.006671145562875e+01
0	 4.857142012692742e+00	 6.571448927079811e+00	 1.006182702034394e+01
0	 4.857142012692742e+00	 6.714309197725896e+00	 1.005672022093848e+01
0	 4.857142012692742e+00	 6.857169568371615e+00	 1.005149605453124e+01
0	 4.857142012692742e+00	 7.000030005683425e+00	 1.004625951806109e+01
0	 4.857142012692741e+00	 7.142890476327777e+00	 1.004111560828686e+01
0	 5.000000000000001e+00	 5.714291269874074e+00	 1.008710252986323e+01
0	 5.000000000000001e+00	 5.857150240517929e+00	 1.008390942299167e+01
0	 5.000000000000000e+00	 6.000009511162681e+00	 1.008009091728713e+01
0	 5.000000000000003e+00	 6.142869048474791e+00	 1.007576078919082e+01
0	 5.000000000000001e+00	 6.285728819120711e+00	 1.007103281520099e+01
0	 5.000000000000001e+00	 6.428588789766900e+00	 1.006602077187281e+01
0	 5.000000000000002e+00	 6.571448927079808e+00	 1.006083843581841e+01
0	 5.000000000000001e+00	 6.714309197725897e+00	 1.005559958370683e+01
0	 5.000000000000002e+00	 6.857169568371615e+00	 1.005041799226408e+01
0	 5.000000000000000e+00	 7.000030005683426e+00	 1.004540743827304e+01
0	 5.000000000000001e+00	 7.142890476327777e+00	 1.004068169857349e+01
0	 5.142857987307261e+00	 5.714291269874074e+00	 1.008951924585145e+01
0	 5.142857987307261e+00	 5.857150240517928e+00	 1.008519957486877e+01
0	 5.142857987307262e+00	 6.000009511162681e+00	 1.008043598441887e+01
0	 5.142857987307261e+00	 6.142869048474791e+00	 1.007534234190845e+01
0	 5.142857987307260e+00	 6.285728819120712e+00	 1.007003251505518e+01
0	 5.142857987307262e+00	 6.428588789766899e+00	 1.006462037188766e+01
0	 5.142857987307260e+00	 6.571448927079808e+00	 1.005921978074545e+01
0	 5.142857987307259e+00	 6.714309197725895e+00	 1.005394461027899e+01
0	 5.142857987307260e+00	 6.857169568371616e+00	 1.004890872944961e+01
0	 5.142857987307261e+00	 7.000030005683426e+00	 1.004422600752958e+01
0	 5.142857987307262e+00	 7.142890476327779e+00	 1.004001031410197e+01
0	 5.285716041281408e+00	 5.714291269874074e+00	 1.009119848508291e+01
0	 5.285716041281410e+00	 5.857150240517930e+00	 1.008572911881947e+01
0	 5.285716041281409e+00	 6.000009511162682e+00	 1.008003992890265e+01
0	 5.285716041281407e+00	 6.142869048474790e+00	 1.007423618641800e+01
0	 5.285716041281408e+00	 6.285728819120711e+00	 1.006842316300938e+01
0	 5.285716041281408e+00	 6.428588789766899e+00	 1.006270613087895e+01
0	 5.285716041281410e+00	 6.571448927079810e+00	 1.005719036278715e+01
0	 5.285716041281408e+00	 6.714309197725895e+00	 1.005198113205268e+01
0	 5.285716041281407e+00	 6.857169568371615e+00	 1.004718371255248e+01
0	 5.285716041281408e+00	 7.000030005683427e+00	 1.004290337872170e+01
0	 5.285716041281408e+00	 7.142890476327778e+00	 1.003924540555371e+01
0	 5.428574228589334e+00	 5.714291269874074e+00	 1.009196532676288e+01
0	 5.428574228589335e+00	 5.857150240517927e+00	 1.008543111186859e+01
0	 5.428574228589334e+00	 6.000009511162680e+00	 1.007892687611467e+01
0	 5.428574228589333e+00	 6.142869048474791e+00	 1.007254060717354e+01
0	 5.428574228589336e+00	 6.285728819120713e+00	 1.006636029349298e+01
0	 5.428574228589334e+00	 6.428588789766899e+00	 1.006047392429610e+01
0	 5.428574228589334e+00	 6.571448927079808e+00	 1.005496948958135e+01
0	 5.428574228589335e+00	 6.714309197725897e+00	 1.004993498012243e+01
0	 5.428574228589335e+00	 6.857169568371616e+00	 1.004545838746840e+01
0	 5.428574228589335e+00	 7.000030005683426e+00	 1.004162770394351e+01
0	 5.428574228589335e+00	 7.142890476327777e+00	 1.003853092264725e+01
0	 5.571432615897928e+00	 5.714291269874074e+00	 1.009164485066477e+01
0	 5.571432615897927e+00	 5.857150240517928e+00	 1.008423861176070e+01
0	 5.571432615897929e+00	 6.000009511162682e+00	 1.007712095216996e+01
0	 5.571432615897928e+00	 6.142869048474792e+00	 1.007035388927879e+01
0	 5.571432615897928e+00	 6.285728819120711e+00	 1.006399944141188e+01
0	 5.571432615897927e+00	 6.428588789766900e+00	 1.005811962783231e+01
0	 5.571432615897927e+00	 6.571448927079808e+00	 1.005277646874156e+01
0	 5.571432615897929e+00	 6.714309197725896e+00	 1.004803198527945e+01
0	 5.571432615897928e+00	 6.857169568371617e+00	 1.004394819952416e+01
0	 5.571432615897928e+00	 7.000030005683427e+00	 1.004058713449217e+01
0	 5.571432615897927e+00	 7.142890476327777e+00	 1.003801081413824e+01
0	 5.714291269874074e+00	 5.714291269874073e+00	 1.009006213713001e+01
0	 5.714291269874074e+00	 5.857150240517930e+00	 1.008208467696011e+01
0	 5.714291269874075e+00	 6.000009511162681e+00	 1.007464628392237e+01
0	 5.714291269874075e+00	 6.142869048474792e+00	 1.006777431848711e+01
0	 5.714291269874074e+00	 6.285728819120712e+00	 1.006149614214850e+01
0	 5.714291269874074e+00	 6.428588789766899e+00	 1.005583911742457e+01
0	 5.714291269874074e+00	 6.571448927079808e+00	 1.005083060785711e+01
0	 5.714291269874073e+00	 6.714309197725894e+00	 1.004649797801170e+01
0	 5.714291269874074e+00	 6.857169568371616e+00	 1.004286859347764e+01
0	 5.714291269874074e+00	 7.000030005683425e+00	 1.003996982086798e+01
0	 5.714291269874075e+00	 7.142890476327779e+00	 1.003782902781947e+01
0	 4.285708730125926e+00	 7.142890476327779e+00	 1.003759745222937e+01
0	 4.285708730125926e+00	 7.285740955271015e+00	 1.003260709320227e+01
0	 4.285708730125926e+00	 7.428591450879009e+00	 1.002810385055243e+01
0	 4.285708730125926e+00	 7.571441979817511e+00	 1.002407568581278e+01
0	 4.285708730125925e+00	 7.714292558752280e+00	 1.002051056009057e+01
0	 4.285708730125926e+00	 7.857143204349074e+00	 1.001739643406734e+01
0	 4.285708730125926e+00	 7.999993933273643e+00	 1.001472126799898e+01
0	 4.285708730125926e+00	 8.142844762191748e+00	 1.001247302171568e+01
0	 4.285708730125926e+00	 8.285695707769140e+00	 1.001063965462194e+01
0	 4.285708730125926e+00	 8.428546786671578e+00	 1.000920912569658e+01
0	 4.285708730125926e+00	 8.571398015564817e+00	 1.000816939349273e+01
0	 4.428567384102074e+00	 7.142890476327777e+00	 1.003955296762045e+01
0	 4.428567384102074e+00	 7.285740955271013e+00	 1.003427305399062e+01
0	 4.428567384102076e+00	 7.428591450879007e+00	 1.002957701202974e+01
0	 4.428567384102074e+00	 7.571441979817509e+00	 1.002543063138726e+01
0	 4.428567384102074e+00	 7.714292558752280e+00	 1.002179970131222e+01
0	 4.428567384102076e+00	 7.857143204349076e+00	 1.001865001065327e+01
0	 4.428567384102074e+00	 7.999993933273643e+00	 1.001594734785861e+01
0	 4.428567384102077e+00	 8.142844762191750e+00	 1.001365750097607e+01
0	 4.428567384102073e+00	 8.285695707769138e+00	 1.001174625765301e+01
0	 4.428567384102075e+00	 8.428546786671577e+00	 1.001017940513642e+01
0	 4.428567384102076e+00	 8.571398015564814e+00	 1.000892273027284e+01
0	 4.571425771410667e+00	 7.142890476327776e+00	 1.004069519589895e+01
0	 4.571425771410667e+00	 7.285740955271013e+00	 1.003539231110121e+01
0	 4.571425771410668e+00	 7.428591450879006e+00	 1.003071713420282e+01
0	 4.571425771410667e+00	 7.571441979817511e+00	 1.002661794797087e+01
0	 4.571425771410667e+00	 7.714292558752282e+00	 1.002304303481603e+01
0	 4.571425771410668e+00	 7.857143204349073e+00	 1.001994067679259e+01
0	 4.571425771410667e+00	 7.999993933273644e+00	 1.001725915559839e+01
0	 4.571425771410667e+00	 8.142844762191746e+00	 1.001494675257489e+01
0	 4.571425771410667e+00	 8.285695707769142e+00	 1.001295174870710e+01
0	 4.571425771410667e+00	 8.428546786671575e+00	 1.001122242462364e+01
0	 4.571425771410667e+00	 8.571398015564814e+00	 1.000970706059670e+01
0	 4.714283958718593e+00	 7.142890476327778e+00	 1.004116809159773e+01
0	 4.714283958718594e+00	 7.285740955271014e+00	 1.003605966581666e+01
0	 4.714283958718594e+00	 7.428591450879009e+00	 1.003157686332221e+01
0	 4.714283958718593e+00	 7.571441979817510e+00	 1.002765512505863e+01
0	 4.714283958718593e+00	 7.714292558752280e+00	 1.002422989167165e+01
0	 4.714283958718594e+00	 7.857143204349073e+00	 1.002123660350840e+01
0	 4.714283958718594e+00	 7.999993933273646e+00	 1.001861070061741e+01
0	 4.714283958718595e+00	 8.142844762191750e+00	 1.001628762274865e+01
0	 4.714283958718594e+00	 8.285695707769140e+00	 1.001420280935347e+01
0	 4.714283958718593e+00	 8.428546786671575e+00	 1.001229169958470e+01
0	 4.714283958718593e+00	 8.571398015564814e+00	 1.001048973229655e+01
0	 4.857142012692741e+00	 7.142890476327777e+00	 1.004111560828686e+01
0	 4.857142012692742e+00	 7.285740955271014e+00	 1.003636991837089e+01
0	 4.857142012692741e+00	 7.428591450879007e+00	 1.003220884457707e+01
0	 4.857142012692742e+00	 7.571441979817511e+00	 1.002855965113179e+01
0	 4.857142012692742e+00	 7.714292558752279e+00	 1.002534960202968e+01
0	 4.857142012692741e+00	 7.857143204349073e+00	 1.002250596103350e+01
0	 4.857142012692742e+00	 7.999993933273644e+00	 1.001995599167422e+01
0	 4.857142012692740e+00	 8.142844762191748e+00	 1.001762695725098e+01
0	 4.857142012692742e+00	 8.285695707769142e+00	 1.001544612083113e+01
0	 4.857142012692743e+00	 8.428546786671580e+00	 1.001334074525017e+01
0	 4.857142012692742e+00	 8.571398015564814e+00	 1.001123809311178e+01
0	 5.000000000000001e+00	 7.142890476327777e+00	 1.004068169857349e+01
0	 5.000000000000002e+00	 7.285740955271015e+00	 1.003641786794907e+01
0	 5.000000000000002e+00	 7.428591450879007e+00	 1.003266572209525e+01
0	 5.000000000000002e+00	 7.571441979817511e+00	 1.002934901365783e+01
0	 5.000000000000001e+00	 7.714292558752278e+00	 1.002639149512160e+01
0	 5.000000000000001e+00	 7.857143204349072e+00	 1.002371691881033e+01
0	 5.000000000000002e+00	 7.999993933273644e+00	 1.002124903688678e+01
0	 5.000000000000002e+00	 8.142844762191748e+00	 1.001891160135269e+01
0	 5.000000000000002e+00	 8.285695707769140e+00	 1.001662836404875e+01
0	 5.000000000000002e+00	 8.428546786671577e+00	 1.001432307665468e+01
0	 5.000000000000001e+00	 8.571398015564816e+00	 1.001191949068913e+01
0	 5.142857987307262e+00	 7.142890476327779e+00	 1.004001031410196e+01
0	 5.142857987307260e+00	 7.285740955271015e+00	 1.003629831268765e+01
0	 5.142857987307259e+00	 7.428591450879007e+00	 1.003300013894322e+01
0	 5.142857987307263e+00	 7.571441979817512e+00	 1.003004069909038e+01
0	 5.142857987307263e+00	 7.714292558752282e+00	 1.002734489925980e+01
0	 5.142857987307262e+00	 7.857143204349072e+00	 1.002483764549101e+01
0	 5.142857987307263e+00	 7.999993933273645e+00	 1.002244384373250e+01
0	 5.142857987307259e+00	 8.142844762191746e+00	 1.002008839984165e+01
0	 5.142857987307263e+00	 8.285695707769143e+00	 1.001769621958476e+01
0	 5.142857987307262e+00	 8.428546786671577e+00	 1.001519220863702e+01
0	 5.142857987307261e+00	 8.571398015564816e+00	 1.001250127258257e+01
0	 5.285716041281408e+00	 7.142890476327778e+00	 1.003924540555371e+01
0	 5.285716041281409e+00	 7.285740955271016e+00	 1.003610604967430e+01
0	 5.285716041281409e+00	 7.428591450879009e+00	 1.003326473712604e+01
0	 5.285716041281408e+00	 7.571441979817509e+00	 1.003065219286929e+01
0	 5.285716041281408e+00	 7.714292558752281e+00	 1.002819914183754e+01
0	 5.285716041281409e+00	 7.857143204349073e+00	 1.002583630893728e+01
0	 5.285716041281407e+00	 7.999993933273641e+00	 1.002349441904816e+01
0	 5.285716041281409e+00	 8.142844762191746e+00	 1.002110419702286e+01
0	 5.285716041281407e+00	 8.285695707769140e+00	 1.001859636768720e+01
0	 5.285716041281408e+00	 8.428546786671578e+00	 1.001590165584001e+01
0	 5.285716041281408e+00	 8.571398015564816e+00	 1.001295078625325e+01
0	 5.428574228589335e+00	 7.142890476327777e+00	 1.003853092264725e+01
0	 5.428574228589336e+00	 7.285740955271014e+00	 1.003593587494790e+01
0	 5.428574228589335e+00	 7.428591450879006e+00	 1.003351215758738e+01
0	 5.428574228589335e+00	 7.571441979817511e+00	 1.003120097942057e+01
0	 5.428574228589334e+00	 7.714292558752281e+00	 1.002894354932893e+01
0	 5.428574228589334e+00	 7.857143204349074e+00	 1.002668107622049e+01
0	 5.428574228589335e+00	 7.999993933273645e+00	 1.002435476902992e+01
0	 5.428574228589335e+00	 8.142844762191750e+00	 1.002190583671844e+01
0	 5.428574228589336e+00	 8.285695707769143e+00	 1.001927548827387e+01
0	 5.428574228589336e+00	 8.428546786671577e+00	 1.001640493271061e+01
0	 5.428574228589335e+00	 8.571398015564814e+00	 1.001323537906963e+01
0	 5.571432615897927e+00	 7.142890476327777e+00	 1.003801081413824e+01
0	 5.571432615897928e+00	 7.285740955271014e+00	 1.003588258349860e+01
0	 5.571432615897928e+00	 7.428591450879005e+00	 1.003379504020956e+01
0	 5.571432615897929e+00	 7.571441979817512e+00	 1.003170454215639e+01
0	 5.571432615897927e+00	 7.714292558752282e+00	 1.002956744728897e+01
0	 5.571432615897927e+00	 7.857143204349073e+00	 1.002734011362164e+01
0	 5.571432615897929e+00	 7.999993933273644e+00	 1.002497889923335e+01
0	 5.571432615897929e+00	 8.142844762191748e+00	 1.002244016226753e+01
0	 5.571432615897928e+00	 8.285695707769140e+00	 1.001968026093215e+01
0	 5.571432615897930e+00	 8.428546786671580e+00	 1.001665555349974e+01
0	 5.571432615897927e+00	 8.571398015564814e+00	 1.001332239830731e+01
0	 5.714291269874075e+00	 7.142890476327779e+00	 1.003782902781947e+01
0	 5.714291269874074e+00	 7.285740955271013e+00	 1.003604096926782e+01
0	 5.714291269874074e+00	 7.428591450879007e+00	 1.003416602381347e+01
0	 5.714291269874074e+00	 7.571441979817511e+00	 1.003218036347514e+01
0	 5.714291269874074e+00	 7.714292558752280e+00	 1.003006016035352e+01
0	 5.714291269874073e+00	 7.857143204349073e+00	 1.002778158663135e+01
0	 5.714291269874073e+00	 7.999993933273643e+00	 1.002532081457339e+01
0	 5.714291269874075e+00	 8.142844762191750e+00	 1.002265401652639e+01
0	 5.714291269874074e+00	 8.285695707769142e+00	 1.001975736491915e+01
0	 5.714291269874074e+00	 8.428546786671575e+00	 1.001660703226246e+01
0	 5.714291269874074e+00	 8.571398015564814e+00	 1.001317919114911e+01
0	 4.285708730125926e+00	 8.571398015564817e+00	 1.000816939349273e+01
0	 4.285708730125926e+00	 8.714259388995401e+00	 1.000729193128567e+01
0	 4.285708730125926e+00	 8.857120812436385e+00	 1.000638405682133e+01
0	 4.285708730125925e+00	 8.999982169218280e+00	 1.000548731745621e+01
0	 4.285708730125926e+00	 9.142843342671600e+00	 1.000464326131818e+01
0	 4.285708730125925e+00	 9.285704216126851e+00	 1.000389343730648e+01
0	 4.285708730125926e+00	 9.428564672914549e+00	 1.000327939509153e+01
0	 4.285708730125926e+00	 9.571424596365203e+00	 1.000284268511513e+01
0	 4.285708730125926e+00	 9.714283869809318e+00	 1.000262485859021e+01
0	 4.285708730125926e+00	 9.857142376577416e+00	 1.000266746750096e+01
0	 4.285708730125926e+00	 1.000000000000000e+01	 1.000301206460268e+01
0	 4.428567384102076e+00	 8.571398015564814e+00	 1.000892273027284e+01
0	 4.428567384102074e+00	 8.714259388995400e+00	 1.000780438696927e+01
0	 4.428567384102074e+00	 8.857120812436383e+00	 1.000670295222169e+01
0	 4.428567384102076e+00	 8.999982169218281e+00	 1.000565961446906e+01
0	 4.428567384102075e+00	 9.142843342671599e+00	 1.000471556348214e+01
0	 4.428567384102073e+00	 9.285704216126849e+00	 1.000391199036351e+01
0	 4.428567384102075e+00	 9.428564672914552e+00	 1.000329008754749e+01
0	 4.428567384102074e+00	 9.571424596365201e+00	 1.000289104880012e+01
0	 4.428567384102073e+00	 9.714283869809320e+00	 1.000275606921916e+01
0	 4.428567384102074e+00	 9.857142376577414e+00	 1.000292634523419e+01
0	 4.428567384102075e+00	 1.000000000000000e+01	 1.000344307460650e+01
0	 4.571425771410667e+00	 8.571398015564814e+00	 1.000970706059671e+01
0	 4.571425771410669e+00	 8.714259388995403e+00	 1.000830359441572e+01
0	 4.571425771410667e+00	 8.857120812436385e+00	 1.000697086121220e+01
0	 4.571425771410669e+00	 8.999982169218281e+00	 1.000574818899869e+01
0	 4.571425771410667e+00	 9.142843342671599e+00	 1.000467490764165e+01
0	 4.571425771410667e+00	 9.285704216126852e+00	 1.000379034886154e+01
0	 4.571425771410667e+00	 9.428564672914549e+00	 1.000313384623263e+01
0	 4.571425771410666e+00	 9.571424596365199e+00	 1.000274473518311e+01
0	 4.571425771410667e+00	 9.714283869809323e+00	 1.000266235299513e+01
0	 4.571425771410667e+00	 9.857142376577418e+00	 1.000292603880473e+01
0	 4.571425771410668e+00	 1.000000000000000e+01	 1.000357513360197e+01
0	 4.714283958718593e+00	 8.571398015564814e+00	 1.001048973229655e+01
0	 4.714283958718593e+00	 8.714259388995400e+00	 1.000877332858857e+01
0	 4.714283958718593e+00	 8.857120812436383e+00	 1.000718617437510e+01
0	 4.714283958718593e+00	 8.999982169218281e+00	 1.000576423576413e+01
0	 4.714283958718594e+00	 9.142843342671599e+00	 1.000454348119253e+01
0	 4.714283958718593e+00	 9.285704216126854e+00	 1.000355988142604e+01
0	 4.714283958718593e+00	 9.428564672914550e+00	 1.000284940955923e+01
0	 4.714283958718593e+00	 9.571424596365203e+00	 1.000244804101551e+01
0	 4.714283958718593e+00	 9.714283869809320e+00	 1.000239175354709e+01
0	 4.714283958718593e+00	 9.857142376577418e+00	 1.000271652723531e+01
0	 4.714283958718593e+00	 1.000000000000000e+01	 1.000345834449036e+01
0	 4.857142012692742e+00	 8.571398015564814e+00	 1.001123809311178e+01
0	 4.857142012692742e+00	 8.714259388995400e+00	 1.000919736442033e+01
0	 4.857142012692742e+00	 8.857120812436381e+00	 1.000734728228322e+01
0	 4.857142012692741e+00	 8.999982169218280e+00	 1.000571894946072e+01
0	 4.857142012692742e+00	 9.142843342671602e+00	 1.000434347146086e+01
0	 4.857142012692742e+00	 9.285704216126852e+00	 1.000325195653935e+01
0	 4.857142012692743e+00	 9.428564672914552e+00	 1.000247551569961e+01
0	 4.857142012692742e+00	 9.571424596365203e+00	 1.000204526269270e+01
0	 4.857142012692742e+00	 9.714283869809323e+00	 1.000199231401750e+01
0	 4.857142012692742e+00	 9.857142376577418e+00	 1.000234778892070e+01
0	 4.857142012692742e+00	 1.000000000000000e+01	 1.000314280939704e+01
0	 5.000000000000001e+00	 8.571398015564816e+00	 1.001191949068914e+01
0	 4.999999999999998e+00	 8.714259388995396e+00	 1.000955947681251e+01
0	 5.000000000000002e+00	 8.857120812436385e+00	 1.000745257550000e+01
0	 4.999999999999999e+00	 8.999982169218281e+00	 1.000562352476013e+01
0	 5.000000000000001e+00	 9.142843342671602e+00	 1.000409706570310e+01
0	 5.000000000000001e+00	 9.285704216126854e+00	 1.000289794254065e+01
0	 5.000000000000001e+00	 9.428564672914552e+00	 1.000205090258607e+01
0	 5.000000000000001e+00	 9.571424596365205e+00	 1.000158069625436e+01
0	 5.000000000000001e+00	 9.714283869809320e+00	 1.000151207706209e+01
0	 5.000000000000002e+00	 9.857142376577420e+00	 1.000186980162762e+01
0	 5.000000000000002e+00	 1.000000000000000e+01	 1.000267862967136e+01
0	 5.142857987307261e+00	 8.571398015564816e+00	 1.001250127258257e+01
0	 5.142857987307261e+00	 8.714259388995400e+00	 1.000984344063557e+01
0	 5.142857987307260e+00	 8.857120812436383e+00	 1.000750044457946e+01
0	 5.142857987307260e+00	 8.999982169218280e+00	 1.000548915631033e+01
0	 5.142857987307260e+00	 9.142843342671599e+00	 1.000382645110598e+01
0	 5.142857987307262e+00	 9.285704216126854e+00	 1.000252920762586e+01
0	 5.142857987307260e+00	 9.428564672914549e+00	 1.000161430791103e+01
0	 5.142857987307261e+00	 9.571424596365203e+00	 1.000109863738422e+01
0	 5.142857987307260e+00	 9.714283869809320e+00	 1.000099908484997e+01
0	 5.142857987307260e+00	 9.857142376577416e+00	 1.000133254249466e+01
0	 5.142857987307262e+00	 1.000000000000000e+01	 1.000211590588667e+01
0	 5.285716041281408e+00	 8.571398015564816e+00	 1.001295078625326e+01
0	 5.285716041281408e+00	 8.714259388995400e+00	 1.001003303072896e+01
0	 5.285716041281407e+00	 8.857120812436383e+00	 1.000748928006618e+01
0	 5.285716041281409e+00	 8.999982169218283e+00	 1.000532703873549e+01
0	 5.285716041281410e+00	 9.142843342671597e+00	 1.000355381478648e+01
0	 5.285716041281408e+00	 9.285704216126849e+00	 1.000217711984771e+01
0	 5.285716041281409e+00	 9.428564672914549e+00	 1.000120446912673e+01
0	 5.285716041281408e+00	 9.571424596365201e+00	 1.000064338141014e+01
0	 5.285716041281410e+00	 9.714283869809321e+00	 1.000050137906368e+01
0	 5.285716041281408e+00	 9.857142376577418e+00	 1.000078598803220e+01
0	 5.285716041281409e+00	 1.000000000000000e+01	 1.000150473784024e+01
0	 5.428574228589335e+00	 8.571398015564814e+00	 1.001323537906963e+01
0	 5.428574228589334e+00	 8.714259388995400e+00	 1.001011202190104e+01
0	 5.428574228589335e+00	 8.857120812436387e+00	 1.000741747249534e+01
0	 5.428574228589335e+00	 8.999982169218283e+00	 1.000514836663615e+01
0	 5.428574228589336e+00	 9.142843342671602e+00	 1.000330134379187e+01
0	 5.428574228589333e+00	 9.285704216126852e+00	 1.000187304711569e+01
0	 5.428574228589335e+00	 9.428564672914547e+00	 1.000086012344554e+01
0	 5.428574228589335e+00	 9.571424596365203e+00	 1.000025922330408e+01
0	 5.428574228589336e+00	 9.714283869809323e+00	 1.000006700089893e+01
0	 5.428574228589334e+00	 9.857142376577416e+00	 1.000028011412268e+01
0	 5.428574228589335e+00	 1.000000000000000e+01	 1.000089522455318e+01
0	 5.571432615897927e+00	 8.571398015564814e+00	 1.001332239830731e+01
0	 5.571432615897930e+00	 8.714259388995401e+00	 1.001006418892915e+01
0	 5.571432615897929e+00	 8.857120812436385e+00	 1.000728341239262e+01
0	 5.571432615897928e+00	 8.999982169218281e+00	 1.000496433458900e+01
0	 5.571432615897929e+00	 9.142843342671600e+00	 1.000309122509967e+01
0	 5.571432615897927e+00	 9.285704216126851e+00	 1.000164835719607e+01
0	 5.571432615897928e+00	 9.428564672914549e+00	 1.000062000783968e+01
0	 5.571432615897927e+00	 9.571424596365201e+00	 9.999990457682010e+00
0	 5.571432615897927e+00	 9.714283869809320e+00	 9.999743991064836e+00
0	 5.571432615897928e+00	 9.857142376577416e+00	 9.999864896020208e+00
0	 5.571432615897928e+00	 1.000000000000000e+01	 1.000033746427067e+01
0	 5.714291269874074e+00	 8.571398015564814e+00	 1.001317919114911e+01
0	 5.714291269874074e+00	 8.714259388995403e+00	 1.000987330655951e+01
0	 5.714291269874074e+00	 8.857120812436385e+00	 1.000708549027423e+01
0	 5.714291269874075e+00	 8.999982169218283e+00	 1.000478613714701e+01
0	 5.714291269874074e+00	 9.142843342671599e+00	 1.000294564561763e+01
0	 5.714291269874074e+00	 9.285704216126854e+00	 1.000153441771182e+01
0	 5.714291269874074e+00	 9.428564672914547e+00	 1.000052285904135e+01
0	 5.714291269874074e+00	 9.571424596365199e+00	 9.999881378804044e+00
0	 5.714291269874074e+00	 9.714283869809320e+00	 9.999580389783794e+00
0	 5.714291269874074e+00	 9.857142376577416e+00	 9.999590308350808e+00
0	 5.714291269874075e+00	 1.000000000000000e+01	 9.999881554461719e+00
0	 5.714291269874075e+00	 0.000000000000000e+00	 1.015346572995294e+01
0	 5.714291269874074e+00	 1.428576234225853e-01	 1.013567502424599e+01
0	 5.714291269874074e+00	 2.857161301906819e-01	 1.012011618244099e+01
0	 5.714291269874074e+00	 4.285754036348008e-01	 1.010721106922056e+01
0	 5.714291269874074e+00	 5.714353270854531e-01	 1.009738157726463e+01
0	 5.714291269874074e+00	 7.142957838731496e-01	 1.009104962724881e+01
0	 5.714291269874074e+00	 8.571566573284018e-01	 1.008863716784293e+01
0	 5.714291269874075e+00	 1.000017830781720e+00	 1.009056617570996e+01
0	 5.714291269874074e+00	 1.142879187563616e+00	 1.009725865550531e+01
0	 5.714291269874074e+00	 1.285740611004601e+00	 1.010913663987643e+01
0	 5.714291269874074e+00	 1.428601984435185e+00	 1.012662218946280e+01
0	 5.857150240517928e+00	 0.000000000000000e+00	 1.017337481450463e+01
0	 5.857150240517929e+00	 1.428576234225853e-01	 1.014747962024407e+01
0	 5.857150240517928e+00	 2.857161301906819e-01	 1.012540630114626e+01
0	 5.857150240517929e+00	 4.285754036348008e-01	 1.010744371766858e+01
0	 5.857150240517927e+00	 5.714353270854531e-01	 1.009388076098088e+01
0	 5.857150240517928e+00	 7.142957838731497e-01	 1.008500635296355e+01
0	 5.857150240517927e+00	 8.571566573284017e-01	 1.008110944620594e+01
0	 5.857150240517929e+00	 1.000017830781720e+00	 1.008247902400525e+01
0	 5.857150240517929e+00	 1.142879187563616e+00	 1.008940410036570e+01
0	 5.857150240517927e+00	 1.285740611004601e+00	 1.010217371999808e+01
0	 5.857150240517928e+00	 1.428601984435185e+00	 1.012107695831973e+01
0	 6.000009511162681e+00	 0.000000000000000e+00	 1.018174147033389e+01
0	 6.000009511162682e+00	 1.428576234225853e-01	 1.015225632627978e+01
0	 6.000009511162683e+00	 2.857161301906819e-01	 1.012741286895544e+01
0	 6.000009511162681e+00	 4.285754036348007e-01	 1.010738526301737e+01
0	 6.000009511162681e+00	 5.714353270854531e-01	 1.009234770346405e+01
0	 6.000009511162681e+00	 7.142957838731496e-01	 1.008247441563408e+01
0	 6.000009511162681e+00	 8.571566573284016e-01	 1.007793965520468e+01
0	 6.000009511162683e+00	 1.000017830781720e+00	 1.007891770819046e+01
0	 6.000009511162682e+00	 1.142879187563616e+00	 1.008558289094272e+01
0	 6.000009511162683e+00	 1.285740611004601e+00	 1.009810955014898e+01
0	 6.000009511162681e+00	 1.428601984435185e+00	 1.011667206283297e+01
0	 6.142869048474791e+00	 0.000000000000000e+00	 1.018019078109614e+01
0	 6.142869048474794e+00	 1.428576234225853e-01	 1.015088443702879e+01
0	 6.142869048474791e+00	 2.857161301906820e-01	 1.012639120416591e+01
0	 6.142869048474790e+00	 4.285754036348006e-01	 1.010678885595914e+01
0	 6.142869048474794e+00	 5.714353270854531e-01	 1.009215519334315e+01
0	 6.142869048474791e+00	 7.142957838731496e-01	 1.008256804473382e+01
0	 6.142869048474792e+00	 8.571566573284016e-01	 1.007810526602692e+01
0	 6.142869048474791e+00	 1.000017830781720e+00	 1.007884474059708e+01
0	 6.142869048474790e+00	 1.142879187563616e+00	 1.008486437929709e+01
0	 6.142869048474791e+00	 1.285740611004601e+00	 1.009624212045753e+01
0	 6.142869048474790e+00	 1.428601984435185e+00	 1.011305592988676e+01
0	 6.285728819120711e+00	 0.000000000000000e+00	 1.017034782472138e+01
0	 6.285728819120713e+00	 1.428576234225853e-01	 1.014424324248328e+01
0	 6.285728819120713e+00	 2.857161301906819e-01	 1.012259662123661e+01
0	 6.285728819120711e+00	 4.285754036348006e-01	 1.010540764402171e+01
0	 6.285728819120711e+00	 5.714353270854530e-01	 1.009267601661121e+01
0	 6.285728819120712e+00	 7.142957838731496e-01	 1.008440146750854e+01
0	 6.285728819120711e+00	 8.571566573284014e-01	 1.008058374794688e+01
0	 6.285728819120711e+00	 1.000017830781720e+00	 1.008122263188835e+01
0	 6.285728819120713e+00	 1.142879187563616e+00	 1.008631791602340e+01
0	 6.285728819120712e+00	 1.285740611004601e+00	 1.009586941977054e+01
0	 6.285728819120711e+00	 1.428601984435185e+00	 1.010987698527641e+01
0	 6.428588789766900e+00	 0.000000000000000e+00	 1.015383767341426e+01
0	 6.428588789766902e+00	 1.428576234225852e-01	 1.013321202795200e+01
0	 6.428588789766899e+00	 2.857161301906818e-01	 1.011628443078828e+01
0	 6.428588789766901e+00	 4.285754036348008e-01	 1.010299477156861e+01
0	 6.428588789766900e+00	 5.714353270854532e-01	 1.009328295662530e+01
0	 6.428588789766898e+00	 7.142957838731496e-01	 1.008708890897648e+01
0	 6.428588789766899e+00	 8.571566573284016e-01	 1.008435256832527e+01
0	 6.428588789766901e+00	 1.000017830781720e+00	 1.008501389105927e+01
0	 6.428588789766899e+00	 1.142879187563616e+00	 1.008901285025011e+01
0	 6.428588789766900e+00	 1.285740611004601e+00	 1.009628943565331e+01
0	 6.428588789766899e+00	 1.428601984435185e+00	 1.010678365370836e+01
0	 6.571448927079809e+00	 0.000000000000000e+00	 1.013228539365423e+01
0	 6.571448927079809e+00	 1.428576234225853e-01	 1.011867007406041e+01
0	 6.571448927079806e+00	 2.857161301906818e-01	 1.010770993960342e+01
0	 6.571448927079808e+00	 4.285754036348006e-01	 1.009930337979906e+01
0	 6.571448927079811e+00	 5.714353270854532e-01	 1.009334879410661e+01
0	 6.571448927079810e+00	 7.142957838731497e-01	 1.008974459192840e+01
0	 6.571448927079809e+00	 8.571566573284015e-01	 1.008838919260934e+01
0	 6.571448927079808e+00	 1.000017830781720e+00	 1.008918102543664e+01
0	 6.571448927079809e+00	 1.142879187563616e+00	 1.009201852963960e+01
0	 6.571448927079810e+00	 1.285740611004601e+00	 1.009680015438961e+01
0	 6.571448927079810e+00	 1.428601984435185e+00	 1.010342435880015e+01
0	 6.714309197725897e+00	 0.000000000000000e+00	 1.010731604619560e+01
0	 6.714309197725896e+00	 1.428576234225853e-01	 1.010149665675070e+01
0	 6.714309197725897e+00	 2.857161301906819e-01	 1.009712845062645e+01
0	 6.714309197725896e+00	 4.285754036348007e-01	 1.009408660674812e+01
0	 6.714309197725898e+00	 5.714353270854532e-01	 1.009224630714047e+01
0	 6.714309197725896e+00	 7.142957838731497e-01	 1.009148273692758e+01
0	 6.714309197725896e+00	 8.571566573284016e-01	 1.009167108433289e+01
0	 6.714309197725894e+00	 1.000017830781720e+00	 1.009268654067910e+01
0	 6.714309197725894e+00	 1.142879187563616e+00	 1.009440430038825e+01
0	 6.714309197725896e+00	 1.285740611004601e+00	 1.009669956098174e+01
0	 6.714309197725896e+00	 1.428601984435185e+00	 1.009944752308047e+01
0	 6.857169568371615e+00	 0.000000000000000e+00	 1.008055468606760e+01
0	 6.857169568371616e+00	 1.428576234225852e-01	 1.008257104728190e+01
0	 6.857169568371617e+00	 2.857161301906819e-01	 1.008479526296362e+01
0	 6.857169568371618e+00	 4.285754036348009e-01	 1.008709758728666e+01
0	 6.857169568371616e+00	 5.714353270854531e-01	 1.008934827117637e+01
0	 6.857169568371617e+00	 7.142957838731497e-01	 1.009141756230986e+01
0	 6.857169568371617e+00	 8.571566573284020e-01	 1.009317570511629e+01
0	 6.857169568371617e+00	 1.000017830781720e+00	 1.009449294077713e+01
0	 6.857169568371617e+00	 1.142879187563616e+00	 1.009523950722633e+01
0	 6.857169568371617e+00	 1.285740611004601e+00	 1.009528563915053e+01
0	 6.857169568371617e+00	 1.428601984435185e+00	 1.009450156798915e+01
0	 7.000030005683427e+00	 0.000000000000000e+00	 1.005362636257450e+01
0	 7.000030005683426e+00	 1.428576234225853e-01	 1.006277251222988e+01
0	 7.000030005683428e+00	 2.857161301906820e-01	 1.007096567188317e+01
0	 7.000030005683426e+00	 4.285754036348007e-01	 1.007808945312139e+01
0	 7.000030005683425e+00	 5.714353270854531e-01	 1.008402745902803e+01
0	 7.000030005683426e+00	 7.142957838731495e-01	 1.008866328418365e+01
0	 7.000030005683427e+00	 8.571566573284017e-01	 1.009188051466653e+01
0	 7.000030005683428e+00	 1.000017830781720e+00	 1.009356272805306e+01
0	 7.000030005683427e+00	 1.142879187563616e+00	 1.009359349341812e+01
0	 7.000030005683427e+00	 1.285740611004601e+00	 1.009185637133533e+01
0	 7.000030005683427e+00	 1.428601984435185e+00	 1.008823491387721e+01
0	 7.142890476327777e+00	 0.000000000000000e+00	 1.002815611929553e+01
0	 7.142890476327779e+00	 1.428576234225852e-01	 1.004298031348738e+01
0	 7.142890476327778e+00	 2.857161301906819e-01	 1.005589496881528e+01
0	 7.142890476327778e+00	 4.285754036348008e-01	 1.006681533279490e+01
0	 7.142890476327778e+00	 5.714353270854531e-01	 1.007565664087334e+01
0	 7.142890476327776e+00	 7.142957838731497e-01	 1.008233411642997e+01
0	 7.142890476327779e+00	 8.571566573284016e-01	 1.008676297077719e+01
0	 7.142890476327779e+00	 1.000017830781720e+00	 1.008885840316111e+01
0	 7.142890476327778e+00	 1.142879187563616e+00	 1.008853560076188e+01
0	 7.142890476327779e+00	 1.285740611004601e+00	 1.008570973869407e+01
0	 7.142890476327779e+00	 1.428601984435185e+00	 1.008029598000681e+01
0	 5.714291269874074e+00	 1.428601984435185e+00	 1.012662218946280e+01
0	 5.714291269874074e+00	 1.571453213328422e+00	 1.014555823375112e+01
0	 5.714291269874076e+00	 1.714304292230859e+00	 1.016148441623194e+01
0	 5.714291269874074e+00	 1.857155237808252e+00	 1.017436360105185e+01
0	 5.714291269874074e+00	 2.000006066726355e+00	 1.018415865466003e+01
0	 5.714291269874074e+00	 2.142856795650926e+00	 1.019083244580838e+01
0	 5.714291269874074e+00	 2.285707441247718e+00	 1.019434784555139e+01
0	 5.714291269874074e+00	 2.428558020182487e+00	 1.019466772724629e+01
0	 5.714291269874074e+00	 2.571408549120992e+00	 1.019175496655299e+01
0	 5.714291269874075e+00	 2.714259044728984e+00	 1.018557244143411e+01
0	 5.714291269874074e+00	 2.857109523672222e+00	 1.017608303215501e+01
0	 5.857150240517928e+00	 1.428601984435185e+00	 1.012107695831973e+01
0	 5.857150240517929e+00	 1.571453213328422e+00	 1.014137333923348e+01
0	 5.857150240517927e+00	 1.714304292230859e+00	 1.015813952014593e+01
0	 5.857150240517927e+00	 1.857155237808252e+00	 1.017138566784642e+01
0	 5.857150240517927e+00	 2.000006066726355e+00	 1.018112195171164e+01
0	 5.857150240517929e+00	 2.142856795650925e+00	 1.018735854370560e+01
0	 5.857150240517928e+00	 2.285707441247718e+00	 1.019010561837974e+01
0	 5.857150240517927e+00	 2.428558020182488e+00	 1.018937335287285e+01
0	 5.857150240517928e+00	 2.571408549120992e+00	 1.018517192691117e+01
0	 5.857150240517927e+00	 2.714259044728984e+00	 1.017751152280836e+01
0	 5.857150240517928e+00	 2.857109523672222e+00	 1.016640232546552e+01
0	 6.000009511162681e+00	 1.428601984435185e+00	 1.011667206283297e+01
0	 6.000009511162683e+00	 1.571453213328422e+00	 1.013646207200314e+01
0	 6.000009511162681e+00	 1.714304292230859e+00	 1.015259085974989e+01
0	 6.000009511162681e+00	 1.857155237808251e+00	 1.016510774242077e+01
0	 6.000009511162683e+00	 2.000006066726355e+00	 1.017406203897397e+01
0	 6.000009511162681e+00	 2.142856795650925e+00	 1.017950307097835e+01
0	 6.000009511162681e+00	 2.285707441247718e+00	 1.018148016261346e+01
0	 6.000009511162683e+00	 2.428558020182489e+00	 1.018004264066957e+01
0	 6.000009511162679e+00	 2.571408549120991e+00	 1.017523983454769e+01
0	 6.000009511162684e+00	 2.714259044728985e+00	 1.016712107625955e+01
0	 6.000009511162683e+00	 2.857109523672223e+00	 1.015573570042768e+01
0	 6.142869048474790e+00	 1.428601984435185e+00	 1.011305592988676e+01
0	 6.142869048474792e+00	 1.571453213328422e+00	 1.013084959970768e+01
0	 6.142869048474791e+00	 1.714304292230859e+00	 1.014517120965342e+01
0	 6.142869048474791e+00	 1.857155237808251e+00	 1.015610107230775e+01
0	 6.142869048474789e+00	 2.000006066726355e+00	 1.016371950267540e+01
0	 6.142869048474789e+00	 2.142856795650924e+00	 1.016810681818208e+01
0	 6.142869048474792e+00	 2.285707441247718e+00	 1.016934333867454e+01
0	 6.142869048474791e+00	 2.428558020182489e+00	 1.016750938642050e+01
0	 6.142869048474792e+00	 2.571408549120992e+00	 1.016268528610876e+01
0	 6.142869048474791e+00	 2.714259044728984e+00	 1.015495136484916e+01
0	 6.142869048474790e+00	 2.857109523672222e+00	 1.014438795217259e+01
0	 6.285728819120711e+00	 1.428601984435185e+00	 1.010987698527641e+01
0	 6.285728819120711e+00	 1.571453213328422e+00	 1.012456108912590e+01
0	 6.285728819120711e+00	 1.714304292230859e+00	 1.013621334383967e+01
0	 6.285728819120710e+00	 1.857155237808251e+00	 1.014493690466694e+01
0	 6.285728819120709e+00	 2.000006066726355e+00	 1.015083492892359e+01
0	 6.285728819120712e+00	 2.142856795650926e+00	 1.015401057599219e+01
0	 6.285728819120713e+00	 2.285707441247718e+00	 1.015456700732202e+01
0	 6.285728819120712e+00	 2.428558020182488e+00	 1.015260738642905e+01
0	 6.285728819120711e+00	 2.571408549120992e+00	 1.014823487889603e+01
0	 6.285728819120712e+00	 2.714259044728986e+00	 1.014155265237243e+01
0	 6.285728819120711e+00	 2.857109523672221e+00	 1.013266387657447e+01
0	 6.428588789766899e+00	 1.428601984435185e+00	 1.010678365370837e+01
0	 6.428588789766900e+00	 1.571453213328422e+00	 1.011762170616779e+01
0	 6.428588789766901e+00	 1.714304292230859e+00	 1.012605003566536e+01
0	 6.428588789766897e+00	 1.857155237808251e+00	 1.013218648628469e+01
0	 6.428588789766899e+00	 2.000006066726355e+00	 1.013614890370557e+01
0	 6.428588789766899e+00	 2.142856795650925e+00	 1.013805513520395e+01
0	 6.428588789766899e+00	 2.285707441247719e+00	 1.013802302965200e+01
0	 6.428588789766899e+00	 2.428558020182488e+00	 1.013617043751803e+01
0	 6.428588789766899e+00	 2.571408549120992e+00	 1.013261521086659e+01
0	 6.428588789766899e+00	 2.714259044728984e+00	 1.012747520335846e+01
0	 6.428588789766899e+00	 2.857109523672222e+00	 1.012086827025061e+01
0	 6.571448927079810e+00	 1.428601984435185e+00	 1.010342435880015e+01
0	 6.571448927079809e+00	 1.571453213328422e+00	 1.011005661587459e+01
0	 6.571448927079809e+00	 1.714304292230859e+00	 1.011501405786078e+01
0	 6.571448927079810e+00	 1.857155237808251e+00	 1.011842106357407e+01
0	 6.571448927079809e+00	 2.000006066726356e+00	 1.012040201288767e+01
0	 6.571448927079809e+00	 2.142856795650925e+00	 1.012108128673258e+01
0	 6.571448927079810e+00	 2.285707441247718e+00	 1.012058326709765e+01
0	 6.571448927079807e+00	 2.428558020182488e+00	 1.011903233702959e+01
0	 6.571448927079809e+00	 2.571408549120992e+00	 1.011655288063294e+01
0	 6.571448927079809e+00	 2.714259044728984e+00	 1.011326928307014e+01
0	 6.571448927079808e+00	 2.857109523672222e+00	 1.010930593056145e+01
0	 6.714309197725896e+00	 1.428601984435185e+00	 1.009944752308047e+01
0	 6.714309197725897e+00	 1.571453213328422e+00	 1.010189098241874e+01
0	 6.714309197725897e+00	 1.714304292230859e+00	 1.010343818252979e+01
0	 6.714309197725897e+00	 1.857155237808251e+00	 1.010421188257493e+01
0	 6.714309197725896e+00	 2.000006066726356e+00	 1.010433484221558e+01
0	 6.714309197725894e+00	 2.142856795650924e+00	 1.010392982161316e+01
0	 6.714309197725896e+00	 2.285707441247718e+00	 1.010311958142921e+01
0	 6.714309197725896e+00	 2.428558020182489e+00	 1.010202688282528e+01
0	 6.714309197725897e+00	 2.571408549120992e+00	 1.010077448746303e+01
0	 6.714309197725897e+00	 2.714259044728984e+00	 1.009948515750416e+01
0	 6.714309197725895e+00	 2.857109523672222e+00	 1.009828165561046e+01
0	 6.857169568371617e+00	 1.428601984435185e+00	 1.009450156798915e+01
0	 6.857169568371617e+00	 1.571453213328422e+00	 1.009314996910400e+01
0	 6.857169568371618e+00	 1.714304292230860e+00	 1.009165518114988e+01
0	 6.857169568371618e+00	 1.857155237808252e+00	 1.009013018895388e+01
0	 6.857169568371617e+00	 2.000006066726356e+00	 1.008868797731431e+01
0	 6.857169568371615e+00	 2.142856795650925e+00	 1.008744153100073e+01
0	 6.857169568371617e+00	 2.285707441247718e+00	 1.008650383475395e+01
0	 6.857169568371617e+00	 2.428558020182488e+00	 1.008598787328601e+01
0	 6.857169568371617e+00	 2.571408549120992e+00	 1.008600663128018e+01
0	 6.857169568371615e+00	 2.714259044728984e+00	 1.008667309339100e+01
0	 6.857169568371615e+00	 2.857109523672222e+00	 1.008810024424425e+01
0	 7.000030005683427e+00	 1.428601984435185e+00	 1.008823491387721e+01
0	 7.000030005683425e+00	 1.571453213328422e+00	 1.008385873836531e+01
0	 7.000030005683426e+00	 1.714304292230859e+00	 1.007999782457212e+01
0	 7.000030005683426e+00	 1.857155237808251e+00	 1.007674722800428e+01
0	 7.000030005683427e+00	 2.000006066726356e+00	 1.007420200368825e+01
0	 7.000030005683424e+00	 2.142856795650925e+00	 1.007245720617023e+01
0	 7.000030005683424e+00	 2.285707441247717e+00	 1.007160788951624e+01
0	 7.000030005683427e+00	 2.428558020182488e+00	 1.007174910731203e+01
0	 7.000030005683426e+00	 2.571408549120992e+00	 1.007297591266316e+01
0	 7.000030005683425e+00	 2.714259044728984e+00	 1.007538335819496e+01
0	 7.000030005683426e+00	 2.857109523672222e+00	 1.007906649605249e+01
0	 7.142890476327779e+00	 1.428601984435185e+00	 1.008029598000681e+01
0	 7.142890476327779e+00	 1.571453213328422e+00	 1.007404245176896e+01
0	 7.142890476327778e+00	 1.714304292230859e+00	 1.006879888302121e+01
0	 7.142890476327777e+00	 1.857155237808251e+00	 1.006463424464631e+01
0	 7.142890476327778e+00	 2.000006066726356e+00	 1.006161750672111e+01
0	 7.142890476327777e+00	 2.142856795650926e+00	 1.005981763851650e+01
0	 7.142890476327775e+00	 2.285707441247718e+00	 1.005930360849747e+01
0	 7.142890476327777e+00	 2.428558020182488e+00	 1.006014438432300e+01
0	 7.142890476327778e+00	 2.571408549120992e+00	 1.006240893284617e+01
0	 7.142890476327778e+00	 2.714259044728984e+00	 1.006616622011410e+01
0	 7.142890476327779e+00	 2.857109523672222e+00	 1.007148521136794e+01
0	 5.714291269874074e+00	 2.857109523672222e+00	 1.017608303215500e+01
0	 5.714291269874075e+00	 2.999969994316577e+00	 1.016534288205295e+01
0	 5.714291269874075e+00	 3.142830431628385e+00	 1.015548867009590e+01
0	 5.714291269874075e+00	 3.285690802274106e+00	 1.014660173990996e+01
0	 5.714291269874073e+00	 3.428551072920192e+00	 1.013876343632376e+01
0	 5.714291269874074e+00	 3.571411210233103e+00	 1.013205510536846e+01
0	 5.714291269874074e+00	 3.714271180879289e+00	 1.012655809427776e+01
0	 5.714291269874074e+00	 3.857130951525209e+00	 1.012235375148786e+01
0	 5.714291269874074e+00	 3.999990488837320e+00	 1.011952342663753e+01
0	 5.714291269874074e+00	 4.142849759482075e+00	 1.011814847056809e+01
0	 5.714291269874074e+00	 4.285708730125924e+00	 1.011831023532343e+01
0	 5.857150240517928e+00	 2.857109523672222e+00	 1.016640232546551e+01
0	 5.857150240517927e+00	 2.999969994316575e+00	 1.015430277549276e+01
0	 5.857150240517926e+00	 3.142830431628385e+00	 1.014367709006841e+01
0	 5.857150240517926e+00	 3.285690802274106e+00	 1.013454142767000e+01
0	 5.857150240517928e+00	 3.428551072920193e+00	 1.012691194845484e+01
0	 5.857150240517929e+00	 3.571411210233103e+00	 1.012080481426011e+01
0	 5.857150240517929e+00	 3.714271180879289e+00	 1.011623618860275e+01
0	 5.857150240517929e+00	 3.857130951525211e+00	 1.011322223667960e+01
0	 5.857150240517927e+00	 3.999990488837320e+00	 1.011177912536727e+01
0	 5.857150240517927e+00	 4.142849759482075e+00	 1.011192302322232e+01
0	 5.857150240517928e+00	 4.285708730125926e+00	 1.011367010048115e+01
0	 6.000009511162683e+00	 2.857109523672223e+00	 1.015573570042768e+01
0	 6.000009511162682e+00	 2.999969994316577e+00	 1.014363062758653e+01
0	 6.000009511162681e+00	 3.142830431628386e+00	 1.013329665617127e+01
0	 6.000009511162683e+00	 3.285690802274106e+00	 1.012469621036775e+01
0	 6.000009511162683e+00	 3.428551072920194e+00	 1.011779171617646e+01
0	 6.000009511162681e+00	 3.571411210233103e+00	 1.011254560141254e+01
0	 6.000009511162682e+00	 3.714271180879289e+00	 1.010892029570576e+01
0	 6.000009511162682e+00	 3.857130951525211e+00	 1.010687823050057e+01
0	 6.000009511162682e+00	 3.999990488837320e+00	 1.010638183905608e+01
0	 6.000009511162682e+00	 4.142849759482076e+00	 1.010739355644609e+01
0	 6.000009511162682e+00	 4.285708730125925e+00	 1.010987581955915e+01
0	 6.142869048474790e+00	 2.857109523672222e+00	 1.014438795217259e+01
0	 6.142869048474791e+00	 2.999969994316576e+00	 1.013337369654325e+01
0	 6.142869048474791e+00	 3.142830431628385e+00	 1.012418212499884e+01
0	 6.142869048474791e+00	 3.285690802274106e+00	 1.011673337808324e+01
0	 6.142869048474791e+00	 3.428551072920193e+00	 1.011094759801043e+01
0	 6.142869048474791e+00	 3.571411210233102e+00	 1.010674492866441e+01
0	 6.142869048474792e+00	 3.714271180879290e+00	 1.010404551559923e+01
0	 6.142869048474790e+00	 3.857130951525209e+00	 1.010276950603897e+01
0	 6.142869048474791e+00	 3.999990488837320e+00	 1.010283704887784e+01
0	 6.142869048474791e+00	 4.142849759482075e+00	 1.010416829468009e+01
0	 6.142869048474794e+00	 4.285708730125926e+00	 1.010668339568009e+01
0	 6.285728819120711e+00	 2.857109523672221e+00	 1.013266387657446e+01
0	 6.285728819120712e+00	 2.999969994316575e+00	 1.012357924124836e+01
0	 6.285728819120711e+00	 3.142830431628386e+00	 1.011616825369077e+01
0	 6.285728819120713e+00	 3.285690802274106e+00	 1.011032022126220e+01
0	 6.285728819120712e+00	 3.428551072920192e+00	 1.010592445263227e+01
0	 6.285728819120712e+00	 3.571411210233103e+00	 1.010287025777964e+01
0	 6.285728819120711e+00	 3.714271180879289e+00	 1.010104694799206e+01
0	 6.285728819120711e+00	 3.857130951525210e+00	 1.010034383586632e+01
0	 6.285728819120712e+00	 3.999990488837320e+00	 1.010065023530835e+01
0	 6.285728819120714e+00	 4.142849759482074e+00	 1.010185546153313e+01
0	 6.285728819120711e+00	 4.285708730125926e+00	 1.010384883106482e+01
0	 6.428588789766899e+00	 2.857109523672222e+00	 1.012086827025061e+01
0	 6.428588789766899e+00	 2.999969994316576e+00	 1.011429452126376e+01
0	 6.428588789766899e+00	 3.142830431628386e+00	 1.010908979993207e+01
0	 6.428588789766899e+00	 3.285690802274106e+00	 1.010512403071612e+01
0	 6.428588789766899e+00	 3.428551072920194e+00	 1.010226713887120e+01
0	 6.428588789766899e+00	 3.571411210233103e+00	 1.010038905044744e+01
0	 6.428588789766901e+00	 3.714271180879290e+00	 1.009935969228965e+01
0	 6.428588789766899e+00	 3.857130951525210e+00	 1.009904899203748e+01
0	 6.428588789766899e+00	 3.999990488837320e+00	 1.009932687812530e+01
0	 6.428588789766899e+00	 4.142849759482074e+00	 1.010006327978232e+01
0	 6.428588789766899e+00	 4.285708730125926e+00	 1.010112812703249e+01
0	 6.571448927079808e+00	 2.857109523672222e+00	 1.010930593056145e+01
0	 6.571448927079810e+00	 2.999969994316576e+00	 1.010556679682777e+01
0	 6.571448927079809e+00	 3.142830431628385e+00	 1.010278152195304e+01
0	 6.571448927079806e+00	 3.285690802274105e+00	 1.010081209762215e+01
0	 6.571448927079810e+00	 3.428551072920194e+00	 1.009952051571013e+01
0	 6.571448927079809e+00	 3.571411210233103e+00	 1.009876876828224e+01
0	 6.571448927079810e+00	 3.714271180879289e+00	 1.009841884759389e+01
0	 6.571448927079809e+00	 3.857130951525211e+00	 1.009833274609067e+01
0	 6.571448927079809e+00	 3.999990488837319e+00	 1.009837245640837e+01
0	 6.571448927079806e+00	 4.142849759482074e+00	 1.009839997137294e+01
0	 6.571448927079809e+00	 4.285708730125926e+00	 1.009827728400052e+01
0	 6.714309197725895e+00	 2.857109523672222e+00	 1.009828165561046e+01
0	 6.714309197725894e+00	 2.999969994316575e+00	 1.009744332885519e+01
0	 6.714309197725896e+00	 3.142830431628385e+00	 1.009707817852930e+01
0	 6.714309197725896e+00	 3.285690802274106e+00	 1.009705171352321e+01
0	 6.714309197725896e+00	 3.428551072920194e+00	 1.009722944228566e+01
0	 6.714309197725896e+00	 3.571411210233102e+00	 1.009747687282380e+01
0	 6.714309197725898e+00	 3.714271180879290e+00	 1.009765951270314e+01
0	 6.714309197725895e+00	 3.857130951525210e+00	 1.009764286904752e+01
0	 6.714309197725896e+00	 3.999990488837321e+00	 1.009729244853914e+01
0	 6.714309197725896e+00	 4.142849759482075e+00	 1.009647375741855e+01
0	 6.714309197725895e+00	 4.285708730125925e+00	 1.009505230148464e+01
0	 6.857169568371615e+00	 2.857109523672222e+00	 1.008810024424426e+01
0	 6.857169568371616e+00	 2.999969994316576e+00	 1.008997137893722e+01
0	 6.857169568371617e+00	 3.142830431628385e+00	 1.009181452898174e+01
0	 6.857169568371618e+00	 3.285690802274106e+00	 1.009351017032788e+01
0	 6.857169568371616e+00	 3.428551072920193e+00	 1.009493877788809e+01
0	 6.857169568371617e+00	 3.571411210233103e+00	 1.009598082553716e+01
0	 6.857169568371617e+00	 3.714271180879290e+00	 1.009651678611229e+01
0	 6.857169568371615e+00	 3.857130951525210e+00	 1.009642713141301e+01
0	 6.857169568371616e+00	 3.999990488837320e+00	 1.009559233220117e+01
0	 6.857169568371615e+00	 4.142849759482074e+00	 1.009389285820096e+01
0	 6.857169568371617e+00	 4.285708730125926e+00	 1.009120917809886e+01
0	 7.000030005683426e+00	 2.857109523672222e+00	 1.007906649605249e+01
0	 7.000030005683426e+00	 2.999969994316576e+00	 1.008319820934155e+01
0	 7.000030005683424e+00	 3.142830431628385e+00	 1.008682533317660e+01
0	 7.000030005683427e+00	 3.285690802274106e+00	 1.008985476031051e+01
0	 7.000030005683424e+00	 3.428551072920192e+00	 1.009219338196140e+01
0	 7.000030005683426e+00	 3.571411210233103e+00	 1.009374808781263e+01
0	 7.000030005683426e+00	 3.714271180879290e+00	 1.009442576601275e+01
0	 7.000030005683427e+00	 3.857130951525211e+00	 1.009413330317556e+01
0	 7.000030005683425e+00	 3.999990488837320e+00	 1.009277758438001e+01
0	 7.000030005683428e+00	 4.142849759482075e+00	 1.009026549317027e+01
0	 7.000030005683426e+00	 4.285708730125926e+00	 1.008650391155557e+01
0	 7.142890476327779e+00	 2.857109523672222e+00	 1.007148521136794e+01
0	 7.142890476327778e+00	 2.999969994316576e+00	 1.007717108301226e+01
0	 7.142890476327778e+00	 3.142830431628385e+00	 1.008194535152538e+01
0	 7.142890476327780e+00	 3.285690802274106e+00	 1.008575277611114e+01
0	 7.142890476327778e+00	 3.428551072920193e+00	 1.008853811410335e+01
0	 7.142890476327777e+00	 3.571411210233102e+00	 1.009024612096584e+01
0	 7.142890476327779e+00	 3.714271180879290e+00	 1.009082155029245e+01
0	 7.142890476327779e+00	 3.857130951525211e+00	 1.009020915380697e+01
0	 7.142890476327780e+00	 3.999990488837321e+00	 1.008835368136321e+01
0	 7.142890476327779e+00	 4.142849759482075e+00	 1.008519988094484e+01
0	 7.142890476327779e+00	 4.285708730125926e+00	 1.008069249866546e+01
0	 5.714291269874074e+00	 4.285708730125924e+00	 1.011831023532343e+01
0	 5.714291269874074e+00	 4.428567384102074e+00	 1.011903607513899e+01
0	 5.714291269874074e+00	 4.571425771410667e+00	 1.011923385906291e+01
0	 5.714291269874073e+00	 4.714283958718594e+00	 1.011880571475751e+01
0	 5.714291269874074e+00	 4.857142012692742e+00	 1.011765377321512e+01
0	 5.714291269874074e+00	 5.000000000000001e+00	 1.011568016875804e+01
0	 5.714291269874076e+00	 5.142857987307261e+00	 1.011278703903854e+01
0	 5.714291269874075e+00	 5.285716041281409e+00	 1.010887652503891e+01
0	 5.714291269874074e+00	 5.428574228589336e+00	 1.010385077107131e+01
0	 5.714291269874074e+00	 5.571432615897928e+00	 1.009761192477776e+01
0	 5.714291269874074e+00	 5.714291269874073e+00	 1.009006213713001e+01
0	 5.857150240517928e+00	 4.285708730125926e+00	 1.011367010048115e+01
0	 5.857150240517928e+00	 4.428567384102073e+00	 1.011576686125153e+01
0	 5.857150240517927e+00	 4.571425771410666e+00	 1.011692185159899e+01
0	 5.857150240517929e+00	 4.714283958718593e+00	 1.011709430872943e+01
0	 5.857150240517928e+00	 4.857142012692742e+00	 1.011624347354602e+01
0	 5.857150240517930e+00	 5.000000000000003e+00	 1.011432859064912e+01
0	 5.857150240517927e+00	 5.142857987307260e+00	 1.011130890833641e+01
0	 5.857150240517932e+00	 5.285716041281410e+00	 1.010714367860276e+01
0	 5.857150240517927e+00	 5.428574228589336e+00	 1.010179215714027e+01
0	 5.857150240517928e+00	 5.571432615897928e+00	 1.009521360333815e+01
0	 5.857150240517929e+00	 5.714291269874074e+00	 1.008736728028265e+01
0	 6.000009511162682e+00	 4.285708730125925e+00	 1.010987581955915e+01
0	 6.000009511162682e+00	 4.428567384102074e+00	 1.011249121355458e+01
0	 6.000009511162682e+00	 4.571425771410667e+00	 1.011393170279028e+01
0	 6.000009511162682e+00	 4.714283958718594e+00	 1.011420379708193e+01
0	 6.000009511162682e+00	 4.857142012692741e+00	 1.011331400993607e+01
0	 6.000009511162683e+00	 5.000000000000001e+00	 1.011126885855014e+01
0	 6.000009511162683e+00	 5.142857987307261e+00	 1.010807486381254e+01
0	 6.000009511162681e+00	 5.285716041281409e+00	 1.010373855030250e+01
0	 6.000009511162681e+00	 5.428574228589334e+00	 1.009826644629018e+01
0	 6.000009511162681e+00	 5.571432615897929e+00	 1.009166508373652e+01
0	 6.000009511162681e+00	 5.714291269874075e+00	 1.008394099829315e+01
0	 6.142869048474794e+00	 4.285708730125926e+00	 1.010668339568009e+01
0	 6.142869048474791e+00	 4.428567384102073e+00	 1.010912255233958e+01
0	 6.142869048474792e+00	 4.571425771410668e+00	 1.011030849128587e+01
0	 6.142869048474791e+00	 4.714283958718593e+00	 1.011028515779165e+01
0	 6.142869048474791e+00	 4.857142012692742e+00	 1.010909650051266e+01
0	 6.142869048474792e+00	 5.000000000000002e+00	 1.010678647148769e+01
0	 6.142869048474789e+00	 5.142857987307260e+00	 1.010339902613867e+01
0	 6.142869048474792e+00	 5.285716041281408e+00	 1.009897812327058e+01
0	 6.142869048474790e+00	 5.428574228589335e+00	 1.009356772507144e+01
0	 6.142869048474792e+00	 5.571432615897928e+00	 1.008721179711230e+01
0	 6.142869048474792e+00	 5.714291269874074e+00	 1.007995430834704e+01
0	 6.285728819120711e+00	 4.285708730125926e+00	 1.010384883106482e+01
0	 6.285728819120713e+00	 4.428567384102074e+00	 1.010557429700108e+01
0	 6.285728819120711e+00	 4.571425771410667e+00	 1.010609729490884e+01
0	 6.285728819120715e+00	 4.714283958718593e+00	 1.010548936813239e+01
0	 6.285728819120711e+00	 4.857142012692742e+00	 1.010382206286186e+01
0	 6.285728819120712e+00	 5.000000000000002e+00	 1.010116692813332e+01
0	 6.285728819120712e+00	 5.142857987307261e+00	 1.009759551582871e+01
0	 6.285728819120713e+00	 5.285716041281409e+00	 1.009317938067592e+01
0	 6.285728819120713e+00	 5.428574228589335e+00	 1.008799008024863e+01
0	 6.285728819120711e+00	 5.571432615897927e+00	 1.008209917496639e+01
0	 6.285728819120712e+00	 5.714291269874074e+00	 1.007557822809444e+01
0	 6.428588789766899e+00	 4.285708730125926e+00	 1.010112812703249e+01
0	 6.428588789766899e+00	 4.428567384102074e+00	 1.010175986603676e+01
0	 6.428588789766900e+00	 4.571425771410667e+00	 1.010134319065626e+01
0	 6.428588789766899e+00	 4.714283958718592e+00	 1.009996740467499e+01
0	 6.428588789766898e+00	 4.857142012692741e+00	 1.009772181402843e+01
0	 6.428588789766899e+00	 5.000000000000001e+00	 1.009469572680353e+01
0	 6.428588789766899e+00	 5.142857987307261e+00	 1.009097845323872e+01
0	 6.428588789766899e+00	 5.285716041281408e+00	 1.008665930572392e+01
0	 6.428588789766899e+00	 5.428574228589335e+00	 1.008182759880047e+01
0	 6.428588789766899e+00	 5.571432615897927e+00	 1.007657264916114e+01
0	 6.428588789766900e+00	 5.714291269874074e+00	 1.007098377565000e+01
0	 6.571448927079809e+00	 4.285708730125926e+00	 1.009827728400052e+01
0	 6.571448927079809e+00	 4.428567384102075e+00	 1.009759267704743e+01
0	 6.571448927079810e+00	 4.571425771410667e+00	 1.009609125469922e+01
0	 6.571448927079809e+00	 4.714283958718594e+00	 1.009387024328751e+01
0	 6.571448927079809e+00	 4.857142012692742e+00	 1.009102687051587e+01
0	 6.571448927079809e+00	 5.000000000000002e+00	 1.008765836545983e+01
0	 6.571448927079808e+00	 5.142857987307260e+00	 1.008386195856689e+01
0	 6.571448927079810e+00	 5.285716041281410e+00	 1.007973488165646e+01
0	 6.571448927079808e+00	 5.428574228589335e+00	 1.007537436791987e+01
0	 6.571448927079809e+00	 5.571432615897927e+00	 1.007087765192036e+01
0	 6.571448927079809e+00	 5.714291269874074e+00	 1.006634196959293e+01
0	 6.714309197725895e+00	 4.285708730125925e+00	 1.009505230148464e+01
0	 6.714309197725896e+00	 4.428567384102075e+00	 1.009298614673708e+01
0	 6.714309197725894e+00	 4.571425771410667e+00	 1.009038656238288e+01
0	 6.714309197725896e+00	 4.714283958718593e+00	 1.008734885913512e+01
0	 6.714309197725896e+00	 4.857142012692742e+00	 1.008396834828638e+01
0	 6.714309197725895e+00	 5.000000000000001e+00	 1.008034034170872e+01
0	 6.714309197725896e+00	 5.142857987307261e+00	 1.007656015185360e+01
0	 6.714309197725895e+00	 5.285716041281407e+00	 1.007272309175191e+01
0	 6.714309197725896e+00	 5.428574228589335e+00	 1.006892447501392e+01
0	 6.714309197725896e+00	 5.571432615897926e+00	 1.006525961582930e+01
0	 6.714309197725894e+00	 5.714291269874073e+00	 1.006182382896700e+01
0	 6.857169568371617e+00	 4.285708730125926e+00	 1.009120917809886e+01
0	 6.857169568371615e+00	 4.428567384102073e+00	 1.008785369091291e+01
0	 6.857169568371617e+00	 4.571425771410668e+00	 1.008427418822641e+01
0	 6.857169568371617e+00	 4.714283958718593e+00	 1.008055422668015e+01
0	 6.857169568371617e+00	 4.857142012692742e+00	 1.007677736276091e+01
0	 6.857169568371617e+00	 5.000000000000001e+00	 1.007302715280167e+01
0	 6.857169568371615e+00	 5.142857987307259e+00	 1.006938715298138e+01
0	 6.857169568371615e+00	 5.285716041281408e+00	 1.006594091932511e+01
0	 6.857169568371616e+00	 5.428574228589336e+00	 1.006277200770385e+01
0	 6.857169568371619e+00	 5.571432615897930e+00	 1.005996397383465e+01
0	 6.857169568371618e+00	 5.714291269874074e+00	 1.005760037328051e+01
0	 7.000030005683426e+00	 4.285708730125926e+00	 1.008650391155557e+01
0	 7.000030005683424e+00	 4.428567384102076e+00	 1.008210872448525e+01
0	 7.000030005683427e+00	 4.571425771410667e+00	 1.007779920592312e+01
0	 7.000030005683426e+00	 4.714283958718593e+00	 1.007363731968212e+01
0	 7.000030005683426e+00	 4.857142012692742e+00	 1.006968502881917e+01
0	 7.000030005683427e+00	 5.000000000000002e+00	 1.006600429563518e+01
0	 7.000030005683426e+00	 5.142857987307261e+00	 1.006265708167500e+01
0	 7.000030005683426e+00	 5.285716041281407e+00	 1.005970534772741e+01
0	 7.000030005683424e+00	 5.428574228589335e+00	 1.005721105382507e+01
0	 7.000030005683427e+00	 5.571432615897928e+00	 1.005523615924456e+01
0	 7.000030005683426e+00	 5.714291269874074e+00	 1.005384262250630e+01
0	 7.142890476327779e+00	 4.285708730125926e+00	 1.008069249866546e+01
0	 7.142890476327776e+00	 4.428567384102074e+00	 1.007566466146768e+01
0	 7.142890476327778e+00	 4.571425771410667e+00	 1.007100668834033e+01
0	 7.142890476327777e+00	 4.714283958718592e+00	 1.006674911119775e+01
0	 7.142890476327779e+00	 4.857142012692742e+00	 1.006292246079960e+01
0	 7.142890476327777e+00	 5.000000000000001e+00	 1.005955726675074e+01
0	 7.142890476327778e+00	 5.142857987307261e+00	 1.005668405750133e+01
0	 7.142890476327778e+00	 5.285716041281409e+00	 1.005433336034665e+01
0	 7.142890476327777e+00	 5.428574228589334e+00	 1.005253570142720e+01
0	 7.142890476327777e+00	 5.571432615897927e+00	 1.005132160572863e+01
0	 7.142890476327778e+00	 5.714291269874073e+00	 1.005072159708176e+01
0	 5.714291269874074e+00	 5.714291269874073e+00	 1.009006213713001e+01
0	 5.714291269874074e+00	 5.857150240517930e+00	 1.008208467696011e+01
0	 5.714291269874075e+00	 6.000009511162681e+00	 1.007464628392237e+01
0	 5.714291269874075e+00	 6.142869048474792e+00	 1.006777431848711e+01
0	 5.714291269874074e+00	 6.285728819120712e+00	 1.006149614214850e+01
0	 5.714291269874074e+00	 6.428588789766899e+00	 1.005583911742457e+01
0	 5.714291269874074e+00	 6.571448927079808e+00	 1.005083060785711e+01
0	 5.714291269874073e+00	 6.714309197725894e+00	 1.004649797801170e+01
0	 5.714291269874074e+00	 6.857169568371616e+00	 1.004286859347764e+01
0	 5.714291269874074e+00	 7.000030005683425e+00	 1.003996982086798e+01
0	 5.714291269874075e+00	 7.142890476327779e+00	 1.003782902781947e+01
0	 5.857150240517929e+00	 5.714291269874074e+00	 1.008736728028265e+01
0	 5.857150240517927e+00	 5.857150240517928e+00	 1.007924050119438e+01
0	 5.857150240517927e+00	 6.000009511162682e+00	 1.007184216759001e+01
0	 5.857150240517927e+00	 6.142869048474792e+00	 1.006516392853384e+01
0	 5.857150240517929e+00	 6.285728819120712e+00	 1.005919743410510e+01
0	 5.857150240517929e+00	 6.428588789766900e+00	 1.005393433539791e+01
0	 5.857150240517926e+00	 6.571448927079809e+00	 1.004936628452133e+01
0	 5.857150240517927e+00	 6.714309197725898e+00	 1.004548493459921e+01
0	 5.857150240517929e+00	 6.857169568371616e+00	 1.004228193977029e+01
0	 5.857150240517928e+00	 7.000030005683427e+00	 1.003974895518806e+01
0	 5.857150240517928e+00	 7.142890476327779e+00	 1.003787763702086e+01
0	 6.000009511162681e+00	 5.714291269874075e+00	 1.008394099829315e+01
0	 6.000009511162682e+00	 5.857150240517926e+00	 1.007608208348293e+01
0	 6.000009511162683e+00	 6.000009511162682e+00	 1.006904688342451e+01
0	 6.000009511162680e+00	 6.142869048474790e+00	 1.006279791312353e+01
0	 6.000009511162682e+00	 6.285728819120712e+00	 1.005729768850863e+01
0	 6.000009511162681e+00	 6.428588789766899e+00	 1.005250872643148e+01
0	 6.000009511162682e+00	 6.571448927079808e+00	 1.004839354466663e+01
0	 6.000009511162682e+00	 6.714309197725895e+00	 1.004491466191169e+01
0	 6.000009511162681e+00	 6.857169568371617e+00	 1.004203459778706e+01
0	 6.000009511162682e+00	 7.000030005683427e+00	 1.003971587283611e+01
0	 6.000009511162683e+00	 7.142890476327777e+00	 1.003792100852510e+01
0	 6.142869048474792e+00	 5.714291269874074e+00	 1.007995430834704e+01
0	 6.142869048474791e+00	 5.857150240517928e+00	 1.007269969115288e+01
0	 6.142869048474792e+00	 6.000009511162682e+00	 1.006628303526947e+01
0	 6.142869048474790e+00	 6.142869048474791e+00	 1.006064429880642e+01
0	 6.142869048474792e+00	 6.285728819120711e+00	 1.005572344063974e+01
0	 6.142869048474791e+00	 6.428588789766899e+00	 1.005146042041179e+01
0	 6.142869048474790e+00	 6.571448927079809e+00	 1.004779519853134e+01
0	 6.142869048474791e+00	 6.714309197725896e+00	 1.004466773617349e+01
0	 6.142869048474791e+00	 6.857169568371615e+00	 1.004201799527964e+01
0	 6.142869048474793e+00	 7.000030005683427e+00	 1.003978593855751e+01
0	 6.142869048474791e+00	 7.142890476327777e+00	 1.003791152948111e+01
0	 6.285728819120712e+00	 5.714291269874074e+00	 1.007557822809444e+01
0	 6.285728819120714e+00	 5.857150240517929e+00	 1.006918359204492e+01
0	 6.285728819120712e+00	 6.000009511162681e+00	 1.006357322748230e+01
0	 6.285728819120713e+00	 6.142869048474793e+00	 1.005867111260721e+01
0	 6.285728819120712e+00	 6.285728819120711e+00	 1.005440122618376e+01
0	 6.285728819120711e+00	 6.428588789766899e+00	 1.005068754753940e+01
0	 6.285728819120712e+00	 6.571448927079810e+00	 1.004745405656505e+01
0	 6.285728819120712e+00	 6.714309197725895e+00	 1.004462473371498e+01
0	 6.285728819120713e+00	 6.857169568371617e+00	 1.004212356000680e+01
0	 6.285728819120711e+00	 7.000030005683425e+00	 1.003987451702149e+01
0	 6.285728819120710e+00	 7.142890476327774e+00	 1.003780158690338e+01
0	 6.428588789766900e+00	 5.714291269874074e+00	 1.007098377565000e+01
0	 6.428588789766901e+00	 5.857150240517928e+00	 1.006562405451325e+01
0	 6.428588789766900e+00	 6.000009511162681e+00	 1.006094006493414e+01
0	 6.428588789766900e+00	 6.142869048474791e+00	 1.005684638202507e+01
0	 6.428588789766899e+00	 6.285728819120711e+00	 1.005325758123092e+01
0	 6.428588789766897e+00	 6.428588789766898e+00	 1.005008823832895e+01
0	 6.428588789766899e+00	 6.571448927079810e+00	 1.004725292942879e+01
0	 6.428588789766899e+00	 6.714309197725896e+00	 1.004466623097246e+01
0	 6.428588789766899e+00	 6.857169568371616e+00	 1.004224271973433e+01
0	 6.428588789766900e+00	 7.000030005683428e+00	 1.003989697282116e+01
0	 6.428588789766899e+00	 7.142890476327778e+00	 1.003754356767199e+01
0	 6.571448927079809e+00	 5.714291269874074e+00	 1.006634196959293e+01
0	 6.571448927079807e+00	 5.857150240517928e+00	 1.006211134742561e+01
0	 6.571448927079808e+00	 6.000009511162682e+00	 1.005840615300987e+01
0	 6.571448927079809e+00	 6.142869048474791e+00	 1.005513813503358e+01
0	 6.571448927079809e+00	 6.285728819120713e+00	 1.005221904227623e+01
0	 6.571448927079809e+00	 6.428588789766900e+00	 1.004956062360904e+01
0	 6.571448927079807e+00	 6.571448927079806e+00	 1.004707462799487e+01
0	 6.571448927079808e+00	 6.714309197725895e+00	 1.004467280448819e+01
0	 6.571448927079810e+00	 6.857169568371617e+00	 1.004226690223516e+01
0	 6.571448927079808e+00	 7.000030005683424e+00	 1.003976867047350e+01
0	 6.571448927079808e+00	 7.142890476327775e+00	 1.003708985853262e+01
0	 6.714309197725894e+00	 5.714291269874073e+00	 1.006182382896700e+01
0	 6.714309197725897e+00	 5.857150240517926e+00	 1.005873574016326e+01
0	 6.714309197725895e+00	 6.000009511162681e+00	 1.005599409760820e+01
0	 6.714309197725896e+00	 6.142869048474791e+00	 1.005351440008078e+01
0	 6.714309197725894e+00	 6.285728819120709e+00	 1.005121214621950e+01
0	 6.714309197725894e+00	 6.428588789766899e+00	 1.004900283452240e+01
0	 6.714309197725897e+00	 6.571448927079810e+00	 1.004680196334703e+01
0	 6.714309197725897e+00	 6.714309197725897e+00	 1.004452503091042e+01
0	 6.714309197725896e+00	 6.857169568371615e+00	 1.004208753528917e+01
0	 6.714309197725895e+00	 7.000030005683426e+00	 1.003940497441935e+01
0	 6.714309197725897e+00	 7.142890476327777e+00	 1.003639284609654e+01
0	 6.857169568371618e+00	 5.714291269874074e+00	 1.005760037328051e+01
0	 6.857169568371616e+00	 5.857150240517928e+00	 1.005558750262097e+01
0	 6.857169568371616e+00	 6.000009511162682e+00	 1.005372650514150e+01
0	 6.857169568371615e+00	 6.142869048474790e+00	 1.005194320608917e+01
0	 6.857169568371615e+00	 6.285728819120711e+00	 1.005016343036535e+01
0	 6.857169568371617e+00	 6.428588789766900e+00	 1.004831300252573e+01
0	 6.857169568371616e+00	 6.571448927079810e+00	 1.004631774678029e+01
0	 6.857169568371616e+00	 6.714309197725895e+00	 1.004410348699332e+01
0	 6.857169568371616e+00	 6.857169568371615e+00	 1.004159604668341e+01
0	 6.857169568371615e+00	 7.000030005683424e+00	 1.003872124902345e+01
0	 6.857169568371616e+00	 7.142890476327776e+00	 1.003540491684059e+01
0	 7.000030005683426e+00	 5.714291269874074e+00	 1.005384262250630e+01
0	 7.000030005683425e+00	 5.857150240517927e+00	 1.005275690520705e+01
0	 7.000030005683426e+00	 6.000009511162682e+00	 1.005162598253595e+01
0	 7.000030005683427e+00	 6.142869048474792e+00	 1.005039258245566e+01
0	 7.000030005683427e+00	 6.285728819120712e+00	 1.004899943242317e+01
0	 7.000030005683427e+00	 6.428588789766899e+00	 1.004738925938977e+01
0	 7.000030005683426e+00	 6.571448927079808e+00	 1.004550478980108e+01
0	 7.000030005683427e+00	 6.714309197725897e+00	 1.004328874959704e+01
0	 7.000030005683426e+00	 6.857169568371618e+00	 1.004068386421195e+01
0	 7.000030005683425e+00	 7.000030005683425e+00	 1.003763285857437e+01
0	 7.000030005683425e+00	 7.142890476327776e+00	 1.003407845710724e+01
0	 7.142890476327778e+00	 5.714291269874073e+00	 1.005072159708176e+01
0	 7.142890476327777e+00	 5.857150240517927e+00	 1.005033421884328e+01
0	 7.142890476327778e+00	 6.000009511162682e+00	 1.004971513723143e+01
0	 7.142890476327779e+00	 6.142869048474793e+00	 1.004883055905162e+01
0	 7.142890476327777e+00	 6.285728819120713e+00	 1.004764669050719e+01
0	 7.142890476327779e+00	 6.428588789766899e+00	 1.004612973719932e+01
0	 7.142890476327777e+00	 6.571448927079808e+00	 1.004424590412715e+01
0	 7.142890476327779e+00	 6.714309197725897e+00	 1.004196139568770e+01
0	 7.142890476327776e+00	 6.857169568371617e+00	 1.003924241567591e+01
0	 7.142890476327777e+00	 7.000030005683425e+00	 1.003605516728461e+01
0	 7.142890476327779e+00	 7.142890476327780e+00	 1.003236585310452e+01
0	 5.714291269874075e+00	 7.142890476327779e+00	 1.003782902781947e+01
0	 5.714291269874074e+00	 7.285740955271013e+00	 1.003604096926782e+01
0	 5.714291269874074e+00	 7.428591450879007e+00	 1.003416602381347e+01
0	 5.714291269874074e+00	 7.571441979817511e+00	 1.003218036347514e+01
0	 5.714291269874074e+00	 7.714292558752280e+00	 1.003006016035352e+01
0	 5.714291269874073e+00	 7.857143204349073e+00	 1.002778158663135e+01
0	 5.714291269874073e+00	 7.999993933273643e+00	 1.002532081457339e+01
0	 5.714291269874075e+00	 8.142844762191750e+00	 1.002265401652639e+01
0	 5.714291269874074e+00	 8.285695707769142e+00	 1.001975736491915e+01
0	 5.714291269874074e+00	 8.428546786671575e+00	 1.001660703226246e+01
0	 5.714291269874074e+00	 8.571398015564814e+00	 1.001317919114911e+01
0	 5.857150240517928e+00	 7.142890476327779e+00	 1.003787763702086e+01
0	 5.857150240517927e+00	 7.285740955271013e+00	 1.003624396694605e+01
0	 5.857150240517927e+00	 7.428591450879007e+00	 1.003442684190931e+01
0	 5.857150240517927e+00	 7.571441979817510e+00	 1.003242261587877e+01
0	 5.857150240517927e+00	 7.714292558752280e+00	 1.003022764289834e+01
0	 5.857150240517927e+00	 7.857143204349071e+00	 1.002783827708774e+01
0	 5.857150240517928e+00	 7.999993933273643e+00	 1.002525087264247e+01
0	 5.857150240517928e+00	 8.142844762191750e+00	 1.002246178383382e+01
0	 5.857150240517929e+00	 8.285695707769140e+00	 1.001946736500892e+01
0	 5.857150240517927e+00	 8.428546786671578e+00	 1.001626397059062e+01
0	 5.857150240517928e+00	 8.571398015564812e+00	 1.001284795507758e+01
0	 6.000009511162683e+00	 7.142890476327777e+00	 1.003792100852510e+01
0	 6.000009511162683e+00	 7.285740955271015e+00	 1.003625622599109e+01
0	 6.000009511162681e+00	 7.428591450879008e+00	 1.003436091954949e+01
0	 6.000009511162683e+00	 7.571441979817513e+00	 1.003224769569631e+01
0	 6.000009511162682e+00	 7.714292558752280e+00	 1.002992916097672e+01
0	 6.000009511162681e+00	 7.857143204349073e+00	 1.002741792198520e+01
0	 6.000009511162682e+00	 7.999993933273643e+00	 1.002472658536536e+01
0	 6.000009511162683e+00	 8.142844762191746e+00	 1.002186775781015e+01
0	 6.000009511162682e+00	 8.285695707769142e+00	 1.001885404606167e+01
0	 6.000009511162681e+00	 8.428546786671577e+00	 1.001569805691123e+01
0	 6.000009511162682e+00	 8.571398015564814e+00	 1.001241239719942e+01
0	 6.142869048474791e+00	 7.142890476327777e+00	 1.003791152948111e+01
0	 6.142869048474791e+00	 7.285740955271013e+00	 1.003607011158783e+01
0	 6.142869048474792e+00	 7.428591450879010e+00	 1.003399343195298e+01
0	 6.142869048474790e+00	 7.571441979817510e+00	 1.003170642020586e+01
0	 6.142869048474791e+00	 7.714292558752281e+00	 1.002923400598310e+01
0	 6.142869048474791e+00	 7.857143204349073e+00	 1.002660111892868e+01
0	 6.142869048474791e+00	 7.999993933273646e+00	 1.002383268869391e+01
0	 6.142869048474790e+00	 8.142844762191746e+00	 1.002095364493745e+01
0	 6.142869048474793e+00	 8.285695707769142e+00	 1.001798891732526e+01
0	 6.142869048474791e+00	 8.428546786671577e+00	 1.001496343553068e+01
0	 6.142869048474791e+00	 8.571398015564814e+00	 1.001190212923435e+01
0	 6.285728819120710e+00	 7.142890476327774e+00	 1.003780158690338e+01
0	 6.285728819120712e+00	 7.285740955271016e+00	 1.003567798876017e+01
0	 6.285728819120713e+00	 7.428591450879009e+00	 1.003334955417972e+01
0	 6.285728819120714e+00	 7.571441979817512e+00	 1.003084960655166e+01
0	 6.285728819120712e+00	 7.714292558752282e+00	 1.002821146922072e+01
0	 6.285728819120714e+00	 7.857143204349075e+00	 1.002546846548684e+01
0	 6.285728819120711e+00	 7.999993933273643e+00	 1.002265391860500e+01
0	 6.285728819120710e+00	 8.142844762191748e+00	 1.001980115178543e+01
0	 6.285728819120710e+00	 8.285695707769138e+00	 1.001694348819341e+01
0	 6.285728819120711e+00	 8.428546786671575e+00	 1.001411425094939e+01
0	 6.285728819120711e+00	 8.571398015564814e+00	 1.001134676312897e+01
0	 6.428588789766899e+00	 7.142890476327778e+00	 1.003754356767199e+01
0	 6.428588789766900e+00	 7.285740955271014e+00	 1.003507222237095e+01
0	 6.428588789766899e+00	 7.428591450879006e+00	 1.003245446113063e+01
0	 6.428588789766897e+00	 7.571441979817508e+00	 1.002972807174399e+01
0	 6.428588789766900e+00	 7.714292558752283e+00	 1.002693084190165e+01
0	 6.428588789766901e+00	 7.857143204349075e+00	 1.002410055919191e+01
0	 6.428588789766899e+00	 7.999993933273642e+00	 1.002127501110065e+01
0	 6.428588789766899e+00	 8.142844762191746e+00	 1.001849198501148e+01
0	 6.428588789766900e+00	 8.285695707769140e+00	 1.001578926820560e+01
0	 6.428588789766900e+00	 8.428546786671575e+00	 1.001320464786188e+01
0	 6.428588789766899e+00	 8.571398015564816e+00	 1.001077591105686e+01
0	 6.571448927079808e+00	 7.142890476327775e+00	 1.003708985853262e+01
0	 6.571448927079807e+00	 7.285740955271014e+00	 1.003424517712200e+01
0	 6.571448927079810e+00	 7.428591450879008e+00	 1.003133332754758e+01
0	 6.571448927079808e+00	 7.571441979817510e+00	 1.002839263265923e+01
0	 6.571448927079808e+00	 7.714292558752280e+00	 1.002546141514675e+01
0	 6.571448927079809e+00	 7.857143204349073e+00	 1.002257799753980e+01
0	 6.571448927079809e+00	 7.999993933273644e+00	 1.001978070220793e+01
0	 6.571448927079810e+00	 8.142844762191746e+00	 1.001710785136058e+01
0	 6.571448927079807e+00	 8.285695707769142e+00	 1.001459776704709e+01
0	 6.571448927079809e+00	 8.428546786671577e+00	 1.001228877115668e+01
0	 6.571448927079809e+00	 8.571398015564816e+00	 1.001021918541847e+01
0	 6.714309197725897e+00	 7.142890476327777e+00	 1.003639284609654e+01
0	 6.714309197725897e+00	 7.285740955271015e+00	 1.003318921755413e+01
0	 6.714309197725897e+00	 7.428591450879009e+00	 1.003001132801345e+01
0	 6.714309197725894e+00	 7.571441979817509e+00	 1.002689410603989e+01
0	 6.714309197725894e+00	 7.714292558752279e+00	 1.002387247998573e+01
0	 6.714309197725896e+00	 7.857143204349073e+00	 1.002098137799008e+01
0	 6.714309197725898e+00	 7.999993933273644e+00	 1.001825572797901e+01
0	 6.714309197725897e+00	 8.142844762191748e+00	 1.001573045766538e+01
0	 6.714309197725896e+00	 8.285695707769140e+00	 1.001344049454897e+01
0	 6.714309197725896e+00	 8.428546786671577e+00	 1.001142076591642e+01
0	 6.714309197725896e+00	 8.571398015564816e+00	 1.000970619884122e+01
0	 6.857169568371616e+00	 7.142890476327776e+00	 1.003540491684059e+01
0	 6.857169568371615e+00	 7.285740955271014e+00	 1.003189670804714e+01
0	 6.857169568371617e+00	 7.428591450879008e+00	 1.002851363695209e+01
0	 6.857169568371615e+00	 7.571441979817509e+00	 1.002528330849451e+01
0	 6.857169568371615e+00	 7.714292558752279e+00	 1.002223332735703e+01
0	 6.857169568371615e+00	 7.857143204349074e+00	 1.001939129796596e+01
0	 6.857169568371616e+00	 7.999993933273645e+00	 1.001678482449116e+01
0	 6.857169568371616e+00	 8.142844762191746e+00	 1.001444151084615e+01
0	 6.857169568371616e+00	 8.285695707769140e+00	 1.001238896068809e+01
0	 6.857169568371615e+00	 8.428546786671577e+00	 1.001065477741771e+01
0	 6.857169568371619e+00	 8.571398015564817e+00	 1.000926656417938e+01
0	 7.000030005683425e+00	 7.142890476327776e+00	 1.003407845710724e+01
0	 7.000030005683427e+00	 7.285740955271014e+00	 1.003036001281977e+01
0	 7.000030005683425e+00	 7.428591450879006e+00	 1.002686542862833e+01
0	 7.000030005683423e+00	 7.571441979817509e+00	 1.002361105649777e+01
0	 7.000030005683427e+00	 7.714292558752282e+00	 1.002061324810803e+01
0	 7.000030005683427e+00	 7.857143204349073e+00	 1.001788835485425e+01
0	 7.000030005683426e+00	 7.999993933273643e+00	 1.001545272784671e+01
0	 7.000030005683425e+00	 8.142844762191746e+00	 1.001332271791080e+01
0	 7.000030005683426e+00	 8.285695707769142e+00	 1.001151467558708e+01
0	 7.000030005683426e+00	 8.428546786671577e+00	 1.001004495113127e+01
0	 7.000030005683427e+00	 8.571398015564817e+00	 1.000892989451418e+01
0	 7.142890476327779e+00	 7.142890476327780e+00	 1.003236585310452e+01
0	 7.142890476327778e+00	 7.285740955271013e+00	 1.002857149592979e+01
0	 7.142890476327779e+00	 7.428591450879007e+00	 1.002509187714798e+01
0	 7.142890476327778e+00	 7.571441979817512e+00	 1.002192816639039e+01
0	 7.142890476327777e+00	 7.714292558752281e+00	 1.001908153299482e+01
0	 7.142890476327778e+00	 7.857143204349074e+00	 1.001655314600547e+01
0	 7.142890476327777e+00	 7.999993933273643e+00	 1.001434417417310e+01
0	 7.142890476327778e+00	 8.142844762191746e+00	 1.001245578595485e+01
0	 7.142890476327778e+00	 8.285695707769140e+00	 1.001088914951439e+01
0	 7.142890476327778e+00	 8.428546786671575e+00	 1.000964543272181e+01
0	 7.142890476327779e+00	 8.571398015564816e+00	 1.000872580315372e+01
0	 5.714291269874074e+00	 8.571398015564814e+00	 1.001317919114911e+01
0	 5.714291269874074e+00	 8.714259388995403e+00	 1.000987330655951e+01
0	 5.714291269874074e+00	 8.857120812436385e+00	 1.000708549027423e+01
0	 5.714291269874075e+00	 8.999982169218283e+00	 1.000478613714701e+01
0	 5.714291269874074e+00	 9.142843342671599e+00	 1.000294564561763e+01
0	 5.714291269874074e+00	 9.285704216126854e+00	 1.000153441771182e+01
0	 5.714291269874074e+00	 9.428564672914547e+00	 1.000052285904135e+01
0	 5.714291269874074e+00	 9.571424596365199e+00	 9.999881378804044e+00
0	 5.714291269874074e+00	 9.714283869809320e+00	 9.999580389783794e+00
0	 5.714291269874074e+00	 9.857142376577416e+00	 9.999590308350808e+00
0	 5.714291269874075e+00	 1.000000000000000e+01	 9.999881554461719e+00
0	 5.857150240517928e+00	 8.571398015564812e+00	 1.001284795507758e+01
0	 5.857150240517928e+00	 8.714259388995403e+00	 1.000960691167829e+01
0	 5.857150240517929e+00	 8.857120812436387e+00	 1.000690292666158e+01
0	 5.857150240517928e+00	 8.999982169218283e+00	 1.000469335672007e+01
0	 5.857150240517929e+00	 9.142843342671602e+00	 1.000293556191603e+01
0	 5.857150240517929e+00	 9.285704216126856e+00	 1.000158690568135e+01
0	 5.857150240517928e+00	 9.428564672914547e+00	 1.000060475481758e+01
0	 5.857150240517930e+00	 9.571424596365201e+00	 9.999946479495858e+00
0	 5.857150240517927e+00	 9.714283869809320e+00	 9.999569453257063e+00
0	 5.857150240517928e+00	 9.857142376577416e+00	 9.999431053011993e+00
0	 5.857150240517928e+00	 1.000000000000000e+01	 9.999488659041438e+00
0	 6.000009511162682e+00	 8.571398015564814e+00	 1.001241239719942e+01
0	 6.000009511162683e+00	 8.714259388995401e+00	 1.000934614900634e+01
0	 6.000009511162681e+00	 8.857120812436385e+00	 1.000680544702479e+01
0	 6.000009511162683e+00	 8.999982169218280e+00	 1.000473777659080e+01
0	 6.000009511162683e+00	 9.142843342671600e+00	 1.000309062610187e+01
0	 6.000009511162682e+00	 9.285704216126851e+00	 1.000181148701685e+01
0	 6.000009511162681e+00	 9.428564672914550e+00	 1.000084785385607e+01
0	 6.000009511162681e+00	 9.571424596365203e+00	 1.000014722420125e+01
0	 6.000009511162682e+00	 9.714283869809318e+00	 9.999657098695618e+00
0	 6.000009511162681e+00	 9.857142376577416e+00	 9.999324981044078e+00
0	 6.000009511162681e+00	 1.000000000000000e+01	 9.999098378013265e+00
0	 6.142869048474791e+00	 8.571398015564814e+00	 1.001190212923435e+01
0	 6.142869048474791e+00	 8.714259388995400e+00	 1.000909520519890e+01
0	 6.142869048474791e+00	 8.857120812436383e+00	 1.000677719947434e+01
0	 6.142869048474793e+00	 8.999982169218281e+00	 1.000488889277073e+01
0	 6.142869048474792e+00	 9.142843342671599e+00	 1.000337106848593e+01
0	 6.142869048474791e+00	 9.285704216126852e+00	 1.000216451270553e+01
0	 6.142869048474791e+00	 9.428564672914549e+00	 1.000121001420292e+01
0	 6.142869048474792e+00	 9.571424596365205e+00	 1.000044836443929e+01
0	 6.142869048474791e+00	 9.714283869809323e+00	 9.999820357563628e+00
0	 6.142869048474791e+00	 9.857142376577418e+00	 9.999266790412978e+00
0	 6.142869048474791e+00	 1.000000000000000e+01	 9.998728462512291e+00
0	 6.285728819120711e+00	 8.571398015564814e+00	 1.001134676312897e+01
0	 6.285728819120712e+00	 8.714259388995400e+00	 1.000885826715174e+01
0	 6.285728819120714e+00	 8.857120812436387e+00	 1.000680233235843e+01
0	 6.285728819120711e+00	 8.999982169218280e+00	 1.000511620149419e+01
0	 6.285728819120712e+00	 9.142843342671600e+00	 1.000373711957935e+01
0	 6.285728819120711e+00	 9.285704216126851e+00	 1.000260233390930e+01
0	 6.285728819120713e+00	 9.428564672914550e+00	 1.000164909405453e+01
0	 6.285728819120710e+00	 9.571424596365199e+00	 1.000081465186063e+01
0	 6.285728819120711e+00	 9.714283869809320e+00	 1.000003626144834e+01
0	 6.285728819120711e+00	 9.857142376577420e+00	 9.999251179213644e+00
0	 6.285728819120711e+00	 9.999999999999998e+00	 9.998396663827815e+00
0	 6.428588789766899e+00	 8.571398015564816e+00	 1.001077591105686e+01
0	 6.428588789766899e+00	 8.714259388995398e+00	 1.000863952200125e+01
0	 6.428588789766899e+00	 8.857120812436383e+00	 1.000686499426294e+01
0	 6.428588789766901e+00	 8.999982169218281e+00	 1.000538919921834e+01
0	 6.428588789766901e+00	 9.142843342671599e+00	 1.000414901009363e+01
0	 6.428588789766898e+00	 9.285704216126852e+00	 1.000308130196481e+01
0	 6.428588789766899e+00	 9.428564672914549e+00	 1.000212295175764e+01
0	 6.428588789766899e+00	 9.571424596365201e+00	 1.000121083824763e+01
0	 6.428588789766899e+00	 9.714283869809321e+00	 1.000028184206009e+01
0	 6.428588789766900e+00	 9.857142376577418e+00	 9.999272845670257e+00
0	 6.428588789766900e+00	 1.000000000000000e+01	 9.998120733403205e+00
0	 6.571448927079809e+00	 8.571398015564816e+00	 1.001021918541847e+01
0	 6.571448927079810e+00	 8.714259388995401e+00	 1.000844315712431e+01
0	 6.571448927079808e+00	 8.857120812436381e+00	 1.000694933401148e+01
0	 6.571448927079810e+00	 8.999982169218281e+00	 1.000567738262313e+01
0	 6.571448927079810e+00	 9.142843342671602e+00	 1.000456697094058e+01
0	 6.571448927079809e+00	 9.285704216126852e+00	 1.000355776838339e+01
0	 6.571448927079809e+00	 9.428564672914550e+00	 1.000258944580930e+01
0	 6.571448927079808e+00	 9.571424596365199e+00	 1.000160167551424e+01
0	 6.571448927079809e+00	 9.714283869809318e+00	 1.000053413123237e+01
0	 6.571448927079808e+00	 9.857142376577416e+00	 9.999326488136052e+00
0	 6.571448927079809e+00	 1.000000000000000e+01	 9.997918422835964e+00
0	 6.714309197725896e+00	 8.571398015564816e+00	 1.000970619884122e+01
0	 6.714309197725896e+00	 8.714259388995401e+00	 1.000827336013835e+01
0	 6.714309197725893e+00	 8.857120812436381e+00	 1.000703950066536e+01
0	 6.714309197725895e+00	 8.999982169218281e+00	 1.000595024861137e+01
0	 6.714309197725896e+00	 9.142843342671600e+00	 1.000495123323237e+01
0	 6.714309197725896e+00	 9.285704216126849e+00	 1.000398808485106e+01
0	 6.714309197725896e+00	 9.428564672914550e+00	 1.000300643485691e+01
0	 6.714309197725893e+00	 9.571424596365198e+00	 1.000195191570614e+01
0	 6.714309197725895e+00	 9.714283869809320e+00	 1.000077016092170e+01
0	 6.714309197725897e+00	 9.857142376577420e+00	 9.999406805093399e+00
0	 6.714309197725897e+00	 1.000000000000000e+01	 9.997807483877793e+00
0	 6.857169568371619e+00	 8.571398015564817e+00	 1.000926656417938e+01
0	 6.857169568371617e+00	 8.714259388995400e+00	 1.000813431890133e+01
0	 6.857169568371615e+00	 8.857120812436383e+00	 1.000711964352352e+01
0	 6.857169568371615e+00	 8.999982169218280e+00	 1.000617729430869e+01
0	 6.857169568371617e+00	 9.142843342671600e+00	 1.000526202828153e+01
0	 6.857169568371616e+00	 9.285704216126852e+00	 1.000432860322854e+01
0	 6.857169568371616e+00	 9.428564672914549e+00	 1.000333177769813e+01
0	 6.857169568371618e+00	 9.571424596365203e+00	 1.000222631100047e+01
0	 6.857169568371615e+00	 9.714283869809321e+00	 1.000096696320769e+01
0	 6.857169568371617e+00	 9.857142376577418e+00	 9.999508495153750e+00
0	 6.857169568371615e+00	 1.000000000000000e+01	 9.997805668434349e+00
0	 7.000030005683427e+00	 8.571398015564817e+00	 1.000892989451418e+01
0	 7.000030005683428e+00	 8.714259388995401e+00	 1.000803022151177e+01
0	 7.000030005683427e+00	 8.857120812436387e+00	 1.000717391212267e+01
0	 7.000030005683427e+00	 8.999982169218281e+00	 1.000632801706351e+01
0	 7.000030005683426e+00	 9.142843342671602e+00	 1.000545958760088e+01
0	 7.000030005683424e+00	 9.285704216126851e+00	 1.000453567555125e+01
0	 7.000030005683428e+00	 9.428564672914547e+00	 1.000352333328094e+01
0	 7.000030005683428e+00	 9.571424596365205e+00	 1.000238961370622e+01
0	 7.000030005683426e+00	 9.714283869809320e+00	 1.000110157029313e+01
0	 7.000030005683425e+00	 9.857142376577418e+00	 9.999626257057628e+00
0	 7.000030005683427e+00	 1.000000000000000e+01	 9.997930728565596e+00
0	 7.142890476327779e+00	 8.571398015564816e+00	 1.000872580315372e+01
0	 7.142890476327777e+00	 8.714259388995400e+00	 1.000796525630868e+01
0	 7.142890476327779e+00	 8.857120812436387e+00	 1.000718645623714e+01
0	 7.142890476327777e+00	 8.999982169218281e+00	 1.000637191444704e+01
0	 7.142890476327777e+00	 9.142843342671602e+00	 1.000550414290361e+01
0	 7.142890476327778e+00	 9.285704216126854e+00	 1.000456565402926e+01
0	 7.142890476327778e+00	 9.428564672914549e+00	 1.000353896070369e+01
0	 7.142890476327777e+00	 9.571424596365201e+00	 1.000240657626382e+01
0	 7.142890476327778e+00	 9.714283869809321e+00	 1.000115101450372e+01
0	 7.142890476327778e+00	 9.857142376577414e+00	 9.999754789674752e+00
0	 7.142890476327777e+00	 1.000000000000000e+01	 9.998200416485492e+00
0	 7.142890476327777e+00	 0.000000000000000e+00	 1.002815611929553e+01
0	 7.142890476327779e+00	 1.428576234225852e-01	 1.004298031348738e+01
0	 7.142890476327778e+00	 2.857161301906819e-01	 1.005589496881528e+01
0	 7.142890476327778e+00	 4.285754036348008e-01	 1.006681533279491e+01
0	 7.142890476327778e+00	 5.714353270854531e-01	 1.007565664087334e+01
0	 7.142890476327776e+00	 7.142957838731497e-01	 1.008233411642997e+01
0	 7.142890476327779e+00	 8.571566573284016e-01	 1.008676297077720e+01
0	 7.142890476327779e+00	 1.000017830781720e+00	 1.008885840316111e+01
0	 7.142890476327778e+00	 1.142879187563616e+00	 1.008853560076188e+01
0	 7.142890476327779e+00	 1.285740611004601e+00	 1.008570973869406e+01
0	 7.142890476327779e+00	 1.428601984435185e+00	 1.008029598000681e+01
0	 7.285740955271013e+00	 0.000000000000000e+00	 1.000830946371680e+01
0	 7.285740955271016e+00	 1.428576234225853e-01	 1.002631694340269e+01
0	 7.285740955271014e+00	 2.857161301906819e-01	 1.004184077972828e+01
0	 7.285740955271014e+00	 4.285754036348007e-01	 1.005483423449987e+01
0	 7.285740955271015e+00	 5.714353270854527e-01	 1.006525055601040e+01
0	 7.285740955271014e+00	 7.142957838731498e-01	 1.007304297904042e+01
0	 7.285740955271015e+00	 8.571566573284018e-01	 1.007816472485895e+01
0	 7.285740955271012e+00	 1.000017830781720e+00	 1.008056900122406e+01
0	 7.285740955271013e+00	 1.142879187563616e+00	 1.008020900238346e+01
0	 7.285740955271015e+00	 1.285740611004601e+00	 1.007703790907465e+01
0	 7.285740955271014e+00	 1.428601984435185e+00	 1.007100888852528e+01
0	 7.428591450879007e+00	 0.000000000000000e+00	 9.996237193489911e+00
0	 7.428591450879007e+00	 1.428576234225853e-01	 1.001474282823379e+01
0	 7.428591450879010e+00	 2.857161301906819e-01	 1.003061518702049e+01
0	 7.428591450879007e+00	 4.285754036348006e-01	 1.004384003396026e+01
0	 7.428591450879007e+00	 5.714353270854530e-01	 1.005440312008900e+01
0	 7.428591450879007e+00	 7.142957838731497e-01	 1.006229018336911e+01
0	 7.428591450879008e+00	 8.571566573284018e-01	 1.006748694869043e+01
0	 7.428591450879005e+00	 1.000017830781720e+00	 1.006997912787073e+01
0	 7.428591450879007e+00	 1.142879187563616e+00	 1.006975241965621e+01
0	 7.428591450879006e+00	 1.285740611004601e+00	 1.006679250972181e+01
0	 7.428591450879006e+00	 1.428601984435185e+00	 1.006108507067134e+01
0	 7.571441979817512e+00	 0.000000000000000e+00	 9.990547363899639e+00
0	 7.571441979817510e+00	 1.428576234225853e-01	 1.000739822038969e+01
0	 7.571441979817513e+00	 2.857161301906818e-01	 1.002180844033869e+01
0	 7.571441979817511e+00	 4.285754036348007e-01	 1.003379078069226e+01
0	 7.571441979817511e+00	 5.714353270854530e-01	 1.004335798724162e+01
0	 7.571441979817509e+00	 7.142957838731497e-01	 1.005052279462430e+01
0	 7.571441979817512e+00	 8.571566573284018e-01	 1.005529792632488e+01
0	 7.571441979817513e+00	 1.000017830781720e+00	 1.005769609467542e+01
0	 7.571441979817512e+00	 1.142879187563616e+00	 1.005773000085596e+01
0	 7.571441979817512e+00	 1.285740611004601e+00	 1.005541233489468e+01
0	 7.571441979817510e+00	 1.428601984435185e+00	 1.005075577566809e+01
0	 7.714292558752281e+00	 0.000000000000000e+00	 9.989848028834350e+00
0	 7.714292558752282e+00	 1.428576234225853e-01	 1.000342337107621e+01
0	 7.714292558752281e+00	 2.857161301906819e-01	 1.001501078829159e+01
0	 7.714292558752282e+00	 4.285754036348008e-01	 1.002464452331494e+01
0	 7.714292558752280e+00	 5.714353270854529e-01	 1.003235881082433e+01
0	 7.714292558752281e+00	 7.142957838731496e-01	 1.003818787734195e+01
0	 7.714292558752281e+00	 8.571566573284017e-01	 1.004216594123462e+01
0	 7.714292558752279e+00	 1.000017830781720e+00	 1.004432721271421e+01
0	 7.714292558752281e+00	 1.142879187563616e+00	 1.004470589383792e+01
0	 7.714292558752281e+00	 1.285740611004601e+00	 1.004333617850843e+01
0	 7.714292558752281e+00	 1.428601984435185e+00	 1.004025225247404e+01
0	 7.857143204349074e+00	 0.000000000000000e+00	 9.992747240786006e+00
0	 7.857143204349071e+00	 1.428576234225853e-01	 1.000195853029597e+01
0	 7.857143204349072e+00	 2.857161301906819e-01	 1.000981247844990e+01
0	 7.857143204349071e+00	 4.285754036348006e-01	 1.001635930955033e+01
0	 7.857143204349073e+00	 5.714353270854531e-01	 1.002164924341669e+01
0	 7.857143204349072e+00	 7.142957838731496e-01	 1.002573249538558e+01
0	 7.857143204349074e+00	 8.571566573284017e-01	 1.002865927631108e+01
0	 7.857143204349074e+00	 1.000017830781720e+00	 1.003047979256495e+01
0	 7.857143204349074e+00	 1.142879187563616e+00	 1.003124424603684e+01
0	 7.857143204349072e+00	 1.285740611004601e+00	 1.003100283413435e+01
0	 7.857143204349073e+00	 1.428601984435185e+00	 1.002980574978315e+01
0	 7.999993933273645e+00	 0.000000000000000e+00	 9.997853050850170e+00
0	 7.999993933273646e+00	 1.428576234225853e-01	 1.000214394684841e+01
0	 7.999993933273644e+00	 2.857161301906819e-01	 1.000580375734630e+01
0	 7.999993933273644e+00	 4.285754036348007e-01	 1.000889318622338e+01
0	 7.999993933273645e+00	 5.714353270854532e-01	 1.001147293682182e+01
0	 7.999993933273646e+00	 7.142957838731498e-01	 1.001360371194644e+01
0	 7.999993933273643e+00	 8.571566573284015e-01	 1.001534621386480e+01
0	 7.999993933273644e+00	 1.000017830781720e+00	 1.001676114430723e+01
0	 7.999993933273642e+00	 1.142879187563616e+00	 1.001790920446688e+01
0	 7.999993933273643e+00	 1.285740611004601e+00	 1.001885109499977e+01
0	 7.999993933273644e+00	 1.428601984435185e+00	 1.001964751602478e+01
0	 8.142844762191748e+00	 0.000000000000000e+00	 1.000377350872601e+01
0	 8.142844762191746e+00	 1.428576234225853e-01	 1.000311986832977e+01
0	 8.142844762191748e+00	 2.857161301906819e-01	 1.000257487047545e+01
0	 8.142844762191748e+00	 4.285754036348007e-01	 1.000220419926198e+01
0	 8.142844762191746e+00	 5.714353270854530e-01	 1.000207354206638e+01
0	 8.142844762191745e+00	 7.142957838731496e-01	 1.000224858954339e+01
0	 8.142844762191748e+00	 8.571566573284017e-01	 1.000279503562542e+01
0	 8.142844762191748e+00	 1.000017830781720e+00	 1.000377857752240e+01
0	 8.142844762191746e+00	 1.142879187563616e+00	 1.000526491572170e+01
0	 8.142844762191748e+00	 1.285740611004601e+00	 1.000731975398809e+01
0	 8.142844762191746e+00	 1.428601984435185e+00	 1.001000879936373e+01
0	 8.285695707769140e+00	 0.000000000000000e+00	 1.000911666271631e+01
0	 8.285695707769138e+00	 1.428576234225852e-01	 1.000402654113315e+01
0	 8.285695707769140e+00	 2.857161301906819e-01	 9.999716062293972e+00
0	 8.285695707769142e+00	 4.285754036348008e-01	 9.996250393696970e+00
0	 8.285695707769143e+00	 5.714353270854531e-01	 9.993694709400570e+00
0	 8.285695707769142e+00	 7.142957838731496e-01	 9.992114190022939e+00
0	 8.285695707769142e+00	 8.571566573284017e-01	 9.991574022741693e+00
0	 8.285695707769142e+00	 1.000017830781720e+00	 9.992139401293596e+00
0	 8.285695707769142e+00	 1.142879187563616e+00	 9.993875525974421e+00
0	 8.285695707769140e+00	 1.285740611004601e+00	 9.996847603638798e+00
0	 8.285695707769142e+00	 1.428601984435185e+00	 1.000112084770023e+01
0	 8.428546786671577e+00	 0.000000000000000e+00	 1.001249055972748e+01
0	 8.428546786671578e+00	 1.428576234225853e-01	 1.000400421044843e+01
0	 8.428546786671578e+00	 2.857161301906819e-01	 9.996817576220488e+00
0	 8.428546786671577e+00	 4.285754036348006e-01	 9.990989813662104e+00
0	 8.428546786671577e+00	 5.714353270854531e-01	 9.986580088298151e+00
0	 8.428546786671577e+00	 7.142957838731497e-01	 9.983647574559276e+00
0	 8.428546786671577e+00	 8.571566573284017e-01	 9.982251455781473e+00
0	 8.428546786671577e+00	 1.000017830781720e+00	 9.982450924205704e+00
0	 8.428546786671578e+00	 1.142879187563616e+00	 9.984305180977618e+00
0	 8.428546786671578e+00	 1.285740611004601e+00	 9.987873436147451e+00
0	 8.428546786671578e+00	 1.428601984435185e+00	 9.993214908669955e+00
0	 8.571398015564816e+00	 0.000000000000000e+00	 1.001250324526957e+01
0	 8.571398015564816e+00	 1.428576234225853e-01	 1.000219312026239e+01
0	 8.571398015564816e+00	 2.857161301906819e-01	 9.993469654635643e+00
0	 8.571398015564816e+00	 4.285754036348007e-01	 9.986380502394127e+00
0	 8.571398015564812e+00	 5.714353270854530e-01	 9.980973327456443e+00
0	 8.571398015564816e+00	 7.142957838731496e-01	 9.977295803654236e+00
0	 8.571398015564817e+00	 8.571566573284017e-01	 9.975395614731756e+00
0	 8.571398015564816e+00	 1.000017830781720e+00	 9.975320454345372e+00
0	 8.571398015564816e+00	 1.142879187563616e+00	 9.977118026063366e+00
0	 8.571398015564814e+00	 1.285740611004601e+00	 9.980836043365695e+00
0	 8.571398015564817e+00	 1.428601984435185e+00	 9.986522229644002e+00
0	 7.142890476327779e+00	 1.428601984435185e+00	 1.008029598000681e+01
0	 7.142890476327779e+00	 1.571453213328422e+00	 1.007404245176896e+01
0	 7.142890476327778e+00	 1.714304292230859e+00	 1.006879888302121e+01
0	 7.142890476327777e+00	 1.857155237808251e+00	 1.006463424464631e+01
0	 7.142890476327778e+00	 2.000006066726356e+00	 1.006161750672111e+01
0	 7.142890476327777e+00	 2.142856795650926e+00	 1.005981763851650e+01
0	 7.142890476327775e+00	 2.285707441247718e+00	 1.005930360849747e+01
0	 7.142890476327777e+00	 2.428558020182488e+00	 1.006014438432300e+01
0	 7.142890476327778e+00	 2.571408549120992e+00	 1.006240893284617e+01
0	 7.142890476327778e+00	 2.714259044728984e+00	 1.006616622011410e+01
0	 7.142890476327779e+00	 2.857109523672222e+00	 1.007148521136794e+01
0	 7.285740955271014e+00	 1.428601984435185e+00	 1.007100888852528e+01
0	 7.285740955271013e+00	 1.571453213328422e+00	 1.006416205752367e+01
0	 7.285740955271013e+00	 1.714304292230858e+00	 1.005859511098832e+01
0	 7.285740955271017e+00	 1.857155237808252e+00	 1.005434914190603e+01
0	 7.285740955271013e+00	 2.000006066726355e+00	 1.005146524229316e+01
0	 7.285740955271013e+00	 2.142856795650925e+00	 1.004998450319562e+01
0	 7.285740955271015e+00	 2.285707441247718e+00	 1.004994801468884e+01
0	 7.285740955271014e+00	 2.428558020182489e+00	 1.005139686587781e+01
0	 7.285740955271015e+00	 2.571408549120993e+00	 1.005437214489703e+01
0	 7.285740955271016e+00	 2.714259044728984e+00	 1.005891493891051e+01
0	 7.285740955271015e+00	 2.857109523672223e+00	 1.006506633411181e+01
0	 7.428591450879006e+00	 1.428601984435185e+00	 1.006108507067134e+01
0	 7.428591450879007e+00	 1.571453213328422e+00	 1.005466268935111e+01
0	 7.428591450879007e+00	 1.714304292230859e+00	 1.004957837253559e+01
0	 7.428591450879008e+00	 1.857155237808252e+00	 1.004584990020135e+01
0	 7.428591450879007e+00	 2.000006066726355e+00	 1.004349505133487e+01
0	 7.428591450879008e+00	 2.142856795650926e+00	 1.004253160393246e+01
0	 7.428591450879007e+00	 2.285707441247718e+00	 1.004297733500025e+01
0	 7.428591450879007e+00	 2.428558020182488e+00	 1.004485002055418e+01
0	 7.428591450879007e+00	 2.571408549120992e+00	 1.004816743562004e+01
0	 7.428591450879007e+00	 2.714259044728984e+00	 1.005294735423342e+01
0	 7.428591450879008e+00	 2.857109523672222e+00	 1.005920754943974e+01
0	 7.571441979817510e+00	 1.428601984435185e+00	 1.005075577566809e+01
0	 7.571441979817513e+00	 1.571453213328422e+00	 1.004554790104806e+01
0	 7.571441979817509e+00	 1.714304292230859e+00	 1.004156638201025e+01
0	 7.571441979817510e+00	 1.857155237808251e+00	 1.003881025060216e+01
0	 7.571441979817508e+00	 2.000006066726355e+00	 1.003727853797697e+01
0	 7.571441979817511e+00	 2.142856795650925e+00	 1.003697027439348e+01
0	 7.571441979817510e+00	 2.285707441247718e+00	 1.003788448921614e+01
0	 7.571441979817509e+00	 2.428558020182487e+00	 1.004002021091508e+01
0	 7.571441979817509e+00	 2.571408549120991e+00	 1.004337646706598e+01
0	 7.571441979817511e+00	 2.714259044728984e+00	 1.004795228435025e+01
0	 7.571441979817511e+00	 2.857109523672222e+00	 1.005374668855484e+01
0	 7.714292558752281e+00	 1.428601984435185e+00	 1.004025225247404e+01
0	 7.714292558752279e+00	 1.571453213328422e+00	 1.003682124623145e+01
0	 7.714292558752281e+00	 1.714304292230859e+00	 1.003437685366794e+01
0	 7.714292558752278e+00	 1.857155237808251e+00	 1.003290392417513e+01
0	 7.714292558752280e+00	 2.000006066726355e+00	 1.003238730643231e+01
0	 7.714292558752281e+00	 2.142856795650926e+00	 1.003281184840645e+01
0	 7.714292558752280e+00	 2.285707441247717e+00	 1.003416239735222e+01
0	 7.714292558752280e+00	 2.428558020182488e+00	 1.003642379981195e+01
0	 7.714292558752281e+00	 2.571408549120992e+00	 1.003958090161560e+01
0	 7.714292558752281e+00	 2.714259044728985e+00	 1.004361854788085e+01
0	 7.714292558752280e+00	 2.857109523672222e+00	 1.004852158301300e+01
0	 7.857143204349073e+00	 1.428601984435185e+00	 1.002980574978315e+01
0	 7.857143204349073e+00	 1.571453213328422e+00	 1.002848627833848e+01
0	 7.857143204349074e+00	 1.714304292230859e+00	 1.002782750167270e+01
0	 7.857143204349075e+00	 1.857155237808252e+00	 1.002780465198370e+01
0	 7.857143204349072e+00	 2.000006066726355e+00	 1.002839296099594e+01
0	 7.857143204349075e+00	 2.142856795650926e+00	 1.002956765996060e+01
0	 7.857143204349073e+00	 2.285707441247718e+00	 1.003130397965540e+01
0	 7.857143204349071e+00	 2.428558020182488e+00	 1.003357715038473e+01
0	 7.857143204349073e+00	 2.571408549120992e+00	 1.003636240197960e+01
0	 7.857143204349076e+00	 2.714259044728984e+00	 1.003963496379760e+01
0	 7.857143204349074e+00	 2.857109523672223e+00	 1.004337006472297e+01
0	 7.999993933273644e+00	 1.428601984435185e+00	 1.001964751602477e+01
0	 7.999993933273644e+00	 1.571453213328422e+00	 1.002054655062651e+01
0	 7.999993933273644e+00	 1.714304292230859e+00	 1.002173604009693e+01
0	 7.999993933273643e+00	 1.857155237808251e+00	 1.002318616508805e+01
0	 7.999993933273643e+00	 2.000006066726355e+00	 1.002486710604510e+01
0	 7.999993933273645e+00	 2.142856795650926e+00	 1.002674904320648e+01
0	 7.999993933273644e+00	 2.285707441247718e+00	 1.002880215660380e+01
0	 7.999993933273642e+00	 2.428558020182489e+00	 1.003099662606184e+01
0	 7.999993933273646e+00	 2.571408549120993e+00	 1.003330263119862e+01
0	 7.999993933273644e+00	 2.714259044728985e+00	 1.003569035142532e+01
0	 7.999993933273644e+00	 2.857109523672223e+00	 1.003812996594633e+01
0	 8.142844762191746e+00	 1.428601984435185e+00	 1.001000879936373e+01
0	 8.142844762191748e+00	 1.571453213328422e+00	 1.001300561617310e+01
0	 8.142844762191748e+00	 1.714304292230859e+00	 1.001592018292140e+01
0	 8.142844762191746e+00	 1.857155237808251e+00	 1.001872219454520e+01
0	 8.142844762191748e+00	 2.000006066726355e+00	 1.002138134603916e+01
0	 8.142844762191750e+00	 2.142856795650926e+00	 1.002386733245606e+01
0	 8.142844762191746e+00	 2.285707441247718e+00	 1.002614984890674e+01
0	 8.142844762191750e+00	 2.428558020182489e+00	 1.002819859056016e+01
0	 8.142844762191750e+00	 2.571408549120993e+00	 1.002998325264330e+01
0	 8.142844762191752e+00	 2.714259044728985e+00	 1.003147353044132e+01
0	 8.142844762191750e+00	 2.857109523672223e+00	 1.003263911929742e+01
0	 8.285695707769142e+00	 1.428601984435185e+00	 1.000112084770023e+01
0	 8.285695707769140e+00	 1.571453213328422e+00	 1.000586702787606e+01
0	 8.285695707769140e+00	 1.714304292230859e+00	 1.001019764403529e+01
0	 8.285695707769140e+00	 1.857155237808251e+00	 1.001408647140886e+01
0	 8.285695707769140e+00	 2.000006066726355e+00	 1.001750728551968e+01
0	 8.285695707769142e+00	 2.142856795650925e+00	 1.002043386218270e+01
0	 8.285695707769138e+00	 2.285707441247717e+00	 1.002283997750483e+01
0	 8.285695707769140e+00	 2.428558020182488e+00	 1.002469940788502e+01
0	 8.285695707769143e+00	 2.571408549120993e+00	 1.002598593001422e+01
0	 8.285695707769143e+00	 2.714259044728985e+00	 1.002667332087539e+01
0	 8.285695707769140e+00	 2.857109523672222e+00	 1.002673535774349e+01
0	 8.428546786671578e+00	 1.428601984435185e+00	 9.993214908669955e+00
0	 8.428546786671577e+00	 1.571453213328422e+00	 9.999134338453370e+00
0	 8.428546786671578e+00	 1.714304292230859e+00	 1.000438613723617e+01
0	 8.428546786671578e+00	 1.857155237808252e+00	 1.000895272672958e+01
0	 8.428546786671577e+00	 2.000006066726355e+00	 1.001281652911040e+01
0	 8.428546786671577e+00	 2.142856795650925e+00	 1.001595996702111e+01
0	 8.428546786671577e+00	 2.285707441247718e+00	 1.001836546356982e+01
0	 8.428546786671577e+00	 2.428558020182488e+00	 1.002001544233027e+01
0	 8.428546786671578e+00	 2.571408549120992e+00	 1.002089232734190e+01
0	 8.428546786671578e+00	 2.714259044728985e+00	 1.002097854310977e+01
0	 8.428546786671578e+00	 2.857109523672222e+00	 1.002025651460458e+01
0	 8.571398015564817e+00	 1.428601984435185e+00	 9.986522229644006e+00
0	 8.571398015564816e+00	 1.571453213328422e+00	 9.992811100443216e+00
0	 8.571398015564817e+00	 1.714304292230859e+00	 9.998303376229989e+00
0	 8.571398015564814e+00	 1.857155237808251e+00	 1.000299469155464e+01
0	 8.571398015564816e+00	 2.000006066726355e+00	 1.000688068151720e+01
0	 8.571398015564817e+00	 2.142856795650926e+00	 1.000995698176741e+01
0	 8.571398015564816e+00	 2.285707441247718e+00	 1.001221922850469e+01
0	 8.571398015564816e+00	 2.428558020182488e+00	 1.001366305847822e+01
0	 8.571398015564814e+00	 2.571408549120992e+00	 1.001428410898684e+01
0	 8.571398015564816e+00	 2.714259044728984e+00	 1.001407801787917e+01
0	 8.571398015564814e+00	 2.857109523672223e+00	 1.001304042355353e+01
0	 7.142890476327779e+00	 2.857109523672222e+00	 1.007148521136794e+01
0	 7.142890476327778e+00	 2.999969994316576e+00	 1.007717108301226e+01
0	 7.142890476327778e+00	 3.142830431628385e+00	 1.008194535152538e+01
0	 7.142890476327780e+00	 3.285690802274106e+00	 1.008575277611114e+01
0	 7.142890476327778e+00	 3.428551072920193e+00	 1.008853811410335e+01
0	 7.142890476327777e+00	 3.571411210233102e+00	 1.009024612096584e+01
0	 7.142890476327779e+00	 3.714271180879290e+00	 1.009082155029245e+01
0	 7.142890476327779e+00	 3.857130951525211e+00	 1.009020915380697e+01
0	 7.142890476327780e+00	 3.999990488837321e+00	 1.008835368136321e+01
0	 7.142890476327779e+00	 4.142849759482075e+00	 1.008519988094483e+01
0	 7.142890476327779e+00	 4.285708730125926e+00	 1.008069249866546e+01
0	 7.285740955271015e+00	 2.857109523672223e+00	 1.006506633411181e+01
0	 7.285740955271011e+00	 2.999969994316575e+00	 1.007145200683131e+01
0	 7.285740955271015e+00	 3.142830431628385e+00	 1.007665909979407e+01
0	 7.285740955271015e+00	 3.285690802274107e+00	 1.008067236020502e+01
0	 7.285740955271014e+00	 3.428551072920193e+00	 1.008347653327188e+01
0	 7.285740955271015e+00	 3.571411210233102e+00	 1.008505636220507e+01
0	 7.285740955271014e+00	 3.714271180879289e+00	 1.008539658821775e+01
0	 7.285740955271016e+00	 3.857130951525211e+00	 1.008448195052577e+01
0	 7.285740955271015e+00	 3.999990488837321e+00	 1.008229718634767e+01
0	 7.285740955271012e+00	 4.142849759482074e+00	 1.007882703090463e+01
0	 7.285740955271015e+00	 4.285708730125926e+00	 1.007405621742047e+01
0	 7.428591450879008e+00	 2.857109523672222e+00	 1.005920754943974e+01
0	 7.428591450879006e+00	 2.999969994316576e+00	 1.006556658816751e+01
0	 7.428591450879006e+00	 3.142830431628385e+00	 1.007064189908692e+01
0	 7.428591450879008e+00	 3.285690802274106e+00	 1.007445101704700e+01
0	 7.428591450879006e+00	 3.428551072920193e+00	 1.007701147495815e+01
0	 7.428591450879006e+00	 3.571411210233103e+00	 1.007834080379213e+01
0	 7.428591450879006e+00	 3.714271180879290e+00	 1.007845653258203e+01
0	 7.428591450879009e+00	 3.857130951525210e+00	 1.007737618842231e+01
0	 7.428591450879009e+00	 3.999990488837320e+00	 1.007511729646872e+01
0	 7.428591450879008e+00	 4.142849759482073e+00	 1.007169737993830e+01
0	 7.428591450879009e+00	 4.285708730125926e+00	 1.006713396010935e+01
0	 7.571441979817511e+00	 2.857109523672222e+00	 1.005374668855484e+01
0	 7.571441979817511e+00	 2.999969994316576e+00	 1.005950867547922e+01
0	 7.571441979817509e+00	 3.142830431628385e+00	 1.006401574332073e+01
0	 7.571441979817509e+00	 3.285690802274105e+00	 1.006731101426811e+01
0	 7.571441979817512e+00	 3.428551072920193e+00	 1.006943760877700e+01
0	 7.571441979817511e+00	 3.571411210233104e+00	 1.007043864556988e+01
0	 7.571441979817510e+00	 3.714271180879290e+00	 1.007035724163614e+01
0	 7.571441979817513e+00	 3.857130951525211e+00	 1.006923651223202e+01
0	 7.571441979817513e+00	 3.999990488837320e+00	 1.006711957088057e+01
0	 7.571441979817513e+00	 4.142849759482075e+00	 1.006404952937170e+01
0	 7.571441979817511e+00	 4.285708730125926e+00	 1.006006949776208e+01
0	 7.714292558752280e+00	 2.857109523672222e+00	 1.004852158301300e+01
0	 7.714292558752280e+00	 2.999969994316575e+00	 1.005327211755406e+01
0	 7.714292558752281e+00	 3.142830431628385e+00	 1.005690262669757e+01
0	 7.714292558752280e+00	 3.285690802274106e+00	 1.005947461972541e+01
0	 7.714292558752280e+00	 3.428551072920192e+00	 1.006104960449975e+01
0	 7.714292558752283e+00	 3.571411210233102e+00	 1.006168908746301e+01
0	 7.714292558752281e+00	 3.714271180879291e+00	 1.006145457363786e+01
0	 7.714292558752280e+00	 3.857130951525209e+00	 1.006040756662725e+01
0	 7.714292558752281e+00	 3.999990488837320e+00	 1.005860956861432e+01
0	 7.714292558752279e+00	 4.142849759482074e+00	 1.005612208036244e+01
0	 7.714292558752279e+00	 4.285708730125925e+00	 1.005300660121522e+01
0	 7.857143204349074e+00	 2.857109523672223e+00	 1.004337006472297e+01
0	 7.857143204349073e+00	 2.999969994316576e+00	 1.004685076350879e+01
0	 7.857143204349076e+00	 3.142830431628385e+00	 1.004942454370467e+01
0	 7.857143204349074e+00	 3.285690802274107e+00	 1.005116410150188e+01
0	 7.857143204349072e+00	 3.428551072920192e+00	 1.005214213205422e+01
0	 7.857143204349075e+00	 3.571411210233104e+00	 1.005243132947796e+01
0	 7.857143204349073e+00	 3.714271180879289e+00	 1.005210438685189e+01
0	 7.857143204349074e+00	 3.857130951525211e+00	 1.005123399621728e+01
0	 7.857143204349073e+00	 3.999990488837320e+00	 1.004989284857788e+01
0	 7.857143204349073e+00	 4.142849759482075e+00	 1.004815363389989e+01
0	 7.857143204349074e+00	 4.285708730125926e+00	 1.004608904111199e+01
0	 7.999993933273644e+00	 2.857109523672223e+00	 1.003812996594632e+01
0	 7.999993933273645e+00	 2.999969994316577e+00	 1.004023846278939e+01
0	 7.999993933273641e+00	 3.142830431628385e+00	 1.004170348911452e+01
0	 7.999993933273644e+00	 3.285690802274106e+00	 1.004260172790649e+01
0	 7.999993933273646e+00	 3.428551072920194e+00	 1.004300986152467e+01
0	 7.999993933273642e+00	 3.571411210233102e+00	 1.004300457170296e+01
0	 7.999993933273642e+00	 3.714271180879290e+00	 1.004266253954983e+01
0	 7.999993933273644e+00	 3.857130951525210e+00	 1.004206044554835e+01
0	 7.999993933273646e+00	 3.999990488837320e+00	 1.004127496955607e+01
0	 7.999993933273645e+00	 4.142849759482074e+00	 1.004038279080515e+01
0	 7.999993933273641e+00	 4.285708730125924e+00	 1.003946058790220e+01
0	 8.142844762191750e+00	 2.857109523672223e+00	 1.003263911929742e+01
0	 8.142844762191746e+00	 2.999969994316576e+00	 1.003342906517100e+01
0	 8.142844762191746e+00	 3.142830431628386e+00	 1.003386145798482e+01
0	 8.142844762191748e+00	 3.285690802274105e+00	 1.003400976747419e+01
0	 8.142844762191746e+00	 3.428551072920193e+00	 1.003394746315187e+01
0	 8.142844762191750e+00	 3.571411210233103e+00	 1.003374801430801e+01
0	 8.142844762191750e+00	 3.714271180879291e+00	 1.003348489001025e+01
0	 8.142844762191748e+00	 3.857130951525211e+00	 1.003323155910361e+01
0	 8.142844762191746e+00	 3.999990488837320e+00	 1.003306149021057e+01
0	 8.142844762191748e+00	 4.142849759482074e+00	 1.003304815173103e+01
0	 8.142844762191748e+00	 4.285708730125926e+00	 1.003326501184234e+01
0	 8.285695707769140e+00	 2.857109523672222e+00	 1.002673535774349e+01
0	 8.285695707769140e+00	 2.999969994316576e+00	 1.002641642075795e+01
0	 8.285695707769140e+00	 3.142830431628385e+00	 1.002602044565850e+01
0	 8.285695707769142e+00	 3.285690802274106e+00	 1.002561048896592e+01
0	 8.285695707769142e+00	 3.428551072920194e+00	 1.002524960733307e+01
0	 8.285695707769140e+00	 3.571411210233102e+00	 1.002500085754494e+01
0	 8.285695707769142e+00	 3.714271180879291e+00	 1.002492729651859e+01
0	 8.285695707769138e+00	 3.857130951525209e+00	 1.002509198130315e+01
0	 8.285695707769142e+00	 3.999990488837320e+00	 1.002555796907990e+01
0	 8.285695707769140e+00	 4.142849759482075e+00	 1.002638831716219e+01
0	 8.285695707769140e+00	 4.285708730125926e+00	 1.002764608299550e+01
0	 8.428546786671578e+00	 2.857109523672222e+00	 1.002025651460458e+01
0	 8.428546786671575e+00	 2.999969994316576e+00	 1.001919437998378e+01
0	 8.428546786671578e+00	 3.142830431628386e+00	 1.001830244776370e+01
0	 8.428546786671578e+00	 3.285690802274107e+00	 1.001762616136853e+01
0	 8.428546786671578e+00	 3.428551072920194e+00	 1.001721096462200e+01
0	 8.428546786671578e+00	 3.571411210233103e+00	 1.001710230174731e+01
0	 8.428546786671578e+00	 3.714271180879290e+00	 1.001734561736722e+01
0	 8.428546786671578e+00	 3.857130951525211e+00	 1.001798635650401e+01
0	 8.428546786671577e+00	 3.999990488837320e+00	 1.001906996457947e+01
0	 8.428546786671578e+00	 4.142849759482075e+00	 1.002064188741496e+01
0	 8.428546786671577e+00	 4.285708730125926e+00	 1.002274757123138e+01
0	 8.571398015564814e+00	 2.857109523672223e+00	 1.001304042355353e+01
0	 8.571398015564816e+00	 2.999969994316575e+00	 1.001175679361117e+01
0	 8.571398015564812e+00	 3.142830431628385e+00	 1.001082946021378e+01
0	 8.571398015564816e+00	 3.285690802274106e+00	 1.001027905389492e+01
0	 8.571398015564816e+00	 3.428551072920193e+00	 1.001012620572885e+01
0	 8.571398015564816e+00	 3.571411210233102e+00	 1.001039154733048e+01
0	 8.571398015564816e+00	 3.714271180879290e+00	 1.001109571085548e+01
0	 8.571398015564816e+00	 3.857130951525211e+00	 1.001225932900015e+01
0	 8.571398015564817e+00	 3.999990488837320e+00	 1.001390303500155e+01
0	 8.571398015564816e+00	 4.142849759482074e+00	 1.001604746263745e+01
0	 8.571398015564817e+00	 4.285708730125926e+00	 1.001871324622635e+01
0	 7.142890476327779e+00	 4.285708730125926e+00	 1.008069249866546e+01
0	 7.142890476327776e+00	 4.428567384102074e+00	 1.007566466146768e+01
0	 7.142890476327778e+00	 4.571425771410667e+00	 1.007100668834033e+01
0	 7.142890476327777e+00	 4.714283958718592e+00	 1.006674911119775e+01
0	 7.142890476327779e+00	 4.857142012692742e+00	 1.006292246079960e+01
0	 7.142890476327777e+00	 5.000000000000001e+00	 1.005955726675074e+01
0	 7.142890476327778e+00	 5.142857987307261e+00	 1.005668405750133e+01
0	 7.142890476327778e+00	 5.285716041281409e+00	 1.005433336034664e+01
0	 7.142890476327777e+00	 5.428574228589334e+00	 1.005253570142720e+01
0	 7.142890476327777e+00	 5.571432615897927e+00	 1.005132160572863e+01
0	 7.142890476327778e+00	 5.714291269874073e+00	 1.005072159708176e+01
0	 7.285740955271015e+00	 4.285708730125926e+00	 1.007405621742047e+01
0	 7.285740955271015e+00	 4.428567384102075e+00	 1.006891674325988e+01
0	 7.285740955271014e+00	 4.571425771410667e+00	 1.006434901905464e+01
0	 7.285740955271017e+00	 4.714283958718593e+00	 1.006035039545746e+01
0	 7.285740955271014e+00	 4.857142012692742e+00	 1.005691822182287e+01
0	 7.285740955271016e+00	 5.000000000000001e+00	 1.005404984620717e+01
0	 7.285740955271012e+00	 5.142857987307261e+00	 1.005174261536841e+01
0	 7.285740955271014e+00	 5.285716041281408e+00	 1.004999387476636e+01
0	 7.285740955271015e+00	 5.428574228589336e+00	 1.004880096856252e+01
0	 7.285740955271014e+00	 5.571432615897928e+00	 1.004816123962001e+01
0	 7.285740955271015e+00	 5.714291269874074e+00	 1.004807202950375e+01
0	 7.428591450879009e+00	 4.285708730125926e+00	 1.006713396010935e+01
0	 7.428591450879008e+00	 4.428567384102075e+00	 1.006234620599157e+01
0	 7.428591450879005e+00	 4.571425771410667e+00	 1.005822194398931e+01
0	 7.428591450879008e+00	 4.714283958718593e+00	 1.005473167910701e+01
0	 7.428591450879007e+00	 4.857142012692742e+00	 1.005184591513347e+01
0	 7.428591450879006e+00	 5.000000000000001e+00	 1.004953515464181e+01
0	 7.428591450879007e+00	 5.142857987307260e+00	 1.004776989898938e+01
0	 7.428591450879007e+00	 5.285716041281409e+00	 1.004652064831781e+01
0	 7.428591450879006e+00	 5.428574228589335e+00	 1.004575790155298e+01
0	 7.428591450879007e+00	 5.571432615897928e+00	 1.004545215640498e+01
0	 7.428591450879008e+00	 5.714291269874074e+00	 1.004557390936813e+01
0	 7.571441979817511e+00	 4.285708730125926e+00	 1.006006949776208e+01
0	 7.571441979817512e+00	 4.428567384102074e+00	 1.005599688764333e+01
0	 7.571441979817512e+00	 4.571425771410667e+00	 1.005258703536583e+01
0	 7.571441979817508e+00	 4.714283958718593e+00	 1.004978993610695e+01
0	 7.571441979817511e+00	 4.857142012692742e+00	 1.004755558408748e+01
0	 7.571441979817513e+00	 5.000000000000001e+00	 1.004583397257159e+01
0	 7.571441979817510e+00	 5.142857987307262e+00	 1.004457509386675e+01
0	 7.571441979817509e+00	 5.285716041281410e+00	 1.004372893932381e+01
0	 7.571441979817512e+00	 5.428574228589337e+00	 1.004324549933687e+01
0	 7.571441979817511e+00	 5.571432615897928e+00	 1.004307476334337e+01
0	 7.571441979817511e+00	 5.714291269874074e+00	 1.004316671982403e+01
0	 7.714292558752279e+00	 4.285708730125925e+00	 1.005300660121522e+01
0	 7.714292558752280e+00	 4.428567384102075e+00	 1.004991262600068e+01
0	 7.714292558752281e+00	 4.571425771410667e+00	 1.004740586522958e+01
0	 7.714292558752281e+00	 4.714283958718593e+00	 1.004542214027681e+01
0	 7.714292558752282e+00	 4.857142012692742e+00	 1.004389727194679e+01
0	 7.714292558752279e+00	 5.000000000000002e+00	 1.004276708047341e+01
0	 7.714292558752283e+00	 5.142857987307262e+00	 1.004196738552004e+01
0	 7.714292558752282e+00	 5.285716041281409e+00	 1.004143400617955e+01
0	 7.714292558752282e+00	 5.428574228589334e+00	 1.004110276097421e+01
0	 7.714292558752281e+00	 5.571432615897927e+00	 1.004090946785574e+01
0	 7.714292558752280e+00	 5.714291269874075e+00	 1.004078994420528e+01
0	 7.857143204349074e+00	 4.285708730125926e+00	 1.004608904111199e+01
0	 7.857143204349076e+00	 4.428567384102076e+00	 1.004413725865411e+01
0	 7.857143204349073e+00	 4.571425771410667e+00	 1.004264000544985e+01
0	 7.857143204349074e+00	 4.714283958718594e+00	 1.004152526529514e+01
0	 7.857143204349072e+00	 4.857142012692741e+00	 1.004072102187911e+01
0	 7.857143204349074e+00	 5.000000000000002e+00	 1.004015525878408e+01
0	 7.857143204349072e+00	 5.142857987307261e+00	 1.003975595948563e+01
0	 7.857143204349073e+00	 5.285716041281408e+00	 1.003945110735252e+01
0	 7.857143204349074e+00	 5.428574228589335e+00	 1.003916868564670e+01
0	 7.857143204349074e+00	 5.571432615897928e+00	 1.003883667752325e+01
0	 7.857143204349075e+00	 5.714291269874074e+00	 1.003838306603047e+01
0	 7.999993933273641e+00	 4.285708730125924e+00	 1.003946058790220e+01
0	 7.999993933273644e+00	 4.428567384102075e+00	 1.003871462299906e+01
0	 7.999993933273642e+00	 4.571425771410667e+00	 1.003825102771984e+01
0	 7.999993933273643e+00	 4.714283958718593e+00	 1.003799628469949e+01
0	 7.999993933273643e+00	 4.857142012692742e+00	 1.003787687695798e+01
0	 7.999993933273643e+00	 5.000000000000001e+00	 1.003781928790040e+01
0	 7.999993933273644e+00	 5.142857987307262e+00	 1.003775000131687e+01
0	 7.999993933273643e+00	 5.285716041281408e+00	 1.003759550138259e+01
0	 7.999993933273645e+00	 5.428574228589335e+00	 1.003728227265780e+01
0	 7.999993933273643e+00	 5.571432615897928e+00	 1.003673680008778e+01
0	 7.999993933273643e+00	 5.714291269874074e+00	 1.003588556900284e+01
0	 8.142844762191748e+00	 4.285708730125926e+00	 1.003326501184234e+01
0	 8.142844762191748e+00	 4.428567384102074e+00	 1.003368855623596e+01
0	 8.142844762191748e+00	 4.571425771410667e+00	 1.003420050355662e+01
0	 8.142844762191746e+00	 4.714283958718594e+00	 1.003473217188638e+01
0	 8.142844762191746e+00	 4.857142012692740e+00	 1.003521488016282e+01
0	 8.142844762191746e+00	 5.000000000000001e+00	 1.003557994817911e+01
0	 8.142844762191748e+00	 5.142857987307259e+00	 1.003575869658402e+01
0	 8.142844762191750e+00	 5.285716041281409e+00	 1.003568244688191e+01
0	 8.142844762191748e+00	 5.428574228589334e+00	 1.003528252143270e+01
0	 8.142844762191748e+00	 5.571432615897929e+00	 1.003449024345186e+01
0	 8.142844762191750e+00	 5.714291269874075e+00	 1.003323693701040e+01
0	 8.285695707769140e+00	 4.285708730125926e+00	 1.002764608299550e+01
0	 8.285695707769140e+00	 4.428567384102073e+00	 1.002910289537018e+01
0	 8.285695707769140e+00	 4.571425771410668e+00	 1.003045000430119e+01
0	 8.285695707769142e+00	 4.714283958718594e+00	 1.003162990011137e+01
0	 8.285695707769142e+00	 4.857142012692742e+00	 1.003258507437881e+01
0	 8.285695707769140e+00	 5.000000000000002e+00	 1.003325801993690e+01
0	 8.285695707769140e+00	 5.142857987307261e+00	 1.003359123087431e+01
0	 8.285695707769140e+00	 5.285716041281408e+00	 1.003352720253501e+01
0	 8.285695707769140e+00	 5.428574228589334e+00	 1.003300843151828e+01
0	 8.285695707769138e+00	 5.571432615897927e+00	 1.003197741567865e+01
0	 8.285695707769140e+00	 5.714291269874073e+00	 1.003037665412589e+01
0	 8.428546786671577e+00	 4.285708730125926e+00	 1.002274757123138e+01
0	 8.428546786671575e+00	 4.428567384102074e+00	 1.002500147721209e+01
0	 8.428546786671578e+00	 4.571425771410667e+00	 1.002696110111845e+01
0	 8.428546786671577e+00	 4.714283958718593e+00	 1.002858644248901e+01
0	 8.428546786671580e+00	 4.857142012692742e+00	 1.002983750239702e+01
0	 8.428546786671575e+00	 5.000000000000000e+00	 1.003067428345041e+01
0	 8.428546786671577e+00	 5.142857987307261e+00	 1.003105678979186e+01
0	 8.428546786671578e+00	 5.285716041281408e+00	 1.003094502709875e+01
0	 8.428546786671575e+00	 5.428574228589335e+00	 1.003029900258319e+01
0	 8.428546786671578e+00	 5.571432615897929e+00	 1.002907872499202e+01
0	 8.428546786671578e+00	 5.714291269874075e+00	 1.002724420460675e+01
0	 8.571398015564817e+00	 4.285708730125926e+00	 1.001871324622635e+01
0	 8.571398015564816e+00	 4.428567384102076e+00	 1.002142813837700e+01
0	 8.571398015564816e+00	 4.571425771410667e+00	 1.002369536499717e+01
0	 8.571398015564816e+00	 4.714283958718593e+00	 1.002549877199285e+01
0	 8.571398015564816e+00	 4.857142012692742e+00	 1.002682220691431e+01
0	 8.571398015564816e+00	 5.000000000000002e+00	 1.002764951895625e+01
0	 8.571398015564814e+00	 5.142857987307261e+00	 1.002796455895773e+01
0	 8.571398015564816e+00	 5.285716041281409e+00	 1.002775117940228e+01
0	 8.571398015564816e+00	 5.428574228589335e+00	 1.002699323441776e+01
0	 8.571398015564816e+00	 5.571432615897928e+00	 1.002567457977650e+01
0	 8.571398015564816e+00	 5.714291269874074e+00	 1.002377907289512e+01
0	 7.142890476327778e+00	 5.714291269874073e+00	 1.005072159708176e+01
0	 7.142890476327777e+00	 5.857150240517927e+00	 1.005033421884328e+01
0	 7.142890476327778e+00	 6.000009511162682e+00	 1.004971513723143e+01
0	 7.142890476327779e+00	 6.142869048474793e+00	 1.004883055905162e+01
0	 7.142890476327777e+00	 6.285728819120713e+00	 1.004764669050718e+01
0	 7.142890476327779e+00	 6.428588789766899e+00	 1.004612973719932e+01
0	 7.142890476327777e+00	 6.571448927079808e+00	 1.004424590412715e+01
0	 7.142890476327779e+00	 6.714309197725897e+00	 1.004196139568770e+01
0	 7.142890476327776e+00	 6.857169568371617e+00	 1.003924241567591e+01
0	 7.142890476327777e+00	 7.000030005683425e+00	 1.003605516728461e+01
0	 7.142890476327779e+00	 7.142890476327780e+00	 1.003236585310452e+01
0	 7.285740955271015e+00	 5.714291269874074e+00	 1.004807202950375e+01
0	 7.285740955271016e+00	 5.857150240517929e+00	 1.004807547071555e+01
0	 7.285740955271013e+00	 6.000009511162681e+00	 1.004770924008380e+01
0	 7.285740955271015e+00	 6.142869048474792e+00	 1.004696399422268e+01
0	 7.285740955271016e+00	 6.285728819120711e+00	 1.004583038912405e+01
0	 7.285740955271015e+00	 6.428588789766900e+00	 1.004429908015748e+01
0	 7.285740955271013e+00	 6.571448927079807e+00	 1.004236072207024e+01
0	 7.285740955271015e+00	 6.714309197725896e+00	 1.004000596898729e+01
0	 7.285740955271014e+00	 6.857169568371615e+00	 1.003722547441133e+01
0	 7.285740955271012e+00	 7.000030005683424e+00	 1.003400989122274e+01
0	 7.285740955271015e+00	 7.142890476327778e+00	 1.003034987167959e+01
0	 7.428591450879008e+00	 5.714291269874074e+00	 1.004557390936813e+01
0	 7.428591450879008e+00	 5.857150240517927e+00	 1.004567741177628e+01
0	 7.428591450879009e+00	 6.000009511162681e+00	 1.004534356893911e+01
0	 7.428591450879010e+00	 6.142869048474793e+00	 1.004458285697076e+01
0	 7.428591450879006e+00	 6.285728819120711e+00	 1.004340575140903e+01
0	 7.428591450879007e+00	 6.428588789766900e+00	 1.004182272721552e+01
0	 7.428591450879006e+00	 6.571448927079810e+00	 1.003984425877560e+01
0	 7.428591450879010e+00	 6.714309197725899e+00	 1.003748081989834e+01
0	 7.428591450879007e+00	 6.857169568371616e+00	 1.003474288381663e+01
0	 7.428591450879004e+00	 7.000030005683424e+00	 1.003164092318710e+01
0	 7.428591450879007e+00	 7.142890476327777e+00	 1.002818541009012e+01
0	 7.571441979817511e+00	 5.714291269874074e+00	 1.004316671982403e+01
0	 7.571441979817510e+00	 5.857150240517928e+00	 1.004314185873069e+01
0	 7.571441979817513e+00	 6.000009511162682e+00	 1.004267112201471e+01
0	 7.571441979817510e+00	 6.142869048474791e+00	 1.004178017507896e+01
0	 7.571441979817512e+00	 6.285728819120713e+00	 1.004049468284675e+01
0	 7.571441979817511e+00	 6.428588789766900e+00	 1.003884030976179e+01
0	 7.571441979817510e+00	 6.571448927079809e+00	 1.003684271978829e+01
0	 7.571441979817512e+00	 6.714309197725898e+00	 1.003452757641092e+01
0	 7.571441979817510e+00	 6.857169568371615e+00	 1.003192054263477e+01
0	 7.571441979817511e+00	 7.000030005683425e+00	 1.002904728098537e+01
0	 7.571441979817511e+00	 7.142890476327779e+00	 1.002593345350873e+01
0	 7.714292558752280e+00	 5.714291269874075e+00	 1.004078994420528e+01
0	 7.714292558752281e+00	 5.857150240517928e+00	 1.004047062847473e+01
0	 7.714292558752280e+00	 6.000009511162681e+00	 1.003974489770857e+01
0	 7.714292558752282e+00	 6.142869048474791e+00	 1.003864897648820e+01
0	 7.714292558752282e+00	 6.285728819120712e+00	 1.003721908904712e+01
0	 7.714292558752283e+00	 6.428588789766900e+00	 1.003549145927108e+01
0	 7.714292558752281e+00	 6.571448927079809e+00	 1.003350231069795e+01
0	 7.714292558752278e+00	 6.714309197725895e+00	 1.003128786651778e+01
0	 7.714292558752278e+00	 6.857169568371614e+00	 1.002888434957280e+01
0	 7.714292558752280e+00	 7.000030005683426e+00	 1.002632798235743e+01
0	 7.714292558752279e+00	 7.142890476327776e+00	 1.002365498701825e+01
0	 7.857143204349075e+00	 5.714291269874074e+00	 1.003838306603047e+01
0	 7.857143204349072e+00	 5.857150240517928e+00	 1.003766553809511e+01
0	 7.857143204349074e+00	 6.000009511162684e+00	 1.003661789459941e+01
0	 7.857143204349075e+00	 6.142869048474791e+00	 1.003528228929713e+01
0	 7.857143204349074e+00	 6.285728819120710e+00	 1.003370087574539e+01
0	 7.857143204349075e+00	 6.428588789766899e+00	 1.003191580730462e+01
0	 7.857143204349074e+00	 6.571448927079810e+00	 1.002996923713854e+01
0	 7.857143204349074e+00	 6.714309197725897e+00	 1.002790331821419e+01
0	 7.857143204349075e+00	 6.857169568371616e+00	 1.002576020330196e+01
0	 7.857143204349074e+00	 7.000030005683427e+00	 1.002358204497548e+01
0	 7.857143204349072e+00	 7.142890476327779e+00	 1.002141099561175e+01
0	 7.999993933273643e+00	 5.714291269874074e+00	 1.003588556900284e+01
0	 7.999993933273645e+00	 5.857150240517928e+00	 1.003472840486927e+01
0	 7.999993933273643e+00	 6.000009511162682e+00	 1.003334311144654e+01
0	 7.999993933273645e+00	 6.142869048474793e+00	 1.003177314176219e+01
0	 7.999993933273643e+00	 6.285728819120711e+00	 1.003006194880199e+01
0	 7.999993933273643e+00	 6.428588789766899e+00	 1.002825298551001e+01
0	 7.999993933273644e+00	 6.571448927079809e+00	 1.002638970478853e+01
0	 7.999993933273643e+00	 6.714309197725896e+00	 1.002451555949812e+01
0	 7.999993933273642e+00	 6.857169568371615e+00	 1.002267400245757e+01
0	 7.999993933273644e+00	 7.000030005683426e+00	 1.002090848644394e+01
0	 7.999993933273645e+00	 7.142890476327779e+00	 1.001926246419253e+01
0	 8.142844762191750e+00	 5.714291269874075e+00	 1.003323693701040e+01
0	 8.142844762191748e+00	 5.857150240517927e+00	 1.003166104626535e+01
0	 8.142844762191746e+00	 6.000009511162682e+00	 1.002997354719002e+01
0	 8.142844762191750e+00	 6.142869048474792e+00	 1.002821456229760e+01
0	 8.142844762191746e+00	 6.285728819120711e+00	 1.002642421420271e+01
0	 8.142844762191748e+00	 6.428588789766899e+00	 1.002464262562133e+01
0	 8.142844762191746e+00	 6.571448927079809e+00	 1.002290991937085e+01
0	 8.142844762191748e+00	 6.714309197725897e+00	 1.002126621837006e+01
0	 8.142844762191745e+00	 6.857169568371616e+00	 1.001975164563909e+01
0	 8.142844762191748e+00	 7.000030005683426e+00	 1.001840632429948e+01
0	 8.142844762191750e+00	 7.142890476327778e+00	 1.001727037757413e+01
0	 8.285695707769140e+00	 5.714291269874073e+00	 1.003037665412589e+01
0	 8.285695707769138e+00	 5.857150240517927e+00	 1.002846527994229e+01
0	 8.285695707769142e+00	 6.000009511162682e+00	 1.002656220095054e+01
0	 8.285695707769140e+00	 6.142869048474792e+00	 1.002469957947535e+01
0	 8.285695707769142e+00	 6.285728819120712e+00	 1.002290957805854e+01
0	 8.285695707769142e+00	 6.428588789766899e+00	 1.002122435945904e+01
0	 8.285695707769140e+00	 6.571448927079808e+00	 1.001967608665288e+01
0	 8.285695707769140e+00	 6.714309197725896e+00	 1.001829692283317e+01
0	 8.285695707769140e+00	 6.857169568371617e+00	 1.001711903141013e+01
0	 8.285695707769140e+00	 7.000030005683424e+00	 1.001617457601106e+01
0	 8.285695707769138e+00	 7.142890476327778e+00	 1.001549572048033e+01
0	 8.428546786671578e+00	 5.714291269874075e+00	 1.002724420460675e+01
0	 8.428546786671578e+00	 5.857150240517927e+00	 1.002514292374971e+01
0	 8.428546786671577e+00	 6.000009511162682e+00	 1.002316207202948e+01
0	 8.428546786671578e+00	 6.142869048474793e+00	 1.002132122202519e+01
0	 8.428546786671573e+00	 6.285728819120710e+00	 1.001963994660581e+01
0	 8.428546786671577e+00	 6.428588789766899e+00	 1.001813781893005e+01
0	 8.428546786671578e+00	 6.571448927079810e+00	 1.001683441244642e+01
0	 8.428546786671577e+00	 6.714309197725897e+00	 1.001574930089319e+01
0	 8.428546786671578e+00	 6.857169568371617e+00	 1.001490205829841e+01
0	 8.428546786671577e+00	 7.000030005683426e+00	 1.001431225897988e+01
0	 8.428546786671575e+00	 7.142890476327779e+00	 1.001399947754512e+01
0	 8.571398015564816e+00	 5.714291269874074e+00	 1.002377907289512e+01
0	 8.571398015564816e+00	 5.857150240517927e+00	 1.002169579572799e+01
0	 8.571398015564816e+00	 6.000009511162681e+00	 1.001982615990887e+01
0	 8.571398015564816e+00	 6.142869048474793e+00	 1.001817251883467e+01
0	 8.571398015564814e+00	 6.285728819120712e+00	 1.001673722620607e+01
0	 8.571398015564816e+00	 6.428588789766899e+00	 1.001552263602766e+01
0	 8.571398015564817e+00	 6.571448927079810e+00	 1.001453110260775e+01
0	 8.571398015564817e+00	 6.714309197725898e+00	 1.001376498055849e+01
0	 8.571398015564816e+00	 6.857169568371617e+00	 1.001322662479579e+01
0	 8.571398015564819e+00	 7.000030005683428e+00	 1.001291839053938e+01
0	 8.571398015564816e+00	 7.142890476327779e+00	 1.001284263331277e+01
0	 7.142890476327779e+00	 7.142890476327780e+00	 1.003236585310452e+01
0	 7.142890476327778e+00	 7.285740955271013e+00	 1.002857149592979e+01
0	 7.142890476327779e+00	 7.428591450879007e+00	 1.002509187714798e+01
0	 7.142890476327778e+00	 7.571441979817512e+00	 1.002192816639039e+01
0	 7.142890476327777e+00	 7.714292558752281e+00	 1.001908153299482e+01
0	 7.142890476327778e+00	 7.857143204349074e+00	 1.001655314600547e+01
0	 7.142890476327777e+00	 7.999993933273643e+00	 1.001434417417310e+01
0	 7.142890476327778e+00	 8.142844762191746e+00	 1.001245578595485e+01
0	 7.142890476327778e+00	 8.285695707769140e+00	 1.001088914951439e+01
0	 7.142890476327778e+00	 8.428546786671575e+00	 1.000964543272181e+01
0	 7.142890476327779e+00	 8.571398015564816e+00	 1.000872580315372e+01
0	 7.285740955271015e+00	 7.142890476327778e+00	 1.003034987167959e+01
0	 7.285740955271015e+00	 7.285740955271015e+00	 1.002665711698079e+01
0	 7.285740955271015e+00	 7.428591450879008e+00	 1.002333945426182e+01
0	 7.285740955271013e+00	 7.571441979817510e+00	 1.002038253991756e+01
0	 7.285740955271013e+00	 7.714292558752281e+00	 1.001777203006385e+01
0	 7.285740955271014e+00	 7.857143204349073e+00	 1.001549358053739e+01
0	 7.285740955271014e+00	 7.999993933273645e+00	 1.001353284689581e+01
0	 7.285740955271014e+00	 8.142844762191746e+00	 1.001187548441764e+01
0	 7.285740955271014e+00	 8.285695707769140e+00	 1.001050714810228e+01
0	 7.285740955271015e+00	 8.428546786671577e+00	 1.000941349267009e+01
0	 7.285740955271014e+00	 8.571398015564816e+00	 1.000858017256232e+01
0	 7.428591450879007e+00	 7.142890476327777e+00	 1.002818541009012e+01
0	 7.428591450879008e+00	 7.285740955271015e+00	 1.002476170486755e+01
0	 7.428591450879009e+00	 7.428591450879008e+00	 1.002172995108312e+01
0	 7.428591450879008e+00	 7.571441979817513e+00	 1.001906355706662e+01
0	 7.428591450879008e+00	 7.714292558752281e+00	 1.001673593090282e+01
0	 7.428591450879005e+00	 7.857143204349073e+00	 1.001472048043148e+01
0	 7.428591450879008e+00	 7.999993933273645e+00	 1.001299061324736e+01
0	 7.428591450879006e+00	 8.142844762191748e+00	 1.001151973670020e+01
0	 7.428591450879005e+00	 8.285695707769140e+00	 1.001028125789468e+01
0	 7.428591450879007e+00	 8.428546786671578e+00	 1.000924858369055e+01
0	 7.428591450879007e+00	 8.571398015564816e+00	 1.000839512070249e+01
0	 7.571441979817511e+00	 7.142890476327779e+00	 1.002593345350873e+01
0	 7.571441979817511e+00	 7.285740955271014e+00	 1.002290632994544e+01
0	 7.571441979817512e+00	 7.428591450879009e+00	 1.002025190440520e+01
0	 7.571441979817508e+00	 7.571441979817509e+00	 1.001793460233407e+01
0	 7.571441979817512e+00	 7.714292558752281e+00	 1.001591884898159e+01
0	 7.571441979817510e+00	 7.857143204349073e+00	 1.001416906940092e+01
0	 7.571441979817513e+00	 7.999993933273644e+00	 1.001264968844874e+01
0	 7.571441979817511e+00	 8.142844762191746e+00	 1.001132513078526e+01
0	 7.571441979817508e+00	 8.285695707769140e+00	 1.001015982087425e+01
0	 7.571441979817509e+00	 8.428546786671577e+00	 1.000911818298303e+01
0	 7.571441979817510e+00	 8.571398015564814e+00	 1.000816464118244e+01
0	 7.714292558752279e+00	 7.142890476327776e+00	 1.002365498701825e+01
0	 7.714292558752280e+00	 7.285740955271013e+00	 1.002111206247020e+01
0	 7.714292558752281e+00	 7.428591450879006e+00	 1.001889385092270e+01
0	 7.714292558752281e+00	 7.571441979817512e+00	 1.001695906012716e+01
0	 7.714292558752278e+00	 7.714292558752279e+00	 1.001526639769651e+01
0	 7.714292558752280e+00	 7.857143204349073e+00	 1.001377457110501e+01
0	 7.714292558752279e+00	 7.999993933273642e+00	 1.001244228768836e+01
0	 7.714292558752280e+00	 8.142844762191750e+00	 1.001122825464366e+01
0	 7.714292558752282e+00	 8.285695707769142e+00	 1.001009117902949e+01
0	 7.714292558752280e+00	 8.428546786671577e+00	 1.000898976776576e+01
0	 7.714292558752279e+00	 8.571398015564812e+00	 1.000788272763385e+01
0	 7.857143204349072e+00	 7.142890476327779e+00	 1.002141099561175e+01
0	 7.857143204349074e+00	 7.285740955271014e+00	 1.001939997259796e+01
0	 7.857143204349072e+00	 7.428591450879005e+00	 1.001764432723153e+01
0	 7.857143204349074e+00	 7.571441979817513e+00	 1.001610031476402e+01
0	 7.857143204349072e+00	 7.714292558752279e+00	 1.001472419037041e+01
0	 7.857143204349074e+00	 7.857143204349075e+00	 1.001347220914912e+01
0	 7.857143204349075e+00	 7.999993933273645e+00	 1.001230062612199e+01
0	 7.857143204349073e+00	 8.142844762191746e+00	 1.001116569623429e+01
0	 7.857143204349073e+00	 8.285695707769138e+00	 1.001002367435470e+01
0	 7.857143204349073e+00	 8.428546786671575e+00	 1.000883081527537e+01
0	 7.857143204349072e+00	 8.571398015564814e+00	 1.000754337371185e+01
0	 7.999993933273645e+00	 7.142890476327779e+00	 1.001926246419253e+01
0	 7.999993933273643e+00	 7.285740955271014e+00	 1.001779113038520e+01
0	 7.999993933273646e+00	 7.428591450879008e+00	 1.001649186982900e+01
0	 7.999993933273642e+00	 7.571441979817511e+00	 1.001532175047349e+01
0	 7.999993933273643e+00	 7.714292558752279e+00	 1.001423784025261e+01
0	 7.999993933273644e+00	 7.857143204349075e+00	 1.001319720708480e+01
0	 7.999993933273644e+00	 7.999993933273643e+00	 1.001215691887289e+01
0	 7.999993933273646e+00	 8.142844762191748e+00	 1.001107404350409e+01
0	 7.999993933273644e+00	 8.285695707769142e+00	 1.000990564885006e+01
0	 7.999993933273643e+00	 8.428546786671577e+00	 1.000860880276689e+01
0	 7.999993933273645e+00	 8.571398015564817e+00	 1.000714057309505e+01
0	 8.142844762191750e+00	 7.142890476327778e+00	 1.001727037757414e+01
0	 8.142844762191750e+00	 7.285740955271015e+00	 1.001630660578883e+01
0	 8.142844762191748e+00	 7.428591450879006e+00	 1.001542501511370e+01
0	 8.142844762191746e+00	 7.571441979817512e+00	 1.001458675139517e+01
0	 8.142844762191748e+00	 7.714292558752281e+00	 1.001375296051889e+01
0	 8.142844762191748e+00	 7.857143204349073e+00	 1.001288478840970e+01
0	 8.142844762191748e+00	 7.999993933273645e+00	 1.001194338103168e+01
0	 8.142844762191746e+00	 8.142844762191746e+00	 1.001088988438814e+01
0	 8.142844762191746e+00	 8.285695707769138e+00	 1.000968544452158e+01
0	 8.142844762191748e+00	 8.428546786671577e+00	 1.000829120751373e+01
0	 8.142844762191750e+00	 8.571398015564817e+00	 1.000666831948553e+01
0	 8.285695707769138e+00	 7.142890476327778e+00	 1.001549572048033e+01
0	 8.285695707769140e+00	 7.285740955271015e+00	 1.001496746866606e+01
0	 8.285695707769142e+00	 7.428591450879006e+00	 1.001443229938555e+01
0	 8.285695707769143e+00	 7.571441979817512e+00	 1.001385870157955e+01
0	 8.285695707769140e+00	 7.714292558752280e+00	 1.001321516427150e+01
0	 8.285695707769140e+00	 7.857143204349074e+00	 1.001247017656753e+01
0	 8.285695707769142e+00	 7.999993933273644e+00	 1.001159222765641e+01
0	 8.285695707769143e+00	 8.142844762191748e+00	 1.001054980680956e+01
0	 8.285695707769140e+00	 8.285695707769140e+00	 1.000931140338108e+01
0	 8.285695707769138e+00	 8.428546786671575e+00	 1.000784550680770e+01
0	 8.285695707769142e+00	 8.571398015564814e+00	 1.000612060660885e+01
0	 8.428546786671575e+00	 7.142890476327779e+00	 1.001399947754512e+01
0	 8.428546786671575e+00	 7.285740955271014e+00	 1.001379478877459e+01
0	 8.428546786671578e+00	 7.428591450879006e+00	 1.001350225884580e+01
0	 8.428546786671577e+00	 7.571441979817509e+00	 1.001310098498781e+01
0	 8.428546786671578e+00	 7.714292558752282e+00	 1.001257006453922e+01
0	 8.428546786671577e+00	 7.857143204349073e+00	 1.001188859494820e+01
0	 8.428546786671578e+00	 7.999993933273643e+00	 1.001103567377253e+01
0	 8.428546786671577e+00	 8.142844762191748e+00	 1.000999039867956e+01
0	 8.428546786671578e+00	 8.285695707769140e+00	 1.000873186744622e+01
0	 8.428546786671578e+00	 8.428546786671578e+00	 1.000723917795902e+01
0	 8.428546786671580e+00	 8.571398015564817e+00	 1.000549142821404e+01
0	 8.571398015564816e+00	 7.142890476327779e+00	 1.001284263331277e+01
0	 8.571398015564816e+00	 7.285740955271013e+00	 1.001280963577238e+01
0	 8.571398015564816e+00	 7.428591450879008e+00	 1.001262342959704e+01
0	 8.571398015564814e+00	 7.571441979817510e+00	 1.001227698549199e+01
0	 8.571398015564814e+00	 7.714292558752279e+00	 1.001176327427724e+01
0	 8.571398015564814e+00	 7.857143204349073e+00	 1.001107526688765e+01
0	 8.571398015564816e+00	 7.999993933273642e+00	 1.001020593437292e+01
0	 8.571398015564817e+00	 8.142844762191748e+00	 1.000914824789743e+01
0	 8.571398015564816e+00	 8.285695707769140e+00	 1.000789517874053e+01
0	 8.571398015564817e+00	 8.428546786671578e+00	 1.000643969829629e+01
0	 8.571398015564816e+00	 8.571398015564816e+00	 1.000477477807356e+01
0	 7.142890476327779e+00	 8.571398015564816e+00	 1.000872580315372e+01
0	 7.142890476327777e+00	 8.714259388995400e+00	 1.000796525630868e+01
0	 7.142890476327779e+00	 8.857120812436387e+00	 1.000718645623714e+01
0	 7.142890476327777e+00	 8.999982169218281e+00	 1.000637191444704e+01
0	 7.142890476327777e+00	 9.142843342671602e+00	 1.000550414290360e+01
0	 7.142890476327778e+00	 9.285704216126854e+00	 1.000456565402926e+01
0	 7.142890476327778e+00	 9.428564672914549e+00	 1.000353896070369e+01
0	 7.142890476327777e+00	 9.571424596365201e+00	 1.000240657626382e+01
0	 7.142890476327778e+00	 9.714283869809321e+00	 1.000115101450372e+01
0	 7.142890476327778e+00	 9.857142376577414e+00	 9.999754789674752e+00
0	 7.142890476327777e+00	 1.000000000000000e+01	 9.998200416485492e+00
0	 7.285740955271014e+00	 8.571398015564816e+00	 1.000858017256232e+01
0	 7.285740955271014e+00	 8.714259388995401e+00	 1.000784652243405e+01
0	 7.285740955271013e+00	 8.857120812436381e+00	 1.000706013092261e+01
0	 7.285740955271013e+00	 8.999982169218281e+00	 1.000621888493479e+01
0	 7.285740955271015e+00	 9.142843342671602e+00	 1.000532067187772e+01
0	 7.285740955271014e+00	 9.285704216126851e+00	 1.000436337965881e+01
0	 7.285740955271014e+00	 9.428564672914547e+00	 1.000334489668580e+01
0	 7.285740955271016e+00	 9.571424596365199e+00	 1.000226311186664e+01
0	 7.285740955271012e+00	 9.714283869809320e+00	 1.000111591460957e+01
0	 7.285740955271016e+00	 9.857142376577416e+00	 9.999901194823146e+00
0	 7.285740955271013e+00	 1.000000000000000e+01	 9.998616842916267e+00
0	 7.428591450879007e+00	 8.571398015564816e+00	 1.000839512070249e+01
0	 7.428591450879005e+00	 8.714259388995398e+00	 1.000759216808797e+01
0	 7.428591450879007e+00	 8.857120812436387e+00	 1.000673548032584e+01
0	 7.428591450879007e+00	 8.999982169218278e+00	 1.000583498504091e+01
0	 7.428591450879006e+00	 9.142843342671600e+00	 1.000490061051348e+01
0	 7.428591450879006e+00	 9.285704216126851e+00	 1.000394228567921e+01
0	 7.428591450879010e+00	 9.428564672914552e+00	 1.000296994012920e+01
0	 7.428591450879008e+00	 9.571424596365199e+00	 1.000199350410991e+01
0	 7.428591450879006e+00	 9.714283869809321e+00	 1.000102290852328e+01
0	 7.428591450879007e+00	 9.857142376577416e+00	 1.000006808492659e+01
0	 7.428591450879007e+00	 1.000000000000000e+01	 9.999138965532619e+00
0	 7.571441979817510e+00	 8.571398015564814e+00	 1.000816464118244e+01
0	 7.571441979817513e+00	 8.714259388995401e+00	 1.000722296463205e+01
0	 7.571441979817510e+00	 8.857120812436385e+00	 1.000625319089848e+01
0	 7.571441979817514e+00	 8.999982169218283e+00	 1.000527395368887e+01
0	 7.571441979817510e+00	 9.142843342671599e+00	 1.000430388759937e+01
0	 7.571441979817511e+00	 9.285704216126852e+00	 1.000336162811509e+01
0	 7.571441979817511e+00	 9.428564672914549e+00	 1.000246581161012e+01
0	 7.571441979817511e+00	 9.571424596365203e+00	 1.000163507534744e+01
0	 7.571441979817509e+00	 9.714283869809316e+00	 1.000088805747916e+01
0	 7.571441979817510e+00	 9.857142376577416e+00	 1.000024339704622e+01
0	 7.571441979817512e+00	 1.000000000000000e+01	 9.999719733978804e+00
0	 7.714292558752279e+00	 8.571398015564812e+00	 1.000788272763385e+01
0	 7.714292558752281e+00	 8.714259388995400e+00	 1.000675968344747e+01
0	 7.714292558752277e+00	 8.857120812436383e+00	 1.000565394910039e+01
0	 7.714292558752280e+00	 8.999982169218278e+00	 1.000458952979383e+01
0	 7.714292558752279e+00	 9.142843342671600e+00	 1.000359043189641e+01
0	 7.714292558752283e+00	 9.285704216126856e+00	 1.000268066294399e+01
0	 7.714292558752280e+00	 9.428564672914549e+00	 1.000188423163982e+01
0	 7.714292558752281e+00	 9.571424596365201e+00	 1.000122514785452e+01
0	 7.714292558752281e+00	 9.714283869809320e+00	 1.000072742262601e+01
0	 7.714292558752281e+00	 9.857142376577420e+00	 1.000041506815971e+01
0	 7.714292558752281e+00	 1.000000000000000e+01	 1.000031209782850e+01
0	 7.857143204349072e+00	 8.571398015564814e+00	 1.000754337371185e+01
0	 7.857143204349072e+00	 8.714259388995398e+00	 1.000622309593492e+01
0	 7.857143204349073e+00	 8.857120812436385e+00	 1.000497844139960e+01
0	 7.857143204349073e+00	 8.999982169218281e+00	 1.000383545226274e+01
0	 7.857143204349072e+00	 9.142843342671599e+00	 1.000282017213807e+01
0	 7.857143204349073e+00	 9.285704216126851e+00	 1.000195864609622e+01
0	 7.857143204349073e+00	 9.428564672914549e+00	 1.000127692066471e+01
0	 7.857143204349074e+00	 9.571424596365203e+00	 1.000080104382796e+01
0	 7.857143204349073e+00	 9.714283869809320e+00	 1.000055706502732e+01
0	 7.857143204349073e+00	 9.857142376577416e+00	 1.000057103516129e+01
0	 7.857143204349074e+00	 1.000000000000000e+01	 1.000086900658525e+01
0	 7.999993933273645e+00	 8.571398015564817e+00	 1.000714057309505e+01
0	 7.999993933273643e+00	 8.714259388995398e+00	 1.000563397351469e+01
0	 7.999993933273643e+00	 8.857120812436383e+00	 1.000426735427236e+01
0	 7.999993933273644e+00	 8.999982169218283e+00	 1.000306545999418e+01
0	 7.999993933273642e+00	 9.142843342671599e+00	 1.000205303703033e+01
0	 7.999993933273645e+00	 9.285704216126854e+00	 1.000125483345495e+01
0	 7.999993933273643e+00	 9.428564672914550e+00	 1.000069559906613e+01
0	 7.999993933273645e+00	 9.571424596365203e+00	 1.000040008538610e+01
0	 7.999993933273643e+00	 9.714283869809320e+00	 1.000039304566108e+01
0	 7.999993933273643e+00	 9.857142376577412e+00	 1.000069923486158e+01
0	 7.999993933273645e+00	 1.000000000000000e+01	 1.000134340968222e+01
0	 8.142844762191750e+00	 8.571398015564817e+00	 1.000666831948553e+01
0	 8.142844762191745e+00	 8.714259388995398e+00	 1.000501308762658e+01
0	 8.142844762191748e+00	 8.857120812436385e+00	 1.000356137420305e+01
0	 8.142844762191746e+00	 8.999982169218280e+00	 1.000233329187854e+01
0	 8.142844762191743e+00	 9.142843342671600e+00	 1.000134895525168e+01
0	 8.142844762191748e+00	 9.285704216126852e+00	 1.000062848085615e+01
0	 8.142844762191746e+00	 9.428564672914547e+00	 1.000019198716058e+01
0	 8.142844762191748e+00	 9.571424596365199e+00	 1.000005959456885e+01
0	 8.142844762191746e+00	 9.714283869809320e+00	 1.000025142541985e+01
0	 8.142844762191748e+00	 9.857142376577416e+00	 1.000078760398782e+01
0	 8.142844762191748e+00	 1.000000000000000e+01	 1.000168825648223e+01
0	 8.285695707769142e+00	 8.571398015564814e+00	 1.000612060660885e+01
0	 8.285695707769142e+00	 8.714259388995401e+00	 1.000438120972990e+01
0	 8.285695707769142e+00	 8.857120812436385e+00	 1.000290118768427e+01
0	 8.285695707769142e+00	 8.999982169218281e+00	 1.000169268679787e+01
0	 8.285695707769138e+00	 9.142843342671600e+00	 1.000076785545308e+01
0	 8.285695707769140e+00	 9.285704216126851e+00	 1.000013884408862e+01
0	 8.285695707769142e+00	 9.428564672914549e+00	 9.999817805199610e+00
0	 8.285695707769140e+00	 9.571424596365203e+00	 9.999816893337641e+00
0	 8.285695707769142e+00	 9.714283869809321e+00	 1.000014826511077e+01
0	 8.285695707769142e+00	 9.857142376577418e+00	 1.000082407918369e+01
0	 8.285695707769140e+00	 9.999999999999998e+00	 1.000185649627783e+01
0	 8.428546786671580e+00	 8.571398015564817e+00	 1.000549142821404e+01
0	 8.428546786671577e+00	 8.714259388995400e+00	 1.000375911130362e+01
0	 8.428546786671577e+00	 8.857120812436385e+00	 1.000232748121679e+01
0	 8.428546786671578e+00	 8.999982169218281e+00	 1.000119738362595e+01
0	 8.428546786671577e+00	 9.142843342671597e+00	 1.000036966625795e+01
0	 8.428546786671575e+00	 9.285704216126849e+00	 9.999845178894001e+00
0	 8.428546786671578e+00	 9.428564672914550e+00	 9.999624773369781e+00
0	 8.428546786671577e+00	 9.571424596365201e+00	 9.999709303575385e+00
0	 8.428546786671578e+00	 9.714283869809321e+00	 1.000009962545550e+01
0	 8.428546786671577e+00	 9.857142376577418e+00	 1.000079659700941e+01
0	 8.428546786671577e+00	 1.000000000000000e+01	 1.000180107829119e+01
0	 8.571398015564816e+00	 8.571398015564816e+00	 1.000477477807356e+01
0	 8.571398015564817e+00	 8.714259388995400e+00	 1.000316756384612e+01
0	 8.571398015564814e+00	 8.857120812436385e+00	 1.000188094130957e+01
0	 8.571398015564817e+00	 8.999982169218281e+00	 1.000090112122831e+01
0	 8.571398015564816e+00	 9.142843342671600e+00	 1.000021431626225e+01
0	 8.571398015564816e+00	 9.285704216126851e+00	 9.999806740966756e+00
0	 8.571398015564816e+00	 9.428564672914549e+00	 9.999664611792722e+00
0	 8.571398015564816e+00	 9.571424596365201e+00	 9.999774147086566e+00
0	 8.571398015564816e+00	 9.714283869809321e+00	 1.000012156709031e+01
0	 8.571398015564816e+00	 9.857142376577418e+00	 1.000069309394170e+01
0	 8.571398015564816e+00	 1.000000000000000e+01	 1.000147495167425e+01
0	 8.571398015564816e+00	 0.000000000000000e+00	 1.001250324526957e+01
0	 8.571398015564816e+00	 1.428576234225853e-01	 1.000219312026239e+01
0	 8.571398015564816e+00	 2.857161301906819e-01	 9.993469654635637e+00
0	 8.571398015564816e+00	 4.285754036348007e-01	 9.986380502394127e+00
0	 8.571398015564812e+00	 5.714353270854530e-01	 9.980973327456441e+00
0	 8.571398015564816e+00	 7.142957838731496e-01	 9.977295803654236e+00
0	 8.571398015564817e+00	 8.571566573284017e-01	 9.975395614731756e+00
0	 8.571398015564816e+00	 1.000017830781720e+00	 9.975320454345372e+00
0	 8.571398015564816e+00	 1.142879187563616e+00	 9.977118026063366e+00
0	 8.571398015564814e+00	 1.285740611004601e+00	 9.980836043365697e+00
0	 8.571398015564817e+00	 1.428601984435185e+00	 9.986522229644002e+00
0	 8.714259388995400e+00	 0.000000000000000e+00	 1.000682903411873e+01
0	 8.714259388995400e+00	 1.428576234225853e-01	 9.996773919996480e+00
0	 8.714259388995401e+00	 2.857161301906819e-01	 9.988286998339547e+00
0	 8.714259388995398e+00	 4.285754036348007e-01	 9.981401956828277e+00
0	 8.714259388995398e+00	 5.714353270854530e-01	 9.976152492470947e+00
0	 8.714259388995400e+00	 7.142957838731496e-01	 9.972572311603090e+00
0	 8.714259388995400e+00	 8.571566573284018e-01	 9.970695129887073e+00
0	 8.714259388995405e+00	 1.000017830781720e+00	 9.970554672311657e+00
0	 8.714259388995401e+00	 1.142879187563616e+00	 9.972184673191780e+00
0	 8.714259388995398e+00	 1.285740611004601e+00	 9.975618876168364e+00
0	 8.714259388995401e+00	 1.428601984435185e+00	 9.980891034208337e+00
0	 8.857120812436385e+00	 0.000000000000000e+00	 9.995253921557309e+00
0	 8.857120812436383e+00	 1.428576234225852e-01	 9.987239042686369e+00
0	 8.857120812436387e+00	 2.857161301906819e-01	 9.980517438215557e+00
0	 8.857120812436387e+00	 4.285754036348008e-01	 9.975109392006498e+00
0	 8.857120812436385e+00	 5.714353270854532e-01	 9.971035195409559e+00
0	 8.857120812436385e+00	 7.142957838731496e-01	 9.968315147263294e+00
0	 8.857120812436385e+00	 8.571566573284017e-01	 9.966969553894149e+00
0	 8.857120812436385e+00	 1.000017830781720e+00	 9.967018729116090e+00
0	 8.857120812436385e+00	 1.142879187563616e+00	 9.968482994230438e+00
0	 8.857120812436381e+00	 1.285740611004601e+00	 9.971382678025774e+00
0	 8.857120812436387e+00	 1.428601984435185e+00	 9.975738116777883e+00
0	 8.999982169218280e+00	 0.000000000000000e+00	 9.979553021677962e+00
0	 8.999982169218283e+00	 1.428576234225853e-01	 9.974695775332574e+00
0	 8.999982169218281e+00	 2.857161301906819e-01	 9.970700129134462e+00
0	 8.999982169218280e+00	 4.285754036348006e-01	 9.967573522480373e+00
0	 8.999982169218281e+00	 5.714353270854531e-01	 9.965323399651785e+00
0	 8.999982169218281e+00	 7.142957838731495e-01	 9.963957209814613e+00
0	 8.999982169218281e+00	 8.571566573284017e-01	 9.963482407018986e+00
0	 8.999982169218280e+00	 1.000017830781720e+00	 9.963906450199051e+00
0	 8.999982169218283e+00	 1.142879187563616e+00	 9.965236803172871e+00
0	 8.999982169218283e+00	 1.285740611004601e+00	 9.967480934642364e+00
0	 8.999982169218283e+00	 1.428601984435185e+00	 9.970646318193321e+00
0	 9.142843342671599e+00	 0.000000000000000e+00	 9.961501444030919e+00
0	 9.142843342671599e+00	 1.428576234225852e-01	 9.960251400746236e+00
0	 9.142843342671595e+00	 2.857161301906818e-01	 9.959374222127328e+00
0	 9.142843342671599e+00	 4.285754036348007e-01	 9.958865059310673e+00
0	 9.142843342671599e+00	 5.714353270854531e-01	 9.958719065437311e+00
0	 9.142843342671600e+00	 7.142957838731496e-01	 9.958931395652707e+00
0	 9.142843342671602e+00	 8.571566573284016e-01	 9.959497207106688e+00
0	 9.142843342671600e+00	 1.000017830781720e+00	 9.960411658953412e+00
0	 9.142843342671599e+00	 1.142879187563616e+00	 9.961669912351335e+00
0	 9.142843342671600e+00	 1.285740611004601e+00	 9.963267130463231e+00
0	 9.142843342671602e+00	 1.428601984435186e+00	 9.965198478456191e+00
0	 9.285704216126852e+00	 0.000000000000000e+00	 9.942874293624033e+00
0	 9.285704216126851e+00	 1.428576234225852e-01	 9.945013197549162e+00
0	 9.285704216126849e+00	 2.857161301906819e-01	 9.947078864385482e+00
0	 9.285704216126851e+00	 4.285754036348007e-01	 9.949054710067415e+00
0	 9.285704216126851e+00	 5.714353270854530e-01	 9.950924149866040e+00
0	 9.285704216126852e+00	 7.142957838731496e-01	 9.952670598389169e+00
0	 9.285704216126854e+00	 8.571566573284018e-01	 9.954277469581490e+00
0	 9.285704216126852e+00	 1.000017830781720e+00	 9.955728176724557e+00
0	 9.285704216126851e+00	 1.142879187563616e+00	 9.957006132436911e+00
0	 9.285704216126851e+00	 1.285740611004601e+00	 9.958094748674144e+00
0	 9.285704216126852e+00	 1.428601984435185e+00	 9.958977436728928e+00
0	 9.428564672914549e+00	 0.000000000000000e+00	 9.925446670922760e+00
0	 9.428564672914549e+00	 1.428576234225853e-01	 9.930088440173778e+00
0	 9.428564672914547e+00	 2.857161301906819e-01	 9.934353199260533e+00
0	 9.428564672914550e+00	 4.285754036348007e-01	 9.938213178829802e+00
0	 9.428564672914549e+00	 5.714353270854532e-01	 9.941640606898028e+00
0	 9.428564672914550e+00	 7.142957838731496e-01	 9.944607708851530e+00
0	 9.428564672914549e+00	 8.571566573284016e-01	 9.947086707446731e+00
0	 9.428564672914550e+00	 1.000017830781720e+00	 9.949049822810332e+00
0	 9.428564672914549e+00	 1.142879187563616e+00	 9.950469272439420e+00
0	 9.428564672914549e+00	 1.285740611004600e+00	 9.951317271201553e+00
0	 9.428564672914550e+00	 1.428601984435186e+00	 9.951566031334911e+00
0	 9.571424596365201e+00	 0.000000000000000e+00	 9.910993671850125e+00
0	 9.571424596365205e+00	 1.428576234225853e-01	 9.916584398863064e+00
0	 9.571424596365201e+00	 2.857161301906819e-01	 9.921736366264263e+00
0	 9.571424596365203e+00	 4.285754036348007e-01	 9.926411166186201e+00
0	 9.571424596365201e+00	 5.714353270854530e-01	 9.930570387353509e+00
0	 9.571424596365201e+00	 7.142957838731496e-01	 9.934175615083159e+00
0	 9.571424596365203e+00	 8.571566573284018e-01	 9.937188431284870e+00
0	 9.571424596365199e+00	 1.000017830781720e+00	 9.939570414461127e+00
0	 9.571424596365201e+00	 1.142879187563616e+00	 9.941283139707476e+00
0	 9.571424596365203e+00	 1.285740611004601e+00	 9.942288178712605e+00
0	 9.571424596365201e+00	 1.428601984435185e+00	 9.942547099758418e+00
0	 9.714283869809320e+00	 0.000000000000000e+00	 9.901290387786544e+00
0	 9.714283869809321e+00	 1.428576234225853e-01	 9.905608339670488e+00
0	 9.714283869809321e+00	 2.857161301906819e-01	 9.909767501068554e+00
0	 9.714283869809318e+00	 4.285754036348007e-01	 9.913719369234011e+00
0	 9.714283869809320e+00	 5.714353270854531e-01	 9.917415438912707e+00
0	 9.714283869809320e+00	 7.142957838731496e-01	 9.920807202343264e+00
0	 9.714283869809320e+00	 8.571566573284015e-01	 9.923846149257315e+00
0	 9.714283869809321e+00	 1.000017830781720e+00	 9.926483766879661e+00
0	 9.714283869809320e+00	 1.142879187563616e+00	 9.928671539928427e+00
0	 9.714283869809320e+00	 1.285740611004601e+00	 9.930360950615086e+00
0	 9.714283869809320e+00	 1.428601984435185e+00	 9.931503478644652e+00
0	 9.857142376577416e+00	 0.000000000000000e+00	 9.898111905569701e+00
0	 9.857142376577416e+00	 1.428576234225853e-01	 9.898267524459779e+00
0	 9.857142376577416e+00	 2.857161301906819e-01	 9.898985735505230e+00
0	 9.857142376577418e+00	 4.285754036348007e-01	 9.900208481579558e+00
0	 9.857142376577416e+00	 5.714353270854531e-01	 9.901877706115828e+00
0	 9.857142376577416e+00	 7.142957838731495e-01	 9.903935353106688e+00
0	 9.857142376577418e+00	 8.571566573284017e-01	 9.906323367104456e+00
0	 9.857142376577418e+00	 1.000017830781720e+00	 9.908983693221092e+00
0	 9.857142376577416e+00	 1.142879187563616e+00	 9.911858277128269e+00
0	 9.857142376577416e+00	 1.285740611004601e+00	 9.914889065057405e+00
0	 9.857142376577418e+00	 1.428601984435185e+00	 9.918018003799725e+00
0	 1.000000000000000e+01	 0.000000000000000e+00	 9.903233307494240e+00
0	 1.000000000000000e+01	 1.428576234225853e-01	 9.895669210904703e+00
0	 1.000000000000000e+01	 2.857161301906819e-01	 9.889930197565818e+00
0	 9.999999999999998e+00	 4.285754036348007e-01	 9.885949193337858e+00
0	 1.000000000000000e+01	 5.714353270854531e-01	 9.883659130362755e+00
0	 1.000000000000000e+01	 7.142957838731496e-01	 9.882992947063844e+00
0	 1.000000000000000e+01	 8.571566573284017e-01	 9.883883588145437e+00
0	 1.000000000000000e+01	 1.000017830781720e+00	 9.886264004592750e+00
0	 1.000000000000000e+01	 1.142879187563616e+00	 9.890067153671621e+00
0	 1.000000000000000e+01	 1.285740611004601e+00	 9.895225998928527e+00
0	 1.000000000000000e+01	 1.428601984435185e+00	 9.901673510190609e+00
0	 8.571398015564817e+00	 1.428601984435185e+00	 9.986522229643999e+00
0	 8.571398015564816e+00	 1.571453213328422e+00	 9.992811100443216e+00
0	 8.571398015564817e+00	 1.714304292230859e+00	 9.998303376229989e+00
0	 8.571398015564814e+00	 1.857155237808251e+00	 1.000299469155464e+01
0	 8.571398015564816e+00	 2.000006066726355e+00	 1.000688068151720e+01
0	 8.571398015564817e+00	 2.142856795650926e+00	 1.000995698176741e+01
0	 8.571398015564816e+00	 2.285707441247718e+00	 1.001221922850469e+01
0	 8.571398015564816e+00	 2.428558020182488e+00	 1.001366305847822e+01
0	 8.571398015564814e+00	 2.571408549120992e+00	 1.001428410898684e+01
0	 8.571398015564816e+00	 2.714259044728984e+00	 1.001407801787917e+01
0	 8.571398015564814e+00	 2.857109523672223e+00	 1.001304042355353e+01
0	 8.714259388995401e+00	 1.428601984435185e+00	 9.980891034208334e+00
0	 8.714259388995401e+00	 1.571453213328423e+00	 9.986703735218606e+00
0	 8.714259388995400e+00	 1.714304292230859e+00	 9.991744196192403e+00
0	 8.714259388995401e+00	 1.857155237808252e+00	 9.996021818638765e+00
0	 8.714259388995400e+00	 2.000006066726356e+00	 9.999546004591750e+00
0	 8.714259388995400e+00	 2.142856795650926e+00	 1.000232615661044e+01
0	 8.714259388995398e+00	 2.285707441247717e+00	 1.000437167777896e+01
0	 8.714259388995400e+00	 2.428558020182488e+00	 1.000569197170652e+01
0	 8.714259388995400e+00	 2.571408549120992e+00	 1.000629644252734e+01
0	 8.714259388995400e+00	 2.714259044728985e+00	 1.000619449490070e+01
0	 8.714259388995398e+00	 2.857109523672221e+00	 1.000539553401096e+01
0	 8.857120812436387e+00	 1.428601984435185e+00	 9.975738116777881e+00
0	 8.857120812436385e+00	 1.571453213328422e+00	 9.980510124045523e+00
0	 8.857120812436385e+00	 1.714304292230859e+00	 9.984659803153285e+00
0	 8.857120812436383e+00	 1.857155237808251e+00	 9.988206862051921e+00
0	 8.857120812436387e+00	 2.000006066726355e+00	 9.991171009105265e+00
0	 8.857120812436385e+00	 2.142856795650926e+00	 9.993571953090257e+00
0	 8.857120812436385e+00	 2.285707441247718e+00	 9.995429403196827e+00
0	 8.857120812436383e+00	 2.428558020182488e+00	 9.996763069028047e+00
0	 8.857120812436383e+00	 2.571408549120992e+00	 9.997592660600027e+00
0	 8.857120812436383e+00	 2.714259044728984e+00	 9.997937888341987e+00
0	 8.857120812436381e+00	 2.857109523672222e+00	 9.997818463096209e+00
0	 8.999982169218283e+00	 1.428601984435185e+00	 9.970646318193319e+00
0	 8.999982169218283e+00	 1.571453213328422e+00	 9.974069724162826e+00
0	 8.999982169218281e+00	 1.714304292230859e+00	 9.977101148374267e+00
0	 8.999982169218280e+00	 1.857155237808252e+00	 9.979767144519588e+00
0	 8.999982169218281e+00	 2.000006066726355e+00	 9.982094266536134e+00
0	 8.999982169218281e+00	 2.142856795650926e+00	 9.984109068606625e+00
0	 8.999982169218283e+00	 2.285707441247717e+00	 9.985838105159154e+00
0	 8.999982169218283e+00	 2.428558020182489e+00	 9.987307930867187e+00
0	 8.999982169218281e+00	 2.571408549120993e+00	 9.988545100649588e+00
0	 8.999982169218281e+00	 2.714259044728985e+00	 9.989576169670592e+00
0	 8.999982169218281e+00	 2.857109523672223e+00	 9.990427693339829e+00
0	 9.142843342671602e+00	 1.428601984435186e+00	 9.965198478456191e+00
0	 9.142843342671599e+00	 1.571453213328422e+00	 9.967221992408183e+00
0	 9.142843342671600e+00	 1.714304292230858e+00	 9.969119183157897e+00
0	 9.142843342671600e+00	 1.857155237808251e+00	 9.970919989237339e+00
0	 9.142843342671600e+00	 2.000006066726355e+00	 9.972654349232108e+00
0	 9.142843342671599e+00	 2.142856795650925e+00	 9.974352201781299e+00
0	 9.142843342671597e+00	 2.285707441247717e+00	 9.976043485577600e+00
0	 9.142843342671600e+00	 2.428558020182488e+00	 9.977758139367243e+00
0	 9.142843342671600e+00	 2.571408549120992e+00	 9.979526101949995e+00
0	 9.142843342671599e+00	 2.714259044728984e+00	 9.981377312179204e+00
0	 9.142843342671599e+00	 2.857109523672221e+00	 9.983341708961770e+00
0	 9.285704216126852e+00	 1.428601984435185e+00	 9.958977436728928e+00
0	 9.285704216126851e+00	 1.571453213328422e+00	 9.959806385218123e+00
0	 9.285704216126851e+00	 1.714304292230859e+00	 9.960764858847639e+00
0	 9.285704216126851e+00	 1.857155237808251e+00	 9.961882719870871e+00
0	 9.285704216126852e+00	 2.000006066726355e+00	 9.963189830410414e+00
0	 9.285704216126854e+00	 2.142856795650925e+00	 9.964716052458037e+00
0	 9.285704216126852e+00	 2.285707441247717e+00	 9.966491247874663e+00
0	 9.285704216126851e+00	 2.428558020182488e+00	 9.968545278390422e+00
0	 9.285704216126854e+00	 2.571408549120992e+00	 9.970908005604615e+00
0	 9.285704216126852e+00	 2.714259044728985e+00	 9.973609290985708e+00
0	 9.285704216126852e+00	 2.857109523672223e+00	 9.976678995871348e+00
0	 9.428564672914550e+00	 1.428601984435186e+00	 9.951566031334911e+00
0	 9.428564672914550e+00	 1.571453213328422e+00	 9.951662358628102e+00
0	 9.428564672914549e+00	 1.714304292230859e+00	 9.952089126827920e+00
0	 9.428564672914549e+00	 1.857155237808251e+00	 9.952872660555984e+00
0	 9.428564672914550e+00	 2.000006066726355e+00	 9.954039284157783e+00
0	 9.428564672914547e+00	 2.142856795650925e+00	 9.955615321702631e+00
0	 9.428564672914550e+00	 2.285707441247718e+00	 9.957627096983694e+00
0	 9.428564672914550e+00	 2.428558020182488e+00	 9.960100933517948e+00
0	 9.428564672914549e+00	 2.571408549120992e+00	 9.963063154546228e+00
0	 9.428564672914549e+00	 2.714259044728984e+00	 9.966540083033204e+00
0	 9.428564672914547e+00	 2.857109523672222e+00	 9.970558041667383e+00
0	 9.571424596365201e+00	 1.428601984435185e+00	 9.942547099758418e+00
0	 9.571424596365201e+00	 1.571453213328422e+00	 9.942629368272451e+00
0	 9.571424596365205e+00	 1.714304292230859e+00	 9.943142938524112e+00
0	 9.571424596365198e+00	 1.857155237808251e+00	 9.944107135898662e+00
0	 9.571424596365205e+00	 2.000006066726356e+00	 9.945541285430478e+00
0	 9.571424596365203e+00	 2.142856795650926e+00	 9.947464711803041e+00
0	 9.571424596365201e+00	 2.285707441247718e+00	 9.949896739348999e+00
0	 9.571424596365203e+00	 2.428558020182488e+00	 9.952856692050062e+00
0	 9.571424596365201e+00	 2.571408549120992e+00	 9.956363893537116e+00
0	 9.571424596365199e+00	 2.714259044728984e+00	 9.960437667090124e+00
0	 9.571424596365201e+00	 2.857109523672222e+00	 9.965097335638189e+00
0	 9.714283869809320e+00	 1.428601984435185e+00	 9.931503478644656e+00
0	 9.714283869809320e+00	 1.571453213328422e+00	 9.932546869384421e+00
0	 9.714283869809320e+00	 1.714304292230859e+00	 9.933977245402628e+00
0	 9.714283869809321e+00	 1.857155237808252e+00	 9.935803470975127e+00
0	 9.714283869809321e+00	 2.000006066726355e+00	 9.938034410054350e+00
0	 9.714283869809321e+00	 2.142856795650926e+00	 9.940678926269388e+00
0	 9.714283869809321e+00	 2.285707441247718e+00	 9.943745882925903e+00
0	 9.714283869809321e+00	 2.428558020182488e+00	 9.947244143006181e+00
0	 9.714283869809321e+00	 2.571408549120992e+00	 9.951182569169156e+00
0	 9.714283869809320e+00	 2.714259044728984e+00	 9.955570023750289e+00
0	 9.714283869809321e+00	 2.857109523672222e+00	 9.960415368761726e+00
0	 9.857142376577418e+00	 1.428601984435185e+00	 9.918018003799725e+00
0	 9.857142376577416e+00	 1.571453213328422e+00	 9.921254316796217e+00
0	 9.857142376577420e+00	 1.714304292230859e+00	 9.924642998970919e+00
0	 9.857142376577418e+00	 1.857155237808251e+00	 9.928178991331858e+00
0	 9.857142376577420e+00	 2.000006066726356e+00	 9.931857234724973e+00
0	 9.857142376577416e+00	 2.142856795650926e+00	 9.935672669834075e+00
0	 9.857142376577418e+00	 2.285707441247718e+00	 9.939620237180886e+00
0	 9.857142376577416e+00	 2.428558020182488e+00	 9.943694877125008e+00
0	 9.857142376577414e+00	 2.571408549120991e+00	 9.947891529863920e+00
0	 9.857142376577416e+00	 2.714259044728984e+00	 9.952205135433060e+00
0	 9.857142376577416e+00	 2.857109523672222e+00	 9.956630633705664e+00
0	 1.000000000000000e+01	 1.428601984435185e+00	 9.901673510190609e+00
0	 1.000000000000000e+01	 1.571453213328422e+00	 9.908591164938958e+00
0	 1.000000000000000e+01	 1.714304292230859e+00	 9.915191150777478e+00
0	 1.000000000000000e+01	 1.857155237808251e+00	 9.921451022985696e+00
0	 1.000000000000000e+01	 2.000006066726355e+00	 9.927348337007667e+00
0	 9.999999999999998e+00	 2.142856795650925e+00	 9.932860648451946e+00
0	 1.000000000000000e+01	 2.285707441247718e+00	 9.937965513091688e+00
0	 1.000000000000000e+01	 2.428558020182488e+00	 9.942640486864578e+00
0	 1.000000000000000e+01	 2.571408549120992e+00	 9.946863125872895e+00
0	 1.000000000000000e+01	 2.714259044728984e+00	 9.950610986383438e+00
0	 9.999999999999998e+00	 2.857109523672222e+00	 9.953861624827585e+00
0	 8.571398015564814e+00	 2.857109523672223e+00	 1.001304042355353e+01
0	 8.571398015564816e+00	 2.999969994316575e+00	 1.001175679361117e+01
0	 8.571398015564812e+00	 3.142830431628385e+00	 1.001082946021378e+01
0	 8.571398015564816e+00	 3.285690802274106e+00	 1.001027905389492e+01
0	 8.571398015564816e+00	 3.428551072920193e+00	 1.001012620572885e+01
0	 8.571398015564816e+00	 3.571411210233102e+00	 1.001039154733048e+01
0	 8.571398015564816e+00	 3.714271180879290e+00	 1.001109571085548e+01
0	 8.571398015564816e+00	 3.857130951525211e+00	 1.001225932900015e+01
0	 8.571398015564817e+00	 3.999990488837320e+00	 1.001390303500155e+01
0	 8.571398015564816e+00	 4.142849759482074e+00	 1.001604746263745e+01
0	 8.571398015564817e+00	 4.285708730125926e+00	 1.001871324622635e+01
0	 8.714259388995398e+00	 2.857109523672221e+00	 1.000539553401096e+01
0	 8.714259388995401e+00	 2.999969994316575e+00	 1.000447097650130e+01
0	 8.714259388995400e+00	 3.142830431628386e+00	 1.000398316040165e+01
0	 8.714259388995401e+00	 3.285690802274106e+00	 1.000392763344603e+01
0	 8.714259388995401e+00	 3.428551072920193e+00	 1.000429994389870e+01
0	 8.714259388995400e+00	 3.571411210233103e+00	 1.000509564055408e+01
0	 8.714259388995401e+00	 3.714271180879290e+00	 1.000631027273675e+01
0	 8.714259388995401e+00	 3.857130951525211e+00	 1.000793939030153e+01
0	 8.714259388995401e+00	 3.999990488837321e+00	 1.000997854363344e+01
0	 8.714259388995400e+00	 4.142849759482074e+00	 1.001242328364768e+01
0	 8.714259388995398e+00	 4.285708730125926e+00	 1.001526916178972e+01
0	 8.857120812436381e+00	 2.857109523672222e+00	 9.997818463096207e+00
0	 8.857120812436388e+00	 2.999969994316576e+00	 9.997683813415144e+00
0	 8.857120812436383e+00	 3.142830431628385e+00	 9.997955027708704e+00
0	 8.857120812436387e+00	 3.285690802274106e+00	 9.998609234721172e+00
0	 8.857120812436385e+00	 3.428551072920193e+00	 9.999623563593760e+00
0	 8.857120812436383e+00	 3.571411210233102e+00	 1.000097514386463e+01
0	 8.857120812436381e+00	 3.714271180879289e+00	 1.000264110546891e+01
0	 8.857120812436385e+00	 3.857130951525210e+00	 1.000459857873870e+01
0	 8.857120812436383e+00	 3.999990488837319e+00	 1.000682469440298e+01
0	 8.857120812436385e+00	 4.142849759482075e+00	 1.000929658358783e+01
0	 8.857120812436381e+00	 4.285708730125926e+00	 1.001199137781622e+01
0	 8.999982169218281e+00	 2.857109523672223e+00	 9.990427693339830e+00
0	 8.999982169218280e+00	 2.999969994316576e+00	 9.991356926236767e+00
0	 8.999982169218283e+00	 3.142830431628385e+00	 9.992580226872642e+00
0	 8.999982169218281e+00	 3.285690802274106e+00	 9.994062968711122e+00
0	 8.999982169218283e+00	 3.428551072920194e+00	 9.995770525399422e+00
0	 8.999982169218281e+00	 3.571411210233102e+00	 9.997668270768303e+00
0	 8.999982169218283e+00	 3.714271180879291e+00	 9.999721578832055e+00
0	 8.999982169218278e+00	 3.857130951525210e+00	 1.000189582378854e+01
0	 8.999982169218283e+00	 3.999990488837320e+00	 1.000415638001916e+01
0	 8.999982169218283e+00	 4.142849759482074e+00	 1.000646862208891e+01
0	 8.999982169218281e+00	 4.285708730125926e+00	 1.000879792474632e+01
0	 9.142843342671599e+00	 2.857109523672221e+00	 9.983341708961769e+00
0	 9.142843342671602e+00	 2.999969994316576e+00	 9.985451938263576e+00
0	 9.142843342671599e+00	 3.142830431628386e+00	 9.987693923652465e+00
0	 9.142843342671602e+00	 3.285690802274107e+00	 9.990027946952754e+00
0	 9.142843342671600e+00	 3.428551072920194e+00	 9.992414289921339e+00
0	 9.142843342671600e+00	 3.571411210233101e+00	 9.994813234247591e+00
0	 9.142843342671599e+00	 3.714271180879289e+00	 9.997185061553477e+00
0	 9.142843342671600e+00	 3.857130951525211e+00	 9.999490053393469e+00
0	 9.142843342671599e+00	 3.999990488837320e+00	 1.000168849125461e+01
0	 9.142843342671602e+00	 4.142849759482074e+00	 1.000374065655647e+01
0	 9.142843342671599e+00	 4.285708730125926e+00	 1.000560683065119e+01
0	 9.285704216126852e+00	 2.857109523672223e+00	 9.976678995871348e+00
0	 9.285704216126852e+00	 2.999969994316576e+00	 9.979930474206268e+00
0	 9.285704216126852e+00	 3.142830431628385e+00	 9.983131284828488e+00
0	 9.285704216126854e+00	 3.285690802274106e+00	 9.986243281529022e+00
0	 9.285704216126852e+00	 3.428551072920193e+00	 9.989228317785347e+00
0	 9.285704216126851e+00	 3.571411210233103e+00	 9.992048246761456e+00
0	 9.285704216126851e+00	 3.714271180879290e+00	 9.994664921307823e+00
0	 9.285704216126852e+00	 3.857130951525211e+00	 9.997040193961411e+00
0	 9.285704216126852e+00	 3.999990488837320e+00	 9.999135916945702e+00
0	 9.285704216126851e+00	 4.142849759482074e+00	 1.000091394217066e+01
0	 9.285704216126852e+00	 4.285708730125926e+00	 1.000233612123273e+01
0	 9.428564672914547e+00	 2.857109523672222e+00	 9.970558041667383e+00
0	 9.428564672914549e+00	 2.999969994316575e+00	 9.974754160188954e+00
0	 9.428564672914549e+00	 3.142830431628386e+00	 9.978727478202460e+00
0	 9.428564672914549e+00	 3.285690802274106e+00	 9.982448085068995e+00
0	 9.428564672914549e+00	 3.428551072920193e+00	 9.985886069637587e+00
0	 9.428564672914552e+00	 3.571411210233104e+00	 9.989011520245260e+00
0	 9.428564672914550e+00	 3.714271180879290e+00	 9.991794524716999e+00
0	 9.428564672914549e+00	 3.857130951525210e+00	 9.994205170365776e+00
0	 9.428564672914550e+00	 3.999990488837321e+00	 9.996213543992528e+00
0	 9.428564672914549e+00	 4.142849759482075e+00	 9.997789731886167e+00
0	 9.428564672914549e+00	 4.285708730125926e+00	 9.998903819823550e+00
0	 9.571424596365201e+00	 2.857109523672222e+00	 9.965097335638189e+00
0	 9.571424596365203e+00	 2.999969994316576e+00	 9.969884623749163e+00
0	 9.571424596365201e+00	 3.142830431628385e+00	 9.974317672597543e+00
0	 9.571424596365199e+00	 3.285690802274106e+00	 9.978381470747930e+00
0	 9.571424596365199e+00	 3.428551072920193e+00	 9.982061006144457e+00
0	 9.571424596365201e+00	 3.571411210233103e+00	 9.985341266110822e+00
0	 9.571424596365201e+00	 3.714271180879290e+00	 9.988207237350235e+00
0	 9.571424596365203e+00	 3.857130951525210e+00	 9.990643905945479e+00
0	 9.571424596365201e+00	 3.999990488837320e+00	 9.992636257358861e+00
0	 9.571424596365201e+00	 4.142849759482074e+00	 9.994169276432242e+00
0	 9.571424596365199e+00	 4.285708730125925e+00	 9.995227947386963e+00
0	 9.714283869809321e+00	 2.857109523672222e+00	 9.960415368761725e+00
0	 9.714283869809321e+00	 2.999969994316576e+00	 9.965283493837973e+00
0	 9.714283869809320e+00	 3.142830431628385e+00	 9.969737037858398e+00
0	 9.714283869809321e+00	 3.285690802274106e+00	 9.973782552287284e+00
0	 9.714283869809321e+00	 3.428551072920194e+00	 9.977426587992696e+00
0	 9.714283869809320e+00	 3.571411210233103e+00	 9.980675695246408e+00
0	 9.714283869809320e+00	 3.714271180879290e+00	 9.983536423724034e+00
0	 9.714283869809320e+00	 3.857130951525209e+00	 9.986015322504903e+00
0	 9.714283869809321e+00	 3.999990488837321e+00	 9.988118940072129e+00
0	 9.714283869809320e+00	 4.142849759482075e+00	 9.989853824312595e+00
0	 9.714283869809320e+00	 4.285708730125926e+00	 9.991226522516907e+00
0	 9.857142376577416e+00	 2.857109523672222e+00	 9.956630633705663e+00
0	 9.857142376577416e+00	 2.999969994316576e+00	 9.960912400820064e+00
0	 9.857142376577416e+00	 3.142830431628386e+00	 9.964820744851282e+00
0	 9.857142376577418e+00	 3.285690802274106e+00	 9.968390443954826e+00
0	 9.857142376577418e+00	 3.428551072920193e+00	 9.971656275889359e+00
0	 9.857142376577418e+00	 3.571411210233103e+00	 9.974653018016785e+00
0	 9.857142376577416e+00	 3.714271180879290e+00	 9.977415447302176e+00
0	 9.857142376577420e+00	 3.857130951525211e+00	 9.979978340313854e+00
0	 9.857142376577418e+00	 3.999990488837320e+00	 9.982376473223322e+00
0	 9.857142376577414e+00	 4.142849759482074e+00	 9.984644621805341e+00
0	 9.857142376577416e+00	 4.285708730125926e+00	 9.986817561437840e+00
0	 9.999999999999998e+00	 2.857109523672222e+00	 9.953861624827583e+00
0	 1.000000000000000e+01	 2.999969994316576e+00	 9.956732976473875e+00
0	 1.000000000000000e+01	 3.142830431628385e+00	 9.959403965464144e+00
0	 1.000000000000000e+01	 3.285690802274106e+00	 9.961944260564644e+00
0	 1.000000000000000e+01	 3.428551072920193e+00	 9.964423530561943e+00
0	 1.000000000000000e+01	 3.571411210233102e+00	 9.966911444263109e+00
0	 1.000000000000000e+01	 3.714271180879290e+00	 9.969477670495639e+00
0	 1.000000000000000e+01	 3.857130951525210e+00	 9.972191878107465e+00
0	 1.000000000000000e+01	 3.999990488837320e+00	 9.975123735966926e+00
0	 1.000000000000000e+01	 4.142849759482075e+00	 9.978342912962891e+00
0	 1.000000000000000e+01	 4.285708730125926e+00	 9.981919078004621e+00
0	 8.571398015564817e+00	 4.285708730125926e+00	 1.001871324622635e+01
0	 8.571398015564816e+00	 4.428567384102076e+00	 1.002142813837700e+01
0	 8.571398015564816e+00	 4.571425771410667e+00	 1.002369536499717e+01
0	 8.571398015564816e+00	 4.714283958718593e+00	 1.002549877199285e+01
0	 8.571398015564816e+00	 4.857142012692742e+00	 1.002682220691431e+01
0	 8.571398015564816e+00	 5.000000000000002e+00	 1.002764951895625e+01
0	 8.571398015564814e+00	 5.142857987307261e+00	 1.002796455895773e+01
0	 8.571398015564816e+00	 5.285716041281409e+00	 1.002775117940228e+01
0	 8.571398015564816e+00	 5.428574228589335e+00	 1.002699323441776e+01
0	 8.571398015564816e+00	 5.571432615897928e+00	 1.002567457977650e+01
0	 8.571398015564816e+00	 5.714291269874074e+00	 1.002377907289512e+01
0	 8.714259388995398e+00	 4.285708730125926e+00	 1.001526916178972e+01
0	 8.714259388995400e+00	 4.428567384102074e+00	 1.001804695239167e+01
0	 8.714259388995398e+00	 4.571425771410667e+00	 1.002029547993933e+01
0	 8.714259388995400e+00	 4.714283958718593e+00	 1.002202237267158e+01
0	 8.714259388995398e+00	 4.857142012692742e+00	 1.002323526038083e+01
0	 8.714259388995400e+00	 5.000000000000000e+00	 1.002394177441317e+01
0	 8.714259388995398e+00	 5.142857987307261e+00	 1.002414954766829e+01
0	 8.714259388995400e+00	 5.285716041281409e+00	 1.002386621459953e+01
0	 8.714259388995400e+00	 5.428574228589335e+00	 1.002309941121389e+01
0	 8.714259388995400e+00	 5.571432615897928e+00	 1.002185677507199e+01
0	 8.714259388995401e+00	 5.714291269874074e+00	 1.002014594528805e+01
0	 8.857120812436381e+00	 4.285708730125926e+00	 1.001199137781622e+01
0	 8.857120812436385e+00	 4.428567384102074e+00	 1.001451903448269e+01
0	 8.857120812436383e+00	 4.571425771410667e+00	 1.001652138333537e+01
0	 8.857120812436383e+00	 4.714283958718593e+00	 1.001802336570548e+01
0	 8.857120812436381e+00	 4.857142012692742e+00	 1.001904992423112e+01
0	 8.857120812436385e+00	 5.000000000000002e+00	 1.001962600285725e+01
0	 8.857120812436383e+00	 5.142857987307260e+00	 1.001977654683573e+01
0	 8.857120812436383e+00	 5.285716041281408e+00	 1.001952650272530e+01
0	 8.857120812436387e+00	 5.428574228589335e+00	 1.001890081839162e+01
0	 8.857120812436385e+00	 5.571432615897929e+00	 1.001792444300726e+01
0	 8.857120812436385e+00	 5.714291269874074e+00	 1.001662232705164e+01
0	 8.999982169218281e+00	 4.285708730125926e+00	 1.000879792474632e+01
0	 8.999982169218283e+00	 4.428567384102075e+00	 1.001088308999059e+01
0	 8.999982169218281e+00	 4.571425771410667e+00	 1.001250985939724e+01
0	 8.999982169218281e+00	 4.714283958718593e+00	 1.001371401794266e+01
0	 8.999982169218281e+00	 4.857142012692742e+00	 1.001453135157060e+01
0	 8.999982169218281e+00	 5.000000000000001e+00	 1.001499764719221e+01
0	 8.999982169218280e+00	 5.142857987307258e+00	 1.001514869268612e+01
0	 8.999982169218281e+00	 5.285716041281408e+00	 1.001502027689839e+01
0	 8.999982169218281e+00	 5.428574228589336e+00	 1.001464818964251e+01
0	 8.999982169218280e+00	 5.571432615897929e+00	 1.001406822169944e+01
0	 8.999982169218280e+00	 5.714291269874074e+00	 1.001331616481758e+01
0	 9.142843342671599e+00	 4.285708730125926e+00	 1.000560683065119e+01
0	 9.142843342671602e+00	 4.428567384102076e+00	 1.000717782190991e+01
0	 9.142843342671602e+00	 4.571425771410667e+00	 1.000839769016062e+01
0	 9.142843342671602e+00	 4.714283958718594e+00	 1.000930659433908e+01
0	 9.142843342671602e+00	 4.857142012692742e+00	 1.000994469397955e+01
0	 9.142843342671597e+00	 5.000000000000001e+00	 1.001035214921482e+01
0	 9.142843342671597e+00	 5.142857987307260e+00	 1.001056912077623e+01
0	 9.142843342671599e+00	 5.285716041281409e+00	 1.001063576999363e+01
0	 9.142843342671600e+00	 5.428574228589334e+00	 1.001059225879546e+01
0	 9.142843342671600e+00	 5.571432615897928e+00	 1.001047874970872e+01
0	 9.142843342671597e+00	 5.714291269874074e+00	 1.001033540585893e+01
0	 9.285704216126852e+00	 4.285708730125926e+00	 1.000233612123273e+01
0	 9.285704216126852e+00	 4.428567384102075e+00	 1.000344193088936e+01
0	 9.285704216126852e+00	 4.571425771410667e+00	 1.000432165548490e+01
0	 9.285704216126854e+00	 4.714283958718593e+00	 1.000501335795862e+01
0	 9.285704216126852e+00	 4.857142012692742e+00	 1.000555510151325e+01
0	 9.285704216126851e+00	 5.000000000000000e+00	 1.000598494961497e+01
0	 9.285704216126851e+00	 5.142857987307261e+00	 1.000634096599345e+01
0	 9.285704216126852e+00	 5.285716041281407e+00	 1.000666121464184e+01
0	 9.285704216126852e+00	 5.428574228589335e+00	 1.000698375981674e+01
0	 9.285704216126852e+00	 5.571432615897926e+00	 1.000734666603831e+01
0	 9.285704216126852e+00	 5.714291269874074e+00	 1.000778799809013e+01
0	 9.428564672914549e+00	 4.285708730125926e+00	 9.998903819823550e+00
0	 9.428564672914550e+00	 4.428567384102075e+00	 9.999714115231743e+00
0	 9.428564672914550e+00	 4.571425771410667e+00	 1.000041853305322e+01
0	 9.428564672914549e+00	 4.714283958718593e+00	 1.000104656997305e+01
0	 9.428564672914550e+00	 4.857142012692742e+00	 1.000162772270182e+01
0	 9.428564672914549e+00	 5.000000000000001e+00	 1.000219148797558e+01
0	 9.428564672914550e+00	 5.142857987307260e+00	 1.000276736255590e+01
0	 9.428564672914549e+00	 5.285716041281409e+00	 1.000338484322986e+01
0	 9.428564672914549e+00	 5.428574228589336e+00	 1.000407342681003e+01
0	 9.428564672914549e+00	 5.571432615897928e+00	 1.000486261013454e+01
0	 9.428564672914550e+00	 5.714291269874074e+00	 1.000578189006705e+01
0	 9.571424596365199e+00	 4.285708730125925e+00	 9.995227947386963e+00
0	 9.571424596365201e+00	 4.428567384102073e+00	 9.996033070893917e+00
0	 9.571424596365199e+00	 4.571425771410667e+00	 9.996825098372419e+00
0	 9.571424596365201e+00	 4.714283958718593e+00	 9.997618489662058e+00
0	 9.571424596365199e+00	 4.857142012692742e+00	 9.998427704550362e+00
0	 9.571424596365203e+00	 5.000000000000001e+00	 9.999267202772700e+00
0	 9.571424596365203e+00	 5.142857987307261e+00	 1.000015144401237e+01
0	 9.571424596365199e+00	 5.285716041281408e+00	 1.000109488790056e+01
0	 9.571424596365203e+00	 5.428574228589335e+00	 1.000211199401639e+01
0	 9.571424596365201e+00	 5.571432615897927e+00	 1.000321722188689e+01
0	 9.571424596365199e+00	 5.714291269874074e+00	 1.000442503098702e+01
0	 9.714283869809320e+00	 4.285708730125926e+00	 9.991226522516907e+00
0	 9.714283869809321e+00	 4.428567384102075e+00	 9.992437491486761e+00
0	 9.714283869809321e+00	 4.571425771410667e+00	 9.993678124772966e+00
0	 9.714283869809321e+00	 4.714283958718594e+00	 9.994941374413143e+00
0	 9.714283869809321e+00	 4.857142012692741e+00	 9.996220192538802e+00
0	 9.714283869809321e+00	 5.000000000000001e+00	 9.997507531375408e+00
0	 9.714283869809320e+00	 5.142857987307260e+00	 9.998796343242322e+00
0	 9.714283869809321e+00	 5.285716041281409e+00	 1.000007958055288e+01
0	 9.714283869809321e+00	 5.428574228589335e+00	 1.000135019581435e+01
0	 9.714283869809320e+00	 5.571432615897927e+00	 1.000260114162795e+01
0	 9.714283869809320e+00	 5.714291269874073e+00	 1.000382537068890e+01
0	 9.857142376577416e+00	 4.285708730125926e+00	 9.986817561437840e+00
0	 9.857142376577416e+00	 4.428567384102075e+00	 9.988966068275040e+00
0	 9.857142376577416e+00	 4.571425771410667e+00	 9.991114383408892e+00
0	 9.857142376577418e+00	 4.714283958718593e+00	 9.993227479721551e+00
0	 9.857142376577420e+00	 4.857142012692742e+00	 9.995270330621926e+00
0	 9.857142376577416e+00	 5.000000000000000e+00	 9.997207910045834e+00
0	 9.857142376577416e+00	 5.142857987307260e+00	 9.999005192455934e+00
0	 9.857142376577416e+00	 5.285716041281407e+00	 1.000062715284180e+01
0	 9.857142376577416e+00	 5.428574228589334e+00	 1.000203876671989e+01
0	 9.857142376577418e+00	 5.571432615897928e+00	 1.000320501013356e+01
0	 9.857142376577416e+00	 5.714291269874074e+00	 1.000409085965304e+01
0	 1.000000000000000e+01	 4.285708730125926e+00	 9.981919078004621e+00
0	 1.000000000000000e+01	 4.428567384102075e+00	 9.985657490177314e+00
0	 1.000000000000000e+01	 4.571425771410668e+00	 9.989270643257697e+00
0	 1.000000000000000e+01	 4.714283958718593e+00	 9.992689059190226e+00
0	 1.000000000000000e+01	 4.857142012692742e+00	 9.995843261229226e+00
0	 1.000000000000000e+01	 5.000000000000002e+00	 9.998663773939066e+00
0	 1.000000000000000e+01	 5.142857987307262e+00	 1.000108112319402e+01
0	 1.000000000000000e+01	 5.285716041281409e+00	 1.000302583617839e+01
0	 1.000000000000000e+01	 5.428574228589335e+00	 1.000442844138652e+01
0	 1.000000000000000e+01	 5.571432615897928e+00	 1.000521946862276e+01
0	 1.000000000000000e+01	 5.714291269874075e+00	 1.000532944900145e+01
0	 8.571398015564816e+00	 5.714291269874074e+00	 1.002377907289512e+01
0	 8.571398015564816e+00	 5.857150240517927e+00	 1.002169579572799e+01
0	 8.571398015564816e+00	 6.000009511162681e+00	 1.001982615990887e+01
0	 8.571398015564816e+00	 6.142869048474793e+00	 1.001817251883467e+01
0	 8.571398015564814e+00	 6.285728819120712e+00	 1.001673722620607e+01
0	 8.571398015564816e+00	 6.428588789766899e+00	 1.001552263602766e+01
0	 8.571398015564817e+00	 6.571448927079810e+00	 1.001453110260775e+01
0	 8.571398015564817e+00	 6.714309197725898e+00	 1.001376498055849e+01
0	 8.571398015564816e+00	 6.857169568371617e+00	 1.001322662479579e+01
0	 8.571398015564819e+00	 7.000030005683428e+00	 1.001291839053938e+01
0	 8.571398015564816e+00	 7.142890476327779e+00	 1.001284263331277e+01
0	 8.714259388995401e+00	 5.714291269874074e+00	 1.002014594528805e+01
0	 8.714259388995400e+00	 5.857150240517928e+00	 1.001833749436955e+01
0	 8.714259388995403e+00	 6.000009511162682e+00	 1.001678710747896e+01
0	 8.714259388995401e+00	 6.142869048474792e+00	 1.001548009406558e+01
0	 8.714259388995400e+00	 6.285728819120712e+00	 1.001440176382855e+01
0	 8.714259388995400e+00	 6.428588789766899e+00	 1.001353742671683e+01
0	 8.714259388995401e+00	 6.571448927079811e+00	 1.001287239292920e+01
0	 8.714259388995400e+00	 6.714309197725897e+00	 1.001239197291425e+01
0	 8.714259388995401e+00	 6.857169568371616e+00	 1.001208147737039e+01
0	 8.714259388995400e+00	 7.000030005683427e+00	 1.001192621724584e+01
0	 8.714259388995398e+00	 7.142890476327777e+00	 1.001191150373861e+01
0	 8.857120812436385e+00	 5.714291269874074e+00	 1.001662232705164e+01
0	 8.857120812436385e+00	 5.857150240517928e+00	 1.001529541959770e+01
0	 8.857120812436385e+00	 6.000009511162680e+00	 1.001421020062991e+01
0	 8.857120812436385e+00	 6.142869048474791e+00	 1.001333991808263e+01
0	 8.857120812436385e+00	 6.285728819120715e+00	 1.001265782003373e+01
0	 8.857120812436387e+00	 6.428588789766901e+00	 1.001213715470456e+01
0	 8.857120812436385e+00	 6.571448927079809e+00	 1.001175117045999e+01
0	 8.857120812436381e+00	 6.714309197725893e+00	 1.001147311580833e+01
0	 8.857120812436383e+00	 6.857169568371615e+00	 1.001127623940135e+01
0	 8.857120812436385e+00	 7.000030005683425e+00	 1.001113379003433e+01
0	 8.857120812436385e+00	 7.142890476327779e+00	 1.001101901664598e+01
0	 8.999982169218280e+00	 5.714291269874074e+00	 1.001331616481758e+01
0	 8.999982169218283e+00	 5.857150240517928e+00	 1.001259135536734e+01
0	 8.999982169218281e+00	 6.000009511162684e+00	 1.001204671385388e+01
0	 8.999982169218281e+00	 6.142869048474792e+00	 1.001164840895816e+01
0	 8.999982169218280e+00	 6.285728819120711e+00	 1.001136260936790e+01
0	 8.999982169218281e+00	 6.428588789766900e+00	 1.001115548377745e+01
0	 8.999982169218280e+00	 6.571448927079809e+00	 1.001099320088792e+01
0	 8.999982169218280e+00	 6.714309197725894e+00	 1.001084192940710e+01
0	 8.999982169218283e+00	 6.857169568371617e+00	 1.001066783804944e+01
0	 8.999982169218281e+00	 7.000030005683427e+00	 1.001043709553611e+01
0	 8.999982169218280e+00	 7.142890476327776e+00	 1.001011587059499e+01
0	 9.142843342671597e+00	 5.714291269874074e+00	 1.001033540585893e+01
0	 9.142843342671599e+00	 5.857150240517928e+00	 1.001024708634329e+01
0	 9.142843342671602e+00	 6.000009511162683e+00	 1.001024792230694e+01
0	 9.142843342671600e+00	 6.142869048474794e+00	 1.001030198529223e+01
0	 9.142843342671597e+00	 6.285728819120711e+00	 1.001037334670288e+01
0	 9.142843342671599e+00	 6.428588789766900e+00	 1.001042607780402e+01
0	 9.142843342671602e+00	 6.571448927079810e+00	 1.001042424972214e+01
0	 9.142843342671599e+00	 6.714309197725896e+00	 1.001033193344514e+01
0	 9.142843342671600e+00	 6.857169568371616e+00	 1.001011319982228e+01
0	 9.142843342671600e+00	 7.000030005683425e+00	 1.000973211956423e+01
0	 9.142843342671599e+00	 7.142890476327778e+00	 1.000915276324302e+01
0	 9.285704216126852e+00	 5.714291269874074e+00	 1.000778799809013e+01
0	 9.285704216126852e+00	 5.857150240517927e+00	 1.000828439790039e+01
0	 9.285704216126852e+00	 6.000009511162681e+00	 1.000876510180914e+01
0	 9.285704216126854e+00	 6.142869048474792e+00	 1.000919706621249e+01
0	 9.285704216126851e+00	 6.285728819120711e+00	 1.000954724723602e+01
0	 9.285704216126851e+00	 6.428588789766899e+00	 1.000978260073477e+01
0	 9.285704216126851e+00	 6.571448927079808e+00	 1.000987008229320e+01
0	 9.285704216126849e+00	 6.714309197725896e+00	 1.000977664722527e+01
0	 9.285704216126852e+00	 6.857169568371616e+00	 1.000946925057438e+01
0	 9.285704216126851e+00	 7.000030005683424e+00	 1.000891484711341e+01
0	 9.285704216126852e+00	 7.142890476327779e+00	 1.000808039134470e+01
0	 9.428564672914550e+00	 5.714291269874074e+00	 1.000578189006705e+01
0	 9.428564672914550e+00	 5.857150240517927e+00	 1.000672507612349e+01
0	 9.428564672914547e+00	 6.000009511162681e+00	 1.000754952884444e+01
0	 9.428564672914549e+00	 6.142869048474791e+00	 1.000823007137429e+01
0	 9.428564672914550e+00	 6.285728819120711e+00	 1.000874152649019e+01
0	 9.428564672914549e+00	 6.428588789766899e+00	 1.000905871660217e+01
0	 9.428564672914552e+00	 6.571448927079810e+00	 1.000915646375306e+01
0	 9.428564672914547e+00	 6.714309197725897e+00	 1.000900958961854e+01
0	 9.428564672914550e+00	 6.857169568371617e+00	 1.000859291550713e+01
0	 9.428564672914547e+00	 7.000030005683427e+00	 1.000788126236017e+01
0	 9.428564672914549e+00	 7.142890476327777e+00	 1.000684945075188e+01
0	 9.571424596365199e+00	 5.714291269874074e+00	 1.000442503098702e+01
0	 9.571424596365203e+00	 5.857150240517928e+00	 1.000559090780756e+01
0	 9.571424596365199e+00	 6.000009511162681e+00	 1.000655248056093e+01
0	 9.571424596365201e+00	 6.142869048474791e+00	 1.000729742096070e+01
0	 9.571424596365201e+00	 6.285728819120712e+00	 1.000781340031382e+01
0	 9.571424596365201e+00	 6.428588789766899e+00	 1.000808808952070e+01
0	 9.571424596365199e+00	 6.571448927079808e+00	 1.000810915907508e+01
0	 9.571424596365201e+00	 6.714309197725895e+00	 1.000786427906422e+01
0	 9.571424596365203e+00	 6.857169568371617e+00	 1.000734111916874e+01
0	 9.571424596365205e+00	 7.000030005683429e+00	 1.000652734866272e+01
0	 9.571424596365203e+00	 7.142890476327779e+00	 1.000541063641366e+01
0	 9.714283869809320e+00	 5.714291269874073e+00	 1.000382537068890e+01
0	 9.714283869809318e+00	 5.857150240517929e+00	 1.000490368045763e+01
0	 9.714283869809320e+00	 6.000009511162683e+00	 1.000572523477064e+01
0	 9.714283869809321e+00	 6.142869048474792e+00	 1.000629553568250e+01
0	 9.714283869809321e+00	 6.285728819120712e+00	 1.000662008488093e+01
0	 9.714283869809321e+00	 6.428588789766899e+00	 1.000670438368680e+01
0	 9.714283869809320e+00	 6.571448927079810e+00	 1.000655393305405e+01
0	 9.714283869809323e+00	 6.714309197725897e+00	 1.000617423356981e+01
0	 9.714283869809320e+00	 6.857169568371615e+00	 1.000557078545432e+01
0	 9.714283869809321e+00	 7.000030005683427e+00	 1.000474908856098e+01
0	 9.714283869809321e+00	 7.142890476327778e+00	 1.000371464237633e+01
0	 9.857142376577416e+00	 5.714291269874074e+00	 1.000409085965304e+01
0	 9.857142376577418e+00	 5.857150240517927e+00	 1.000468518228892e+01
0	 9.857142376577416e+00	 6.000009511162682e+00	 1.000501906994974e+01
0	 9.857142376577416e+00	 6.142869048474791e+00	 1.000512083677827e+01
0	 9.857142376577416e+00	 6.285728819120711e+00	 1.000501879669116e+01
0	 9.857142376577418e+00	 6.428588789766900e+00	 1.000474126337898e+01
0	 9.857142376577416e+00	 6.571448927079808e+00	 1.000431655030615e+01
0	 9.857142376577418e+00	 6.714309197725896e+00	 1.000377297071100e+01
0	 9.857142376577416e+00	 6.857169568371617e+00	 1.000313883760576e+01
0	 9.857142376577418e+00	 7.000030005683426e+00	 1.000244246377653e+01
0	 9.857142376577414e+00	 7.142890476327778e+00	 1.000171216178332e+01
0	 1.000000000000000e+01	 5.714291269874075e+00	 1.000532944900145e+01
0	 1.000000000000000e+01	 5.857150240517928e+00	 1.000495720222690e+01
0	 1.000000000000000e+01	 6.000009511162681e+00	 1.000438526523861e+01
0	 1.000000000000000e+01	 6.142869048474791e+00	 1.000366974601442e+01
0	 9.999999999999998e+00	 6.285728819120711e+00	 1.000286675256979e+01
0	 1.000000000000000e+01	 6.428588789766900e+00	 1.000203239295777e+01
0	 1.000000000000000e+01	 6.571448927079809e+00	 1.000122277526899e+01
0	 1.000000000000000e+01	 6.714309197725897e+00	 1.000049400763172e+01
0	 1.000000000000000e+01	 6.857169568371615e+00	 9.999902198211760e+00
0	 1.000000000000000e+01	 7.000030005683427e+00	 9.999503455212585e+00
0	 1.000000000000000e+01	 7.142890476327777e+00	 9.999353886875204e+00
0	 8.571398015564816e+00	 7.142890476327779e+00	 1.001284263331277e+01
0	 8.571398015564816e+00	 7.285740955271013e+00	 1.001280963577238e+01
0	 8.571398015564816e+00	 7.428591450879008e+00	 1.001262342959704e+01
0	 8.571398015564814e+00	 7.571441979817510e+00	 1.001227698549199e+01
0	 8.571398015564814e+00	 7.714292558752279e+00	 1.001176327427724e+01
0	 8.571398015564814e+00	 7.857143204349073e+00	 1.001107526688765e+01
0	 8.571398015564816e+00	 7.999993933273642e+00	 1.001020593437291e+01
0	 8.571398015564817e+00	 8.142844762191748e+00	 1.000914824789743e+01
0	 8.571398015564816e+00	 8.285695707769140e+00	 1.000789517874053e+01
0	 8.571398015564817e+00	 8.428546786671578e+00	 1.000643969829629e+01
0	 8.571398015564816e+00	 8.571398015564816e+00	 1.000477477807356e+01
0	 8.714259388995398e+00	 7.142890476327777e+00	 1.001191150373861e+01
0	 8.714259388995400e+00	 7.285740955271015e+00	 1.001186880144169e+01
0	 8.714259388995400e+00	 7.428591450879006e+00	 1.001164365183278e+01
0	 8.714259388995401e+00	 7.571441979817512e+00	 1.001124247105674e+01
0	 8.714259388995396e+00	 7.714292558752279e+00	 1.001067167535385e+01
0	 8.714259388995401e+00	 7.857143204349073e+00	 1.000993768105979e+01
0	 8.714259388995400e+00	 7.999993933273644e+00	 1.000904690460560e+01
0	 8.714259388995400e+00	 8.142844762191748e+00	 1.000800576251784e+01
0	 8.714259388995401e+00	 8.285695707769142e+00	 1.000682067141833e+01
0	 8.714259388995401e+00	 8.428546786671578e+00	 1.000549804802439e+01
0	 8.714259388995400e+00	 8.571398015564816e+00	 1.000404430914870e+01
0	 8.857120812436385e+00	 7.142890476327779e+00	 1.001101901664598e+01
0	 8.857120812436385e+00	 7.285740955271013e+00	 1.001082007930589e+01
0	 8.857120812436387e+00	 7.428591450879007e+00	 1.001045344876238e+01
0	 8.857120812436385e+00	 7.571441979817511e+00	 1.000993486319145e+01
0	 8.857120812436387e+00	 7.714292558752279e+00	 1.000928006082639e+01
0	 8.857120812436385e+00	 7.857143204349073e+00	 1.000850477995784e+01
0	 8.857120812436388e+00	 7.999993933273646e+00	 1.000762475893374e+01
0	 8.857120812436381e+00	 8.142844762191746e+00	 1.000665573615939e+01
0	 8.857120812436387e+00	 8.285695707769140e+00	 1.000561345009736e+01
0	 8.857120812436385e+00	 8.428546786671575e+00	 1.000451363926761e+01
0	 8.857120812436383e+00	 8.571398015564814e+00	 1.000337204224733e+01
0	 8.999982169218280e+00	 7.142890476327776e+00	 1.001011587059500e+01
0	 8.999982169218283e+00	 7.285740955271016e+00	 1.000967085516655e+01
0	 8.999982169218278e+00	 7.428591450879007e+00	 1.000910520035603e+01
0	 8.999982169218283e+00	 7.571441979817514e+00	 1.000843984297454e+01
0	 8.999982169218283e+00	 7.714292558752282e+00	 1.000769571984191e+01
0	 8.999982169218280e+00	 7.857143204349074e+00	 1.000689376778672e+01
0	 8.999982169218281e+00	 7.999993933273644e+00	 1.000605492364634e+01
0	 8.999982169218280e+00	 8.142844762191750e+00	 1.000520012426685e+01
0	 8.999982169218280e+00	 8.285695707769138e+00	 1.000435030650308e+01
0	 8.999982169218280e+00	 8.428546786671577e+00	 1.000352640721863e+01
0	 8.999982169218283e+00	 8.571398015564817e+00	 1.000274936328585e+01
0	 9.142843342671599e+00	 7.142890476327778e+00	 1.000915276324303e+01
0	 9.142843342671602e+00	 7.285740955271013e+00	 1.000842851393560e+01
0	 9.142843342671600e+00	 7.428591450879005e+00	 1.000765128579219e+01
0	 9.142843342671602e+00	 7.571441979817513e+00	 1.000684309085531e+01
0	 9.142843342671599e+00	 7.714292558752279e+00	 1.000602594112531e+01
0	 9.142843342671600e+00	 7.857143204349073e+00	 1.000522184856041e+01
0	 9.142843342671599e+00	 7.999993933273642e+00	 1.000445282507675e+01
0	 9.142843342671600e+00	 8.142844762191748e+00	 1.000374088254828e+01
0	 9.142843342671599e+00	 8.285695707769140e+00	 1.000310803280684e+01
0	 9.142843342671599e+00	 8.428546786671575e+00	 1.000257628764217e+01
0	 9.142843342671600e+00	 8.571398015564816e+00	 1.000216765880187e+01
0	 9.285704216126852e+00	 7.142890476327779e+00	 1.000808039134470e+01
0	 9.285704216126854e+00	 7.285740955271016e+00	 1.000710043963533e+01
0	 9.285704216126852e+00	 7.428591450879007e+00	 1.000614408345765e+01
0	 9.285704216126852e+00	 7.571441979817512e+00	 1.000523028665394e+01
0	 9.285704216126854e+00	 7.714292558752281e+00	 1.000437801297938e+01
0	 9.285704216126851e+00	 7.857143204349073e+00	 1.000360622610196e+01
0	 9.285704216126854e+00	 7.999993933273644e+00	 1.000293388960259e+01
0	 9.285704216126852e+00	 8.142844762191750e+00	 1.000237996697505e+01
0	 9.285704216126852e+00	 8.285695707769140e+00	 1.000196342162598e+01
0	 9.285704216126851e+00	 8.428546786671577e+00	 1.000170321687487e+01
0	 9.285704216126851e+00	 8.571398015564816e+00	 1.000161831595413e+01
0	 9.428564672914549e+00	 7.142890476327777e+00	 1.000684945075188e+01
0	 9.428564672914549e+00	 7.285740955271014e+00	 1.000569401539839e+01
0	 9.428564672914550e+00	 7.428591450879009e+00	 1.000463597094749e+01
0	 9.428564672914549e+00	 7.571441979817511e+00	 1.000368710956151e+01
0	 9.428564672914545e+00	 7.714292558752278e+00	 1.000285922328477e+01
0	 9.428564672914547e+00	 7.857143204349073e+00	 1.000216410404349e+01
0	 9.428564672914549e+00	 7.999993933273645e+00	 1.000161354364583e+01
0	 9.428564672914549e+00	 8.142844762191746e+00	 1.000121933378190e+01
0	 9.428564672914549e+00	 8.285695707769143e+00	 1.000099326602377e+01
0	 9.428564672914547e+00	 8.428546786671577e+00	 1.000094713182536e+01
0	 9.428564672914549e+00	 8.571398015564816e+00	 1.000109272252263e+01
0	 9.571424596365203e+00	 7.142890476327779e+00	 1.000541063641366e+01
0	 9.571424596365198e+00	 7.285740955271014e+00	 1.000421662346779e+01
0	 9.571424596365199e+00	 7.428591450879007e+00	 1.000317932506508e+01
0	 9.571424596365201e+00	 7.571441979817511e+00	 1.000229923813993e+01
0	 9.571424596365199e+00	 7.714292558752280e+00	 1.000157685950001e+01
0	 9.571424596365203e+00	 7.857143204349074e+00	 1.000101268582621e+01
0	 9.571424596365199e+00	 7.999993933273644e+00	 1.000060721367271e+01
0	 9.571424596365201e+00	 8.142844762191748e+00	 1.000036093946690e+01
0	 9.571424596365201e+00	 8.285695707769140e+00	 1.000027435950945e+01
0	 9.571424596365203e+00	 8.428546786671578e+00	 1.000034796997428e+01
0	 9.571424596365201e+00	 8.571398015564814e+00	 1.000058226690852e+01
0	 9.714283869809321e+00	 7.142890476327778e+00	 1.000371464237633e+01
0	 9.714283869809321e+00	 7.285740955271014e+00	 1.000267564519684e+01
0	 9.714283869809321e+00	 7.428591450879006e+00	 1.000182652182208e+01
0	 9.714283869809320e+00	 7.571441979817510e+00	 1.000115235032198e+01
0	 9.714283869809321e+00	 7.714292558752279e+00	 1.000063820866144e+01
0	 9.714283869809320e+00	 7.857143204349073e+00	 1.000026917470041e+01
0	 9.714283869809320e+00	 7.999993933273643e+00	 1.000003032619376e+01
0	 9.714283869809321e+00	 8.142844762191748e+00	 9.999906740791427e+00
0	 9.714283869809320e+00	 8.285695707769140e+00	 9.999883496038295e+00
0	 9.714283869809321e+00	 8.428546786671578e+00	 9.999945669374267e+00
0	 9.714283869809321e+00	 8.571398015564816e+00	 1.000007833813423e+01
0	 9.857142376577414e+00	 7.142890476327778e+00	 1.000171216178332e+01
0	 9.857142376577416e+00	 7.285740955271015e+00	 1.000107846104909e+01
0	 9.857142376577416e+00	 7.428591450879007e+00	 1.000062993643835e+01
0	 9.857142376577416e+00	 7.571441979817511e+00	 1.000033212341124e+01
0	 9.857142376577418e+00	 7.714292558752279e+00	 1.000015055738330e+01
0	 9.857142376577416e+00	 7.857143204349073e+00	 1.000005077372543e+01
0	 9.857142376577416e+00	 7.999993933273645e+00	 9.999998307763899e+00
0	 9.857142376577416e+00	 8.142844762191748e+00	 9.999958694780258e+00
0	 9.857142376577418e+00	 8.285695707769142e+00	 9.999897470011534e+00
0	 9.857142376577420e+00	 8.428546786671578e+00	 9.999780168650020e+00
0	 9.857142376577418e+00	 8.571398015564816e+00	 9.999572325843445e+00
0	 1.000000000000000e+01	 7.142890476327777e+00	 9.999353886875205e+00
0	 1.000000000000000e+01	 7.285740955271013e+00	 9.999432450598361e+00
0	 1.000000000000000e+01	 7.428591450879007e+00	 9.999641943341929e+00
0	 1.000000000000000e+01	 7.571441979817512e+00	 9.999924234082084e+00
0	 1.000000000000000e+01	 7.714292558752281e+00	 1.000022119185758e+01
0	 1.000000000000000e+01	 7.857143204349074e+00	 1.000047468576972e+01
0	 1.000000000000000e+01	 7.999993933273645e+00	 1.000062658498226e+01
0	 1.000000000000000e+01	 8.142844762191748e+00	 1.000061875872158e+01
0	 9.999999999999998e+00	 8.285695707769140e+00	 1.000039307627647e+01
0	 1.000000000000000e+01	 8.428546786671577e+00	 9.999891406998355e+00
0	 1.000000000000000e+01	 8.571398015564816e+00	 9.999055620301169e+00
0	 8.571398015564816e+00	 8.571398015564816e+00	 1.000477477807356e+01
0	 8.571398015564817e+00	 8.714259388995400e+00	 1.000316756384612e+01
0	 8.571398015564814e+00	 8.857120812436385e+00	 1.000188094130957e+01
0	 8.571398015564817e+00	 8.999982169218281e+00	 1.000090112122831e+01
0	 8.571398015564816e+00	 9.142843342671600e+00	 1.000021431626225e+01
0	 8.571398015564816e+00	 9.285704216126851e+00	 9.999806740966756e+00
0	 8.571398015564816e+00	 9.428564672914549e+00	 9.999664611792726e+00
0	 8.571398015564816e+00	 9.571424596365201e+00	 9.999774147086569e+00
0	 8.571398015564816e+00	 9.714283869809321e+00	 1.000012156709031e+01
0	 8.571398015564816e+00	 9.857142376577418e+00	 1.000069309394170e+01
0	 8.571398015564816e+00	 1.000000000000000e+01	 1.000147495167425e+01
0	 8.714259388995400e+00	 8.571398015564816e+00	 1.000404430914870e+01
0	 8.714259388995400e+00	 8.714259388995400e+00	 1.000268780528327e+01
0	 8.714259388995398e+00	 8.857120812436383e+00	 1.000163459420759e+01
0	 8.714259388995401e+00	 8.999982169218281e+00	 1.000085733629052e+01
0	 8.714259388995398e+00	 9.142843342671599e+00	 1.000032869346422e+01
0	 8.714259388995398e+00	 9.285704216126852e+00	 1.000002132922401e+01
0	 8.714259388995400e+00	 9.428564672914550e+00	 9.999907908628575e+00
0	 8.714259388995400e+00	 9.571424596365201e+00	 9.999961098299799e+00
0	 8.714259388995401e+00	 9.714283869809321e+00	 1.000015356642296e+01
0	 8.714259388995400e+00	 9.857142376577416e+00	 1.000045798274668e+01
0	 8.714259388995400e+00	 1.000000000000000e+01	 1.000084701858318e+01
0	 8.857120812436383e+00	 8.571398015564814e+00	 1.000337204224733e+01
0	 8.857120812436383e+00	 8.714259388995400e+00	 1.000235006487761e+01
0	 8.857120812436387e+00	 8.857120812436390e+00	 1.000157519232962e+01
0	 8.857120812436383e+00	 8.999982169218278e+00	 1.000101204001822e+01
0	 8.857120812436385e+00	 9.142843342671600e+00	 1.000062522446882e+01
0	 8.857120812436385e+00	 9.285704216126854e+00	 1.000037936331730e+01
0	 8.857120812436383e+00	 9.428564672914549e+00	 1.000023907531005e+01
0	 8.857120812436385e+00	 9.571424596365203e+00	 1.000016898030401e+01
0	 8.857120812436388e+00	 9.714283869809323e+00	 1.000013369926668e+01
0	 8.857120812436381e+00	 9.857142376577416e+00	 1.000009785427610e+01
0	 8.857120812436385e+00	 1.000000000000000e+01	 1.000002606852111e+01
0	 8.999982169218283e+00	 8.571398015564817e+00	 1.000274936328585e+01
0	 8.999982169218283e+00	 8.714259388995398e+00	 1.000209848201419e+01
0	 8.999982169218280e+00	 8.857120812436383e+00	 1.000161393422824e+01
0	 8.999982169218283e+00	 8.999982169218281e+00	 1.000125779573347e+01
0	 8.999982169218281e+00	 9.142843342671600e+00	 1.000099214294273e+01
0	 8.999982169218281e+00	 9.285704216126854e+00	 1.000077905287619e+01
0	 8.999982169218283e+00	 9.428564672914550e+00	 1.000058060316139e+01
0	 8.999982169218280e+00	 9.571424596365203e+00	 1.000035887203323e+01
0	 8.999982169218281e+00	 9.714283869809321e+00	 1.000007593833395e+01
0	 8.999982169218280e+00	 9.857142376577416e+00	 9.999693881513217e+00
0	 8.999982169218280e+00	 1.000000000000000e+01	 9.999174781628113e+00
0	 9.142843342671600e+00	 8.571398015564816e+00	 1.000216765880187e+01
0	 9.142843342671599e+00	 8.714259388995401e+00	 1.000187719665925e+01
0	 9.142843342671599e+00	 8.857120812436385e+00	 1.000166201892724e+01
0	 9.142843342671600e+00	 8.999982169218281e+00	 1.000148716707652e+01
0	 9.142843342671597e+00	 9.142843342671599e+00	 1.000131768270164e+01
0	 9.142843342671599e+00	 9.285704216126852e+00	 1.000111860752108e+01
0	 9.142843342671600e+00	 9.428564672914552e+00	 1.000085498337720e+01
0	 9.142843342671599e+00	 9.571424596365203e+00	 1.000049185223618e+01
0	 9.142843342671599e+00	 9.714283869809320e+00	 9.999994256188110e+00
0	 9.142843342671600e+00	 9.857142376577421e+00	 9.999327237447037e+00
0	 9.142843342671599e+00	 9.999999999999998e+00	 9.998455838350726e+00
0	 9.285704216126851e+00	 8.571398015564816e+00	 1.000161831595413e+01
0	 9.285704216126852e+00	 8.714259388995401e+00	 1.000163034936033e+01
0	 9.285704216126851e+00	 8.857120812436383e+00	 1.000163064592172e+01
0	 9.285704216126852e+00	 8.999982169218281e+00	 1.000159271800580e+01
0	 9.285704216126852e+00	 9.142843342671599e+00	 1.000149007771027e+01
0	 9.285704216126854e+00	 9.285704216126854e+00	 1.000129623686306e+01
0	 9.285704216126851e+00	 9.428564672914549e+00	 1.000098470702228e+01
0	 9.285704216126851e+00	 9.571424596365201e+00	 1.000052899947624e+01
0	 9.285704216126849e+00	 9.714283869809320e+00	 9.999902625243442e+00
0	 9.285704216126852e+00	 9.857142376577416e+00	 9.999079095072505e+00
0	 9.285704216126852e+00	 1.000000000000000e+01	 9.998031919442191e+00
0	 9.428564672914549e+00	 8.571398015564816e+00	 1.000109272252263e+01
0	 9.428564672914550e+00	 8.714259388995400e+00	 1.000130208124617e+01
0	 9.428564672914549e+00	 8.857120812436385e+00	 1.000143101517797e+01
0	 9.428564672914549e+00	 8.999982169218283e+00	 1.000146701279795e+01
0	 9.428564672914550e+00	 9.142843342671600e+00	 1.000139756208236e+01
0	 9.428564672914549e+00	 9.285704216126852e+00	 1.000121015050395e+01
0	 9.428564672914552e+00	 9.428564672914550e+00	 1.000089226503187e+01
0	 9.428564672914550e+00	 9.571424596365203e+00	 1.000043139213159e+01
0	 9.428564672914547e+00	 9.714283869809320e+00	 9.999815017765080e+00
0	 9.428564672914550e+00	 9.857142376577418e+00	 9.999030627390507e+00
0	 9.428564672914549e+00	 1.000000000000000e+01	 9.998065705962421e+00
0	 9.571424596365201e+00	 8.571398015564814e+00	 1.000058226690852e+01
0	 9.571424596365201e+00	 8.714259388995400e+00	 1.000083653402681e+01
0	 9.571424596365203e+00	 8.857120812436385e+00	 1.000097432713361e+01
0	 9.571424596365201e+00	 8.999982169218281e+00	 1.000100261604777e+01
0	 9.571424596365199e+00	 9.142843342671599e+00	 1.000092837008066e+01
0	 9.571424596365201e+00	 9.285704216126852e+00	 1.000075855803632e+01
0	 9.571424596365203e+00	 9.428564672914549e+00	 1.000050014821137e+01
0	 9.571424596365203e+00	 9.571424596365203e+00	 1.000016010839501e+01
0	 9.571424596365201e+00	 9.714283869809321e+00	 9.999745405869060e+00
0	 9.571424596365201e+00	 9.857142376577418e+00	 9.999263007407759e+00
0	 9.571424596365201e+00	 1.000000000000000e+01	 9.998719879277960e+00
0	 9.714283869809321e+00	 8.571398015564816e+00	 1.000007833813423e+01
0	 9.714283869809320e+00	 8.714259388995401e+00	 1.000017784999357e+01
0	 9.714283869809320e+00	 8.857120812436383e+00	 1.000017178269753e+01
0	 9.714283869809320e+00	 8.999982169218281e+00	 1.000009209266831e+01
0	 9.714283869809320e+00	 9.142843342671599e+00	 9.999970736116973e+00
0	 9.714283869809320e+00	 9.285704216126852e+00	 9.999839669043467e+00
0	 9.714283869809321e+00	 9.428564672914549e+00	 9.999730847236583e+00
0	 9.714283869809320e+00	 9.571424596365201e+00	 9.999676226274008e+00
0	 9.714283869809321e+00	 9.714283869809321e+00	 9.999707761522297e+00
0	 9.714283869809320e+00	 9.857142376577416e+00	 9.999857408136897e+00
0	 9.714283869809320e+00	 1.000000000000000e+01	 1.000015712106196e+01
0	 9.857142376577418e+00	 8.571398015564816e+00	 9.999572325843447e+00
0	 9.857142376577416e+00	 8.714259388995400e+00	 9.999270172019083e+00
0	 9.857142376577416e+00	 8.857120812436383e+00	 9.998934583249905e+00
0	 9.857142376577418e+00	 8.999982169218281e+00	 9.998628007890819e+00
0	 9.857142376577418e+00	 9.142843342671599e+00	 9.998412894752125e+00
0	 9.857142376577418e+00	 9.285704216126852e+00	 9.998351693099377e+00
0	 9.857142376577418e+00	 9.428564672914550e+00	 9.998506852653492e+00
0	 9.857142376577418e+00	 9.571424596365201e+00	 9.998940823590686e+00
0	 9.857142376577416e+00	 9.714283869809320e+00	 9.999716056542674e+00
0	 9.857142376577416e+00	 9.857142376577416e+00	 1.000089500259637e+01
0	 9.857142376577416e+00	 9.999999999999998e+00	 1.000254011329427e+01
0	 1.000000000000000e+01	 8.571398015564816e+00	 9.999055620301169e+00
0	 1.000000000000000e+01	 8.714259388995400e+00	 9.998057643557372e+00
0	 1.000000000000000e+01	 8.857120812436385e+00	 9.997173930642271e+00
0	 1.000000000000000e+01	 8.999982169218280e+00	 9.996502927264789e+00
0	 9.999999999999998e+00	 9.142843342671599e+00	 9.996143080695992e+00
0	 1.000000000000000e+01	 9.285704216126852e+00	 9.996192839768824e+00
0	 1.000000000000000e+01	 9.428564672914549e+00	 9.996750654878403e+00
0	 1.000000000000000e+01	 9.571424596365201e+00	 9.997914977981932e+00
0	 1.000000000000000e+01	 9.714283869809320e+00	 9.999784262598753e+00
0	 9.999999999999998e+00	 9.857142376577416e+00	 1.000245696381061e+01
0	 1.000000000000000e+01	 1.000000000000000e+01	 1.000603153826140e+01
1	 1.000000000000000e+00	 0.000000000000000e+00	 2.419603408506032e+01
1	 9.997942136041430e-01	 2.028591802679378e-02	 2.356070263031321e+01
1	 9.991701517322812e-01	 4.073043895732996e-02	 2.288902095953735e+01
1	 9.981179738659461e-01	 6.132242709398375e-02	 2.218040323074646e+01
1	 9.966281528999331e-01	 8.205016480108969e-02	 2.143461145715542e+01
1	 9.946915115410935e-01	 1.029013581149163e-01	 2.065177609089358e+01
1	 9.922992591451227e-01	 1.238631447915628e-01	 1.983241526479670e+01
1	 9.894430288203904e-01	 1.449221048859623e-01	 1.897745243563243e+01
1	 9.861149146151664e-01	 1.660642739430359e-01	 1.808823216961275e+01
1	 9.823075085927058e-01	 1.872751588682954e-01	 1.716653381164333e+01
1	 9.780139375877577e-01	 2.085397565298897e-01	 1.621458278371680e+01
1	 1.014285762337685e+00	 0.000000000000000e+00	 2.326999244231625e+01
1	 1.014077036126061e+00	 2.057571783397239e-02	 2.263635665020076e+01
1	 1.013444059054001e+00	 4.131230433435238e-02	 2.196976539391625e+01
1	 1.012376850023818e+00	 6.219846472164651e-02	 2.126971486862772e+01
1	 1.010865745828442e+00	 8.322231396489504e-02	 2.053602622365247e+01
1	 1.008901438070191e+00	 1.043713824717894e-01	 1.976886463026358e+01
1	 1.006475010523806e+00	 1.256326242515389e-01	 1.896875708140082e+01
1	 1.003577976770334e+00	 1.469924276450039e-01	 1.813660868356927e+01
1	 1.000202317915604e+00	 1.684366287042941e-01	 1.727371719902219e+01
1	 9.963405201949547e-01	 1.899505272900958e-01	 1.638178559704670e+01
1	 9.919856122548429e-01	 2.115189059394628e-01	 1.546293237704656e+01
1	 1.028571613012482e+00	 0.000000000000000e+00	 2.239627302451070e+01
1	 1.028359946966947e+00	 2.086551943237181e-02	 2.176470739329082e+01
1	 1.027718054639657e+00	 4.189417330796975e-02	 2.110334618285275e+01
1	 1.026635814352820e+00	 6.307450776443697e-02	 2.041176575330870e+01
1	 1.025103426796637e+00	 8.439447037447290e-02	 1.968984571472989e+01
1	 1.023111452468066e+00	 1.058414159160936e-01	 1.893778653929303e+01
1	 1.020650849560097e+00	 1.274021146504702e-01	 1.815612597460878e+01
1	 1.017713012125696e+00	 1.490627632031908e-01	 1.734575403469525e+01
1	 1.014289808327531e+00	 1.708089981323072e-01	 1.650792634319298e+01
1	 1.010373618572351e+00	 1.926259122523858e-01	 1.564427560427666e+01
1	 1.005957373317689e+00	 2.144980737680448e-01	 1.475682098052747e+01
1	 1.042857540357000e+00	 0.000000000000000e+00	 2.157007864870885e+01
1	 1.042642934461810e+00	 2.115532258538498e-02	 2.094094740165514e+01
1	 1.041992126831531e+00	 4.247604540310704e-02	 2.028495751192906e+01
1	 1.040894855207496e+00	 6.395055550708173e-02	 1.960176371608062e+01
1	 1.039341184176433e+00	 8.556663307275812e-02	 1.889130345352353e+01
1	 1.037321543129217e+00	 1.073114572475230e-01	 1.815381308122267e+01
1	 1.034826764676397e+00	 1.291716145435108e-01	 1.738984295440385e+01
1	 1.031848123342196e+00	 1.511331098699965e-01	 1.660027116521237e+01
1	 1.028377374345500e+00	 1.731813802898896e-01	 1.578631572969713e+01
1	 1.024406792263879e+00	 1.953013115705125e-01	 1.494954501449828e+01
1	 1.019929209365398e+00	 2.174772575828835e-01	 1.409188619838115e+01
1	 1.057143532703853e+00	 0.000000000000000e+00	 2.078687133105070e+01
1	 1.056925986945660e+00	 2.144512705640483e-02	 2.016052897164320e+01
1	 1.056266263971905e+00	 4.305792014468924e-02	 1.951005323207046e+01
1	 1.055153960942393e+00	 6.482660723430732e-02	 1.883517551599378e+01
1	 1.053579006339744e+00	 8.673880110268559e-02	 1.813589050233268e+01
1	 1.051531698448141e+00	 1.087815052657716e-01	 1.741247101874629e+01
1	 1.049002744295102e+00	 1.309411224858152e-01	 1.666548184165883e+01
1	 1.045983298875552e+00	 1.532034659548943e-01	 1.589579222951932e+01
1	 1.042465004464060e+00	 1.755537732398562e-01	 1.510458699475253e+01
1	 1.038440029808523e+00	 1.979767230598238e-01	 1.429337592101284e+01
1	 1.033901108987072e+00	 2.204564549512274e-01	 1.346400133608842e+01
1	 1.071429578385649e+00	 0.000000000000000e+00	 2.004235501053858e+01
1	 1.071209092753505e+00	 2.173493260882433e-02	 1.941914684069965e+01
1	 1.070540454403061e+00	 4.363979705764136e-02	 1.877432955229547e+01
1	 1.069413119912057e+00	 6.570266223084026e-02	 1.810770958174421e+01
1	 1.067816881658486e+00	 8.791097350719018e-02	 1.741933829700407e+01
1	 1.065741906819336e+00	 1.102515587705330e-01	 1.670952558426093e+01
1	 1.063178776838613e+00	 1.327106370325378e-01	 1.597885241747169e+01
1	 1.060118527181483e+00	 1.552738297673575e-01	 1.522818223153659e+01
1	 1.056552687177763e+00	 1.779261750450211e-01	 1.445867091895935e+01
1	 1.052473319745267e+00	 2.006521445356669e-01	 1.367177527116866e+01
1	 1.047873060771812e+00	 2.234356634403244e-01	 1.286925968940050e+01
1	 1.085715665735001e+00	 0.000000000000000e+00	 1.933245963558970e+01
1	 1.085492240220354e+00	 2.202473900603640e-02	 1.871272223986269e+01
1	 1.084814686467279e+00	 4.422167566688838e-02	 1.807370909767901e+01
1	 1.083672320471032e+00	 6.657871978140713e-02	 1.741530011489721e+01
1	 1.082054798504573e+00	 8.908314932920679e-02	 1.673760283535680e+01
1	 1.079952156637299e+00	 1.117216165615015e-01	 1.604096479344087e+01
1	 1.077354850729328e+00	 1.344801567388329e-01	 1.532598490169767e+01
1	 1.074253796715706e+00	 1.573441996168596e-01	 1.459352370771774e+01
1	 1.070640410981159e+00	 1.802985837681990e-01	 1.384471235386551e+01
1	 1.066506650613095e+00	 2.033275738133893e-01	 1.308096007494965e+01
1	 1.061845053308720e+00	 2.264148806174227e-01	 1.230396007264856e+01
1	 1.100001783084519e+00	 0.000000000000000e+00	 1.865332648956871e+01
1	 1.099775417681215e+00	 2.231454601143399e-02	 1.803738818789409e+01
1	 1.099088948506841e+00	 4.480355549735529e-02	 1.740432620852141e+01
1	 1.097931550973866e+00	 6.745477917073454e-02	 1.675409243079267e+01
1	 1.096292745249919e+00	 9.025532761167027e-02	 1.608685009665549e+01
1	 1.094162436296527e+00	 1.131916774383708e-01	 1.540298498011590e+01
1	 1.091530954389646e+00	 1.362496801598548e-01	 1.470311563994293e+01
1	 1.088389095933940e+00	 1.594145738128738e-01	 1.398810260260160e+01
1	 1.084728164368799e+00	 1.826709974722041e-01	 1.325905632211048e+01
1	 1.080540010950993e+00	 2.060030087083387e-01	 1.251734376518475e+01
1	 1.075817075186898e+00	 2.293941040497704e-01	 1.176459347378101e+01
1	 1.114287918766816e+00	 0.000000000000000e+00	 1.800129464420075e+01
1	 1.114058613471097e+00	 2.260435338841005e-02	 1.738947591570300e+01
1	 1.113363228864028e+00	 4.538543607396710e-02	 1.676251336942423e+01
1	 1.112190799775103e+00	 6.833083968354900e-02	 1.612042942614954e+01
1	 1.110530710266440e+00	 9.142750739751551e-02	 1.546344258174345e+01
1	 1.108372734191518e+00	 1.146617402008348e-01	 1.479197744293946e+01
1	 1.105707076241964e+00	 1.380192058507579e-01	 1.410667389065620e+01
1	 1.102524413291903e+00	 1.614849506648735e-01	 1.340839522997009e+01
1	 1.098815935835233e+00	 1.850434142198511e-01	 1.269823518591260e+01
1	 1.094573389297943e+00	 2.086784470358625e-01	 1.197752360611200e+01
1	 1.089789114995448e+00	 2.323733313046157e-01	 1.124783073509521e+01
1	 1.128574061114501e+00	 0.000000000000000e+00	 1.737288844100701e+01
1	 1.128341815925009e+00	 2.289416090035752e-02	 1.676550232099224e+01
1	 1.127637515881123e+00	 4.596731692164878e-02	 1.614478866823514e+01
1	 1.126450055229290e+00	 6.920690060457710e-02	 1.551083907361524e+01
1	 1.124768681926050e+00	 9.259968772967736e-02	 1.486392687461701e+01
1	 1.122583038716770e+00	 1.161318036485876e-01	 1.420451610541338e+01
1	 1.119883204708684e+00	 1.397887323666966e-01	 1.353326961492057e+01
1	 1.116659737245314e+00	 1.635553284823320e-01	 1.285105622349644e+01
1	 1.112903713875012e+00	 1.874158320739545e-01	 1.215895678931299e+01
1	 1.108606774192931e+00	 2.113538866113081e-01	 1.145826905748023e+01
1	 1.103761161323472e+00	 2.353525599492068e-01	 1.075051116885251e+01
1	 1.142860198460186e+00	 0.000000000000000e+00	 1.676480591088244e+01
1	 1.142625013377961e+00	 2.318396831066934e-02	 1.616215836305429e+01
1	 1.141911797900406e+00	 4.654919756532534e-02	 1.554784419482045e+01
1	 1.140709305690971e+00	 7.008296121854536e-02	 1.492202285347469e+01
1	 1.139006648600664e+00	 9.377186765109072e-02	 1.428502213613645e+01
1	 1.136793338266779e+00	 1.176018665813230e-01	 1.363734610067112e+01
1	 1.134059328212202e+00	 1.415582582628251e-01	 1.297968218127899e+01
1	 1.130795056249892e+00	 1.656257055747228e-01	 1.231290739037252e+01
1	 1.126991486982686e+00	 1.897882490973286e-01	 1.163809348904013e+01
1	 1.122640154174940e+00	 2.140293252500230e-01	 1.095651101064557e+01
1	 1.117733202760072e+00	 2.383317875507917e-01	 1.026963202603948e+01
1	 9.780139375877577e-01	 2.085397565298897e-01	 1.621458278371680e+01
1	 9.732282518626567e-01	 2.298410867697774e-01	 1.523062579660366e+01
1	 9.679444735972303e-01	 2.511647027528097e-01	 1.421234875663542e+01
1	 9.621575490304195e-01	 2.724942383587359e-01	 1.316196003617277e+01
1	 9.558630981313170e-01	 2.938129209596946e-01	 1.208204718984547e+01
1	 9.490574463164518e-01	 3.151036037782406e-01	 1.097558021602211e+01
1	 9.417376544619561e-01	 3.363488008802307e-01	 9.845912242023141e+00
1	 9.339015469729997e-01	 3.575307247119079e-01	 8.696777491615441e+00
1	 9.255477376767898e-01	 3.786313260672552e-01	 7.532286414975891e+00
1	 9.166756533117869e-01	 3.996323363483558e-01	 6.356917885858933e+00
1	 9.072855543946887e-01	 4.205153119584039e-01	 5.175508397906938e+00
1	 9.919856122548429e-01	 2.115189059394628e-01	 1.546293237704655e+01
1	 9.871315593611463e-01	 2.331245419199243e-01	 1.451498088839919e+01
1	 9.817722982959256e-01	 2.547527820123112e-01	 1.353524218647097e+01
1	 9.759027031012107e-01	 2.763870262938928e-01	 1.252583638902967e+01
1	 9.695183311739304e-01	 2.980102625270567e-01	 1.148923088352518e+01
1	 9.626154554363000e-01	 3.196050989795959e-01	 1.042824283761823e+01
1	 9.551910947767374e-01	 3.411537999174934e-01	 9.346039335644665e+00
1	 9.472430425202908e-01	 3.626383236782532e-01	 8.246135014876364e+00
1	 9.387698926915390e-01	 3.840403632092170e-01	 7.132387095555890e+00
1	 9.297710638393701e-01	 4.053413889316473e-01	 6.008987721409222e+00
1	 9.202468202020646e-01	 4.265226937679250e-01	 4.880453552474950e+00
1	 1.005957373317689e+00	 2.144980737680448e-01	 1.475682098052747e+01
1	 1.001034952832426e+00	 2.364080173708703e-01	 1.384296916708824e+01
1	 9.956002085003419e-01	 2.583408834563891e-01	 1.289965904356739e+01
1	 9.896479421661309e-01	 2.802798382979371e-01	 1.192892695033809e+01
1	 9.831736486541901e-01	 3.022076300466622e-01	 1.093312655167000e+01
1	 9.761735483921198e-01	 3.241066220140731e-01	 9.914930644078721e+00
1	 9.686446182803863e-01	 3.459588286647269e-01	 8.877330780823883e+00
1	 9.605846205637468e-01	 3.677459542258090e-01	 7.823634600812349e+00
1	 9.519921294640535e-01	 3.894494337964183e-01	 6.757460768832078e+00
1	 9.428665553405939e-01	 4.110504768153739e-01	 5.682731455062144e+00
1	 9.332081661532802e-01	 4.325301127226065e-01	 4.603662304983667e+00
1	 1.019929209365398e+00	 2.174772575828835e-01	 1.409188619838115e+01
1	 1.014938420921470e+00	 2.396915104413310e-01	 1.321033769279782e+01
1	 1.009428192917151e+00	 2.619290041549622e-01	 1.230147073970792e+01
1	 1.003393254999425e+00	 2.841726711919193e-01	 1.136724234048039e+01
1	 9.968290394198431e-01	 3.064050200908186e-01	 1.040989877860365e+01
1	 9.897317141111275e-01	 3.286081692055633e-01	 9.431976772879937e+00
1	 9.820982139855879e-01	 3.507638831979374e-01	 8.436302625316248e+00
1	 9.739262702075439e-01	 3.728536121834381e-01	 7.425989265464267e+00
1	 9.652144371960356e-01	 3.948585334115306e-01	 6.404431110269299e+00
1	 9.559621171207264e-01	 4.167595953371833e-01	 5.375296677902177e+00
1	 9.461695816632008e-01	 4.385375639164554e-01	 4.342518915392254e+00
1	 1.033901108987072e+00	 2.204564549512274e-01	 1.346400133608842e+01
1	 1.028841952273254e+00	 2.429750184500217e-01	 1.261306331175146e+01
1	 1.023256240253020e+00	 2.655171411779492e-01	 1.173677175261822e+01
1	 1.017138630375336e+00	 2.880655217968899e-01	 1.083700872273858e+01
1	 1.010484492318634e+00	 3.106024292318331e-01	 9.915919371117727e+00
1	 1.003289941520539e+00	 3.331097368779573e-01	 8.975912475132608e+00
1	 9.955518709050284e-01	 3.555689595931317e-01	 8.019659145829648e+00
1	 9.872679805558595e-01	 3.779612933800034e-01	 7.050089609474266e+00
1	 9.784368050891872e-01	 4.002676576372252e-01	 6.070387995754478e+00
1	 9.690577384850337e-01	 4.224687398347229e-01	 5.083985080950139e+00
1	 9.591310561466906e-01	 4.445450424434799e-01	 4.094548954003057e+00
1	 1.047873060771812e+00	 2.234356634403244e-01	 1.286925968940051e+01
1	 1.042745535532752e+00	 2.462585387156576e-01	 1.204733733930252e+01
1	 1.037084339214621e+00	 2.691052915952691e-01	 1.120186475665707e+01
1	 1.030884057068108e+00	 2.919583869338995e-01	 1.033465343513966e+01
1	 1.024139996198312e+00	 3.147998540420133e-01	 9.447753544602636e+00
1	 1.016848219547572e+00	 3.376113213551462e-01	 8.543453908533388e+00
1	 1.009005578051392e+00	 3.603740539263159e-01	 7.624280299498110e+00
1	 1.000609740712870e+00	 3.830689936443673e-01	 6.692991978706803e+00
1	 9.916592223452112e-01	 4.056768020561739e-01	 5.752576420671453e+00
1	 9.821534087387838e-01	 4.281779056456405e-01	 4.806242180435275e+00
1	 9.720925790186141e-01	 4.505525433976866e-01	 3.857409878865412e+00
1	 1.061845053308720e+00	 2.264148806174227e-01	 1.230396007264856e+01
1	 1.056649159344938e+00	 2.495420685569542e-01	 1.150955145118485e+01
1	 1.050912478508621e+00	 2.726934524768401e-01	 1.069324692641275e+01
1	 1.044629523851985e+00	 2.958512634239984e-01	 9.856791755674388e+00
1	 1.037795539906621e+00	 3.189972910936670e-01	 9.002147198829920e+00
1	 1.030406537119441e+00	 3.421129189610210e-01	 8.131489972101365e+00
1	 1.022459324437366e+00	 3.651791622734971e-01	 7.247210165195106e+00
1	 1.013951539782750e+00	 3.881767088053925e-01	 6.351907558770945e+00
1	 1.004881678165811e+00	 4.110859622510484e-01	 5.448386293049682e+00
1	 9.952491171872442e-01	 4.338870881075838e-01	 4.539647853547462e+00
1	 9.850541396938364e-01	 4.565600618730836e-01	 3.628882356442331e+00
1	 1.075817075186898e+00	 2.293941040497704e-01	 1.176459347378100e+01
1	 1.070552812354785e+00	 2.528256052926267e-01	 1.099628467323359e+01
1	 1.064740646841691e+00	 2.762816208925815e-01	 1.020759730666559e+01
1	 1.058375019501212e+00	 2.997441480882371e-01	 9.400214697941594e+00
1	 1.051451112291307e+00	 3.231947369591011e-01	 8.576015184408616e+00
1	 1.043964883163363e+00	 3.466145260194731e-01	 7.737071088070142e+00
1	 1.035913099075635e+00	 3.699842807106812e-01	 6.885646284775841e+00
1	 1.027293366869678e+00	 3.932844346919420e-01	 6.024192318614592e+00
1	 1.018104161752687e+00	 4.164951338045200e-01	 5.155343021391745e+00
1	 1.008344853135681e+00	 4.395962825582002e-01	 4.281907611050680e+00
1	 9.980157275872219e-01	 4.625675929636779e-01	 3.406862258027674e+00
1	 1.089789114995448e+00	 2.323733313046157e-01	 1.124783073509521e+01
1	 1.084456483207269e+00	 2.561091462413904e-01	 1.050429137107640e+01
1	 1.078568832920501e+00	 2.798697939124116e-01	 9.741765153095416e+00
1	 1.072120532790033e+00	 3.036370377476662e-01	 8.961877744819581e+00
1	 1.065106702200117e+00	 3.273921882106234e-01	 8.166430471082114e+00
1	 1.057523246606553e+00	 3.511161388543931e-01	 7.357398846003608e+00
1	 1.049366890978884e+00	 3.747894053138751e-01	 6.536929823551671e+00
1	 1.040635211077830e+00	 3.983921671328784e-01	 5.707337727054085e+00
1	 1.031326662307544e+00	 4.219043122992608e-01	 4.871098825920470e+00
1	 1.021440605889363e+00	 4.453054843351376e-01	 4.030844540683926e+00
1	 1.010977332113635e+00	 4.685751317634770e-01	 3.189353271318273e+00
1	 1.103761161323472e+00	 2.353525599492068e-01	 1.075051116885251e+01
1	 1.098360160547363e+00	 2.593926887219608e-01	 1.003049015126186e+01
1	 1.092397025451718e+00	 2.834579686062492e-01	 9.292759157788122e+00
1	 1.085866052492690e+00	 3.075299292233358e-01	 8.538890437115279e+00
1	 1.078762298480797e+00	 3.315896414205411e-01	 7.770614138019866e+00
1	 1.071081616376229e+00	 3.556177537896724e-01	 6.989816432797773e+00
1	 1.062820689159799e+00	 3.795945321590852e-01	 6.198536477465442e+00
1	 1.053977061511382e+00	 4.034999019570644e-01	 5.398962173806666e+00
1	 1.044549169032083e+00	 4.273134933179419e-01	 4.593424709196684e+00
1	 1.034536364753556e+00	 4.510146887760432e-01	 3.784391861959615e+00
1	 1.023938942687942e+00	 4.745826733664884e-01	 2.974460072678325e+00
1	 1.117733202760072e+00	 2.383317875507917e-01	 1.026963202603948e+01
1	 1.112263833020041e+00	 2.626762300530532e-01	 9.571953594137494e+00
1	 1.106225213142014e+00	 2.870461420440131e-01	 8.857737482183108e+00
1	 1.099611567383429e+00	 3.114228193362967e-01	 8.128506742440248e+00
1	 1.092417889981094e+00	 3.357870931611621e-01	 7.385926114237166e+00
1	 1.084639981399607e+00	 3.601193671492018e-01	 6.631799779858794e+00
1	 1.076274482631064e+00	 3.843996573223178e-01	 5.868068061682953e+00
1	 1.067318907274511e+00	 4.086076349933625e-01	 5.096803033430732e+00
1	 1.057771671128008e+00	 4.327226724432351e-01	 4.320203028459308e+00
1	 1.047632119033529e+00	 4.567238912185653e-01	 3.540586038905744e+00
1	 1.036900548725005e+00	 4.805902128667193e-01	 2.760382011073955e+00
1	 9.072855543946887e-01	 4.205153119584039e-01	 5.175508397906935e+00
1	 8.973778426309759e-01	 4.412631267957646e-01	 3.991165142527982e+00
1	 8.869551416254857e-01	 4.618556531118257e-01	 2.806275695640630e+00
1	 8.760203156838144e-01	 4.822741974000463e-01	 1.624669077803509e+00
1	 8.645771165329884e-01	 5.025000860247010e-01	 4.502440128498946e-01
1	 8.526301882742356e-01	 5.225147171506273e-01	-7.130447586999713e-01
1	 8.401850687269298e-01	 5.422996134099225e-01	-1.861200830447569e+00
1	 8.272481870752481e-01	 5.618364750149920e-01	-2.990201054831827e+00
1	 8.138268577557128e-01	 5.811072330167580e-01	-4.096010943150205e+00
1	 7.999292705517563e-01	 6.000941023989975e-01	-5.174600434973618e+00
1	 7.855644768903997e-01	 6.187796346948449e-01	-6.221959924822429e+00
1	 9.202468202020646e-01	 4.265226937679250e-01	 4.880453552474948e+00
1	 9.101975692236983e-01	 4.475669069570152e-01	 3.748892107047120e+00
1	 8.996259719893256e-01	 4.684536132100533e-01	 2.615796203378844e+00
1	 8.885349337233767e-01	 4.891638519694764e-01	 1.484813776311052e+00
1	 8.769282597492056e-01	 5.096786828324061e-01	 3.596557200613975e-01
1	 8.648106605126151e-01	 5.299792382222528e-01	-7.559172734631865e-01
1	 8.521877529449992e-01	 5.500467768077960e-01	-1.858108478086963e+00
1	 8.390660580763807e-01	 5.698627373749913e-01	-2.943099410516095e+00
1	 8.254529948356356e-01	 5.894087928460177e-01	-4.007064525668804e+00
1	 8.113568700035452e-01	 6.086669041321033e-01	-5.046186228039884e+00
1	 7.967868643137184e-01	 6.276193735016999e-01	-6.056670091440343e+00
1	 9.332081661532802e-01	 4.325301127226065e-01	 4.603662304983667e+00
1	 9.230173750848367e-01	 4.538707260961631e-01	 3.521447000119072e+00
1	 9.122968807007574e-01	 4.750516141051551e-01	 2.436761698551956e+00
1	 9.010496291445451e-01	 4.960535491393559e-01	 1.353081619557241e+00
1	 8.892794793361982e-01	 5.168573240270957e-01	 2.739386635011176e-01
1	 8.769912080664878e-01	 5.374438054487242e-01	-7.970912433925474e-01
1	 8.641905113793015e-01	 5.577939881080805e-01	-1.856401347448914e+00
1	 8.508840021510615e-01	 5.778890493630670e-01	-2.900367723400131e+00
1	 8.370792038036242e-01	 5.977104040055304e-01	-3.925363295122604e+00
1	 8.227845401158297e-01	 6.172397588725924e-01	-4.927772122762203e+00
1	 8.080093211286548e-01	 6.364591669664901e-01	-5.904003852900398e+00
1	 9.461695816632008e-01	 4.385375639164554e-01	 4.342518915392255e+00
1	 9.358372497448788e-01	 4.601745790651598e-01	 3.306457985572277e+00
1	 9.249678574118883e-01	 4.816496504088444e-01	 2.267046267006326e+00
1	 9.135643917270120e-01	 5.029432832831962e-01	 1.227594570839261e+00
1	 9.016307652071653e-01	 5.240360037463283e-01	 1.914645603868244e-01
1	 8.891718209884329e-01	 5.449084127341139e-01	-8.379434160590407e-01
1	 8.761933342276051e-01	 5.655412409840438e-01	-1.857202980858144e+00
1	 8.627020096479817e-01	 5.859154044245705e-01	-2.862874787619657e+00
1	 8.487054751649490e-01	 6.060120597158355e-01	-3.851519897101195e+00
1	 8.342122715560167e-01	 6.258126596194977e-01	-4.819713373458247e+00
1	 8.192318381702112e-01	 6.452990078702501e-01	-5.764058001650511e+00
1	 9.591310561466906e-01	 4.445450424434799e-01	 4.094548954003055e+00
1	 9.486571827343125e-01	 4.664784607159566e-01	 3.101681357123720e+00
1	 9.376388917748257e-01	 4.882477167328359e-01	 2.104638835108613e+00
1	 9.260792112504684e-01	 5.098330487745076e-01	 1.106576039090309e+00
1	 9.139821072753082e-01	 5.312147161276637e-01	 1.106930774457255e-01
1	 9.013524893310293e-01	 5.523730539824955e-01	-8.797761817398291e-01
1	 8.881962116876772e-01	 5.732885291089520e-01	-1.861576245628716e+00
1	 8.745200709158348e-01	 5.939417960048561e-01	-2.831442487772977e+00
1	 8.603317994248791e-01	 6.143137531974732e-01	-3.786113908604332e+00
1	 8.456400549915140e-01	 6.343855993718516e-01	-4.722346073749251e+00
1	 8.304544062733887e-01	 6.541388889940141e-01	-5.636924134968806e+00
1	 9.720925790186141e-01	 4.505525433976866e-01	 3.857409878865412e+00
1	 9.614771635836250e-01	 4.727823659005054e-01	 2.904992993980102e+00
1	 9.503099734416771e-01	 4.948458076888435e-01	 1.947635510826464e+00
1	 9.385940774946075e-01	 5.167228399868020e-01	 9.883441124968236e-01
1	 9.263334954538255e-01	 5.383934553086599e-01	 3.016596384474535e-02
1	 9.135332031468566e-01	 5.598377230979411e-01	-9.238225347404649e-01
1	 9.001991339572849e-01	 5.810358461560730e-01	-1.870527383603429e+00
1	 8.863381763033108e-01	 6.019682175492752e-01	-2.806848931097416e+00
1	 8.719581670886848e-01	 6.226154776709827e-01	-3.729694047787218e+00
1	 8.570678810897280e-01	 6.429585711286867e-01	-4.635988439369894e+00
1	 8.416770162731901e-01	 6.629788031188170e-01	-5.522689006951977e+00
1	 9.850541396938364e-01	 4.565600618730836e-01	 3.628882356442330e+00
1	 9.742971818233045e-01	 4.790862894707577e-01	 2.714380490429248e+00
1	 9.629810920645498e-01	 5.014439178885809e-01	 1.794232528951921e+00
1	 9.511089802391205e-01	 5.236126512935901e-01	 8.713053258549066e-01
1	 9.386849196559177e-01	 5.455722154268761e-01	-5.149835307905426e-02
1	 9.257139524884940e-01	 5.673024139845242e-01	-9.712506433640964e-01
1	 9.122020912341964e-01	 5.887831857986734e-01	-1.885009741262551e+00
1	 8.981563161591034e-01	 6.099946625031818e-01	-2.789831332577214e+00
1	 8.835845686616357e-01	 6.309172263569027e-01	-3.682780209398059e+00
1	 8.684957405180675e-01	 6.515315678890363e-01	-4.560941989788790e+00
1	 8.528996590046160e-01	 6.718187430256928e-01	-5.421434852739218e+00
1	 9.980157275872219e-01	 4.625675929636779e-01	 3.406862258027674e+00
1	 9.871172269838395e-01	 4.853902262786652e-01	 2.527935898200723e+00
1	 9.756522372955513e-01	 5.080420419437623e-01	 1.642719745590798e+00
1	 9.636239092636995e-01	 5.305024770683828e-01	 7.539489131839348e-01
1	 9.510363697947843e-01	 5.527509906198712e-01	-1.356097513263377e-01
1	 9.378947274085201e-01	 5.747671205463175e-01	-1.023168064074724e+00
1	 9.242050737161785e-01	 5.965305417100195e-01	-1.905927209415329e+00
1	 9.099744808319042e-01	 6.180211243119278e-01	-2.781088675424306e+00
1	 8.952109946490014e-01	 6.392189924757736e-01	-3.645865341742709e+00
1	 8.799236239439386e-01	 6.601045826519328e-01	-4.497492637831093e+00
1	 8.641223253026681e-01	 6.806587014956761e-01	-5.333239687493214e+00
1	 1.010977332113635e+00	 4.685751317634770e-01	 3.189353271318273e+00
1	 9.999372885957171e-01	 4.916941711761795e-01	 2.343849026648750e+00
1	 9.883233987867889e-01	 5.146401744661019e-01	 1.491474632666034e+00
1	 9.761388543480359e-01	 5.373923116846914e-01	 6.348415020840519e-01
1	 9.633878357836249e-01	 5.599297750252039e-01	-2.234110147107664e-01
1	 9.500755179595148e-01	 5.822318366873941e-01	-1.080625631759931e+00
1	 9.362080716009995e-01	 6.042779075633790e-01	-1.934137398518114e+00
1	 9.217926606704047e-01	 6.260475964208664e-01	-2.781284167075111e+00
1	 9.068374355560521e-01	 6.475207692481345e-01	-3.619417179385866e+00
1	 8.913515220347494e-01	 6.686776084164091e-01	-4.445911695553269e+00
1	 8.753450060023480e-01	 6.894986713098015e-01	-5.258177582401668e+00
1	 1.023938942687942e+00	 4.745826733664884e-01	 2.974460072678327e+00
1	 1.012757356189425e+00	 4.979981190152524e-01	 2.160401251369559e+00
1	 1.000994566190370e+00	 5.212383100673136e-01	 1.338956728164877e+00
1	 9.886538052718223e-01	 5.442821495160268e-01	 5.126222107272014e-01
1	 9.757393075356403e-01	 5.671085627804335e-01	-3.160820842145631e-01
1	 9.622563141940571e-01	 5.896965563118266e-01	-1.144621054770515e+00
1	 9.482110750864265e-01	 6.120252770320186e-01	-1.970454573023860e+00
1	 9.336108460232977e-01	 6.340740722753503e-01	-2.791047508807302e+00
1	 9.184638818880571e-01	 6.558225498945245e-01	-3.603879844361964e+00
1	 9.027794254579075e-01	 6.772506381814980e-01	-4.406456803785080e+00
1	 8.865676919386577e-01	 6.983386452491029e-01	-5.196318919734426e+00
1	 1.036900548725005e+00	 4.805902128667193e-01	 2.760382011073955e+00
1	 1.025577419295452e+00	 5.043020646478357e-01	 1.975959786801165e+00
1	 1.013665729158402e+00	 5.278364433591113e-01	 1.183702502284268e+00
1	 1.001168751814751e+00	 5.511719849359001e-01	 3.859981122797410e-01
1	 9.880907749640296e-01	 5.742873480231188e-01	-4.147439907474331e-01
1	 9.744371061647262e-01	 5.971612733236881e-01	-1.216102240547957e+00
1	 9.602140743702269e-01	 6.197726437892053e-01	-2.015652365832446e+00
1	 9.454290272392749e-01	 6.421005453207324e-01	-2.810976995272000e+00
1	 9.300903241502864e-01	 6.641243276354837e-01	-3.599675327391644e+00
1	 9.142073248808197e-01	 6.858236649462323e-01	-4.379372792011644e+00
1	 8.977903739465982e-01	 7.071786160946152e-01	-5.147730628787169e+00
1	 7.855644768903997e-01	 6.187796346948449e-01	-6.221959924822429e+00
1	 7.707423701765810e-01	 6.371467715387087e-01	-7.232170039983936e+00
1	 7.554736580333883e-01	 6.551789005581102e-01	-8.200418427858441e+00
1	 7.397698440641727e-01	 6.728598994536507e-01	-9.124642094141297e+00
1	 7.236432017326105e-01	 6.901741818186914e-01	-1.000312900204267e+01
1	 7.071067426773200e-01	 7.071067426773202e-01	-1.083451948451024e+01
1	 6.901741818186911e-01	 7.236432017326108e-01	-1.161780500839224e+01
1	 6.728598994536503e-01	 7.397698440641729e-01	-1.235232432063895e+01
1	 6.551789005581099e-01	 7.554736580333886e-01	-1.303775703625011e+01
1	 6.371467715387082e-01	 7.707423701765813e-01	-1.367411475631299e+01
1	 6.187796346948450e-01	 7.855644768903999e-01	-1.426172983170596e+01
1	 7.967868643137184e-01	 6.276193735016999e-01	-6.056670091440343e+00
1	 7.817530125059616e-01	 6.462488988974351e-01	-7.033589879195539e+00
1	 7.662661751699099e-01	 6.645386306264414e-01	-7.972971081032219e+00
1	 7.503380202466319e-01	 6.824722160700080e-01	-8.872708819486695e+00
1	 7.339809965355638e-01	 7.000338461578212e-01	-9.731015553916238e+00
1	 7.172083015564744e-01	 7.172083015564746e-01	-1.054642343143659e+01
1	 7.000338461578210e-01	 7.339809965355644e-01	-1.131778423707248e+01
1	 6.824722160700076e-01	 7.503380202466323e-01	-1.204426696169179e+01
1	 6.645386306264410e-01	 7.662661751699100e-01	-1.272535303320268e+01
1	 6.462488988974350e-01	 7.817530125059619e-01	-1.336082928266660e+01
1	 6.276193735016997e-01	 7.967868643137183e-01	-1.395077874196432e+01
1	 8.080093211286548e-01	 6.364591669664901e-01	-5.904003852900398e+00
1	 7.927637229176385e-01	 6.553510825365715e-01	-6.850011794975728e+00
1	 7.770587590399142e-01	 6.738984185681055e-01	-7.762558725370408e+00
1	 7.609062617752941e-01	 6.920845921216349e-01	-8.639508005767510e+00
1	 7.443188552600679e-01	 7.098935714617837e-01	-9.479009151160099e+00
1	 7.273099228963158e-01	 7.273099228963160e-01	-1.027950102357761e+01
1	 7.098935714617833e-01	 7.443188552600681e-01	-1.103971285471801e+01
1	 6.920845921216348e-01	 7.609062617752944e-01	-1.175866310556286e+01
1	 6.738984185681052e-01	 7.770587590399144e-01	-1.243565619547122e+01
1	 6.553510825365713e-01	 7.927637229176391e-01	-1.307027715711169e+01
1	 6.364591669664900e-01	 8.080093211286546e-01	-1.366238429648495e+01
1	 8.192318381702112e-01	 6.452990078702501e-01	-5.764058001650511e+00
1	 8.037744924195520e-01	 6.644533150228601e-01	-6.681282849734902e+00
1	 7.878514008294942e-01	 6.832582567394534e-01	-7.568796718060984e+00
1	 7.714745600194860e-01	 7.016970197585825e-01	-8.424440692342824e+00
1	 7.546567694636207e-01	 7.197533496786044e-01	-9.246313192880768e+00
1	 7.374115984472948e-01	 7.374115984472950e-01	-1.003277391817374e+01
1	 7.197533496786042e-01	 7.546567694636210e-01	-1.078244582999550e+01
1	 7.016970197585820e-01	 7.714745600194864e-01	-1.149421517853455e+01
1	 6.832582567394535e-01	 7.878514008294947e-01	-1.216722958831582e+01
1	 6.644533150228599e-01	 8.037744924195523e-01	-1.280089424733324e+01
1	 6.452990078702502e-01	 8.192318381702113e-01	-1.339486626278104e+01
1	 8.304544062733887e-01	 6.541388889940141e-01	-5.636924134968806e+00
1	 8.147853120196392e-01	 6.735555889230431e-01	-6.527258404069784e+00
1	 7.986440917247423e-01	 6.926181374968372e-01	-7.391321233412342e+00
1	 7.820429063485358e-01	 7.113094911309020e-01	-8.226940314672557e+00
1	 7.649947307037208e-01	 7.296131727563099e-01	-9.032174151695521e+00
1	 7.475133199598645e-01	 7.475133199598647e-01	-9.805316663951240e+00
1	 7.296131727563093e-01	 7.649947307037210e-01	-1.054490002729804e+01
1	 7.113094911309018e-01	 7.820429063485362e-01	-1.124969574217724e+01
1	 6.926181374968368e-01	 7.986440917247424e-01	-1.191871393934277e+01
1	 6.735555889230430e-01	 8.147853120196393e-01	-1.255120095296608e+01
1	 6.541388889940140e-01	 8.304544062733888e-01	-1.314663521011413e+01
1	 8.416770162731901e-01	 6.629788031188170e-01	-5.522689006951977e+00
1	 8.257961727258398e-01	 6.826578968038631e-01	-6.387801569348001e+00
1	 8.094368229117508e-01	 7.019780531966077e-01	-7.229787880920386e+00
1	 7.926112921317704e-01	 7.209219983886453e-01	-8.046470550455734e+00
1	 7.753327305378668e-01	 7.394730326429256e-01	-8.835878707976548e+00
1	 7.576150791844760e-01	 7.576150791844760e-01	-9.596253180699900e+00
1	 7.394730326429252e-01	 7.753327305378670e-01	-1.032605008584364e+01
1	 7.209219983886449e-01	 7.926112921317705e-01	-1.102394282288768e+01
1	 7.019780531966074e-01	 8.094368229117511e-01	-1.168882246593036e+01
1	 6.826578968038631e-01	 8.257961727258399e-01	-1.231979657469035e+01
1	 6.629788031188169e-01	 8.416770162731901e-01	-1.291618646020606e+01
1	 8.528996590046160e-01	 6.718187430256928e-01	-5.421434852739218e+00
1	 8.368070655460915e-01	 6.917602312320627e-01	-6.262782703474093e+00
1	 8.202295855766129e-01	 7.113379961951165e-01	-7.083870432342999e+00
1	 8.031797087385171e-01	 7.305345336818637e-01	-7.882523335667939e+00
1	 7.856707605235562e-01	 7.493329212864773e-01	-8.656751110147978e+00
1	 7.677168678715804e-01	 7.677168678715806e-01	-9.404753516546149e+00
1	 7.493329212864771e-01	 7.856707605235564e-01	-1.012492462383416e+01
1	 7.305345336818633e-01	 8.031797087385171e-01	-1.081585560983800e+01
1	 7.113379961951160e-01	 8.202295855766131e-01	-1.147633611067250e+01
1	 6.917602312320622e-01	 8.368070655460919e-01	-1.210535412749893e+01
1	 6.718187430256928e-01	 8.528996590046158e-01	-1.270209451512498e+01
1	 8.641223253026681e-01	 6.806587014956761e-01	-5.333239687493214e+00
1	 8.478179814883333e-01	 7.008625847743832e-01	-6.152078945913738e+00
1	 8.310223709054203e-01	 7.206979588487149e-01	-6.953259647882325e+00
1	 8.137481475381034e-01	 7.401470891606081e-01	-7.734617035064602e+00
1	 7.960088122182878e-01	 7.591928306349918e-01	-8.494150740504969e+00
1	 7.778186777716302e-01	 7.778186777716304e-01	-9.230030857695589e+00
1	 7.591928306349911e-01	 7.960088122182879e-01	-9.940602738148582e+00
1	 7.401470891606079e-01	 8.137481475381038e-01	-1.062439048787195e+01
1	 7.206979588487147e-01	 8.310223709054209e-01	-1.128009914777883e+01
1	 7.008625847743831e-01	 8.478179814883339e-01	-1.190661555779109e+01
1	 6.806587014956762e-01	 8.641223253026682e-01	-1.250300791900112e+01
1	 8.753450060023480e-01	 6.894986713098015e-01	-5.258177582401668e+00
1	 8.588289115605043e-01	 7.099649499975681e-01	-6.055573788456817e+00
1	 8.418151700842661e-01	 7.300579335137545e-01	-6.837662192586895e+00
1	 8.243165998998565e-01	 7.497596569749305e-01	-7.602294753300455e+00
1	 8.063468771795593e-01	 7.690527526364938e-01	-8.347469868123248e+00
1	 7.879205006350769e-01	 7.879205006350771e-01	-9.071338768008300e+00
1	 7.690527526364935e-01	 8.063468771795599e-01	-9.772210773071054e+00
1	 7.497596569749301e-01	 8.243165998998571e-01	-1.044855737531251e+01
1	 7.300579335137545e-01	 8.418151700842664e-01	-1.109901512716672e+01
1	 7.099649499975680e-01	 8.588289115605047e-01	-1.172238732807953e+01
1	 6.894986713098015e-01	 8.753450060023480e-01	-1.231764451467232e+01
1	 8.865676919386577e-01	 6.983386452491029e-01	-5.196318919734426e+00
1	 8.698398467705425e-01	 7.190673194683591e-01	-5.973156678554645e+00
1	 8.526079742992425e-01	 7.394179125465868e-01	-6.736799634986080e+00
1	 8.348850571931041e-01	 7.593722292748818e-01	-7.485122774214654e+00
1	 8.166849469648699e-01	 7.789126792390103e-01	-8.216131572296934e+00
1	 7.980223282123721e-01	 7.980223282123723e-01	-8.927968638056722e+00
1	 7.789126792390099e-01	 8.166849469648703e-01	-9.618919334233240e+00
1	 7.593722292748820e-01	 8.348850571931049e-01	-1.028741633968644e+01
1	 7.394179125465867e-01	 8.526079742992427e-01	-1.093204312634866e+01
1	 7.190673194683589e-01	 8.698398467705428e-01	-1.155153633676584e+01
1	 6.983386452491031e-01	 8.865676919386576e-01	-1.214478706029227e+01
1	 8.977903739465982e-01	 7.071786160946152e-01	-5.147730628787169e+00
1	 8.808507781263871e-01	 7.281696857534988e-01	-5.904722652384192e+00
1	 8.634007747364419e-01	 7.487778883035630e-01	-6.650407520767883e+00
1	 8.454535107871739e-01	 7.689847982105142e-01	-7.382689117077245e+00
1	 8.270230131317176e-01	 7.887726023905666e-01	-8.099587821594044e+00
1	 8.081241522539677e-01	 8.081241522539679e-01	-8.799247325351844e+00
1	 7.887726023905661e-01	 8.270230131317177e-01	-9.479940526332449e+00
1	 7.689847982105142e-01	 8.454535107871741e-01	-1.014007446706670e+01
1	 7.487778883035625e-01	 8.634007747364423e-01	-1.077819428320304e+01
1	 7.281696857534985e-01	 8.808507781263871e-01	-1.139298614368838e+01
1	 7.071786160946154e-01	 8.977903739465983e-01	-1.198327917443090e+01
1	 6.187796346948450e-01	 7.855644768903999e-01	-1.426172983170596e+01
1	 6.000941023989972e-01	 7.999292705517564e-01	-1.479912641021900e+01
1	 5.811072330167577e-01	 8.138268577557130e-01	-1.528471834340638e+01
1	 5.618364750149918e-01	 8.272481870752482e-01	-1.571922256318246e+01
1	 5.422996134099223e-01	 8.401850687269302e-01	-1.610376584247058e+01
1	 5.225147171506268e-01	 8.526301882742356e-01	-1.643986597549245e+01
1	 5.025000860247008e-01	 8.645771165329886e-01	-1.672941046008807e+01
1	 4.822741974000460e-01	 8.760203156838146e-01	-1.697463293631465e+01
1	 4.618556531118254e-01	 8.869551416254861e-01	-1.717808765388348e+01
1	 4.412631267957642e-01	 8.973778426309756e-01	-1.734262225513344e+01
1	 4.205153119584038e-01	 9.072855543946884e-01	-1.747134917008561e+01
1	 6.276193735016997e-01	 7.967868643137183e-01	-1.395077874196432e+01
1	 6.086669041321032e-01	 8.113568700035455e-01	-1.449387029740438e+01
1	 5.894087928460172e-01	 8.254529948356357e-01	-1.498868412160889e+01
1	 5.698627373749912e-01	 8.390660580763810e-01	-1.543567693893603e+01
1	 5.500467768077957e-01	 8.521877529449993e-01	-1.583568241149741e+01
1	 5.299792382222526e-01	 8.648106605126152e-01	-1.618989495394041e+01
1	 5.096786828324057e-01	 8.769282597492060e-01	-1.649985123189293e+01
1	 4.891638519694760e-01	 8.885349337233771e-01	-1.676740956860104e+01
1	 4.684536132100530e-01	 8.996259719893257e-01	-1.699472750162404e+01
1	 4.475669069570151e-01	 9.101975692236984e-01	-1.718423774503289e+01
1	 4.265226937679250e-01	 9.202468202020646e-01	-1.733862282230165e+01
1	 6.364591669664900e-01	 8.080093211286546e-01	-1.366238429648495e+01
1	 6.172397588725922e-01	 8.227845401158298e-01	-1.421076353554042e+01
1	 5.977104040055301e-01	 8.370792038036247e-01	-1.471413057613696e+01
1	 5.778890493630665e-01	 8.508840021510616e-01	-1.517270462973206e+01
1	 5.577939881080803e-01	 8.641905113793019e-01	-1.558705097018760e+01
1	 5.374438054487238e-01	 8.769912080664877e-01	-1.595806719578524e+01
1	 5.168573240270954e-01	 8.892794793361983e-01	-1.628696734615577e+01
1	 4.960535491393556e-01	 9.010496291445454e-01	-1.657526407092511e+01
1	 4.750516141051547e-01	 9.122968807007577e-01	-1.682474906327227e+01
1	 4.538707260961629e-01	 9.230173750848369e-01	-1.703747198464994e+01
1	 4.325301127226065e-01	 9.332081661532802e-01	-1.721571811653963e+01
1	 6.452990078702502e-01	 8.192318381702113e-01	-1.339486626278104e+01
1	 6.258126596194972e-01	 8.342122715560167e-01	-1.394802386867930e+01
1	 6.060120597158354e-01	 8.487054751649494e-01	-1.445919062532306e+01
1	 5.859154044245704e-01	 8.627020096479822e-01	-1.492836998763814e+01
1	 5.655412409840435e-01	 8.761933342276053e-01	-1.535588256048925e+01
1	 5.449084127341138e-01	 8.891718209884333e-01	-1.574235462606728e+01
1	 5.240360037463283e-01	 9.016307652071658e-01	-1.608870468734974e+01
1	 5.029432832831956e-01	 9.135643917270121e-01	-1.639612819864183e+01
1	 4.816496504088442e-01	 9.249678574118884e-01	-1.666608066971018e+01
1	 4.601745790651594e-01	 9.358372497448788e-01	-1.690025934255511e+01
1	 4.385375639164554e-01	 9.461695816632008e-01	-1.710058364936821e+01
1	 6.541388889940140e-01	 8.304544062733888e-01	-1.314663521011413e+01
1	 6.343855993718511e-01	 8.456400549915137e-01	-1.370396535163177e+01
1	 6.143137531974726e-01	 8.603317994248791e-01	-1.422209807782804e+01
1	 5.939417960048556e-01	 8.745200709158348e-01	-1.470084195591525e+01
1	 5.732885291089519e-01	 8.881962116876773e-01	-1.514029569195677e+01
1	 5.523730539824951e-01	 9.013524893310296e-01	-1.554083874687145e+01
1	 5.312147161276634e-01	 9.139821072753086e-01	-1.590312011984645e+01
1	 5.098330487745073e-01	 9.260792112504685e-01	-1.622804544626529e+01
1	 4.882477167328355e-01	 9.376388917748257e-01	-1.651676257189917e+01
1	 4.664784607159561e-01	 9.486571827343124e-01	-1.677064577716158e+01
1	 4.445450424434799e-01	 9.591310561466907e-01	-1.699127883457696e+01
1	 6.629788031188169e-01	 8.416770162731901e-01	-1.291618646020606e+01
1	 6.429585711286866e-01	 8.570678810897284e-01	-1.347699193297136e+01
1	 6.226154776709821e-01	 8.719581670886849e-01	-1.400118090985560e+01
1	 6.019682175492749e-01	 8.863381763033110e-01	-1.448838709898383e+01
1	 5.810358461560727e-01	 9.001991339572852e-01	-1.493850917939963e+01
1	 5.598377230979409e-01	 9.135332031468568e-01	-1.535170333376158e+01
1	 5.383934553086593e-01	 9.263334954538254e-01	-1.572837409022443e+01
1	 5.167228399868015e-01	 9.385940774946077e-01	-1.606916359854279e+01
1	 4.948458076888431e-01	 9.503099734416774e-01	-1.637493947927205e+01
1	 4.727823659005049e-01	 9.614771635836251e-01	-1.664678139651535e+01
1	 4.505525433976866e-01	 9.720925790186141e-01	-1.688596651386561e+01
1	 6.718187430256928e-01	 8.528996590046158e-01	-1.270209451512498e+01
1	 6.515315678890360e-01	 8.684957405180677e-01	-1.326559154421846e+01
1	 6.309172263569022e-01	 8.835845686616357e-01	-1.379485507266691e+01
1	 6.099946625031814e-01	 8.981563161591033e-01	-1.428936318219368e+01
1	 5.887831857986729e-01	 9.122020912341966e-01	-1.474883554550358e+01
1	 5.673024139845239e-01	 9.257139524884941e-01	-1.517322770832921e+01
1	 5.455722154268757e-01	 9.386849196559177e-01	-1.556272381311474e+01
1	 5.236126512935897e-01	 9.511089802391208e-01	-1.591772786910881e+01
1	 5.014439178885804e-01	 9.629810920645500e-01	-1.623885368670411e+01
1	 4.790862894707573e-01	 9.742971818233048e-01	-1.652691360497485e+01
1	 4.565600618730836e-01	 9.850541396938363e-01	-1.678290615040990e+01
1	 6.806587014956762e-01	 8.641223253026682e-01	-1.250300791900112e+01
1	 6.601045826519327e-01	 8.799236239439389e-01	-1.306833064922367e+01
1	 6.392189924757733e-01	 8.952109946490019e-01	-1.360161878222671e+01
1	 6.180211243119271e-01	 9.099744808319040e-01	-1.410221325145560e+01
1	 5.965305417100188e-01	 9.242050737161785e-01	-1.456967493710759e+01
1	 5.747671205463171e-01	 9.378947274085204e-01	-1.500378053452231e+01
1	 5.527509906198709e-01	 9.510363697947847e-01	-1.540451698757750e+01
1	 5.305024770683824e-01	 9.636239092636996e-01	-1.577207457334375e+01
1	 5.080420419437620e-01	 9.756522372955512e-01	-1.610683873659945e+01
1	 4.853902262786647e-01	 9.871172269838395e-01	-1.640938078347333e+01
1	 4.625675929636779e-01	 9.980157275872220e-01	-1.668044755235807e+01
1	 6.894986713098015e-01	 8.753450060023480e-01	-1.231764451467232e+01
1	 6.686776084164091e-01	 8.913515220347497e-01	-1.288384921248758e+01
1	 6.475207692481341e-01	 9.068374355560523e-01	-1.342004724774667e+01
1	 6.260475964208662e-01	 9.217926606704049e-01	-1.392546016791364e+01
1	 6.042779075633788e-01	 9.362080716009999e-01	-1.439950950907482e+01
1	 5.822318366873939e-01	 9.500755179595155e-01	-1.484181409178951e+01
1	 5.599297750252037e-01	 9.633878357836254e-01	-1.525218599643954e+01
1	 5.373923116846910e-01	 9.761388543480363e-01	-1.563062528753761e+01
1	 5.146401744661016e-01	 9.883233987867890e-01	-1.597731356811046e+01
1	 4.916941711761791e-01	 9.999372885957171e-01	-1.629260645551435e+01
1	 4.685751317634771e-01	 1.010977332113636e+00	-1.657702507873892e+01
1	 6.983386452491031e-01	 8.865676919386576e-01	-1.214478706029227e+01
1	 6.772506381814979e-01	 9.027794254579073e-01	-1.271085604932277e+01
1	 6.558225498945240e-01	 9.184638818880573e-01	-1.324878780026927e+01
1	 6.340740722753500e-01	 9.336108460232978e-01	-1.375770155736875e+01
1	 6.120252770320183e-01	 9.482110750864269e-01	-1.423689823436108e+01
1	 5.896965563118265e-01	 9.622563141940575e-01	-1.468585898282271e+01
1	 5.671085627804331e-01	 9.757393075356404e-01	-1.510424254583092e+01
1	 5.442821495160265e-01	 9.886538052718229e-01	-1.549188145130235e+01
1	 5.212383100673131e-01	 1.000994566190370e+00	-1.584877711035886e+01
1	 4.979981190152521e-01	 1.012757356189425e+00	-1.617509389589937e+01
1	 4.745826733664884e-01	 1.023938942687942e+00	-1.647115228507149e+01
1	 7.071786160946154e-01	 8.977903739465983e-01	-1.198327917443090e+01
1	 6.858236649462317e-01	 9.142073248808196e-01	-1.254812452447636e+01
1	 6.641243276354835e-01	 9.300903241502866e-01	-1.308655538631590e+01
1	 6.421005453207319e-01	 9.454290272392751e-01	-1.359760513819376e+01
1	 6.197726437892049e-01	 9.602140743702273e-01	-1.408047210301602e+01
1	 5.971612733236877e-01	 9.744371061647262e-01	-1.453451923790206e+01
1	 5.742873480231185e-01	 9.880907749640297e-01	-1.495927270643487e+01
1	 5.511719849358999e-01	 1.001168751814751e+00	-1.535441937447907e+01
1	 5.278364433591108e-01	 1.013665729158402e+00	-1.571980328084234e+01
1	 5.043020646478351e-01	 1.025577419295452e+00	-1.605542114347567e+01
1	 4.805902128667193e-01	 1.036900548725006e+00	-1.636141697023210e+01
1	 4.205153119584038e-01	 9.072855543946884e-01	-1.747134917008561e+01
1	 3.996323363483559e-01	 9.166756533117867e-01	-1.756797441915173e+01
1	 3.786313260672554e-01	 9.255477376767897e-01	-1.763466283900671e+01
1	 3.575307247119081e-01	 9.339015469729992e-01	-1.767253165818896e+01
1	 3.363488008802308e-01	 9.417376544619560e-01	-1.768289976770500e+01
1	 3.151036037782408e-01	 9.490574463164519e-01	-1.766727364371294e+01
1	 2.938129209596947e-01	 9.558630981313170e-01	-1.762733244832625e+01
1	 2.724942383587361e-01	 9.621575490304196e-01	-1.756491246955262e+01
1	 2.511647027528098e-01	 9.679444735972303e-01	-1.748199106091361e+01
1	 2.298410867697775e-01	 9.732282518626566e-01	-1.738067023881739e+01
1	 2.085397565298897e-01	 9.780139375877577e-01	-1.726316009143044e+01
1	 4.265226937679250e-01	 9.202468202020646e-01	-1.733862282230164e+01
1	 4.053413889316475e-01	 9.297710638393700e-01	-1.746113632038404e+01
1	 3.840403632092172e-01	 9.387698926915389e-01	-1.755367144882735e+01
1	 3.626383236782533e-01	 9.472430425202908e-01	-1.761716398681023e+01
1	 3.411537999174936e-01	 9.551910947767371e-01	-1.765274184343403e+01
1	 3.196050989795961e-01	 9.626154554363000e-01	-1.766171249889144e+01
1	 2.980102625270569e-01	 9.695183311739305e-01	-1.764554963583339e+01
1	 2.763870262938931e-01	 9.759027031012107e-01	-1.760587910786451e+01
1	 2.547527820123113e-01	 9.817722982959253e-01	-1.754446439228413e+01
1	 2.331245419199244e-01	 9.871315593611459e-01	-1.746319167249788e+01
1	 2.115189059394629e-01	 9.919856122548431e-01	-1.736405469210991e+01
1	 4.325301127226065e-01	 9.332081661532802e-01	-1.721571811653963e+01
1	 4.110504768153741e-01	 9.428665553405938e-01	-1.736231974865974e+01
1	 3.894494337964184e-01	 9.519921294640534e-01	-1.747891625384388e+01
1	 3.677459542258094e-01	 9.605846205637468e-01	-1.756627594030985e+01
1	 3.459588286647271e-01	 9.686446182803863e-01	-1.762535029030828e+01
1	 3.241066220140734e-01	 9.761735483921200e-01	-1.765726281645524e+01
1	 3.022076300466623e-01	 9.831736486541902e-01	-1.766329711995810e+01
1	 2.802798382979372e-01	 9.896479421661311e-01	-1.764488428451276e+01
1	 2.583408834563892e-01	 9.956002085003419e-01	-1.760358974042593e+01
1	 2.364080173708705e-01	 1.001034952832426e+00	-1.754109973256717e+01
1	 2.144980737680448e-01	 1.005957373317689e+00	-1.745920752317479e+01
1	 4.385375639164554e-01	 9.461695816632008e-01	-1.710058364936821e+01
1	 4.167595953371834e-01	 9.559621171207261e-01	-1.726949493757355e+01
1	 3.948585334115307e-01	 9.652144371960353e-01	-1.740839629052460e+01
1	 3.728536121834383e-01	 9.739262702075441e-01	-1.751790201633807e+01
1	 3.507638831979376e-01	 9.820982139855879e-01	-1.759880119249494e+01
1	 3.286081692055634e-01	 9.897317141111275e-01	-1.765204783704597e+01
1	 3.064050200908187e-01	 9.968290394198429e-01	-1.767875029306375e+01
1	 2.841726711919194e-01	 1.003393254999424e+00	-1.768015994785773e+01
1	 2.619290041549625e-01	 1.009428192917151e+00	-1.765765940979927e+01
1	 2.396915104413312e-01	 1.014938420921471e+00	-1.761275026533396e+01
1	 2.174772575828835e-01	 1.019929209365398e+00	-1.754704053696407e+01
1	 4.445450424434799e-01	 9.591310561466907e-01	-1.699127883457696e+01
1	 4.224687398347230e-01	 9.690577384850336e-01	-1.718074176518003e+01
1	 4.002676576372253e-01	 9.784368050891873e-01	-1.734021868005429e+01
1	 3.779612933800036e-01	 9.872679805558595e-01	-1.747018287797983e+01
1	 3.555689595931318e-01	 9.955518709050283e-01	-1.757127454959509e+01
1	 3.331097368779574e-01	 1.003289941520539e+00	-1.764429216605261e+01
1	 3.106024292318333e-01	 1.010484492318635e+00	-1.769018309196422e+01
1	 2.880655217968901e-01	 1.017138630375336e+00	-1.771003353275828e+01
1	 2.655171411779494e-01	 1.023256240253020e+00	-1.770505792842290e+01
1	 2.429750184500218e-01	 1.028841952273254e+00	-1.767658790595854e+01
1	 2.204564549512274e-01	 1.033901108987071e+00	-1.762606090179810e+01
1	 4.505525433976866e-01	 9.720925790186141e-01	-1.688596651386561e+01
1	 4.281779056456406e-01	 9.821534087387839e-01	-1.709424244227822e+01
1	 4.056768020561741e-01	 9.916592223452112e-01	-1.727259142003340e+01
1	 3.830689936443673e-01	 1.000609740712869e+00	-1.742135827286365e+01
1	 3.603740539263162e-01	 1.009005578051392e+00	-1.754104734524035e+01
1	 3.376113213551464e-01	 1.016848219547572e+00	-1.763231501177420e+01
1	 3.147998540420135e-01	 1.024139996198311e+00	-1.769596142366258e+01
1	 2.919583869338996e-01	 1.030884057068108e+00	-1.773292158977063e+01
1	 2.691052915952692e-01	 1.037084339214621e+00	-1.774425589424476e+01
1	 2.462585387156577e-01	 1.042745535532752e+00	-1.773114015349242e+01
1	 2.234356634403244e-01	 1.047873060771812e+00	-1.769485531495294e+01
1	 4.565600618730836e-01	 9.850541396938363e-01	-1.678290615040990e+01
1	 4.338870881075840e-01	 9.952491171872442e-01	-1.700827477745069e+01
1	 4.110859622510485e-01	 1.004881678165811e+00	-1.720381674477456e+01
1	 3.881767088053927e-01	 1.013951539782750e+00	-1.736976051081735e+01
1	 3.651791622734972e-01	 1.022459324437367e+00	-1.750648716244435e+01
1	 3.421129189610211e-01	 1.030406537119440e+00	-1.761452395696023e+01
1	 3.189972910936670e-01	 1.037795539906620e+00	-1.769453710967260e+01
1	 2.958512634239985e-01	 1.044629523851985e+00	-1.774732391688172e+01
1	 2.726934524768403e-01	 1.050912478508621e+00	-1.777380430691614e+01
1	 2.495420685569543e-01	 1.056649159344938e+00	-1.777501191328556e+01
1	 2.264148806174227e-01	 1.061845053308720e+00	-1.775208476423360e+01
1	 4.625675929636779e-01	 9.980157275872220e-01	-1.668044755235807e+01
1	 4.395962825582002e-01	 1.008344853135681e+00	-1.692120596646830e+01
1	 4.164951338045202e-01	 1.018104161752687e+00	-1.713228500254859e+01
1	 3.932844346919422e-01	 1.027293366869678e+00	-1.731380844933693e+01
1	 3.699842807106814e-01	 1.035913099075635e+00	-1.746604629604525e+01
1	 3.466145260194732e-01	 1.043964883163362e+00	-1.758940921528392e+01
1	 3.231947369591013e-01	 1.051451112291306e+00	-1.768444230181901e+01
1	 2.997441480882373e-01	 1.058375019501212e+00	-1.775181814813002e+01
1	 2.762816208925816e-01	 1.064740646841691e+00	-1.779232934087720e+01
1	 2.528256052926268e-01	 1.070552812354785e+00	-1.780688046430720e+01
1	 2.293941040497705e-01	 1.075817075186899e+00	-1.779647969739617e+01
1	 4.685751317634771e-01	 1.010977332113636e+00	-1.657702507873892e+01
1	 4.453054843351376e-01	 1.021440605889363e+00	-1.683148685904142e+01
1	 4.219043122992610e-01	 1.031326662307544e+00	-1.705646900342531e+01
1	 3.983921671328786e-01	 1.040635211077830e+00	-1.725200194133101e+01
1	 3.747894053138752e-01	 1.049366890978884e+00	-1.741825631766586e+01
1	 3.511161388543932e-01	 1.057523246606553e+00	-1.755553832926135e+01
1	 3.273921882106235e-01	 1.065106702200117e+00	-1.766428432723908e+01
1	 3.036370377476663e-01	 1.072120532790032e+00	-1.774505475814384e+01
1	 2.798697939124116e-01	 1.078568832920500e+00	-1.779852752018470e+01
1	 2.561091462413906e-01	 1.084456483207268e+00	-1.782549081327727e+01
1	 2.323733313046157e-01	 1.089789114995448e+00	-1.782683556284790e+01
1	 4.745826733664884e-01	 1.023938942687942e+00	-1.647115228507149e+01
1	 4.510146887760434e-01	 1.034536364753556e+00	-1.673764666065517e+01
1	 4.273134933179420e-01	 1.044549169032083e+00	-1.697491879604414e+01
1	 4.034999019570645e-01	 1.053977061511382e+00	-1.718291670421448e+01
1	 3.795945321590853e-01	 1.062820689159798e+00	-1.736172305312746e+01
1	 3.556177537896725e-01	 1.071081616376229e+00	-1.751155127053392e+01
1	 3.315896414205414e-01	 1.078762298480797e+00	-1.763274092458551e+01
1	 3.075299292233359e-01	 1.085866052492690e+00	-1.772575244577487e+01
1	 2.834579686062493e-01	 1.092397025451718e+00	-1.779116125950943e+01
1	 2.593926887219610e-01	 1.098360160547363e+00	-1.782965140136228e+01
1	 2.353525599492068e-01	 1.103761161323472e+00	-1.784200868875342e+01
1	 4.805902128667193e-01	 1.036900548725006e+00	-1.636141697023210e+01
1	 4.567238912185655e-01	 1.047632119033528e+00	-1.663828803144837e+01
1	 4.327226724432352e-01	 1.057771671128007e+00	-1.688625683581328e+01
1	 4.086076349933627e-01	 1.067318907274511e+00	-1.710519957351115e+01
1	 3.843996573223180e-01	 1.076274482631064e+00	-1.729512193625460e+01
1	 3.601193671492018e-01	 1.084639981399606e+00	-1.745615590733540e+01
1	 3.357870931611622e-01	 1.092417889981094e+00	-1.758855583722764e+01
1	 3.114228193362970e-01	 1.099611567383429e+00	-1.769269386368101e+01
1	 2.870461420440134e-01	 1.106225213142014e+00	-1.776905473929155e+01
1	 2.626762300530535e-01	 1.112263833020041e+00	-1.781823013261109e+01
1	 2.383317875507918e-01	 1.117733202760072e+00	-1.784091247095984e+01
1	 2.085397565298897e-01	 9.780139375877577e-01	-1.726316009143044e+01
1	 1.872751588682954e-01	 9.823075085927059e-01	-1.713333484659455e+01
1	 1.660642739430359e-01	 9.861149146151665e-01	-1.699342830206669e+01
1	 1.449221048859622e-01	 9.894430288203904e-01	-1.684327123608420e+01
1	 1.238631447915627e-01	 9.922992591451227e-01	-1.668274331949166e+01
1	 1.029013581149162e-01	 9.946915115410935e-01	-1.651177311266814e+01
1	 8.205016480108950e-02	 9.966281528999332e-01	-1.633033770708013e+01
1	 6.132242709398352e-02	 9.981179738659459e-01	-1.613846203313461e+01
1	 4.073043895732970e-02	 9.991701517322813e-01	-1.593621785805681e+01
1	 2.028591802679350e-02	 9.997942136041430e-01	-1.572372249915344e+01
1	 0.000000000000000e+00	 1.000000000000000e+00	-1.550113727902206e+01
1	 2.115189059394629e-01	 9.919856122548431e-01	-1.736405469210991e+01
1	 1.899505272900958e-01	 9.963405201949547e-01	-1.725049183175513e+01
1	 1.684366287042940e-01	 1.000202317915604e+00	-1.712451701523391e+01
1	 1.469924276450038e-01	 1.003577976770333e+00	-1.698607888441052e+01
1	 1.256326242515388e-01	 1.006475010523806e+00	-1.683518214419736e+01
1	 1.043713824717892e-01	 1.008901438070191e+00	-1.667188634046324e+01
1	 8.322231396489484e-02	 1.010865745828442e+00	-1.649630431503120e+01
1	 6.219846472164627e-02	 1.012376850023818e+00	-1.630860036708505e+01
1	 4.131230433435212e-02	 1.013444059054000e+00	-1.610898815144069e+01
1	 2.057571783397211e-02	 1.014077036126061e+00	-1.589772834482672e+01
1	 0.000000000000000e+00	 1.014285762337685e+00	-1.567512611159257e+01
1	 2.144980737680448e-01	 1.005957373317689e+00	-1.745920752317479e+01
1	 1.926259122523858e-01	 1.010373618572351e+00	-1.736097735376310e+01
1	 1.708089981323071e-01	 1.014289808327531e+00	-1.724823352610235e+01
1	 1.490627632031907e-01	 1.017713012125696e+00	-1.712101061328333e+01
1	 1.274021146504700e-01	 1.020650849560097e+00	-1.697940619929619e+01
1	 1.058414159160934e-01	 1.023111452468066e+00	-1.682357866685980e+01
1	 8.439447037447267e-02	 1.025103426796637e+00	-1.665374468175653e+01
1	 6.307450776443674e-02	 1.026635814352820e+00	-1.647017640965106e+01
1	 4.189417330796949e-02	 1.027718054639657e+00	-1.627319850178182e+01
1	 2.086551943237152e-02	 1.028359946966948e+00	-1.606318488587109e+01
1	 0.000000000000000e+00	 1.028571613012482e+00	-1.584055539813248e+01
1	 2.174772575828835e-01	 1.019929209365398e+00	-1.754704053696408e+01
1	 1.953013115705126e-01	 1.024406792263879e+00	-1.746327505168147e+01
1	 1.731813802898896e-01	 1.028377374345500e+00	-1.736311307136591e+01
1	 1.511331098699964e-01	 1.031848123342196e+00	-1.724664452758095e+01
1	 1.291716145435107e-01	 1.034826764676397e+00	-1.711402908384704e+01
1	 1.073114572475229e-01	 1.037321543129217e+00	-1.696549315693663e+01
1	 8.556663307275791e-02	 1.039341184176433e+00	-1.680132664135938e+01
1	 6.395055550708149e-02	 1.040894855207496e+00	-1.662187937869350e+01
1	 4.247604540310677e-02	 1.041992126831532e+00	-1.642755741331341e+01
1	 2.115532258538469e-02	 1.042642934461811e+00	-1.621881907548310e+01
1	 0.000000000000000e+00	 1.042857540357000e+00	-1.599617093177062e+01
1	 2.204564549512274e-01	 1.033901108987071e+00	-1.762606090179810e+01
1	 1.979767230598238e-01	 1.038440029808523e+00	-1.755595044697501e+01
1	 1.755537732398562e-01	 1.042465004464060e+00	-1.746776998220549e+01
1	 1.532034659548942e-01	 1.045983298875552e+00	-1.736163551082561e+01
1	 1.309411224858151e-01	 1.049002744295103e+00	-1.723773925841844e+01
1	 1.087815052657713e-01	 1.051531698448141e+00	-1.709634614601655e+01
1	 8.673880110268536e-02	 1.053579006339744e+00	-1.693778996074175e+01
1	 6.482660723430707e-02	 1.055153960942393e+00	-1.676246927025275e+01
1	 4.305792014468898e-02	 1.056266263971905e+00	-1.657084312695191e+01
1	 2.144512705640454e-02	 1.056925986945661e+00	-1.636342660698002e+01
1	 0.000000000000000e+00	 1.057143532703853e+00	-1.614078622764793e+01
1	 2.234356634403244e-01	 1.047873060771812e+00	-1.769485531495293e+01
1	 2.006521445356669e-01	 1.052473319745267e+00	-1.763764547853062e+01
1	 1.779261750450211e-01	 1.056552687177763e+00	-1.756089240503706e+01
1	 1.552738297673574e-01	 1.060118527181483e+00	-1.746471010024380e+01
1	 1.327106370325377e-01	 1.063178776838613e+00	-1.734929504792578e+01
1	 1.102515587705329e-01	 1.065741906819336e+00	-1.721492234858843e+01
1	 8.791097350718997e-02	 1.067816881658486e+00	-1.706194153771391e+01
1	 6.570266223083999e-02	 1.069413119912057e+00	-1.689077213367139e+01
1	 4.363979705764108e-02	 1.070540454403061e+00	-1.670189896489742e+01
1	 2.173493260882402e-02	 1.071209092753505e+00	-1.649586732487622e+01
1	 0.000000000000000e+00	 1.071429578385649e+00	-1.627327800189301e+01
1	 2.264148806174227e-01	 1.061845053308720e+00	-1.775208476423360e+01
1	 2.033275738133893e-01	 1.066506650613095e+00	-1.770707346875785e+01
1	 1.802985837681989e-01	 1.070640410981159e+00	-1.764123743869382e+01
1	 1.573441996168595e-01	 1.074253796715706e+00	-1.755466176608806e+01
1	 1.344801567388328e-01	 1.077354850729328e+00	-1.744752003864949e+01
1	 1.117216165615013e-01	 1.079952156637298e+00	-1.732007035304234e+01
1	 8.908314932920657e-02	 1.082054798504573e+00	-1.717265097788173e+01
1	 6.657871978140689e-02	 1.083672320471033e+00	-1.700567571942046e+01
1	 4.422167566688809e-02	 1.084814686467279e+00	-1.681962904245505e+01
1	 2.202473900603610e-02	 1.085492240220354e+00	-1.661506099793765e+01
1	 0.000000000000000e+00	 1.085715665735001e+00	-1.639258200722031e+01
1	 2.293941040497705e-01	 1.075817075186899e+00	-1.779647969739618e+01
1	 2.060030087083387e-01	 1.080540010950993e+00	-1.776301448161668e+01
1	 1.826709974722041e-01	 1.084728164368799e+00	-1.770762665021267e+01
1	 1.594145738128737e-01	 1.088389095933940e+00	-1.763034655849778e+01
1	 1.362496801598547e-01	 1.091530954389646e+00	-1.753129883362828e+01
1	 1.131916774383706e-01	 1.094162436296527e+00	-1.741069846717159e+01
1	 9.025532761167007e-02	 1.096292745249919e+00	-1.726884651590527e+01
1	 6.745477917073431e-02	 1.097931550973866e+00	-1.710612546577284e+01
1	 4.480355549735500e-02	 1.099088948506841e+00	-1.692299431372284e+01
1	 2.231454601143368e-02	 1.099775417681214e+00	-1.671998342133522e+01
1	 0.000000000000000e+00	 1.100001783084519e+00	-1.649768919275733e+01
1	 2.323733313046157e-01	 1.089789114995448e+00	-1.782683556284790e+01
1	 2.086784470358625e-01	 1.094573389297943e+00	-1.780431103742625e+01
1	 1.850434142198511e-01	 1.098815935835233e+00	-1.775894193527784e+01
1	 1.614849506648734e-01	 1.102524413291903e+00	-1.769067908894102e+01
1	 1.380192058507578e-01	 1.105707076241965e+00	-1.759957313429292e+01
1	 1.146617402008347e-01	 1.108372734191518e+00	-1.748577088298954e+01
1	 9.142750739751529e-02	 1.110530710266440e+00	-1.734951125024891e+01
1	 6.833083968354876e-02	 1.112190799775103e+00	-1.719112079394194e+01
1	 4.538543607396681e-02	 1.113363228864028e+00	-1.701100892120764e+01
1	 2.260435338840974e-02	 1.114058613471097e+00	-1.680966281838575e+01
1	 0.000000000000000e+00	 1.114287918766816e+00	-1.658764215902692e+01
1	 2.353525599492068e-01	 1.103761161323472e+00	-1.784200868875342e+01
1	 2.113538866113081e-01	 1.108606774192931e+00	-1.782986415286635e+01
1	 1.874158320739543e-01	 1.112903713875012e+00	-1.779412169280475e+01
1	 1.635553284823320e-01	 1.116659737245314e+00	-1.773462881661600e+01
1	 1.397887323666964e-01	 1.119883204708684e+00	-1.765133811945500e+01
1	 1.161318036485874e-01	 1.122583038716770e+00	-1.754430413258947e+01
1	 9.259968772967715e-02	 1.124768681926050e+00	-1.741367966366797e+01
1	 6.920690060457686e-02	 1.126450055229290e+00	-1.725971168437232e+01
1	 4.596731692164848e-02	 1.127637515881123e+00	-1.708273682245976e+01
1	 2.289416090035721e-02	 1.128341815925009e+00	-1.688317651535699e+01
1	 0.000000000000000e+00	 1.128574061114501e+00	-1.666153188195302e+01
1	 2.383317875507918e-01	 1.117733202760072e+00	-1.784091247095984e+01
1	 2.140293252500230e-01	 1.122640154174940e+00	-1.783862967774174e+01
1	 1.897882490973285e-01	 1.126991486982686e+00	-1.781215728620078e+01
1	 1.656257055747226e-01	 1.130795056249892e+00	-1.776121661314892e+01
1	 1.415582582628250e-01	 1.134059328212202e+00	-1.768563909565448e+01
1	 1.176018665813229e-01	 1.136793338266780e+00	-1.758536380960127e+01
1	 9.377186765109050e-02	 1.139006648600664e+00	-1.746043440444874e+01
1	 7.008296121854513e-02	 1.140709305690971e+00	-1.731099550960356e+01
1	 4.654919756532504e-02	 1.141911797900406e+00	-1.713728866950796e+01
1	 2.318396831066902e-02	 1.142625013377961e+00	-1.693964786546213e+01
1	 0.000000000000000e+00	 1.142860198460186e+00	-1.671849468236876e+01
1	 1.142860198460186e+00	 0.000000000000000e+00	 1.676480591088244e+01
1	 1.142625013377961e+00	 2.318396831066934e-02	 1.616215836305429e+01
1	 1.141911797900406e+00	 4.654919756532534e-02	 1.554784419482045e+01
1	 1.140709305690971e+00	 7.008296121854536e-02	 1.492202285347469e+01
1	 1.139006648600664e+00	 9.377186765109072e-02	 1.428502213613646e+01
1	 1.136793338266779e+00	 1.176018665813230e-01	 1.363734610067112e+01
1	 1.134059328212202e+00	 1.415582582628251e-01	 1.297968218127899e+01
1	 1.130795056249892e+00	 1.656257055747228e-01	 1.231290739037252e+01
1	 1.126991486982686e+00	 1.897882490973286e-01	 1.163809348904014e+01
1	 1.122640154174940e+00	 2.140293252500230e-01	 1.095651101064557e+01
1	 1.117733202760072e+00	 2.383317875507917e-01	 1.026963202603948e+01
1	 1.157145321350848e+00	 0.000000000000000e+00	 1.617896953026580e+01
1	 1.156907196584657e+00	 2.347375514173351e-02	 1.558136533050803e+01
1	 1.156185066306537e+00	 4.713103688965983e-02	 1.497362424348393e+01
1	 1.154967543606921e+00	 7.095895962352061e-02	 1.435597131501347e+01
1	 1.153243604240946e+00	 9.494396433618384e-02	 1.372878734500867e+01
1	 1.151002628747150e+00	 1.190718251251996e-01	 1.309261580632342e+01
1	 1.148234445072978e+00	 1.433276585053856e-01	 1.244816900211747e+01
1	 1.144929371509318e+00	 1.676959356502721e-01	 1.179633335375090e+01
1	 1.141078259721515e+00	 1.921604976561825e-01	 1.113817371221868e+01
1	 1.136672537650634e+00	 2.167045739068282e-01	 1.047493658859057e+01
1	 1.131704252046085e+00	 2.413108035985782e-01	 9.808052202931462e+00
1	 1.171430429241259e+00	 0.000000000000000e+00	 1.561803859552019e+01
1	 1.171189364794196e+00	 2.376354166844703e-02	 1.502577220499795e+01
1	 1.170458319724889e+00	 4.771287560295061e-02	 1.442479104093076e+01
1	 1.169225766550903e+00	 7.183495710857876e-02	 1.381538259408236e+01
1	 1.167480544931648e+00	 9.611605979047652e-02	 1.319797818623459e+01
1	 1.165211904307037e+00	 1.205417821255611e-01	 1.257315894448185e+01
1	 1.162409547049214e+00	 1.450970568900730e-01	 1.194166104591186e+01
1	 1.159063671927114e+00	 1.697661635521416e-01	 1.130438013457891e+01
1	 1.155165017668707e+00	 1.945327437243049e-01	 1.066237481397314e+01
1	 1.150704906391885e+00	 2.193798197548161e-01	 1.001686912084283e+01
1	 1.145675286662146e+00	 2.442898165186466e-01	 9.369253890318772e+00
1	 1.185715523798227e+00	 0.000000000000000e+00	 1.508013628772178e+01
1	 1.185471519673041e+00	 2.405332792465459e-02	 1.449348142206438e+01
1	 1.184731559820883e+00	 4.829471377313913e-02	 1.389943264911819e+01
1	 1.183483976186579e+00	 7.271095377599275e-02	 1.329833686105078e+01
1	 1.181717472333943e+00	 9.728815415079030e-02	 1.269067351114709e+01
1	 1.179421166604382e+00	 1.220117377539762e-01	 1.207705968977302e+01
1	 1.176584635794853e+00	 1.468664536233805e-01	 1.145825450066860e+01
1	 1.173197959152453e+00	 1.718363895219076e-01	 1.083516264887357e+01
1	 1.169251762467883e+00	 1.969049875784915e-01	 1.020883715317619e+01
1	 1.164737262035952e+00	 2.220550631061160e-01	 9.580481098823419e+00
1	 1.159646308238343e+00	 2.472688266585502e-01	 8.951448350403016e+00
1	 1.200000606688556e+00	 0.000000000000000e+00	 1.456347516477500e+01
1	 1.199753662887650e+00	 2.434311394420089e-02	 1.398268578191115e+01
1	 1.199004788259937e+00	 4.887655146816672e-02	 1.339572817907628e+01
1	 1.197742174177614e+00	 7.358694972803567e-02	 1.280300571110390e+01
1	 1.195954388109006e+00	 9.846024755394681e-02	 1.220504365865899e+01
1	 1.193630417297124e+00	 1.234816921820130e-01	 1.160249345086564e+01
1	 1.190759712963843e+00	 1.486358489118020e-01	 1.099613621632215e+01
1	 1.187332234834512e+00	 1.739066138011468e-01	 1.038688558272004e+01
1	 1.183338495762656e+00	 1.992772294955378e-01	 9.775789647152280e+00
1	 1.178769606220092e+00	 2.247303042728567e-01	 9.164032042229330e+00
1	 1.173617318404766e+00	 2.502478343658425e-01	 8.552932027376171e+00
1	 1.214285679579051e+00	 0.000000000000000e+00	 1.406635190392640e+01
1	 1.214035796104490e+00	 2.463289976093064e-02	 1.349166313380835e+01
1	 1.213278006707471e+00	 4.945838875597484e-02	 1.291194243504943e+01
1	 1.212000362187669e+00	 7.446294506698058e-02	 1.232764678628136e+01
1	 1.210191293918011e+00	 9.963234013676772e-02	 1.173934507361099e+01
1	 1.207839658043205e+00	 1.249516455812401e-01	 1.114772150373550e+01
1	 1.204934780210126e+00	 1.504052429618308e-01	 1.055357837165802e+01
1	 1.201466500622466e+00	 1.759768366314353e-01	 9.957838111663005e+00
1	 1.197425219196647e+00	 2.016494697522397e-01	 9.361544562348037e+00
1	 1.192801940581567e+00	 2.274055435671674e-01	 8.765863379723239e+00
1	 1.187588318791500e+00	 2.532268399880767e-01	 8.172081536725688e+00
1	 1.228570744136519e+00	 0.000000000000000e+00	 1.358714241112342e+01
1	 1.228317920990019e+00	 2.492268540868854e-02	 1.301877143139475e+01
1	 1.227551216828906e+00	 5.004022570450483e-02	 1.244642093234703e+01
1	 1.226258541880407e+00	 7.533893989510042e-02	 1.187059877276736e+01
1	 1.224428191422134e+00	 1.008044320360747e-01	 1.129191530062860e+01
1	 1.222048890500565e+00	 1.264215981232256e-01	 1.071108599939815e+01
1	 1.219109839187650e+00	 1.521746359799606e-01	 1.012893351335516e+01
1	 1.215600758165490e+00	 1.780470582543500e-01	 9.546388988556359e+00
1	 1.211511934413471e+00	 2.040217086253930e-01	 8.964492668487507e+00
1	 1.206834266757633e+00	 2.300807813011770e-01	 8.384393686826852e+00
1	 1.201559311028636e+00	 2.562058438728060e-01	 7.807349004164609e+00
1	 1.242855802027764e+00	 0.000000000000000e+00	 1.312429726769848e+01
1	 1.242600039210701e+00	 2.521247092131928e-02	 1.256244412903392e+01
1	 1.241824420289660e+00	 5.062206238169809e-02	 1.199758525883081e+01
1	 1.240516714919490e+00	 7.621493431466822e-02	 1.143027674323557e+01
1	 1.238665082282548e+00	 1.019765233886893e-01	 1.086116832327046e+01
1	 1.236258116327144e+00	 1.278915499795382e-01	 1.029100531597629e+01
1	 1.233284891550360e+00	 1.539440281726847e-01	 9.720629937203507e+00
1	 1.229735009112759e+00	 1.801172789114669e-01	 9.150981970221560e+00
1	 1.225598643056746e+00	 2.063939463917933e-01	 8.583098726962643e+00
1	 1.220866586385550e+00	 2.327560177870144e-01	 8.018114252273913e+00
1	 1.215530296746261e+00	 2.591848463675837e-01	 7.457257726052444e+00
1	 1.257140854919592e+00	 0.000000000000000e+00	 1.267633748754240e+01
1	 1.256882152432996e+00	 2.550225633266756e-02	 1.212118589209159e+01
1	 1.256097618755154e+00	 5.120389885549600e-02	 1.156392875270113e+01
1	 1.254774882968583e+00	 7.709092842795702e-02	 1.100516781679831e+01
1	 1.252901968160429e+00	 1.031486143314331e-01	 1.044559022099919e+01
1	 1.250467337180882e+00	 1.293615013217461e-01	 9.885969727708460e+00
1	 1.247459938952200e+00	 1.557134197464967e-01	 9.327167384274848e+00
1	 1.243869255113450e+00	 1.821874988443626e-01	 8.770131555960869e+00
1	 1.239685346770091e+00	 2.087661833282363e-01	 8.215897286869296e+00
1	 1.234898901102576e+00	 2.354312533368090e-01	 7.665584946692375e+00
1	 1.229501277574464e+00	 2.621638478199633e-01	 7.120398125730675e+00
1	 1.271425904478810e+00	 0.000000000000000e+00	 1.224185056034390e+01
1	 1.271164262323368e+00	 2.579204167657809e-02	 1.169356859644094e+01
1	 1.270370813890807e+00	 5.178573519383996e-02	 1.114401247170200e+01
1	 1.269033047691344e+00	 7.796692233723983e-02	 1.059382711157700e+01
1	 1.267138850716951e+00	 1.043207050011279e-01	 1.004373511897405e+01
1	 1.264676554719722e+00	 1.308314523214177e-01	 9.494537365967963e+00
1	 1.261634983047117e+00	 1.574828109078902e-01	 8.947113027272973e+00
1	 1.258003497816736e+00	 1.842577182946137e-01	 8.402419013394827e+00
1	 1.253772047197120e+00	 2.111384197115177e-01	 7.861488764488913e+00
1	 1.248931212545972e+00	 2.381064882626895e-01	 7.325430369834296e+00
1	 1.243472255143333e+00	 2.651428485774981e-01	 6.795423982496208e+00
1	 1.285710952372222e+00	 0.000000000000000e+00	 1.181948675864320e+01
1	 1.285446370548278e+00	 2.608182698689557e-02	 1.127822759469784e+01
1	 1.284644007362039e+00	 5.236757146467139e-02	 1.073646143107608e+01
1	 1.283291210751439e+00	 7.884291614478972e-02	 1.019487396713176e+01
1	 1.281375731613288e+00	 1.054927955345953e-01	 9.654221407888148e+00
1	 1.278885770601601e+00	 1.323014031501213e-01	 9.115330449577934e+00
1	 1.275810025489054e+00	 1.592522018633586e-01	 8.579097724490577e+00
1	 1.272137738871795e+00	 1.863279375037966e-01	 8.046488669273828e+00
1	 1.267858745981453e+00	 2.135106558184332e-01	 7.518535784167790e+00
1	 1.262963522352994e+00	 2.407817228767851e-01	 6.996336254686154e+00
1	 1.257443231082956e+00	 2.681218489877413e-01	 6.481048912005033e+00
1	 1.117733202760072e+00	 2.383317875507917e-01	 1.026963202603948e+01
1	 1.112263833020041e+00	 2.626762300530532e-01	 9.571953594137494e+00
1	 1.106225213142014e+00	 2.870461420440131e-01	 8.857737482183108e+00
1	 1.099611567383429e+00	 3.114228193362967e-01	 8.128506742440244e+00
1	 1.092417889981094e+00	 3.357870931611621e-01	 7.385926114237167e+00
1	 1.084639981399607e+00	 3.601193671492018e-01	 6.631799779858795e+00
1	 1.076274482631064e+00	 3.843996573223178e-01	 5.868068061682956e+00
1	 1.067318907274511e+00	 4.086076349933625e-01	 5.096803033430731e+00
1	 1.057771671128008e+00	 4.327226724432351e-01	 4.320203028459308e+00
1	 1.047632119033529e+00	 4.567238912185653e-01	 3.540586038905742e+00
1	 1.036900548725005e+00	 4.805902128667193e-01	 2.760382011073954e+00
1	 1.131704252046085e+00	 2.413108035985782e-01	 9.808052202931464e+00
1	 1.126166518197095e+00	 2.659595382211787e-01	 9.131724678270485e+00
1	 1.120052418896942e+00	 2.906340606870188e-01	 8.439939430530123e+00
1	 1.113356106209475e+00	 3.153154330166911e-01	 7.734173378417597e+00
1	 1.106072511802234e+00	 3.399842468424100e-01	 7.016030084804475e+00
1	 1.098197383647950e+00	 3.646206608509515e-01	 6.287237173628415e+00
1	 1.089727320752985e+00	 3.892044412755066e-01	 5.549642785164149e+00
1	 1.080659805637753e+00	 4.137150053315430e-01	 4.805211049766362e+00
1	 1.070993234298678e+00	 4.381314674648408e-01	 4.056016569497611e+00
1	 1.060726943388633e+00	 4.624326882528711e-01	 3.304237907056157e+00
1	 1.049861234363075e+00	 4.865973257739606e-01	 2.552150091997482e+00
1	 1.145675286662146e+00	 2.442898165186466e-01	 9.369253890318772e+00
1	 1.140069188776074e+00	 2.692428429421195e-01	 8.713455336691151e+00
1	 1.133879610133148e+00	 2.942219755630260e-01	 8.043196208915310e+00
1	 1.127100630603702e+00	 3.192080426101740e-01	 7.359909200599803e+00
1	 1.119727119286068e+00	 3.441813961169891e-01	 6.665139408880631e+00
1	 1.111754771661164e+00	 3.691219498266913e-01	 5.960541432547639e+00
1	 1.103180144749660e+00	 3.940092201840262e-01	 5.247875600797140e+00
1	 1.094000689993370e+00	 4.188223703073470e-01	 4.529003319563555e+00
1	 1.084214783587100e+00	 4.435402568075890e-01	 3.805881530982234e+00
1	 1.073821753994628e+00	 4.681414792933418e-01	 3.080556290700110e+00
1	 1.062821906392927e+00	 4.926044323741732e-01	 2.355155477376630e+00
1	 1.159646308238343e+00	 2.472688266585502e-01	 8.951448350403020e+00
1	 1.153971846379076e+00	 2.725261445989176e-01	 8.315401574380866e+00
1	 1.147706788463904e+00	 2.978098870906049e-01	 7.665813926606259e+00
1	 1.140845142169716e+00	 3.231006485708565e-01	 7.004075770737002e+00
1	 1.133381714025693e+00	 3.483785414745347e-01	 6.331676413171838e+00
1	 1.125312147020986e+00	 3.736232346015354e-01	 5.650200901993669e+00
1	 1.116632956190610e+00	 3.988139946083936e-01	 4.961326044040475e+00
1	 1.107341561897807e+00	 4.239297305165887e-01	 4.266815633534300e+00
1	 1.097436320535780e+00	 4.489490411024549e-01	 3.568514893620820e+00
1	 1.086916552379217e+00	 4.738502650059465e-01	 2.868344140543246e+00
1	 1.075782566326606e+00	 4.986115333681203e-01	 2.168291688891764e+00
1	 1.173617318404766e+00	 2.502478343658425e-01	 8.552932027376171e+00
1	 1.167874492628195e+00	 2.758094435746150e-01	 7.935902447641172e+00
1	 1.161533955502484e+00	 3.013977956883258e-01	 7.306179358207534e+00
1	 1.154589642511129e+00	 3.269932513528491e-01	 6.665112675253513e+00
1	 1.147036297614210e+00	 3.525756834046819e-01	 6.014138555416801e+00
1	 1.138869511309155e+00	 3.781245157005969e-01	 5.354775914553144e+00
1	 1.130085756645355e+00	 4.036187651091258e-01	 4.688622247476594e+00
1	 1.120682422907506e+00	 4.290370865550829e-01	 4.017348748224530e+00
1	 1.110657846687221e+00	 4.543578209804138e-01	 3.342694737671278e+00
1	 1.100011340070105e+00	 4.795590460566533e-01	 2.666461412931422e+00
1	 1.088743215676155e+00	 5.046186294565644e-01	 1.990504940851623e+00
1	 1.187588318791500e+00	 2.532268399880767e-01	 8.172081536725685e+00
1	 1.181777129145528e+00	 2.790927402522532e-01	 7.573375178744186e+00
1	 1.175361112862159e+00	 3.049857017747593e-01	 6.962755198675636e+00
1	 1.168334133231548e+00	 3.308858514102632e-01	 6.341532935609438e+00
1	 1.160690871644718e+00	 3.567728223970656e-01	 5.711094004976871e+00
1	 1.152426866107410e+00	 3.826257936489898e-01	 5.072894555558251e+00
1	 1.143538547683417e+00	 4.084235322467395e-01	 4.428456905780318e+00
1	 1.134023274578911e+00	 4.341444390186439e-01	 3.779364564604277e+00
1	 1.123879363583928e+00	 4.597665970724412e-01	 3.127256648976675e+00
1	 1.113106118594998e+00	 4.852678231114311e-01	 2.473821716720424e+00
1	 1.101703855953616e+00	 5.106257213402688e-01	 1.820791040785668e+00
1	 1.201559311028636e+00	 2.562058438728060e-01	 7.807349004164610e+00
1	 1.195679757553171e+00	 2.823760350148740e-01	 7.226310611461733e+00
1	 1.189188262156201e+00	 3.085736057684754e-01	 6.634075649418597e+00
1	 1.182078615934583e+00	 3.347784491972097e-01	 6.031918738907454e+00
1	 1.174345437710318e+00	 3.609699589413216e-01	 5.421177531793689e+00
1	 1.165984212997487e+00	 3.871270689718281e-01	 4.803248724085446e+00
1	 1.156991330874316e+00	 4.132282965817519e-01	 4.179583522234772e+00
1	 1.147364118468464e+00	 4.392517885030855e-01	 3.551682573299317e+00
1	 1.137100872768407e+00	 4.651753700095123e-01	 2.921090375771655e+00
1	 1.126200889481598e+00	 4.909765968362484e-01	 2.289389194112574e+00
1	 1.114664488671034e+00	 5.166328097199970e-01	 1.658192506300001e+00
1	 1.215530296746261e+00	 2.591848463675837e-01	 7.457257726052442e+00
1	 1.209582379473220e+00	 2.856593282455194e-01	 6.893268980043058e+00
1	 1.203015404997883e+00	 3.121615080880448e-01	 6.318742308838346e+00
1	 1.195823092223842e+00	 3.386710451677993e-01	 5.734917462975209e+00
1	 1.187999997404107e+00	 3.651670935270845e-01	 5.143086678900302e+00
1	 1.179541553561126e+00	 3.916283421942254e-01	 4.544590465641611e+00
1	 1.170444107787571e+00	 4.180330586746797e-01	 3.940812914138494e+00
1	 1.160704956132611e+00	 4.443591356042226e-01	 3.333176545008091e+00
1	 1.150322375783163e+00	 4.705841404226023e-01	 2.723136716080978e+00
1	 1.139295654257610e+00	 4.966853678970743e-01	 2.112175616633542e+00
1	 1.127625115340454e+00	 5.226398952965117e-01	 1.501795880794103e+00
1	 1.229501277574464e+00	 2.621638478199633e-01	 7.120398125730675e+00
1	 1.223484996527770e+00	 2.889426203272313e-01	 6.572875966704697e+00
1	 1.216842543000477e+00	 3.157494091520374e-01	 6.015420343095702e+00
1	 1.209567563702936e+00	 3.425636397761434e-01	 5.449237972496164e+00
1	 1.201654552319188e+00	 3.693642266439899e-01	 4.875578195927661e+00
1	 1.193098889380065e+00	 3.961296138412951e-01	 4.295728554922908e+00
1	 1.183896879992705e+00	 4.228378190860399e-01	 3.711009956507914e+00
1	 1.174045789127792e+00	 4.494664809178695e-01	 3.122771446598036e+00
1	 1.163543874170699e+00	 4.759929089426868e-01	 2.532384617365559e+00
1	 1.152390414450741e+00	 5.023941369598771e-01	 1.941237679133349e+00
1	 1.140585737473918e+00	 5.286469787705758e-01	 1.350729232218067e+00
1	 1.243472255143333e+00	 2.651428485774981e-01	 6.795423982496207e+00
1	 1.237387610338918e+00	 2.922259116430513e-01	 6.263819024938125e+00
1	 1.230669677777256e+00	 3.193373093790241e-01	 5.722834915055773e+00
1	 1.223312031975472e+00	 3.464562334763527e-01	 5.173647164868124e+00
1	 1.215309104048657e+00	 3.735613587816728e-01	 4.617464713076485e+00
1	 1.206656222036041e+00	 4.006308844381515e-01	 4.055525308976247e+00
1	 1.197349649059237e+00	 4.276425783763493e-01	 3.489090545330723e+00
1	 1.187386619010453e+00	 4.545738250398405e-01	 2.919440565129632e+00
1	 1.176765369473521e+00	 4.814016762007408e-01	 2.347868471720323e+00
1	 1.165485171588693e+00	 5.081029046906257e-01	 1.775674476235556e+00
1	 1.153546356583469e+00	 5.346540608429523e-01	 1.204159820472296e+00
1	 1.257443231082956e+00	 2.681218489877413e-01	 6.481048912005033e+00
1	 1.251290222528759e+00	 2.955092025760216e-01	 5.964843947957917e+00
1	 1.244496810941490e+00	 3.229252091875747e-01	 5.439767851330550e+00
1	 1.237056498645061e+00	 3.503488267225385e-01	 4.906966746364025e+00
1	 1.228963654185617e+00	 3.777584904297682e-01	 4.367611636849384e+00
1	 1.220213553110794e+00	 4.051321545099082e-01	 3.822893612840520e+00
1	 1.210802416556687e+00	 4.324473371061250e-01	 3.274018763291920e+00
1	 1.200727447337036e+00	 4.596811685659496e-01	 2.722202823633619e+00
1	 1.189986863234135e+00	 4.868104428277399e-01	 2.168665591412667e+00
1	 1.178579927199173e+00	 5.138116717552889e-01	 1.614625147041970e+00
1	 1.166506974181152e+00	 5.406611422144046e-01	 1.061291920331529e+00
1	 1.036900548725005e+00	 4.805902128667193e-01	 2.760382011073955e+00
1	 1.025577419295452e+00	 5.043020646478357e-01	 1.975959786801167e+00
1	 1.013665729158402e+00	 5.278364433591113e-01	 1.183702502284272e+00
1	 1.001168751814751e+00	 5.511719849359001e-01	 3.859981122797408e-01
1	 9.880907749640296e-01	 5.742873480231188e-01	-4.147439907474342e-01
1	 9.744371061647262e-01	 5.971612733236881e-01	-1.216102240547958e+00
1	 9.602140743702269e-01	 6.197726437892053e-01	-2.015652365832448e+00
1	 9.454290272392749e-01	 6.421005453207324e-01	-2.810976995271997e+00
1	 9.300903241502864e-01	 6.641243276354837e-01	-3.599675327391645e+00
1	 9.142073248808197e-01	 6.858236649462323e-01	-4.379372792011646e+00
1	 8.977903739465982e-01	 7.071786160946152e-01	-5.147730628787169e+00
1	 1.049861234363075e+00	 4.865973257739606e-01	 2.552150091997481e+00
1	 1.038396572053436e+00	 5.106055626397865e-01	 1.795760978646394e+00
1	 1.026335992351761e+00	 5.344341081201812e-01	 1.031133268237334e+00
1	 1.013682809675893e+00	 5.580613311114565e-01	 2.605530032273188e-01
1	 1.000441365319234e+00	 5.814656235033427e-01	-5.136751721177228e-01
1	 9.866170331818169e-01	 6.046254602692555e-01	-1.289236929583643e+00
1	 9.722162213254484e-01	 6.275194604093164e-01	-2.063817351420576e+00
1	 9.572463692505458e-01	 6.501264484098677e-01	-2.835110134731440e+00
1	 9.417159408231383e-01	 6.724255158709614e-01	-3.600826836805265e+00
1	 9.256344128128366e-01	 6.943960829442236e-01	-4.358706090715012e+00
1	 9.090122590360994e-01	 7.160179592177930e-01	-5.106522719699805e+00
1	 1.062821906392927e+00	 4.926044323741732e-01	 2.355155477376629e+00
1	 1.051215711351843e+00	 5.169090540135580e-01	 1.625361949210915e+00
1	 1.039006242241894e+00	 5.410317659542637e-01	 8.869509908602671e-01
1	 1.026196854397831e+00	 5.649506700538356e-01	 1.421104530038649e-01
1	 1.012791942706873e+00	 5.886438914470942e-01	-6.069559300196520e-01
1	 9.987969474105339e-01	 6.120896393782246e-01	-1.358037121536132e+00
1	 9.842183556789587e-01	 6.352662688961455e-01	-2.108923513204940e+00
1	 9.690636988541473e-01	 6.581523430727501e-01	-2.857415740407229e+00
1	 9.533415452896359e-01	 6.807266953911941e-01	-3.601333515607561e+00
1	 9.370614887469668e-01	 7.029684919422192e-01	-4.338524411610953e+00
1	 9.202341323432031e-01	 7.248572930607246e-01	-5.066872526132205e+00
1	 1.075782566326606e+00	 4.986115333681203e-01	 2.168291688891765e+00
1	 1.064034838686197e+00	 5.232125395044800e-01	 1.463749190288217e+00
1	 1.051676480306948e+00	 5.476294176309935e-01	 7.502354288975961e-01
1	 1.038710887440483e+00	 5.718400025666855e-01	 2.984375284447194e-02
1	 1.025142508567791e+00	 5.958221526917139e-01	-6.953192103650732e-01
1	 1.010976850271808e+00	 6.195538115212763e-01	-1.423141808073975e+00
1	 9.962204788309452e-01	 6.430130701533314e-01	-2.151515739878413e+00
1	 9.808810174287035e-01	 6.661782302455649e-01	-2.878344495493752e+00
1	 9.649671389060314e-01	 6.890278671644737e-01	-3.601551788573171e+00
1	 9.484885540162959e-01	 7.115408929401473e-01	-4.319089920942966e+00
1	 9.314559951770458e-01	 7.336966186544741e-01	-5.028948011497953e+00
1	 1.088743215676155e+00	 5.046186294565644e-01	 1.990504940851622e+00
1	 1.076853955552018e+00	 5.295160198478809e-01	 1.309957459033326e+00
1	 1.064346708025067e+00	 5.542270639200044e-01	 6.201101650415797e-01
1	 1.051224910263766e+00	 5.787293294536553e-01	-7.703443613843397e-02
1	 1.037493064342832e+00	 6.030004080745422e-01	-7.794630542406293e-01
1	 1.023156743186568e+00	 6.270179775690913e-01	-1.485159550218482e+00
1	 1.008222592181596e+00	 6.507598650845137e-01	-2.192112970759452e+00
1	 9.926983263528391e-01	 6.742041108644978e-01	-2.898325619978172e+00
1	 9.765927230285766e-01	 6.973290321590903e-01	-3.601821105968900e+00
1	 9.599156099539082e-01	 7.201132869379340e-01	-4.300652299164155e+00
1	 9.426778488467652e-01	 7.425359370301068e-01	-4.992909139497641e+00
1	 1.101703855953616e+00	 5.106257213402688e-01	 1.820791040785670e+00
1	 1.089673063444831e+00	 5.358194957790912e-01	 1.163066938998198e+00
1	 1.077016926874399e+00	 5.608247055909321e-01	 4.957400282417653e-01
1	 1.063738924327598e+00	 5.856186515183933e-01	-1.792743986284298e-01
1	 1.049843611472838e+00	 6.101786584329199e-01	-8.600526509193005e-01
1	 1.035336627575747e+00	 6.344821383923496e-01	-1.544670268158484e+00
1	 1.020224697131097e+00	 6.585066545933308e-01	-2.231209721994193e+00
1	 1.004515627005178e+00	 6.822299858657340e-01	-2.917768132943745e+00
1	 9.882182990135243e-01	 7.056301913433348e-01	-3.602464941811816e+00
1	 9.713426578928895e-01	 7.286856749355066e-01	-4.283449475150480e+00
1	 9.538996946614974e-01	 7.513752492186879e-01	-4.958908344445105e+00
1	 1.114664488671034e+00	 5.166328097199970e-01	 1.658192506300001e+00
1	 1.102492163860158e+00	 5.421229680334391e-01	 1.022200599258145e+00
1	 1.089687138333090e+00	 5.674223434134106e-01	 3.763286958745031e-01
1	 1.076252931091896e+00	 5.925079695645479e-01	-2.775915192007253e-01
1	 1.062194151398654e+00	 6.173569046041871e-01	-9.377222476218443e-01
1	 1.047516504860274e+00	 6.419462948617327e-01	-1.602226906179385e+00
1	 1.032226795079638e+00	 6.662534395834214e-01	-2.269277506266825e+00
1	 1.016332920764344e+00	 6.902558561854591e-01	-2.937062026795393e+00
1	 9.998438682171271e-01	 7.139313456854990e-01	-3.603791722472655e+00
1	 9.827696991663241e-01	 7.372580579327912e-01	-4.267708309183760e+00
1	 9.651215339303795e-01	 7.602145562512814e-01	-4.927090968776216e+00
1	 1.127625115340454e+00	 5.226398952965117e-01	 1.501795880794103e+00
1	 1.115311258293522e+00	 5.484264373462548e-01	 8.865217356885061e-01
1	 1.102357343879284e+00	 5.740199781570746e-01	 2.611164612998033e-01
1	 1.088766932016580e+00	 5.993972843957679e-01	-3.726682878419693e-01
1	 1.074544685561123e+00	 6.245351474256848e-01	-1.013076927554853e+00
1	 1.059696376461081e+00	 6.494104478479209e-01	-1.658356982756195e+00
1	 1.044228887427404e+00	 6.740002209584247e-01	-2.306766154587265e+00
1	 1.028150209008962e+00	 6.982817227598582e-01	-2.956579360494280e+00
1	 1.011469431995637e+00	 7.222324961538733e-01	-3.606095691230513e+00
1	 9.941967351072980e-01	 7.458304369297156e-01	-4.253645228826798e+00
1	 9.763433679625483e-01	 7.690538591589523e-01	-4.897595670381184e+00
1	 1.140585737473918e+00	 5.286469787705758e-01	 1.350729232218067e+00
1	 1.128130348240445e+00	 5.547299044528674e-01	 7.552316799012265e-01
1	 1.115027544991130e+00	 5.806176105915594e-01	 1.493781536475065e-01
1	 1.101280928561567e+00	 6.062865968157012e-01	-4.651561687143728e-01
1	 1.086895215401089e+00	 6.317133877347538e-01	-1.086694266705137e+00
1	 1.071876243799097e+00	 6.568745982215950e-01	-1.713564034946088e+00
1	 1.056230975574584e+00	 6.817469996219793e-01	-2.344105047946469e+00
1	 1.039967493117655e+00	 7.063075865251172e-01	-2.976675278245249e+00
1	 1.023094991705307e+00	 7.305336437167493e-01	-3.609657713873544e+00
1	 1.005623767048896e+00	 7.544028129262060e-01	-4.241466821438522e+00
1	 9.875651980671412e-01	 7.778931589727657e-01	-4.870554802160969e+00
1	 1.153546356583469e+00	 5.346540608429523e-01	 1.204159820472295e+00
1	 1.140949435196451e+00	 5.610333700886062e-01	 6.275676626528400e-01
1	 1.127697743146772e+00	 5.872152414864988e-01	 4.042119785896336e-02
1	 1.113794922186774e+00	 6.131759076279970e-01	-5.556773429211697e-01
1	 1.099245742359396e+00	 6.388916263687342e-01	-1.159125878927123e+00
1	 1.084056108295254e+00	 6.643387468534362e-01	-1.768328965394887e+00
1	 1.068233060921365e+00	 6.894937764777240e-01	-2.381704265929608e+00
1	 1.051784774469049e+00	 7.143334484174210e-01	-2.997688959500950e+00
1	 1.034720548702388e+00	 7.388347893424174e-01	-3.614746029983504e+00
1	 1.017050796324203e+00	 7.629751869221899e-01	-4.231370386739496e+00
1	 9.987870255532937e-01	 7.867324567237854e-01	-4.846094765992632e+00
1	 1.166506974181152e+00	 5.406611422144046e-01	 1.061291920331530e+00
1	 1.153768520657062e+00	 5.673368349888009e-01	 5.028008197079147e-01
1	 1.140367939824356e+00	 5.938128716115278e-01	-6.641619592628389e-02
1	 1.126308914352119e+00	 6.200652176363033e-01	-6.448263350745145e-01
1	 1.111596267876887e+00	 6.460698641649667e-01	-1.230898858012840e+00
1	 1.096235971370482e+00	 6.718028946141243e-01	-1.823111299533196e+00
1	 1.080235144867935e+00	 6.972405524292983e-01	-2.419955658745974e+00
1	 1.063602054441766e+00	 7.223593093729551e-01	-3.019944505624970e+00
1	 1.046346104343134e+00	 7.471359339991690e-01	-3.621616954128665e+00
1	 1.028477824266305e+00	 7.715475599175938e-01	-4.223544452535714e+00
1	 1.010008851730144e+00	 7.955717534430776e-01	-4.824336343094546e+00
1	 8.977903739465982e-01	 7.071786160946152e-01	-5.147730628787169e+00
1	 8.808507781263871e-01	 7.281696857534988e-01	-5.904722652384192e+00
1	 8.634007747364419e-01	 7.487778883035630e-01	-6.650407520767884e+00
1	 8.454535107871739e-01	 7.689847982105142e-01	-7.382689117077243e+00
1	 8.270230131317176e-01	 7.887726023905666e-01	-8.099587821594042e+00
1	 8.081241522539677e-01	 8.081241522539679e-01	-8.799247325351843e+00
1	 7.887726023905661e-01	 8.270230131317177e-01	-9.479940526332449e+00
1	 7.689847982105142e-01	 8.454535107871741e-01	-1.014007446706670e+01
1	 7.487778883035625e-01	 8.634007747364423e-01	-1.077819428320304e+01
1	 7.281696857534985e-01	 8.808507781263871e-01	-1.139298614368838e+01
1	 7.071786160946154e-01	 8.977903739465983e-01	-1.198327917443089e+01
1	 9.090122590360994e-01	 7.160179592177930e-01	-5.106522719699805e+00
1	 8.918609276001876e-01	 7.372714056836830e-01	-5.844493543614371e+00
1	 8.741928087810674e-01	 7.581371994127891e-01	-6.572872382788443e+00
1	 8.560212139195389e-01	 7.785966845617895e-01	-7.289595404653108e+00
1	 8.373603451966737e-01	 7.986318253931607e-01	-7.992702598463788e+00
1	 8.182252589692260e-01	 8.182252589692263e-01	-8.680344713939181e+00
1	 7.986318253931602e-01	 8.373603451966736e-01	-9.350789376138456e+00
1	 7.785966845617891e-01	 8.560212139195389e-01	-1.000242633293941e+01
1	 7.581371994127888e-01	 8.741928087810675e-01	-1.063377180120245e+01
1	 7.372714056836827e-01	 8.918609276001878e-01	-1.124347188780524e+01
1	 7.160179592177931e-01	 9.090122590360992e-01	-1.183030507204669e+01
1	 9.202341323432031e-01	 7.248572930607246e-01	-5.066872526132205e+00
1	 9.028710655139545e-01	 7.463731160581214e-01	-5.786802578367924e+00
1	 8.849848314947354e-01	 7.674965006957747e-01	-6.498731713812629e+00
1	 8.665889059565564e-01	 7.882085608215773e-01	-7.200629486497943e+00
1	 8.476976664082401e-01	 8.084910380445101e-01	-7.890557297050959e+00
1	 8.283263550791978e-01	 8.283263550791981e-01	-8.566675437867728e+00
1	 8.084910380445095e-01	 8.476976664082403e-01	-9.227249403277364e+00
1	 7.882085608215771e-01	 8.665889059565568e-01	-9.870655418832955e+00
1	 7.674965006957744e-01	 8.849848314947356e-01	-1.049538515260703e+01
1	 7.463731160581211e-01	 9.028710655139547e-01	-1.110004958054061e+01
1	 7.248572930607247e-01	 9.202341323432032e-01	-1.168338198734008e+01
1	 9.314559951770458e-01	 7.336966186544741e-01	-5.028948011497953e+00
1	 9.138811931521120e-01	 7.554748179384909e-01	-5.731725919459468e+00
1	 8.957768441364098e-01	 7.768557932442529e-01	-6.427974513519412e+00
1	 8.771565881310048e-01	 7.978204281110890e-01	-7.115697713828106e+00
1	 8.580349779723025e-01	 8.183502414946923e-01	-7.792979994019523e+00
1	 8.384274417621956e-01	 8.384274417621959e-01	-8.457993515005002e+00
1	 8.183502414946922e-01	 8.580349779723029e-01	-9.109004607728476e+00
1	 7.978204281110886e-01	 8.771565881310051e-01	-9.744379557006097e+00
1	 7.768557932442528e-01	 8.957768441364100e-01	-1.036258964639255e+01
1	 7.554748179384908e-01	 9.138811931521124e-01	-1.096221543229968e+01
1	 7.336966186544741e-01	 9.314559951770459e-01	-1.154195022421701e+01
1	 9.426778488467652e-01	 7.425359370301068e-01	-4.992909139497641e+00
1	 9.248913117990835e-01	 7.645765123864678e-01	-5.679336101690985e+00
1	 9.065688479650544e-01	 7.862150781499597e-01	-6.360590304460384e+00
1	 8.877242616756615e-01	 8.074322875515353e-01	-7.034710896649966e+00
1	 8.683722810947471e-01	 8.282094368937868e-01	-7.699806952474123e+00
1	 8.485285201965314e-01	 8.485285201965317e-01	-8.354064676574721e+00
1	 8.282094368937866e-01	 8.683722810947477e-01	-8.995754037331951e+00
1	 8.074322875515352e-01	 8.877242616756618e-01	-9.623234778755032e+00
1	 7.862150781499594e-01	 9.065688479650545e-01	-1.023496176821590e+01
1	 7.645765123864676e-01	 9.248913117990837e-01	-1.082948964474153e+01
1	 7.425359370301071e-01	 9.426778488467653e-01	-1.140547674041606e+01
1	 9.538996946614974e-01	 7.513752492186879e-01	-4.958908344445105e+00
1	 9.359014227392927e-01	 7.736782004637299e-01	-5.629702245021687e+00
1	 9.173608442396334e-01	 7.955743565046290e-01	-6.296569101065657e+00
1	 8.982919278233042e-01	 8.170441402641271e-01	-6.957584041249424e+00
1	 8.787095769814606e-01	 8.380686253918720e-01	-7.610882140188478e+00
1	 8.586295915605159e-01	 8.586295915605164e-01	-8.254665677933804e+00
1	 8.380686253918719e-01	 8.787095769814610e-01	-8.887210902436617e+00
1	 8.170441402641268e-01	 8.982919278233045e-01	-9.506874243717778e+00
1	 7.955743565046286e-01	 9.173608442396336e-01	-1.011209793458676e+01
1	 7.736782004637297e-01	 9.359014227392930e-01	-1.070141499941346e+01
1	 7.513752492186877e-01	 9.538996946614970e-01	-1.127345357954916e+01
1	 9.651215339303795e-01	 7.602145562512814e-01	-4.927090968776216e+00
1	 9.469115272571633e-01	 7.827798832319531e-01	-5.582890252863714e+00
1	 9.281528342191102e-01	 8.049336293999959e-01	-6.235901380812256e+00
1	 9.088595878067111e-01	 8.266559873700755e-01	-6.884236105998961e+00
1	 8.890468668383286e-01	 8.479278081390260e-01	-7.526056781448869e+00
1	 8.687306570324631e-01	 8.687306570324635e-01	-8.159583657440562e+00
1	 8.479278081390258e-01	 8.890468668383289e-01	-8.783101752322995e+00
1	 8.266559873700748e-01	 9.088595878067113e-01	-9.394967243887216e+00
1	 8.049336293999955e-01	 9.281528342191108e-01	-9.993613333968590e+00
1	 7.827798832319527e-01	 9.469115272571639e-01	-1.057755554486485e+01
1	 7.602145562512813e-01	 9.651215339303794e-01	-1.114539641254754e+01
1	 9.763433679625483e-01	 7.690538591589523e-01	-4.897595670381184e+00
1	 9.579216266371187e-01	 7.918815617528144e-01	-5.538962996700921e+00
1	 9.389448191624499e-01	 8.142928979277946e-01	-6.178578057381218e+00
1	 9.194272428586596e-01	 8.362678299905909e-01	-6.814589774007102e+00
1	 8.993841518712374e-01	 8.577869862853280e-01	-7.445188939809683e+00
1	 8.788317177906830e-01	 8.788317177906835e-01	-8.068615539544075e+00
1	 8.577869862853276e-01	 8.993841518712375e-01	-8.683165708431870e+00
1	 8.362678299905906e-01	 9.194272428586597e-01	-9.287198276320737e+00
1	 8.142928979277942e-01	 9.389448191624503e-01	-9.879140847812334e+00
1	 7.918815617528140e-01	 9.579216266371190e-01	-1.045749537431548e+01
1	 7.690538591589523e-01	 9.763433679625483e-01	-1.102084317970967e+01
1	 9.875651980671412e-01	 7.778931589727657e-01	-4.870554802160969e+00
1	 9.689317221635829e-01	 8.009832370879902e-01	-5.497980488118452e+00
1	 9.497368003286156e-01	 8.236521631797603e-01	-6.124590455644986e+00
1	 9.299948942119269e-01	 8.458796692468847e-01	-6.748571241271090e+00
1	 9.097214332860737e-01	 8.676461609808563e-01	-7.368143129299760e+00
1	 8.889327750134892e-01	 8.889327750134896e-01	-7.981567478576483e+00
1	 8.676461609808558e-01	 9.097214332860740e-01	-8.587153749878857e+00
1	 8.458796692468844e-01	 9.299948942119275e-01	-9.183266179081812e+00
1	 8.236521631797599e-01	 9.497368003286158e-01	-9.768330045165072e+00
1	 8.009832370879897e-01	 9.689317221635830e-01	-1.034083748667383e+01
1	 7.778931589727656e-01	 9.875651980671409e-01	-1.089935282534725e+01
1	 9.987870255532937e-01	 7.867324567237854e-01	-4.846094765992632e+00
1	 9.799418151209793e-01	 8.100849102991579e-01	-5.460000039233265e+00
1	 9.605287789765713e-01	 8.330114262476276e-01	-6.073930288341460e+00
1	 9.405625430992914e-01	 8.554915062601673e-01	-6.686110019112983e+00
1	 9.200587122887236e-01	 8.775053333756896e-01	-7.294789951843045e+00
1	 8.990338298791927e-01	 8.990338298791930e-01	-7.898254340046904e+00
1	 8.775053333756889e-01	 9.200587122887238e-01	-8.494828047141796e+00
1	 8.554915062601672e-01	 9.405625430992921e-01	-9.082883325439248e+00
1	 8.330114262476271e-01	 9.605287789765714e-01	-9.660846245065297e+00
1	 8.100849102991573e-01	 9.799418151209796e-01	-1.022720272435021e+01
1	 7.867324567237856e-01	 9.987870255532937e-01	-1.078050411774594e+01
1	 1.010008851730144e+00	 7.955717534430776e-01	-4.824336343094546e+00
1	 9.909519067937320e-01	 8.191865824479939e-01	-5.425076412428510e+00
1	 9.713207563652808e-01	 8.423706882231309e-01	-6.026589634302932e+00
1	 9.511301907535311e-01	 8.651033421516505e-01	-6.627138749788100e+00
1	 9.303959900850729e-01	 8.873645046199061e-01	-7.225005758854011e+00
1	 9.091348835661056e-01	 9.091348835661061e-01	-7.818499216519830e+00
1	 8.873645046199057e-01	 9.303959900850729e-01	-8.405961340174171e+00
1	 8.651033421516500e-01	 9.511301907535311e-01	-8.985774871792490e+00
1	 8.423706882231307e-01	 9.713207563652815e-01	-9.556369641452513e+00
1	 8.191865824479935e-01	 9.909519067937324e-01	-1.011622878188975e+01
1	 7.955717534430776e-01	 1.010008851730144e+00	-1.066389454780449e+01
1	 7.071786160946154e-01	 8.977903739465983e-01	-1.198327917443089e+01
1	 6.858236649462317e-01	 9.142073248808196e-01	-1.254812452447637e+01
1	 6.641243276354835e-01	 9.300903241502866e-01	-1.308655538631590e+01
1	 6.421005453207319e-01	 9.454290272392751e-01	-1.359760513819376e+01
1	 6.197726437892049e-01	 9.602140743702273e-01	-1.408047210301602e+01
1	 5.971612733236877e-01	 9.744371061647262e-01	-1.453451923790206e+01
1	 5.742873480231185e-01	 9.880907749640297e-01	-1.495927270643487e+01
1	 5.511719849358999e-01	 1.001168751814751e+00	-1.535441937447907e+01
1	 5.278364433591108e-01	 1.013665729158402e+00	-1.571980328084234e+01
1	 5.043020646478351e-01	 1.025577419295452e+00	-1.605542114347567e+01
1	 4.805902128667193e-01	 1.036900548725006e+00	-1.636141697023210e+01
1	 7.160179592177931e-01	 9.090122590360992e-01	-1.183030507204669e+01
1	 6.943960829442232e-01	 9.256344128128371e-01	-1.239330202621262e+01
1	 6.724255158709611e-01	 9.417159408231384e-01	-1.293147428387628e+01
1	 6.501264484098671e-01	 9.572463692505462e-01	-1.344378319525342e+01
1	 6.275194604093159e-01	 9.722162213254483e-01	-1.392933972756418e+01
1	 6.046254602692551e-01	 9.866170331818170e-01	-1.438740514700039e+01
1	 5.814656235033423e-01	 1.000441365319234e+00	-1.481739067328968e+01
1	 5.580613311114559e-01	 1.013682809675893e+00	-1.521885613566089e+01
1	 5.344341081201810e-01	 1.026335992351761e+00	-1.559150766884870e+01
1	 5.106055626397861e-01	 1.038396572053436e+00	-1.593519449681090e+01
1	 4.865973257739606e-01	 1.049861234363075e+00	-1.624990485995336e+01
1	 7.248572930607247e-01	 9.202341323432032e-01	-1.168338198734008e+01
1	 7.029684919422190e-01	 9.370614887469674e-01	-1.224437915802104e+01
1	 6.807266953911937e-01	 9.533415452896362e-01	-1.278202060226694e+01
1	 6.581523430727497e-01	 9.690636988541473e-01	-1.329520699146605e+01
1	 6.352662688961452e-01	 9.842183556789591e-01	-1.378297449122597e+01
1	 6.120896393782242e-01	 9.987969474105339e-01	-1.424449632888708e+01
1	 5.886438914470936e-01	 1.012791942706873e+00	-1.467908341704117e+01
1	 5.649506700538351e-01	 1.026196854397832e+00	-1.508618405097219e+01
1	 5.410317659542635e-01	 1.039006242241895e+00	-1.546538270722589e+01
1	 5.169090540135576e-01	 1.051215711351843e+00	-1.581639797918081e+01
1	 4.926044323741732e-01	 1.062821906392927e+00	-1.613907969341309e+01
1	 7.336966186544741e-01	 9.314559951770459e-01	-1.154195022421701e+01
1	 7.115408929401470e-01	 9.484885540162963e-01	-1.210074614618402e+01
1	 6.890278671644734e-01	 9.649671389060314e-01	-1.263754285133620e+01
1	 6.661782302455646e-01	 9.808810174287038e-01	-1.315119125813983e+01
1	 6.430130701533312e-01	 9.962204788309453e-01	-1.364066483001294e+01
1	 6.195538115212760e-01	 1.010976850271808e+00	-1.410506192398202e+01
1	 5.958221526917136e-01	 1.025142508567791e+00	-1.454360727240546e+01
1	 5.718400025666852e-01	 1.038710887440483e+00	-1.495565260594283e+01
1	 5.476294176309930e-01	 1.051676480306948e+00	-1.534067643473077e+01
1	 5.232125395044795e-01	 1.064034838686197e+00	-1.569828301303292e+01
1	 4.986115333681203e-01	 1.075782566326606e+00	-1.602820052035033e+01
1	 7.425359370301071e-01	 9.426778488467653e-01	-1.140547674041606e+01
1	 7.201132869379336e-01	 9.599156099539083e-01	-1.196182225584305e+01
1	 6.973290321590896e-01	 9.765927230285767e-01	-1.249742056668043e+01
1	 6.742041108644973e-01	 9.926983263528394e-01	-1.301108336123527e+01
1	 6.507598650845134e-01	 1.008222592181596e+00	-1.350173306715362e+01
1	 6.270179775690907e-01	 1.023156743186568e+00	-1.396840587916852e+01
1	 6.030004080745418e-01	 1.037493064342832e+00	-1.441025399076173e+01
1	 5.787293294536551e-01	 1.051224910263766e+00	-1.482654702931222e+01
1	 5.542270639200043e-01	 1.064346708025068e+00	-1.521667270260359e+01
1	 5.295160198478805e-01	 1.076853955552018e+00	-1.558013667252983e+01
1	 5.046186294565644e-01	 1.088743215676154e+00	-1.591656167934805e+01
1	 7.513752492186877e-01	 9.538996946614970e-01	-1.127345357954916e+01
1	 7.286856749355062e-01	 9.713426578928899e-01	-1.182705408277444e+01
1	 7.056301913433345e-01	 9.882182990135246e-01	-1.236106248457687e+01
1	 6.822299858657339e-01	 1.004515627005178e+00	-1.287426138169096e+01
1	 6.585066545933304e-01	 1.020224697131098e+00	-1.336553341977549e+01
1	 6.344821383923491e-01	 1.035336627575747e+00	-1.383386490043922e+01
1	 6.101786584329194e-01	 1.049843611472838e+00	-1.427834865694269e+01
1	 5.856186515183930e-01	 1.063738924327598e+00	-1.469818619064943e+01
1	 5.608247055909317e-01	 1.077016926874399e+00	-1.509268906815118e+01
1	 5.358194957790905e-01	 1.089673063444831e+00	-1.546127958662536e+01
1	 5.106257213402690e-01	 1.101703855953616e+00	-1.580349072228999e+01
1	 7.602145562512813e-01	 9.651215339303794e-01	-1.114539641254754e+01
1	 7.372580579327910e-01	 9.827696991663243e-01	-1.169591396435716e+01
1	 7.139313456854985e-01	 9.998438682171275e-01	-1.222790484426123e+01
1	 6.902558561854589e-01	 1.016332920764344e+00	-1.274013232969634e+01
1	 6.662534395834212e-01	 1.032226795079638e+00	-1.323145014467263e+01
1	 6.419462948617320e-01	 1.047516504860274e+00	-1.370080654839842e+01
1	 6.173569046041869e-01	 1.062194151398654e+00	-1.414724775138170e+01
1	 5.925079695645477e-01	 1.076252931091897e+00	-1.456992064466759e+01
1	 5.674223434134104e-01	 1.089687138333090e+00	-1.496807483530555e+01
1	 5.421229680334386e-01	 1.102492163860158e+00	-1.534106398845541e+01
1	 5.166328097199971e-01	 1.114664488671035e+00	-1.568834648364050e+01
1	 7.690538591589523e-01	 9.763433679625483e-01	-1.102084317970967e+01
1	 7.458304369297151e-01	 9.941967351072982e-01	-1.156789850014248e+01
1	 7.222324961538731e-01	 1.011469431995637e+00	-1.209740980730408e+01
1	 6.982817227598579e-01	 1.028150209008962e+00	-1.260813048213266e+01
1	 6.740002209584242e-01	 1.044228887427404e+00	-1.309889581196565e+01
1	 6.494104478479207e-01	 1.059696376461081e+00	-1.356862746512351e+01
1	 6.245351474256845e-01	 1.074544685561123e+00	-1.401633734592173e+01
1	 5.993972843957676e-01	 1.088766932016580e+00	-1.444113081042995e+01
1	 5.740199781570746e-01	 1.102357343879285e+00	-1.484220923033349e+01
1	 5.484264373462544e-01	 1.115311258293522e+00	-1.521887189926908e+01
1	 5.226398952965116e-01	 1.127625115340454e+00	-1.557051728289233e+01
1	 7.778931589727656e-01	 9.875651980671409e-01	-1.089935282534725e+01
1	 7.544028129262057e-01	 1.005623767048896e+00	-1.144252717330516e+01
1	 7.305336437167487e-01	 1.023094991705307e+00	-1.196906398476892e+01
1	 7.063075865251167e-01	 1.039967493117656e+00	-1.247771583338262e+01
1	 6.817469996219788e-01	 1.056230975574584e+00	-1.296730969648131e+01
1	 6.568745982215948e-01	 1.071876243799097e+00	-1.343675172193684e+01
1	 6.317133877347535e-01	 1.086895215401090e+00	-1.388503142265030e+01
1	 6.062865968157010e-01	 1.101280928561567e+00	-1.431122527471421e+01
1	 5.806176105915590e-01	 1.115027544991130e+00	-1.471449970194328e+01
1	 5.547299044528670e-01	 1.128130348240445e+00	-1.509411343619734e+01
1	 5.286469787705758e-01	 1.140585737473918e+00	-1.544941924959014e+01
1	 7.867324567237856e-01	 9.987870255532937e-01	-1.078050411774594e+01
1	 7.629751869221895e-01	 1.017050796324203e+00	-1.131934106504136e+01
1	 7.388347893424171e-01	 1.034720548702388e+00	-1.184237706367488e+01
1	 7.143334484174205e-01	 1.051784774469049e+00	-1.234837265059280e+01
1	 6.894937764777238e-01	 1.068233060921365e+00	-1.283615627758964e+01
1	 6.643387468534357e-01	 1.084056108295254e+00	-1.330462927857653e+01
1	 6.388916263687338e-01	 1.099245742359396e+00	-1.375277030608555e+01
1	 6.131759076279966e-01	 1.113794922186774e+00	-1.417963920977069e+01
1	 5.872152414864982e-01	 1.127697743146772e+00	-1.458438033600421e+01
1	 5.610333700886059e-01	 1.140949435196451e+00	-1.496622523411729e+01
1	 5.346540608429523e-01	 1.153546356583469e+00	-1.532449476128561e+01
1	 7.955717534430776e-01	 1.010008851730144e+00	-1.066389454780449e+01
1	 7.715475599175932e-01	 1.028477824266305e+00	-1.119790165468286e+01
1	 7.471359339991688e-01	 1.046346104343135e+00	-1.171688052503821e+01
1	 7.223593093729547e-01	 1.063602054441766e+00	-1.221960812526214e+01
1	 6.972405524292978e-01	 1.080235144867935e+00	-1.270492383906452e+01
1	 6.718028946141240e-01	 1.096235971370482e+00	-1.317173454510036e+01
1	 6.460698641649665e-01	 1.111596267876887e+00	-1.361901919989433e+01
1	 6.200652176363031e-01	 1.126308914352119e+00	-1.404583289657520e+01
1	 5.938128716115273e-01	 1.140367939824357e+00	-1.445131037596355e+01
1	 5.673368349888005e-01	 1.153768520657062e+00	-1.483466897273817e+01
1	 5.406611422144048e-01	 1.166506974181152e+00	-1.519521098564113e+01
1	 4.805902128667193e-01	 1.036900548725006e+00	-1.636141697023210e+01
1	 4.567238912185655e-01	 1.047632119033528e+00	-1.663828803144837e+01
1	 4.327226724432352e-01	 1.057771671128007e+00	-1.688625683581328e+01
1	 4.086076349933627e-01	 1.067318907274511e+00	-1.710519957351115e+01
1	 3.843996573223180e-01	 1.076274482631064e+00	-1.729512193625460e+01
1	 3.601193671492018e-01	 1.084639981399606e+00	-1.745615590733540e+01
1	 3.357870931611622e-01	 1.092417889981094e+00	-1.758855583722763e+01
1	 3.114228193362970e-01	 1.099611567383429e+00	-1.769269386368102e+01
1	 2.870461420440134e-01	 1.106225213142014e+00	-1.776905473929155e+01
1	 2.626762300530535e-01	 1.112263833020041e+00	-1.781823013261109e+01
1	 2.383317875507918e-01	 1.117733202760072e+00	-1.784091247095984e+01
1	 4.865973257739606e-01	 1.049861234363075e+00	-1.624990485995336e+01
1	 4.624326882528714e-01	 1.060726943388633e+00	-1.653596130602756e+01
1	 4.381314674648409e-01	 1.070993234298677e+00	-1.679347991935022e+01
1	 4.137150053315431e-01	 1.080659805637752e+00	-1.702227215694052e+01
1	 3.892044412755069e-01	 1.089727320752985e+00	-1.722227397670706e+01
1	 3.646206608509516e-01	 1.098197383647950e+00	-1.739354326489272e+01
1	 3.399842468424103e-01	 1.106072511802235e+00	-1.753625655926481e+01
1	 3.153154330166913e-01	 1.113356106209476e+00	-1.765070512080318e+01
1	 2.906340606870190e-01	 1.120052418896942e+00	-1.773729041093567e+01
1	 2.659595382211789e-01	 1.126166518197095e+00	-1.779651903474535e+01
1	 2.413108035985782e-01	 1.131704252046085e+00	-1.782899721304077e+01
1	 4.926044323741732e-01	 1.062821906392927e+00	-1.613907969341309e+01
1	 4.681414792933423e-01	 1.073821753994628e+00	-1.643359345129444e+01
1	 4.435402568075893e-01	 1.084214783587100e+00	-1.669995735487412e+01
1	 4.188223703073470e-01	 1.094000689993370e+00	-1.693792186576274e+01
1	 3.940092201840263e-01	 1.103180144749659e+00	-1.714735685333990e+01
1	 3.691219498266916e-01	 1.111754771661164e+00	-1.732824964606786e+01
1	 3.441813961169894e-01	 1.119727119286067e+00	-1.748070238977254e+01
1	 3.192080426101743e-01	 1.127100630603701e+00	-1.760492875951759e+01
1	 2.942219755630262e-01	 1.133879610133147e+00	-1.770125007622699e+01
1	 2.692428429421198e-01	 1.140069188776074e+00	-1.777009088287648e+01
1	 2.442898165186467e-01	 1.145675286662146e+00	-1.781197403789127e+01
1	 4.986115333681203e-01	 1.075782566326606e+00	-1.602820052035033e+01
1	 4.738502650059467e-01	 1.086916552379217e+00	-1.633045336883165e+01
1	 4.489490411024551e-01	 1.097436320535780e+00	-1.660496844127101e+01
1	 4.239297305165890e-01	 1.107341561897807e+00	-1.685143885123047e+01
1	 3.988139946083938e-01	 1.116632956190609e+00	-1.706967193208483e+01
1	 3.736232346015355e-01	 1.125312147020986e+00	-1.725958789915219e+01
1	 3.483785414745348e-01	 1.133381714025693e+00	-1.742121783103551e+01
1	 3.231006485708565e-01	 1.140845142169716e+00	-1.755470101073424e+01
1	 2.978098870906050e-01	 1.147706788463904e+00	-1.766028167182438e+01
1	 2.725261445989179e-01	 1.153971846379076e+00	-1.773830519895596e+01
1	 2.472688266585503e-01	 1.159646308238343e+00	-1.778921383506560e+01
1	 5.046186294565644e-01	 1.088743215676154e+00	-1.591656167934805e+01
1	 4.795590460566536e-01	 1.100011340070106e+00	-1.622584478022959e+01
1	 4.543578209804141e-01	 1.110657846687220e+00	-1.650782680258656e+01
1	 4.290370865550832e-01	 1.120682422907506e+00	-1.676214707319983e+01
1	 4.036187651091259e-01	 1.130085756645355e+00	-1.698855385363089e+01
1	 3.781245157005970e-01	 1.138869511309155e+00	-1.718690360056403e+01
1	 3.525756834046820e-01	 1.147036297614210e+00	-1.735715955862565e+01
1	 3.269932513528492e-01	 1.154589642511129e+00	-1.749938972022045e+01
1	 3.013977956883261e-01	 1.161533955502484e+00	-1.761376419186858e+01
1	 2.758094435746151e-01	 1.167874492628195e+00	-1.770055201074347e+01
1	 2.502478343658426e-01	 1.173617318404765e+00	-1.776011745858585e+01
1	 5.106257213402690e-01	 1.101703855953616e+00	-1.580349072228999e+01
1	 4.852678231114312e-01	 1.113106118594997e+00	-1.611910417915530e+01
1	 4.597665970724414e-01	 1.123879363583928e+00	-1.640787836923488e+01
1	 4.341444390186440e-01	 1.134023274578911e+00	-1.666940231175470e+01
1	 4.084235322467397e-01	 1.143538547683417e+00	-1.690336857647783e+01
1	 3.826257936489901e-01	 1.152426866107410e+00	-1.710957313008146e+01
1	 3.567728223970658e-01	 1.160690871644718e+00	-1.728791452929398e+01
1	 3.308858514102634e-01	 1.168334133231548e+00	-1.743839248936130e+01
1	 3.049857017747594e-01	 1.175361112862159e+00	-1.756110586154613e+01
1	 2.790927402522533e-01	 1.181777129145528e+00	-1.765625005783695e+01
1	 2.532268399880767e-01	 1.187588318791500e+00	-1.772411396482761e+01
1	 5.166328097199971e-01	 1.114664488671035e+00	-1.568834648364050e+01
1	 4.909765968362486e-01	 1.126200889481598e+00	-1.600959892631765e+01
1	 4.651753700095125e-01	 1.137100872768407e+00	-1.630449950007035e+01
1	 4.392517885030857e-01	 1.147364118468464e+00	-1.657259031757064e+01
1	 4.132282965817521e-01	 1.156991330874316e+00	-1.681351155653685e+01
1	 3.871270689718284e-01	 1.165984212997487e+00	-1.702700188037670e+01
1	 3.609699589413218e-01	 1.174345437710318e+00	-1.721289822088629e+01
1	 3.347784491972099e-01	 1.182078615934583e+00	-1.737113494564994e+01
1	 3.085736057684756e-01	 1.189188262156202e+00	-1.750174243809536e+01
1	 2.823760350148741e-01	 1.195679757553171e+00	-1.760484512287844e+01
1	 2.562058438728059e-01	 1.201559311028636e+00	-1.768065897335839e+01
1	 5.226398952965116e-01	 1.127625115340454e+00	-1.557051728289233e+01
1	 4.966853678970744e-01	 1.139295654257610e+00	-1.589672547582912e+01
1	 4.705841404226027e-01	 1.150322375783162e+00	-1.619709523398657e+01
1	 4.443591356042228e-01	 1.160704956132610e+00	-1.647112508985513e+01
1	 4.180330586746799e-01	 1.170444107787572e+00	-1.671840605229087e+01
1	 3.916283421942255e-01	 1.179541553561126e+00	-1.693862259004553e+01
1	 3.651670935270849e-01	 1.187999997404108e+00	-1.713155299365804e+01
1	 3.386710451677995e-01	 1.195823092223842e+00	-1.729706913246915e+01
1	 3.121615080880449e-01	 1.203015404997883e+00	-1.743513562899683e+01
1	 2.856593282455197e-01	 1.209582379473220e+00	-1.754580847786303e+01
1	 2.591848463675838e-01	 1.215530296746261e+00	-1.762923314083472e+01
1	 5.286469787705758e-01	 1.140585737473918e+00	-1.544941924959014e+01
1	 5.023941369598772e-01	 1.152390414450741e+00	-1.577990772251177e+01
1	 4.759929089426871e-01	 1.163543874170699e+00	-1.608509766073865e+01
1	 4.494664809178697e-01	 1.174045789127792e+00	-1.636444727171456e+01
1	 4.228378190860402e-01	 1.183896879992705e+00	-1.661750154552532e+01
1	 3.961296138412954e-01	 1.193098889380064e+00	-1.684389379030729e+01
1	 3.693642266439901e-01	 1.201654552319188e+00	-1.704334656333061e+01
1	 3.425636397761436e-01	 1.209567563702935e+00	-1.721567200867173e+01
1	 3.157494091520378e-01	 1.216842543000477e+00	-1.736077161802801e+01
1	 2.889426203272316e-01	 1.223484996527770e+00	-1.747863543639231e+01
1	 2.621638478199633e-01	 1.229501277574464e+00	-1.756934073896379e+01
1	 5.346540608429523e-01	 1.153546356583469e+00	-1.532449476128561e+01
1	 5.081029046906258e-01	 1.165485171588693e+00	-1.565859546063352e+01
1	 4.814016762007410e-01	 1.176765369473521e+00	-1.596796440161002e+01
1	 4.545738250398405e-01	 1.187386619010453e+00	-1.625202265371137e+01
1	 4.276425783763496e-01	 1.197349649059237e+00	-1.651027226853881e+01
1	 4.006308844381519e-01	 1.206656222036041e+00	-1.674229835643343e+01
1	 3.735613587816729e-01	 1.215309104048657e+00	-1.694777057709936e+01
1	 3.464562334763529e-01	 1.223312031975472e+00	-1.712644404932606e+01
1	 3.193373093790243e-01	 1.230669677777255e+00	-1.727815969069574e+01
1	 2.922259116430516e-01	 1.237387610338918e+00	-1.740284400354136e+01
1	 2.651428485774981e-01	 1.243472255143333e+00	-1.750050832834416e+01
1	 5.406611422144048e-01	 1.166506974181152e+00	-1.519521098564113e+01
1	 5.138116717552891e-01	 1.178579927199173e+00	-1.553226294540685e+01
1	 4.868104428277401e-01	 1.189986863234134e+00	-1.584517719137958e+01
1	 4.596811685659499e-01	 1.200727447337036e+00	-1.613334077719455e+01
1	 4.324473371061253e-01	 1.210802416556687e+00	-1.639621582955095e+01
1	 4.051321545099085e-01	 1.220213553110794e+00	-1.663334215575803e+01
1	 3.777584904297684e-01	 1.228963654185617e+00	-1.684433928458542e+01
1	 3.503488267225386e-01	 1.237056498645061e+00	-1.702890793975455e+01
1	 3.229252091875749e-01	 1.244496810941490e+00	-1.718683095131709e+01
1	 2.955092025760218e-01	 1.251290222528759e+00	-1.731797361574402e+01
1	 2.681218489877413e-01	 1.257443231082956e+00	-1.742228352072669e+01
1	 2.383317875507918e-01	 1.117733202760072e+00	-1.784091247095984e+01
1	 2.140293252500230e-01	 1.122640154174940e+00	-1.783862967774174e+01
1	 1.897882490973285e-01	 1.126991486982686e+00	-1.781215728620079e+01
1	 1.656257055747226e-01	 1.130795056249892e+00	-1.776121661314892e+01
1	 1.415582582628250e-01	 1.134059328212202e+00	-1.768563909565448e+01
1	 1.176018665813229e-01	 1.136793338266780e+00	-1.758536380960127e+01
1	 9.377186765109050e-02	 1.139006648600664e+00	-1.746043440444874e+01
1	 7.008296121854513e-02	 1.140709305690971e+00	-1.731099550960356e+01
1	 4.654919756532504e-02	 1.141911797900406e+00	-1.713728866950797e+01
1	 2.318396831066902e-02	 1.142625013377961e+00	-1.693964786546212e+01
1	 0.000000000000000e+00	 1.142860198460186e+00	-1.671849468236876e+01
1	 2.413108035985782e-01	 1.131704252046085e+00	-1.782899721304077e+01
1	 2.167045739068282e-01	 1.136672537650634e+00	-1.783616000736433e+01
1	 1.921604976561824e-01	 1.141078259721515e+00	-1.781865582509720e+01
1	 1.676959356502720e-01	 1.144929371509319e+00	-1.777607290243937e+01
1	 1.433276585053855e-01	 1.148234445072978e+00	-1.770811423132673e+01
1	 1.190718251251994e-01	 1.151002628747150e+00	-1.761459583198114e+01
1	 9.494396433618364e-02	 1.153243604240947e+00	-1.749544436354602e+01
1	 7.095895962352035e-02	 1.154967543606920e+00	-1.735069412700570e+01
1	 4.713103688965951e-02	 1.156185066306537e+00	-1.718048351717058e+01
1	 2.347375514173319e-02	 1.156907196584657e+00	-1.698505098224475e+01
1	 0.000000000000000e+00	 1.157145321350848e+00	-1.676473055041933e+01
1	 2.442898165186467e-01	 1.145675286662146e+00	-1.781197403789127e+01
1	 2.193798197548161e-01	 1.150704906391885e+00	-1.782824971222723e+01
1	 1.945327437243048e-01	 1.155165017668707e+00	-1.781945115657890e+01
1	 1.697661635521415e-01	 1.159063671927113e+00	-1.778504178336325e+01
1	 1.450970568900728e-01	 1.162409547049214e+00	-1.772460386224535e+01
1	 1.205417821255609e-01	 1.165211904307037e+00	-1.763783752556263e+01
1	 9.611605979047631e-02	 1.167480544931648e+00	-1.752455903836634e+01
1	 7.183495710857847e-02	 1.169225766550903e+00	-1.738469838593683e+01
1	 4.771287560295031e-02	 1.170458319724889e+00	-1.721829623506092e+01
1	 2.376354166844671e-02	 1.171189364794196e+00	-1.702550032788868e+01
1	 0.000000000000000e+00	 1.171430429241259e+00	-1.680656136884447e+01
1	 2.472688266585503e-01	 1.159646308238343e+00	-1.778921383506560e+01
1	 2.220550631061160e-01	 1.164737262035951e+00	-1.781428016490456e+01
1	 1.969049875784914e-01	 1.169251762467882e+00	-1.781393343766857e+01
1	 1.718363895219076e-01	 1.173197959152453e+00	-1.778752019221067e+01
1	 1.468664536233803e-01	 1.176584635794853e+00	-1.773450940404885e+01
1	 1.220117377539760e-01	 1.179421166604382e+00	-1.765449220328222e+01
1	 9.728815415079008e-02	 1.181717472333943e+00	-1.754718078820194e+01
1	 7.271095377599250e-02	 1.183483976186580e+00	-1.741240658597907e+01
1	 4.829471377313882e-02	 1.184731559820883e+00	-1.725011771605768e+01
1	 2.405332792465427e-02	 1.185471519673041e+00	-1.706037581517470e+01
1	 0.000000000000000e+00	 1.185715523798227e+00	-1.684335228529140e+01
1	 2.502478343658426e-01	 1.173617318404765e+00	-1.776011745858584e+01
1	 2.247303042728567e-01	 1.178769606220092e+00	-1.779366220318861e+01
1	 1.992772294955377e-01	 1.183338495762656e+00	-1.780152187220746e+01
1	 1.739066138011467e-01	 1.187332234834512e+00	-1.778293378914274e+01
1	 1.486358489118018e-01	 1.190759712963842e+00	-1.773726078278538e+01
1	 1.234816921820129e-01	 1.193630417297124e+00	-1.766399159794619e+01
1	 9.846024755394656e-02	 1.195954388109006e+00	-1.756274043740167e+01
1	 7.358694972803545e-02	 1.197742174177615e+00	-1.743324568483417e+01
1	 4.887655146816643e-02	 1.199004788259937e+00	-1.727536786357184e+01
1	 2.434311394420056e-02	 1.199753662887651e+00	-1.708908688995966e+01
1	 0.000000000000000e+00	 1.200000606688556e+00	-1.687449868323796e+01
1	 2.532268399880767e-01	 1.187588318791500e+00	-1.772411396482761e+01
1	 2.274055435671674e-01	 1.192801940581567e+00	-1.776583439735169e+01
1	 2.016494697522397e-01	 1.197425219196647e+00	-1.778166300273578e+01
1	 1.759768366314353e-01	 1.201466500622466e+00	-1.777073526907111e+01
1	 1.504052429618307e-01	 1.204934780210126e+00	-1.773231475834843e+01
1	 1.249516455812398e-01	 1.207839658043205e+00	-1.766579419098871e+01
1	 9.963234013676746e-02	 1.210191293918011e+00	-1.757069560146336e+01
1	 7.446294506698030e-02	 1.212000362187670e+00	-1.744666961304756e+01
1	 4.945838875597452e-02	 1.213278006707471e+00	-1.729349388552496e+01
1	 2.463289976093031e-02	 1.214035796104490e+00	-1.711107079439770e+01
1	 0.000000000000000e+00	 1.214285679579051e+00	-1.689942440385187e+01
1	 2.562058438728059e-01	 1.201559311028636e+00	-1.768065897335840e+01
1	 2.300807813011770e-01	 1.206834266757633e+00	-1.773026143831144e+01
1	 2.040217086253929e-01	 1.211511934413471e+00	-1.775382912155779e+01
1	 1.780470582543499e-01	 1.215600758165490e+00	-1.775040279039764e+01
1	 1.521746359799605e-01	 1.219109839187650e+00	-1.771915336489606e+01
1	 1.264215981232255e-01	 1.222048890500565e+00	-1.765938365784084e+01
1	 1.008044320360744e-01	 1.224428191422134e+00	-1.757052912992363e+01
1	 7.533893989510013e-02	 1.226258541880407e+00	-1.745215770632327e+01
1	 5.004022570450450e-02	 1.227551216828906e+00	-1.730396870736620e+01
1	 2.492268540868820e-02	 1.228317920990019e+00	-1.712579095134635e+01
1	 0.000000000000000e+00	 1.228570744136519e+00	-1.691758009192105e+01
1	 2.591848463675838e-01	 1.215530296746261e+00	-1.762923314083472e+01
1	 2.327560177870145e-01	 1.220866586385550e+00	-1.768643263697034e+01
1	 2.063939463917933e-01	 1.225598643056747e+00	-1.771751679140147e+01
1	 1.801172789114668e-01	 1.229735009112759e+00	-1.772143851212880e+01
1	 1.539440281726846e-01	 1.233284891550360e+00	-1.769728245884009e+01
1	 1.278915499795380e-01	 1.236258116327144e+00	-1.764426742052950e+01
1	 1.019765233886890e-01	 1.238665082282548e+00	-1.756174765664719e+01
1	 7.621493431466794e-02	 1.240516714919491e+00	-1.744921324596814e+01
1	 5.062206238169776e-02	 1.241824420289660e+00	-1.730628949454958e+01
1	 2.521247092131893e-02	 1.242600039210701e+00	-1.713273546020573e+01
1	 0.000000000000000e+00	 1.242855802027764e+00	-1.692844165587134e+01
1	 2.621638478199633e-01	 1.229501277574464e+00	-1.756934073896380e+01
1	 2.354312533368090e-01	 1.234898901102576e+00	-1.763386052588419e+01
1	 2.087661833282362e-01	 1.239685346770091e+00	-1.767224546695400e+01
1	 1.821874988443625e-01	 1.243869255113449e+00	-1.768336723074424e+01
1	 1.557134197464966e-01	 1.247459938952200e+00	-1.766623036584728e+01
1	 1.293615013217458e-01	 1.250467337180882e+00	-1.761997529897289e+01
1	 1.031486143314329e-01	 1.252901968160429e+00	-1.754388024897210e+01
1	 7.709092842795674e-02	 1.254774882968582e+00	-1.743736209886266e+01
1	 5.120389885549568e-02	 1.256097618755154e+00	-1.729997627576306e+01
1	 2.550225633266721e-02	 1.256882152432997e+00	-1.713141569532684e+01
1	 0.000000000000000e+00	 1.257140854919592e+00	-1.693150883279478e+01
1	 2.651428485774981e-01	 1.243472255143333e+00	-1.750050832834416e+01
1	 2.381064882626895e-01	 1.248931212545972e+00	-1.757207955521167e+01
1	 2.111384197115176e-01	 1.253772047197120e+00	-1.761755620933863e+01
1	 1.842577182946136e-01	 1.258003497816736e+00	-1.763573510897254e+01
1	 1.574828109078901e-01	 1.261634983047117e+00	-1.762554661906468e+01
1	 1.308314523214175e-01	 1.264676554719722e+00	-1.758605825321133e+01
1	 1.043207050011277e-01	 1.267138850716951e+00	-1.751647714793345e+01
1	 7.796692233723956e-02	 1.269033047691344e+00	-1.741615144912877e+01
1	 5.178573519383965e-02	 1.270370813890807e+00	-1.728457065898377e+01
1	 2.579204167657773e-02	 1.271164262323368e+00	-1.712136499891891e+01
1	 0.000000000000000e+00	 1.271425904478810e+00	-1.692630385022911e+01
1	 2.681218489877413e-01	 1.257443231082956e+00	-1.742228352072670e+01
1	 2.407817228767851e-01	 1.262963522352994e+00	-1.750064487560988e+01
1	 2.135106558184331e-01	 1.267858745981453e+00	-1.755301048630168e+01
1	 1.863279375037964e-01	 1.272137738871794e+00	-1.757810848932434e+01
1	 1.592522018633585e-01	 1.275810025489055e+00	-1.757480078147253e+01
1	 1.323014031501211e-01	 1.278885770601601e+00	-1.754208720949788e+01
1	 1.054927955345951e-01	 1.281375731613288e+00	-1.747910859248230e+01
1	 7.884291614478943e-02	 1.283291210751440e+00	-1.738514861436439e+01
1	 5.236757146467105e-02	 1.284644007362039e+00	-1.725963463314016e+01
1	 2.608182698689521e-02	 1.285446370548278e+00	-1.710213746110716e+01
1	 0.000000000000000e+00	 1.285710952372222e+00	-1.691237017716179e+01
1	 1.285710952372222e+00	 0.000000000000000e+00	 1.181948675864320e+01
1	 1.285446370548278e+00	 2.608182698689557e-02	 1.127822759469784e+01
1	 1.284644007362039e+00	 5.236757146467139e-02	 1.073646143107608e+01
1	 1.283291210751439e+00	 7.884291614478972e-02	 1.019487396713176e+01
1	 1.281375731613288e+00	 1.054927955345953e-01	 9.654221407888148e+00
1	 1.278885770601601e+00	 1.323014031501213e-01	 9.115330449577934e+00
1	 1.275810025489054e+00	 1.592522018633586e-01	 8.579097724490575e+00
1	 1.272137738871795e+00	 1.863279375037966e-01	 8.046488669273828e+00
1	 1.267858745981453e+00	 2.135106558184332e-01	 7.518535784167792e+00
1	 1.262963522352994e+00	 2.407817228767851e-01	 6.996336254686158e+00
1	 1.257443231082956e+00	 2.681218489877413e-01	 6.481048912005031e+00
1	 1.299996999436575e+00	 0.000000000000000e+00	 1.141010425381581e+01
1	 1.299729477738514e+00	 2.637163256653116e-02	 1.087603104109730e+01
1	 1.298918199175054e+00	 5.294944843254041e-02	 1.034215980030080e+01
1	 1.297550371102010e+00	 7.971897122437951e-02	 9.809215571814862e+00
1	 1.295613608311512e+00	 1.066649680506882e-01	 9.277987068365865e+00
1	 1.293095980350323e+00	 1.337714567953443e-01	 8.749326075283165e+00
1	 1.289986059407558e+00	 1.610217165797057e-01	 8.224146326408817e+00
1	 1.286272968549540e+00	 1.883983015152832e-01	 7.703421825792306e+00
1	 1.281946430063098e+00	 2.158830578522009e-01	 7.188184588857525e+00
1	 1.276996813653051e+00	 2.434571446109328e-01	 6.679521780921118e+00
1	 1.271415184225567e+00	 2.711010577649079e-01	 6.178572235771722e+00
1	 1.314283043168385e+00	 0.000000000000000e+00	 1.101498253636573e+01
1	 1.314012581596891e+00	 2.666143807874816e-02	 1.048826811792205e+01
1	 1.313192387658288e+00	 5.353132526498397e-02	 9.962410501600511e+00
1	 1.311809528126306e+00	 8.059502609999267e-02	 9.438173546942906e+00
1	 1.309851481688423e+00	 1.078371402937551e-01	 8.916378095890062e+00
1	 1.307306186784182e+00	 1.352415100980420e-01	 8.397900791377612e+00
1	 1.304162090019159e+00	 1.627912308836290e-01	 7.883672387158904e+00
1	 1.300408194929890e+00	 1.904686650441013e-01	 7.374675524929472e+00
1	 1.296034110858418e+00	 2.182554593327631e-01	 6.871941958594699e+00
1	 1.291030101679448e+00	 2.461325657211033e-01	 6.376549209874634e+00
1	 1.285387134108794e+00	 2.740802658471492e-01	 5.889616644362489e+00
1	 1.328569080234105e+00	 0.000000000000000e+00	 1.063338585193440e+01
1	 1.328295678790551e+00	 2.695124345587626e-02	 1.011419013286961e+01
1	 1.327466569480965e+00	 5.411320182614768e-02	 9.596453461008252e+00
1	 1.326068678497057e+00	 8.147108056711237e-02	 9.080977987770609e+00
1	 1.324089348421717e+00	 1.090093119901755e-01	 8.568616295234785e+00
1	 1.321516386587330e+00	 1.367115627150887e-01	 8.060269636467082e+00
1	 1.318338114015990e+00	 1.645607443621364e-01	 7.556885681926760e+00
1	 1.314543414714499e+00	 1.925390276070737e-01	 7.059455753896252e+00
1	 1.310121785080170e+00	 2.206278597064844e-01	 6.569011534880891e+00
1	 1.305063383157637e+00	 2.488079855829751e-01	 6.086621240440218e+00
1	 1.299359077472413e+00	 2.770594725392778e-01	 5.613385251934076e+00
1	 1.342855107300192e+00	 0.000000000000000e+00	 1.026460974718817e+01
1	 1.342578765986636e+00	 2.724104863024519e-02	 9.753080245361380e+00
1	 1.341740741312307e+00	 5.469507798017722e-02	 9.243560940757794e+00
1	 1.340327818886993e+00	 8.234713442122177e-02	 8.736891744239625e+00
1	 1.338327205189094e+00	 1.101814828663293e-01	 8.233956578809062e+00
1	 1.335726576443923e+00	 1.381816143033586e-01	 7.735681044884331e+00
1	 1.332514128090181e+00	 1.663302566022357e-01	 7.243029605780278e+00
1	 1.328678624605023e+00	 1.946093887210235e-01	 6.757002281166727e+00
1	 1.324209449441108e+00	 2.230002584197293e-01	 6.278630840501181e+00
1	 1.319096654813073e+00	 2.514834035722265e-01	 5.808974493121647e+00
1	 1.313331011056197e+00	 2.800386771461065e-01	 5.349115076811843e+00
1	 1.357141121033102e+00	 0.000000000000000e+00	 9.907979422422846e+00
1	 1.356861839852286e+00	 2.753085353418463e-02	 9.404251790167947e+00
1	 1.356014899821536e+00	 5.527695359121823e-02	 8.903035837413650e+00
1	 1.354586945968846e+00	 8.322318745780412e-02	 8.405208697085278e+00
1	 1.352565048668249e+00	 1.113536526485962e-01	 7.911685224188536e+00
1	 1.349936753038114e+00	 1.396516645197259e-01	 7.423415089057744e+00
1	 1.346690128933866e+00	 1.680997671909346e-01	 6.941379404238908e+00
1	 1.342813821303118e+00	 1.966797479027739e-01	 6.466586878551372e+00
1	 1.338297100653986e+00	 2.253726549188626e-01	 6.000069496329289e+00
1	 1.333129913371210e+00	 2.541588190645365e-01	 5.542877724710668e+00
1	 1.327302931599920e+00	 2.830178789724484e-01	 5.096075257079338e+00
1	 1.371427118099289e+00	 0.000000000000000e+00	 9.562848187102469e+00
1	 1.371144897054645e+00	 2.782065810002433e-02	 9.067046705779333e+00
1	 1.370289041677873e+00	 5.585882852341631e-02	 8.574210086339217e+00
1	 1.368846056415343e+00	 8.409923947234267e-02	 8.085252141657445e+00
1	 1.366802875536880e+00	 1.125258210633557e-01	 7.601118240521780e+00
1	 1.364146913054058e+00	 1.411217130210649e-01	 7.122781831702152e+00
1	 1.360866113239175e+00	 1.698692757152409e-01	 6.651240514402690e+00
1	 1.356949001510443e+00	 1.987501046691477e-01	 6.187511654360543e+00
1	 1.352384735431563e+00	 2.277450486502488e-01	 5.732627549552243e+00
1	 1.347163155557500e+00	 2.568342314355833e-01	 5.287630154517162e+00
1	 1.341274835843357e+00	 2.859970773231161e-01	 4.853565377663281e+00
1	 1.385713095165209e+00	 0.000000000000000e+00	 9.228596010906202e+00
1	 1.385427934260852e+00	 2.811046226009398e-02	 8.740834059963289e+00
1	 1.384563163550541e+00	 5.644070264091715e-02	 8.256443164830982e+00
1	 1.383105146899215e+00	 8.497529026032054e-02	 7.776373271684407e+00
1	 1.381040682472682e+00	 1.136979878369877e-01	 7.301599835956519e+00
1	 1.378357053175909e+00	 1.425917594642498e-01	 6.833119779908621e+00
1	 1.375042077698239e+00	 1.716387817621623e-01	 6.371947008664242e+00
1	 1.371084161928650e+00	 2.008204585369682e-01	 5.919107489643613e+00
1	 1.366472350486590e+00	 2.301174390602525e-01	 5.475633905276005e+00
1	 1.361196378097397e+00	 2.595096400610455e-01	 5.042559894103572e+00
1	 1.355246720526281e+00	 2.889762715029223e-01	 4.620913900870098e+00
1	 1.399999048897318e+00	 0.000000000000000e+00	 8.904628163462913e+00
1	 1.399710948138050e+00	 2.840026594672332e-02	 8.425008665571616e+00
1	 1.398837262108762e+00	 5.702257580786636e-02	 7.949120686873228e+00
1	 1.397364214093191e+00	 8.585133961722100e-02	 7.477949755842811e+00
1	 1.395278466153354e+00	 1.148701526958717e-01	 7.012500978871961e+00
1	 1.392567170087822e+00	 1.440618035061548e-01	 6.553794433856681e+00
1	 1.389218019003189e+00	 1.734082849187067e-01	 6.102860133678488e+00
1	 1.385219299259398e+00	 2.028908090230583e-01	 5.660732570143134e+00
1	 1.380559942531825e+00	 2.324898255952382e-01	 5.228444854129798e+00
1	 1.375229577716355e+00	 2.621850443166021e-01	 4.807022473132621e+00
1	 1.369218582388467e+00	 2.919554608166800e-01	 4.397476692986483e+00
1	 1.414284975962072e+00	 0.000000000000000e+00	 8.590373936504466e+00
1	 1.413993935353380e+00	 2.869006909224202e-02	 8.118989780214811e+00
1	 1.413111334021757e+00	 5.760444788840961e-02	 7.651653083036777e+00
1	 1.411623254670002e+00	 8.672738733852720e-02	 7.189384400573467e+00
1	 1.409516223256593e+00	 1.160423153663875e-01	 6.733218046286250e+00
1	 1.406777260473951e+00	 1.455318448036542e-01	 6.284196923460236e+00
1	 1.403393933846157e+00	 1.751777847718817e-01	 5.843366937856276e+00
1	 1.399354410204343e+00	 2.049611556442411e-01	 5.411771007198032e+00
1	 1.394647508280022e+00	 2.348622077015706e-01	 4.990442689083014e+00
1	 1.389262751139827e+00	 2.648604435779312e-01	 4.580399454533989e+00
1	 1.383190418169687e+00	 2.949346445692019e-01	 4.182635640153457e+00
1	 1.428570873025926e+00	 0.000000000000000e+00	 8.285285442669730e+00
1	 1.428276892573984e+00	 2.897987162897983e-02	 7.822219883935976e+00
1	 1.427385375958749e+00	 5.818631874669251e-02	 7.363474359563074e+00
1	 1.425882265302377e+00	 8.760343321972237e-02	 6.910103893107152e+00
1	 1.423753950460095e+00	 1.172144755749147e-01	 6.463171553338323e+00
1	 1.420987321018450e+00	 1.470018830136220e-01	 6.023742726793394e+00
1	 1.417569818919275e+00	 1.769472809086952e-01	 5.592878981186984e+00
1	 1.413489491465139e+00	 2.070314979173397e-01	 5.171631541371124e+00
1	 1.408735044443936e+00	 2.372345848256141e-01	 4.761034405231531e+00
1	 1.403295895093266e+00	 2.675358372207115e-01	 4.362097132739414e+00
1	 1.397162224609719e+00	 2.979138220653008e-01	 3.975797347266308e+00
1	 1.257443231082956e+00	 2.681218489877413e-01	 6.481048912005034e+00
1	 1.251290222528759e+00	 2.955092025760216e-01	 5.964843947957917e+00
1	 1.244496810941490e+00	 3.229252091875747e-01	 5.439767851330549e+00
1	 1.237056498645061e+00	 3.503488267225385e-01	 4.906966746364024e+00
1	 1.228963654185617e+00	 3.777584904297682e-01	 4.367611636849384e+00
1	 1.220213553110794e+00	 4.051321545099082e-01	 3.822893612840521e+00
1	 1.210802416556687e+00	 4.324473371061250e-01	 3.274018763291921e+00
1	 1.200727447337036e+00	 4.596811685659496e-01	 2.722202823633620e+00
1	 1.189986863234135e+00	 4.868104428277399e-01	 2.168665591412667e+00
1	 1.178579927199173e+00	 5.138116717552889e-01	 1.614625147041970e+00
1	 1.166506974181152e+00	 5.406611422144046e-01	 1.061291920331530e+00
1	 1.271415184225567e+00	 2.711010577649079e-01	 6.178572235771721e+00
1	 1.265193807139827e+00	 2.987927231594999e-01	 5.677336155150367e+00
1	 1.258324911247501e+00	 3.265133599524971e-01	 5.167695113457206e+00
1	 1.250801926674242e+00	 3.542416922368836e-01	 4.650766225334373e+00
1	 1.242619159392876e+00	 3.819559156469745e-01	 4.127683584446598e+00
1	 1.233771832455774e+00	 4.096337394237550e-01	 3.599593316191715e+00
1	 1.224256125010580e+00	 4.372524319055254e-01	 3.067648389390627e+00
1	 1.214069208790389e+00	 4.647888693259974e-01	 2.533003219684024e+00
1	 1.203209281774577e+00	 4.922195877717347e-01	 1.996808101058148e+00
1	 1.191675598724702e+00	 5.195208381204919e-01	 1.460203505342123e+00
1	 1.179468498311525e+00	 5.466686437519975e-01	 9.243142925960562e-01
1	 1.285387134108794e+00	 2.740802658471492e-01	 5.889616644362489e+00
1	 1.279097388507421e+00	 3.020762429769924e-01	 5.402983676772830e+00
1	 1.272153008327603e+00	 3.301015098803087e-01	 4.908374697508734e+00
1	 1.264547351496750e+00	 3.581345568429810e-01	 4.406876781914536e+00
1	 1.256274661414386e+00	 3.861533398848383e-01	 3.899586728439477e+00
1	 1.247330108637632e+00	 4.141353232872624e-01	 3.387605987664254e+00
1	 1.237709830325688e+00	 4.420575255837422e-01	 2.872035399633387e+00
1	 1.227410967131020e+00	 4.698965688942291e-01	 2.353969775505441e+00
1	 1.216431697230087e+00	 4.976287314535489e-01	 1.834492362828843e+00
1	 1.204771267194819e+00	 5.252300031534775e-01	 1.314669236709979e+00
1	 1.192430019417744e+00	 5.526761438877230e-01	 7.955436616963142e-01
1	 1.299359077472413e+00	 2.770594725392778e-01	 5.613385251934076e+00
1	 1.293000963387279e+00	 3.053597612623208e-01	 5.140992675294598e+00
1	 1.285981098955156e+00	 3.336896581337637e-01	 4.661019784112931e+00
1	 1.278292769905249e+00	 3.620274196324957e-01	 4.174522616060998e+00
1	 1.269930157063807e+00	 3.903507621639695e-01	 3.682560305328060e+00
1	 1.260888378492727e+00	 4.186369050500763e-01	 3.186189917678589e+00
1	 1.251163529362787e+00	 4.468626170196096e-01	 2.686461139485226e+00
1	 1.240752719245839e+00	 4.750042660788752e-01	 2.184410859610189e+00
1	 1.229654106515436e+00	 5.030378726110815e-01	 1.681057685928454e+00
1	 1.217866929553885e+00	 5.309391655221452e-01	 1.177396440812501e+00
1	 1.205391534475478e+00	 5.586836412198746e-01	 6.743926819693317e-01
1	 1.313331011056197e+00	 2.800386771461065e-01	 5.349115076811842e+00
1	 1.306904528535139e+00	 3.086432772493075e-01	 4.890603087877913e+00
1	 1.299809179903525e+00	 3.372778038756168e-01	 4.424877030191132e+00
1	 1.292038178692406e+00	 3.659202796970923e-01	 3.952960935365164e+00
1	 1.283585643154801e+00	 3.945481815049779e-01	 3.475875919644493e+00
1	 1.274446638857422e+00	 4.231384836618436e-01	 2.994634954131967e+00
1	 1.264617218982655e+00	 4.516677050919606e-01	 2.510237531070671e+00
1	 1.254094462021758e+00	 4.801119596881671e-01	 2.023664267499933e+00
1	 1.242876506545394e+00	 5.084470099822318e-01	 1.535871490170452e+00
1	 1.230962582746256e+00	 5.366483238943943e-01	 1.047785847726347e+00
1	 1.218353040460395e+00	 5.646911343467459e-01	 5.602989977840577e-01
1	 1.327302931599920e+00	 2.830178789724484e-01	 5.096075257079338e+00
1	 1.320808080706736e+00	 3.119267901717745e-01	 4.651086848775181e+00
1	 1.313637247946070e+00	 3.408659462686223e-01	 4.199224807053470e+00
1	 1.305783574650884e+00	 3.698131361284366e-01	 3.741480217806955e+00
1	 1.297241116501029e+00	 3.987455969284732e-01	 3.278835840361609e+00
1	 1.288004886568078e+00	 4.276400580722102e-01	 2.812260841458755e+00
1	 1.278070896046066e+00	 4.564727886796287e-01	 2.342705463846522e+00
1	 1.267436192345687e+00	 4.852196485303354e-01	 1.871095672837556e+00
1	 1.256098894234734e+00	 5.138561423048991e-01	 1.398327826422548e+00
1	 1.244058223716290e+00	 5.423574769381242e-01	 9.252634162770806e-01
1	 1.231314534348166e+00	 5.706986218666309e-01	 4.527239282057139e-01
1	 1.341274835843357e+00	 2.859970773231161e-01	 4.853565377663278e+00
1	 1.334711616657808e+00	 3.152102992635437e-01	 4.421746222796273e+00
1	 1.327465299856153e+00	 3.444540844755349e-01	 3.983371548583147e+00
1	 1.319528954573350e+00	 3.737059880181925e-01	 3.539398583056882e+00
1	 1.310896573916152e+00	 4.029430074550651e-01	 3.090771403746985e+00
1	 1.301563118461056e+00	 4.321416272308228e-01	 2.638415663471401e+00
1	 1.291524557413797e+00	 4.612778666614478e-01	 2.183233285830412e+00
1	 1.280777907104539e+00	 4.903273314136110e-01	 1.726097175394352e+00
1	 1.269321266498228e+00	 5.192652683169821e-01	 1.267845989498439e+00
1	 1.257153849408346e+00	 5.480666233212343e-01	 8.092790199583818e-01
1	 1.244276013114461e+00	 5.767061023778234e-01	 3.511512338463762e-01
1	 1.355246720526281e+00	 2.889762715029223e-01	 4.620913900870097e+00
1	 1.348615133144092e+00	 3.184938037584375e-01	 4.201912241832641e+00
1	 1.341293332407137e+00	 3.480422176591090e-01	 3.776654201567591e+00
1	 1.333274315252469e+00	 3.775988344580257e-01	 3.346062264495266e+00
1	 1.324552012213832e+00	 4.071404121053632e-01	 2.911041514983130e+00
1	 1.315121331372720e+00	 4.366431900873275e-01	 2.472474382494642e+00
1	 1.304978199946625e+00	 4.660829379162514e-01	 2.031215388130207e+00
1	 1.294119603185224e+00	 4.954350071462250e-01	 1.588085938790895e+00
1	 1.282543620250645e+00	 5.246743867563800e-01	 1.143869216826909e+00
1	 1.270249456766781e+00	 5.537757617116242e-01	 6.993052141130478e-01
1	 1.257237473734949e+00	 5.827135744786170e-01	 2.550859599723685e-01
1	 1.369218582388467e+00	 2.919554608166800e-01	 4.397476692986483e+00
1	 1.362518626921326e+00	 3.217773028902779e-01	 3.990943237079006e+00
1	 1.355121342372383e+00	 3.516303449820993e-01	 3.578436770882044e+00
1	 1.347019653480905e+00	 3.814916745396009e-01	 3.160844174756464e+00
1	 1.338207428207729e+00	 4.113378098999778e-01	 2.739031241500742e+00
1	 1.328679522139431e+00	 4.411447455913710e-01	 2.313837467916668e+00
1	 1.318431820505326e+00	 4.708880013228729e-01	 1.886070876111990e+00
1	 1.307461277474655e+00	 5.005426745364082e-01	 1.456502911619368e+00
1	 1.295765952406758e+00	 5.300834963609923e-01	 1.025863466773141e+00
1	 1.283345042735955e+00	 5.594848907771932e-01	 5.948360785722829e-01
1	 1.270198913185301e+00	 5.887210367673057e-01	 1.640533504229064e-01
1	 1.383190418169687e+00	 2.949346445692019e-01	 4.182635640153457e+00
1	 1.376422094745246e+00	 3.250607958928871e-01	 3.788223460187939e+00
1	 1.368949326525253e+00	 3.552184656072601e-01	 3.388108952820637e+00
1	 1.360764966051325e+00	 3.853845073545832e-01	 2.983142558186906e+00
1	 1.351862818711506e+00	 4.155351998595181e-01	 2.574150491542118e+00
1	 1.342237687597551e+00	 4.456462926925998e-01	 2.161929607836617e+00
1	 1.331885415950674e+00	 4.756930557601458e-01	 1.747242321082074e+00
1	 1.320802926859741e+00	 5.056503323923917e-01	 1.330811626053197e+00
1	 1.308988259881339e+00	 5.354925958687178e-01	 9.133162709816944e-01
1	 1.296440604260223e+00	 5.651940091858410e-01	 4.953861304199024e-01
1	 1.283160328441186e+00	 5.947284878421828e-01	 7.759782733470588e-02
1	 1.397162224609719e+00	 2.979138220653008e-01	 3.975797347266308e+00
1	 1.390325533371589e+00	 3.283442820000868e-01	 3.593161787133603e+00
1	 1.382777281639109e+00	 3.588065786973459e-01	 3.205084850406270e+00
1	 1.374510249756393e+00	 3.892773319946374e-01	 2.812379724134658e+00
1	 1.365518180538822e+00	 4.197325810045940e-01	 2.415832771990139e+00
1	 1.355795824583439e+00	 4.501478303406597e-01	 2.016198497993025e+00
1	 1.345338983143448e+00	 4.804981001069037e-01	 1.614194586848630e+00
1	 1.334144548227396e+00	 5.107579795224063e-01	 1.210497068521403e+00
1	 1.322210539589158e+00	 5.409016840174555e-01	 8.057356555609690e-01
1	 1.309536138283946e+00	 5.709031156054665e-01	 4.004893019735797e-01
1	 1.296121716478273e+00	 6.007359263015425e-01	-4.717967932961475e-03
1	 1.166506974181152e+00	 5.406611422144046e-01	 1.061291920331530e+00
1	 1.153768520657062e+00	 5.673368349888009e-01	 5.028008197079146e-01
1	 1.140367939824356e+00	 5.938128716115278e-01	-6.641619592628389e-02
1	 1.126308914352119e+00	 6.200652176363033e-01	-6.448263350745144e-01
1	 1.111596267876887e+00	 6.460698641649667e-01	-1.230898858012841e+00
1	 1.096235971370482e+00	 6.718028946141243e-01	-1.823111299533196e+00
1	 1.080235144867935e+00	 6.972405524292983e-01	-2.419955658745975e+00
1	 1.063602054441766e+00	 7.223593093729551e-01	-3.019944505624970e+00
1	 1.046346104343134e+00	 7.471359339991690e-01	-3.621616954128666e+00
1	 1.028477824266305e+00	 7.715475599175938e-01	-4.223544452535715e+00
1	 1.010008851730144e+00	 7.955717534430776e-01	-4.824336343094546e+00
1	 1.179468498311525e+00	 5.466686437519975e-01	 9.243142925960568e-01
1	 1.166588502750832e+00	 5.736407407856797e-01	 3.831856092088918e-01
1	 1.153039022721013e+00	 6.004109632086184e-01	-1.688249835550569e-01
1	 1.138823781810755e+00	 6.269550095182069e-01	-7.302508515120153e-01
1	 1.123947657253940e+00	 6.532486040438356e-01	-1.299629143326501e+00
1	 1.108416686368234e+00	 6.792675644554069e-01	-1.875506759787711e+00
1	 1.092238068302214e+00	 7.049878702298854e-01	-2.456446272131878e+00
1	 1.075420160976023e+00	 7.303857316980992e-01	-3.041031740722340e+00
1	 1.057972473135199e+00	 7.554376592802553e-01	-3.627874385777328e+00
1	 1.039905651473637e+00	 7.801205325084171e-01	-4.215618062852231e+00
1	 1.021231462819311e+00	 8.044116684278025e-01	-4.802944497437287e+00
1	 1.192430019417744e+00	 5.526761438877230e-01	 7.955436616963134e-01
1	 1.179408481853434e+00	 5.799446451114831e-01	 2.710870766066423e-01
1	 1.165710102661214e+00	 6.070090532659372e-01	-2.644023311939309e-01
1	 1.151338646349358e+00	 6.338447997922180e-01	-8.095210375204204e-01
1	 1.136299043749081e+00	 6.604273422473320e-01	-1.362870784269615e+00
1	 1.120597398523876e+00	 6.867322325545433e-01	-1.923064305368685e+00
1	 1.104240988935844e+00	 7.127351862223222e-01	-2.488730985921963e+00
1	 1.087238264752729e+00	 7.384121521499232e-01	-3.058522407458126e+00
1	 1.069598839214424e+00	 7.637393826237479e-01	-3.631117732760055e+00
1	 1.051333476014421e+00	 7.886935030983319e-01	-4.205228884964687e+00
1	 1.032454071289771e+00	 8.132515813493250e-01	-4.779605477439284e+00
1	 1.205391534475478e+00	 5.586836412198746e-01	 6.743926819693310e-01
1	 1.192228454973575e+00	 5.862485464953506e-01	 1.659588015164284e-01
1	 1.178381176688414e+00	 6.136071402439868e-01	-3.536527264468190e-01
1	 1.163853505047840e+00	 6.407345868507840e-01	-8.830984893095948e-01
1	 1.148650424480370e+00	 6.676060771004909e-01	-1.421041581479855e+00
1	 1.132778104995295e+00	 6.941968971698589e-01	-1.966157097005133e+00
1	 1.116243903968200e+00	 7.204824985989908e-01	-2.517137541673102e+00
1	 1.099056363014386e+00	 7.464385688556906e-01	-3.072698119045482e+00
1	 1.081225199868051e+00	 7.720411020926786e-01	-3.631581845638918e+00
1	 1.062761295222229e+00	 7.972664696870837e-01	-4.192564451830394e+00
1	 1.043676674522985e+00	 8.220914901451046e-01	-4.754459027029607e+00
1	 1.218353040460395e+00	 5.646911343467459e-01	 5.602989977840585e-01
1	 1.205048419119958e+00	 5.925524434664220e-01	 6.727761233592405e-02
1	 1.191052241846069e+00	 6.202052226032716e-01	-4.370591922483371e-01
1	 1.176368354986110e+00	 6.476243690863536e-01	-9.514251633147749e-01
1	 1.161001796565867e+00	 6.747848069283466e-01	-1.474541559177971e+00
1	 1.144958802940378e+00	 7.016615565596794e-01	-2.005142418281258e+00
1	 1.128246810598658e+00	 7.282298055522725e-01	-2.541979736211837e+00
1	 1.110874453003497e+00	 7.544649799426657e-01	-3.083828506539158e+00
1	 1.092851552383325e+00	 7.803428157500798e-01	-3.629491582357456e+00
1	 1.074189106430633e+00	 8.058394302744172e-01	-4.177804316916691e+00
1	 1.054899269900412e+00	 8.309313927526036e-01	-4.727638943805985e+00
1	 1.231314534348166e+00	 5.706986218666309e-01	 4.527239282057140e-01
1	 1.217868371301289e+00	 5.988563345538357e-01	-2.545763745583118e-02
1	 1.203723295177632e+00	 6.268032988042951e-01	-5.150844166737051e-01
1	 1.188883193244080e+00	 6.545141448913745e-01	-1.014924409968252e+00
1	 1.173353157123633e+00	 6.819635300559350e-01	-1.523753900875808e+00
1	 1.157139489517013e+00	 7.091262089823308e-01	-2.040362511388997e+00
1	 1.140249706026590e+00	 7.359771052745493e-01	-2.563558155686227e+00
1	 1.122692531962562e+00	 7.624913835381123e-01	-3.092171849597047e+00
1	 1.104477894047487e+00	 7.886445216589838e-01	-3.625062334291384e+00
1	 1.085616906973206e+00	 8.144123828600778e-01	-4.161120474296144e+00
1	 1.066121854803511e+00	 8.397712871092807e-01	-4.699273392118263e+00
1	 1.244276013114461e+00	 5.767061023778234e-01	 3.511512338463756e-01
1	 1.230688308526272e+00	 6.051602182867322e-01	-1.127272165389344e-01
1	 1.216394333726560e+00	 6.334013673075607e-01	-5.881718121548640e-01
1	 1.201398016901661e+00	 6.614039126582948e-01	-1.074001942877571e+00
1	 1.185704503271726e+00	 6.891422448082904e-01	-1.569045826618019e+00
1	 1.169320161883087e+00	 7.165908526961383e-01	-2.072145360660306e+00
1	 1.152252587451375e+00	 7.437243959582033e-01	-2.582160863751348e+00
1	 1.134510597134084e+00	 7.705177777692943e-01	-3.097975667829912e+00
1	 1.116104222147779e+00	 7.969462178824213e-01	-3.618500519429287e+00
1	 1.097044694183519e+00	 8.229853254438096e-01	-4.142677752493154e+00
1	 1.077344426613743e+00	 8.486111711525988e-01	-4.669485196589686e+00
1	 1.257237473734949e+00	 5.827135744786170e-01	 2.550859599723692e-01
1	 1.243508227803614e+00	 6.114640931942510e-01	-1.949915920488426e-01
1	 1.229065354536308e+00	 6.399994265735724e-01	-6.567465091953335e-01
1	 1.213912823038762e+00	 6.682936707795627e-01	-1.129046748071044e+00
1	 1.198055832128207e+00	 6.963209495104473e-01	-1.610769415976393e+00
1	 1.181500817196487e+00	 7.240554859594283e-01	-2.100805427646508e+00
1	 1.164255452072385e+00	 7.514716757956159e-01	-2.598064047198601e+00
1	 1.146328645760561e+00	 7.785441607634755e-01	-3.101477275582652e+00
1	 1.127730533971447e+00	 8.052479024834258e-01	-3.610004045056139e+00
1	 1.108472465395146e+00	 8.315582560253585e-01	-4.122634183975224e+00
1	 1.088566982712566e+00	 8.574510428200165e-01	-4.638392117486842e+00
1	 1.270198913185301e+00	 5.887210367673057e-01	 1.640533504229063e-01
1	 1.256328126142018e+00	 6.177679578055311e-01	-2.726924399944970e-01
1	 1.241736354650330e+00	 6.465974750628333e-01	-7.212162892619369e-01
1	 1.226427608735296e+00	 6.751834176476261e-01	-1.180431937589548e+00
1	 1.210407140811137e+00	 7.034996424874411e-01	-1.649262380669829e+00
1	 1.193681452615102e+00	 7.315201070305257e-01	-2.126644341204684e+00
1	 1.176258297088996e+00	 7.592189429791690e-01	-2.611532622066833e+00
1	 1.158146675084499e+00	 7.865705306479199e-01	-3.102904302758319e+00
1	 1.139356826805732e+00	 8.135495735250283e-01	-3.599762742116474e+00
1	 1.119900217941657e+00	 8.401311726044689e-01	-4.101141352028494e+00
1	 1.099789520481441e+00	 8.662909000489963e-01	-4.606107109234879e+00
1	 1.283160328441186e+00	 5.947284878421828e-01	 7.759782733470649e-02
1	 1.269148000550189e+00	 6.240718106497122e-01	-3.462535944549628e-01
1	 1.254407331112081e+00	 6.531955112358475e-01	-7.819724611520572e-01
1	 1.238942371071173e+00	 6.820731516549332e-01	-1.228515551359401e+00
1	 1.222758426438575e+00	 7.106783220643063e-01	-1.684848790371312e+00
1	 1.205862065296819e+00	 7.389847141677566e-01	-2.149951545771779e+00
1	 1.188261119700584e+00	 7.669661957012448e-01	-2.622820803029125e+00
1	 1.169964682348398e+00	 7.945968855498918e-01	-3.102475184085325e+00
1	 1.150983097937877e+00	 8.218512290702613e-01	-3.587958773259455e+00
1	 1.131327949156626e+00	 8.487040731808860e-01	-4.078344716615969e+00
1	 1.111012037301826e+00	 8.751307407769980e-01	-4.572738563269193e+00
1	 1.296121716478273e+00	 6.007359263015425e-01	-4.717967932960809e-03
1	 1.281967848036833e+00	 6.303756502559339e-01	-4.160819398391242e-01
1	 1.267078280965017e+00	 6.597935335531179e-01	-8.393906847930368e-01
1	 1.251457107126304e+00	 6.889628711939321e-01	-1.273641310965297e+00
1	 1.235109686128581e+00	 7.178569865660782e-01	-1.717839754977949e+00
1	 1.218042652399525e+00	 7.464493056294462e-01	-2.171004910752185e+00
1	 1.200263917106523e+00	 7.747134321542246e-01	-2.632172638625524e+00
1	 1.181782664794757e+00	 8.026232235966543e-01	-3.100399619036342e+00
1	 1.162609344655126e+00	 8.301528671821563e-01	-3.574767016407609e+00
1	 1.142755656373624e+00	 8.572769557543545e-01	-4.054383920689338e+00
1	 1.122234530555182e+00	 8.839705629414819e-01	-4.538390536319736e+00
1	 1.010008851730144e+00	 7.955717534430776e-01	-4.824336343094546e+00
1	 9.909519067937320e-01	 8.191865824479939e-01	-5.425076412428512e+00
1	 9.713207563652808e-01	 8.423706882231309e-01	-6.026589634302936e+00
1	 9.511301907535311e-01	 8.651033421516505e-01	-6.627138749788100e+00
1	 9.303959900850729e-01	 8.873645046199061e-01	-7.225005758854008e+00
1	 9.091348835661056e-01	 9.091348835661061e-01	-7.818499216519830e+00
1	 8.873645046199057e-01	 9.303959900850729e-01	-8.405961340174169e+00
1	 8.651033421516500e-01	 9.511301907535311e-01	-8.985774871792490e+00
1	 8.423706882231307e-01	 9.713207563652815e-01	-9.556369641452518e+00
1	 8.191865824479935e-01	 9.909519067937324e-01	-1.011622878188975e+01
1	 7.955717534430776e-01	 1.010008851730144e+00	-1.066389454780449e+01
1	 1.021231462819311e+00	 8.044116684278025e-01	-4.802944497437287e+00
1	 1.001962768568945e+00	 8.282888912141637e-01	-5.390922641592303e+00
1	 9.821134886003536e-01	 8.517306048331553e-01	-5.980343380683251e+00
1	 9.616985775632909e-01	 8.747158503440156e-01	-6.569508019841491e+00
1	 9.407339909236229e-01	 8.972243654649650e-01	-7.156730766920864e+00
1	 9.192366437724240e-01	 9.192366437724245e-01	-7.740345992896129e+00
1	 8.972243654649645e-01	 9.407339909236231e-01	-8.318715352221297e+00
1	 8.747158503440153e-01	 9.616985775632912e-01	-8.890234706426149e+00
1	 8.517306048331549e-01	 9.821134886003540e-01	-9.453340796348950e+00
1	 8.282888912141635e-01	 1.001962768568945e+00	-1.000651761121689e+01
1	 8.044116684278024e-01	 1.021231462819310e+00	-1.054830240624121e+01
1	 1.032454071289771e+00	 8.132515813493250e-01	-4.779605477439284e+00
1	 1.012973627774809e+00	 8.373911978559143e-01	-5.355285498033183e+00
1	 9.929062183169185e-01	 8.610905192586760e-01	-5.933012633747354e+00
1	 9.722669619068304e-01	 8.843283562929767e-01	-6.511127154869376e+00
1	 9.510719893496478e-01	 9.070842240089515e-01	-7.087976499400618e+00
1	 9.293384016212816e-01	 9.293384016212820e-01	-7.661922485799683e+00
1	 9.070842240089511e-01	 9.510719893496479e-01	-8.231348429769623e+00
1	 8.843283562929766e-01	 9.722669619068307e-01	-8.794666108072716e+00
1	 8.610905192586757e-01	 9.929062183169186e-01	-9.350322513980201e+00
1	 8.373911978559138e-01	 1.012973627774809e+00	-9.896806351291124e+00
1	 8.132515813493250e-01	 1.032454071289771e+00	-1.043265421684912e+01
1	 1.043676674522985e+00	 8.220914901451046e-01	-4.754459027029607e+00
1	 1.023984481842198e+00	 8.464935002494818e-01	-5.318258399011095e+00
1	 1.003698942996750e+00	 8.704504293158198e-01	-5.884647788747706e+00
1	 9.828353413182764e-01	 8.939408577557190e-01	-6.452006771793434e+00
1	 9.614099829510372e-01	 9.169440779513309e-01	-7.018716964122667e+00
1	 9.394401547556949e-01	 9.394401547556951e-01	-7.583169175607322e+00
1	 9.169440779513307e-01	 9.614099829510375e-01	-8.143770506999729e+00
1	 8.939408577557187e-01	 9.828353413182769e-01	-8.698951333264485e+00
1	 8.704504293158194e-01	 1.003698942996750e+00	-9.247172117279467e+00
1	 8.464935002494810e-01	 1.023984481842198e+00	-9.786929999816344e+00
1	 8.220914901451046e-01	 1.043676674522985e+00	-1.031676511428887e+01
1	 1.054899269900412e+00	 8.309313927526036e-01	-4.727638943805985e+00
1	 1.034995328201983e+00	 8.555957962711013e-01	-5.279930786348704e+00
1	 1.014491660121622e+00	 8.798103328207122e-01	-5.835297095729919e+00
1	 9.934037133317563e-01	 9.035533524894270e-01	-6.392157034491787e+00
1	 9.717479693156805e-01	 9.268039249915691e-01	-6.948927273138211e+00
1	 9.495419008186826e-01	 9.495419008186831e-01	-7.504029073014829e+00
1	 9.268039249915688e-01	 9.717479693156811e-01	-8.055895347615346e+00
1	 9.035533524894268e-01	 9.934037133317566e-01	-8.602977645167458e+00
1	 8.798103328207117e-01	 1.014491660121623e+00	-9.143752996132228e+00
1	 8.555957962711011e-01	 1.034995328201983e+00	-9.676730570753529e+00
1	 8.309313927526035e-01	 1.054899269900412e+00	-1.020045809399443e+01
1	 1.066121854803511e+00	 8.397712871092807e-01	-4.699273392118263e+00
1	 1.046006164285036e+00	 8.646980837970097e-01	-5.240388335777469e+00
1	 1.025284367173309e+00	 8.891702275894792e-01	-5.785006772541927e+00
1	 1.003972075481396e+00	 9.131658382512866e-01	-6.331587677734806e+00
1	 9.820859460314676e-01	 9.366637628291313e-01	-6.878583584679943e+00
1	 9.596436374532621e-01	 9.596436374532625e-01	-7.424447585921864e+00
1	 9.366637628291312e-01	 9.820859460314681e-01	-7.967640343329078e+00
1	 9.131658382512862e-01	 1.003972075481397e+00	-8.506637050091051e+00
1	 8.891702275894789e-01	 1.025284367173310e+00	-9.039934288055202e+00
1	 8.646980837970095e-01	 1.046006164285037e+00	-9.566056725009066e+00
1	 8.397712871092808e-01	 1.066121854803511e+00	-1.008356359838460e+01
1	 1.077344426613743e+00	 8.486111711525988e-01	-4.669485196589686e+00
1	 1.057016987522231e+00	 8.738003607034422e-01	-5.199713153203216e+00
1	 1.036077061633586e+00	 8.985301114382472e-01	-5.733821110781919e+00
1	 1.014540425301325e+00	 9.227783127984828e-01	-6.270308029625597e+00
1	 9.924239106862870e-01	 9.465235891634832e-01	-6.807663048748513e+00
1	 9.697453623024501e-01	 9.697453623024505e-01	-7.344372394634045e+00
1	 9.465235891634829e-01	 9.924239106862874e-01	-7.878926324938918e+00
1	 9.227783127984824e-01	 1.014540425301325e+00	-8.409826050461911e+00
1	 8.985301114382468e-01	 1.036077061633587e+00	-8.935590578827133e+00
1	 8.738003607034417e-01	 1.057016987522231e+00	-9.454763424199582e+00
1	 8.486111711525989e-01	 1.077344426613743e+00	-9.965919128930050e+00
1	 1.088566982712566e+00	 8.574510428200165e-01	-4.638392117486842e+00
1	 1.068027795344438e+00	 8.829026248666350e-01	-5.157983958834815e+00
1	 1.046869740984227e+00	 9.078899821831418e-01	-5.681782575194561e+00
1	 1.025108760325667e+00	 9.323907738882006e-01	-6.208327032652663e+00
1	 1.002761860868029e+00	 9.563834016940903e-01	-6.736143756064036e+00
1	 9.798470730092648e-01	 9.798470730092651e-01	-7.263753334782455e+00
1	 9.563834016940901e-01	 1.002761860868029e+00	-7.789677385088098e+00
1	 9.323907738881999e-01	 1.025108760325668e+00	-8.312445413073069e+00
1	 9.078899821831412e-01	 1.046869740984227e+00	-8.830601621632727e+00
1	 8.829026248666343e-01	 1.068027795344438e+00	-9.342711605826832e+00
1	 8.574510428200167e-01	 1.088566982712566e+00	-9.847368882209075e+00
1	 1.099789520481441e+00	 8.662909000489963e-01	-4.606107109234879e+00
1	 1.079038585182531e+00	 8.920048741628237e-01	-5.115276260042383e+00
1	 1.057662402707005e+00	 9.172498376402886e-01	-5.628931896983471e+00
1	 1.035677078088552e+00	 9.420032192776239e-01	-6.145653263454064e+00
1	 1.013099794164582e+00	 9.662431981204184e-01	-6.664004690141771e+00
1	 9.899487672167233e-01	 9.899487672167239e-01	-7.182542287409544e+00
1	 9.662431981204176e-01	 1.013099794164582e+00	-7.699820711872892e+00
1	 9.420032192776238e-01	 1.035677078088552e+00	-8.214399951518430e+00
1	 9.172498376402882e-01	 1.057662402707005e+00	-8.724852073396862e+00
1	 8.920048741628231e-01	 1.079038585182531e+00	-9.229767878335045e+00
1	 8.662909000489962e-01	 1.099789520481441e+00	-9.727763408240360e+00
1	 1.111012037301826e+00	 8.751307407769980e-01	-4.572738563269193e+00
1	 1.090049354467381e+00	 9.011071064682441e-01	-5.071662513742603e+00
1	 1.068455044283696e+00	 9.266096756258143e-01	-5.575308161469573e+00
1	 1.046245376124105e+00	 9.516156467239397e-01	-6.082294951383888e+00
1	 1.023437708163836e+00	 9.761029761419320e-01	-6.591225682271939e+00
1	 1.000050442567844e+00	 1.000050442567844e+00	-7.100693075714635e+00
1	 9.761029761419314e-01	 1.023437708163836e+00	-7.609286432532733e+00
1	 9.516156467239396e-01	 1.046245376124105e+00	-8.115598321809431e+00
1	 9.266096756258143e-01	 1.068455044283696e+00	-8.618231247094624e+00
1	 9.011071064682435e-01	 1.090049354467381e+00	-9.115804234644591e+00
1	 8.751307407769979e-01	 1.111012037301826e+00	-9.606959289516798e+00
1	 1.122234530555182e+00	 8.839705629414819e-01	-4.538390536319736e+00
1	 1.101060100629861e+00	 9.102093196591319e-01	-5.027212279042704e+00
1	 1.079247663196073e+00	 9.359694939558444e-01	-5.520948890491852e+00
1	 1.056813651966454e+00	 9.612280539843321e-01	-6.018259995965205e+00
1	 1.033775600453680e+00	 9.859627334580974e-01	-6.517787369199753e+00
1	 1.010152096705643e+00	 1.010152096705644e+00	-7.018161367993065e+00
1	 9.859627334580970e-01	 1.033775600453680e+00	-7.518007466516021e+00
1	 9.612280539843319e-01	 1.056813651966455e+00	-8.015952830251647e+00
1	 9.359694939558441e-01	 1.079247663196073e+00	-8.510632878918646e+00
1	 9.102093196591318e-01	 1.101060100629861e+00	-9.000697782869061e+00
1	 8.839705629414819e-01	 1.122234530555182e+00	-9.484818839292529e+00
1	 7.955717534430776e-01	 1.010008851730144e+00	-1.066389454780449e+01
1	 7.715475599175932e-01	 1.028477824266305e+00	-1.119790165468286e+01
1	 7.471359339991688e-01	 1.046346104343135e+00	-1.171688052503821e+01
1	 7.223593093729547e-01	 1.063602054441766e+00	-1.221960812526214e+01
1	 6.972405524292978e-01	 1.080235144867935e+00	-1.270492383906452e+01
1	 6.718028946141240e-01	 1.096235971370482e+00	-1.317173454510036e+01
1	 6.460698641649665e-01	 1.111596267876887e+00	-1.361901919989433e+01
1	 6.200652176363031e-01	 1.126308914352119e+00	-1.404583289657520e+01
1	 5.938128716115273e-01	 1.140367939824357e+00	-1.445131037596355e+01
1	 5.673368349888005e-01	 1.153768520657062e+00	-1.483466897273816e+01
1	 5.406611422144048e-01	 1.166506974181152e+00	-1.519521098564113e+01
1	 8.044116684278024e-01	 1.021231462819310e+00	-1.054830240624121e+01
1	 7.801205325084165e-01	 1.039905651473637e+00	-1.107717954119511e+01
1	 7.554376592802551e-01	 1.057972473135200e+00	-1.159175108758657e+01
1	 7.303857316980990e-01	 1.075420160976023e+00	-1.209081402558228e+01
1	 7.049878702298847e-01	 1.092238068302214e+00	-1.257322279705521e+01
1	 6.792675644554065e-01	 1.108416686368235e+00	-1.303789445323044e+01
1	 6.532486040438353e-01	 1.123947657253940e+00	-1.348381334056156e+01
1	 6.269550095182067e-01	 1.138823781810756e+00	-1.391003529357175e+01
1	 6.004109632086180e-01	 1.153039022721013e+00	-1.431569130913641e+01
1	 5.736407407856794e-01	 1.166588502750832e+00	-1.469999068260965e+01
1	 5.466686437519976e-01	 1.179468498311525e+00	-1.506222359221925e+01
1	 8.132515813493250e-01	 1.032454071289771e+00	-1.043265421684912e+01
1	 7.886935030983315e-01	 1.051333476014421e+00	-1.095630481135875e+01
1	 7.637393826237476e-01	 1.069598839214425e+00	-1.146633266310541e+01
1	 7.384121521499227e-01	 1.087238264752729e+00	-1.196155368862406e+01
1	 7.127351862223218e-01	 1.104240988935844e+00	-1.244083641653870e+01
1	 6.867322325545427e-01	 1.120597398523877e+00	-1.290310721336559e+01
1	 6.604273422473316e-01	 1.136299043749081e+00	-1.334735507969269e+01
1	 6.338447997922178e-01	 1.151338646349359e+00	-1.377263598362973e+01
1	 6.070090532659367e-01	 1.165710102661214e+00	-1.417807670388422e+01
1	 5.799446451114828e-01	 1.179408481853434e+00	-1.456287816050424e+01
1	 5.526761438877230e-01	 1.192430019417744e+00	-1.492631821714447e+01
1	 8.220914901451046e-01	 1.043676674522985e+00	-1.031676511428887e+01
1	 7.972664696870834e-01	 1.062761295222229e+00	-1.083507421500282e+01
1	 7.720411020926780e-01	 1.081225199868052e+00	-1.134040424035154e+01
1	 7.464385688556904e-01	 1.099056363014387e+00	-1.183158900466134e+01
1	 7.204824985989899e-01	 1.116243903968200e+00	-1.230751018816377e+01
1	 6.941968971698584e-01	 1.132778104995295e+00	-1.276710264895971e+01
1	 6.676060771004905e-01	 1.148650424480371e+00	-1.320935933673653e+01
1	 6.407345868507837e-01	 1.163853505047840e+00	-1.363333577323036e+01
1	 6.136071402439864e-01	 1.178381176688415e+00	-1.403815406961747e+01
1	 5.862485464953503e-01	 1.192228454973575e+00	-1.442300645647084e+01
1	 5.586836412198745e-01	 1.205391534475477e+00	-1.478715830754109e+01
1	 8.309313927526035e-01	 1.054899269900412e+00	-1.020045809399443e+01
1	 8.058394302744167e-01	 1.074189106430634e+00	-1.071329314433288e+01
1	 7.803428157500795e-01	 1.092851552383325e+00	-1.121375420550904e+01
1	 7.544649799426653e-01	 1.110874453003498e+00	-1.170069198823918e+01
1	 7.282298055522719e-01	 1.128246810598657e+00	-1.217300042394305e+01
1	 7.016615565596791e-01	 1.144958802940378e+00	-1.262962207074188e+01
1	 6.747848069283462e-01	 1.161001796565867e+00	-1.306955315183565e+01
1	 6.476243690863530e-01	 1.176368354986110e+00	-1.349184818928842e+01
1	 6.202052226032713e-01	 1.191052241846069e+00	-1.389562420118143e+01
1	 5.925524434664214e-01	 1.205048419119958e+00	-1.428006443532630e+01
1	 5.646911343467459e-01	 1.218353040460394e+00	-1.464442161816682e+01
1	 8.397712871092808e-01	 1.066121854803511e+00	-1.008356359838460e+01
1	 8.144123828600772e-01	 1.085616906973206e+00	-1.059077517897596e+01
1	 7.886445216589832e-01	 1.104477894047487e+00	-1.108617984746258e+01
1	 7.624913835381121e-01	 1.122692531962563e+00	-1.156864424515861e+01
1	 7.359771052745488e-01	 1.140249706026591e+00	-1.203707368751297e+01
1	 7.091262089823306e-01	 1.157139489517013e+00	-1.249041767189009e+01
1	 6.819635300559345e-01	 1.173353157123633e+00	-1.292767504762277e+01
1	 6.545141448913742e-01	 1.188883193244081e+00	-1.334789880934126e+01
1	 6.268032988042945e-01	 1.203723295177632e+00	-1.375020047926430e+01
1	 5.988563345538354e-01	 1.217868371301289e+00	-1.413375404915682e+01
1	 5.706986218666309e-01	 1.231314534348166e+00	-1.449779945792574e+01
1	 8.486111711525989e-01	 1.077344426613743e+00	-9.965919128930050e+00
1	 8.229853254438093e-01	 1.097044694183519e+00	-1.046734165945198e+01
1	 7.969462178824207e-01	 1.116104222147780e+00	-1.095748689398251e+01
1	 7.705177777692939e-01	 1.134510597134084e+00	-1.143523647276530e+01
1	 7.437243959582027e-01	 1.152252587451375e+00	-1.189950625999216e+01
1	 7.165908526961383e-01	 1.169320161883087e+00	-1.234925196099630e+01
1	 6.891422448082899e-01	 1.185704503271726e+00	-1.278347443089339e+01
1	 6.614039126582941e-01	 1.201398016901660e+00	-1.320122463358956e+01
1	 6.334013673075602e-01	 1.216394333726560e+00	-1.360160821451736e+01
1	 6.051602182867317e-01	 1.230688308526273e+00	-1.398378965527625e+01
1	 5.767061023778234e-01	 1.244276013114461e+00	-1.434699598346127e+01
1	 8.574510428200167e-01	 1.088566982712566e+00	-9.847368882209075e+00
1	 8.315582560253580e-01	 1.108472465395146e+00	-1.034282128702161e+01
1	 8.052479024834253e-01	 1.127730533971447e+00	-1.082748907659198e+01
1	 7.785441607634748e-01	 1.146328645760561e+00	-1.130026799114006e+01
1	 7.514716757956155e-01	 1.164255452072385e+00	-1.176008363887098e+01
1	 7.240554859594279e-01	 1.181500817196488e+00	-1.220589723009674e+01
1	 6.963209495104469e-01	 1.198055832128208e+00	-1.263671103127917e+01
1	 6.682936707795624e-01	 1.213912823038763e+00	-1.305157349577034e+01
1	 6.399994265735720e-01	 1.229065354536308e+00	-1.344958403223446e+01
1	 6.114640931942503e-01	 1.243508227803614e+00	-1.382989737636121e+01
1	 5.827135744786168e-01	 1.257237473734950e+00	-1.419172753643267e+01
1	 8.662909000489962e-01	 1.099789520481441e+00	-9.727763408240360e+00
1	 8.401311726044686e-01	 1.119900217941657e+00	-1.021704974802675e+01
1	 8.135495735250280e-01	 1.139356826805732e+00	-1.069600772206780e+01
1	 7.865705306479197e-01	 1.158146675084499e+00	-1.116354630298417e+01
1	 7.592189429791690e-01	 1.176258297088997e+00	-1.161860006757285e+01
1	 7.315201070305251e-01	 1.193681452615102e+00	-1.206013505526252e+01
1	 7.034996424874408e-01	 1.210407140811137e+00	-1.248715437427853e+01
1	 6.751834176476257e-01	 1.226427608735297e+00	-1.289870351008948e+01
1	 6.465974750628329e-01	 1.241736354650330e+00	-1.329387529469439e+01
1	 6.177679578055304e-01	 1.256328126142018e+00	-1.367181449975066e+01
1	 5.887210367673058e-01	 1.270198913185302e+00	-1.403172202135586e+01
1	 8.751307407769979e-01	 1.111012037301826e+00	-9.606959289516798e+00
1	 8.487040731808854e-01	 1.131327949156626e+00	-1.008986936099197e+01
1	 8.218512290702609e-01	 1.150983097937878e+00	-1.056287136869204e+01
1	 7.945968855498914e-01	 1.169964682348398e+00	-1.102488668017165e+01
1	 7.669661957012445e-01	 1.188261119700584e+00	-1.147485809351982e+01
1	 7.389847141677560e-01	 1.205862065296819e+00	-1.191175582745012e+01
1	 7.106783220643060e-01	 1.222758426438575e+00	-1.233458328621644e+01
1	 6.820731516549328e-01	 1.238942371071174e+00	-1.274238255166455e+01
1	 6.531955112358470e-01	 1.254407331112081e+00	-1.313423955850275e+01
1	 6.240718106497117e-01	 1.269148000550190e+00	-1.350928891314238e+01
1	 5.947284878421829e-01	 1.283160328441185e+00	-1.386671832114047e+01
1	 8.839705629414819e-01	 1.122234530555182e+00	-9.484818839292529e+00
1	 8.572769557543541e-01	 1.142755656373625e+00	-9.961128744894653e+00
1	 8.301528671821561e-01	 1.162609344655126e+00	-1.042791540552284e+01
1	 8.026232235966541e-01	 1.181782664794758e+00	-1.088411177510140e+01
1	 7.747134321542239e-01	 1.200263917106523e+00	-1.132866815270690e+01
1	 7.464493056294456e-01	 1.218042652399525e+00	-1.176055831149298e+01
1	 7.178569865660778e-01	 1.235109686128581e+00	-1.217878542889910e+01
1	 6.889628711939315e-01	 1.251457107126304e+00	-1.258238776813298e+01
1	 6.597935335531173e-01	 1.267078280965017e+00	-1.297044406448561e+01
1	 6.303756502559335e-01	 1.281967848036833e+00	-1.334207857413854e+01
1	 6.007359263015425e-01	 1.296121716478273e+00	-1.369646574768590e+01
1	 5.406611422144048e-01	 1.166506974181152e+00	-1.519521098564113e+01
1	 5.138116717552891e-01	 1.178579927199173e+00	-1.553226294540685e+01
1	 4.868104428277401e-01	 1.189986863234134e+00	-1.584517719137958e+01
1	 4.596811685659499e-01	 1.200727447337036e+00	-1.613334077719456e+01
1	 4.324473371061253e-01	 1.210802416556687e+00	-1.639621582955095e+01
1	 4.051321545099085e-01	 1.220213553110794e+00	-1.663334215575803e+01
1	 3.777584904297684e-01	 1.228963654185617e+00	-1.684433928458542e+01
1	 3.503488267225386e-01	 1.237056498645061e+00	-1.702890793975454e+01
1	 3.229252091875749e-01	 1.244496810941490e+00	-1.718683095131709e+01
1	 2.955092025760218e-01	 1.251290222528759e+00	-1.731797361574402e+01
1	 2.681218489877413e-01	 1.257443231082956e+00	-1.742228352072669e+01
1	 5.466686437519976e-01	 1.179468498311525e+00	-1.506222359221925e+01
1	 5.195208381204921e-01	 1.191675598724702e+00	-1.540163584069038e+01
1	 4.922195877717349e-01	 1.203209281774577e+00	-1.571749815565472e+01
1	 4.647888693259978e-01	 1.214069208790389e+00	-1.600917621820681e+01
1	 4.372524319055254e-01	 1.224256125010579e+00	-1.627610501551387e+01
1	 4.096337394237552e-01	 1.233771832455774e+00	-1.651779188233377e+01
1	 3.819559156469748e-01	 1.242619159392876e+00	-1.673381899822923e+01
1	 3.542416922368837e-01	 1.250801926674242e+00	-1.692384533476228e+01
1	 3.265133599524975e-01	 1.258324911247501e+00	-1.708760805291823e+01
1	 2.987927231595001e-01	 1.265193807139827e+00	-1.722492335670666e+01
1	 2.711010577649079e-01	 1.271415184225567e+00	-1.733568681423930e+01
1	 5.526761438877230e-01	 1.192430019417744e+00	-1.492631821714447e+01
1	 5.252300031534778e-01	 1.204771267194820e+00	-1.526755909600258e+01
1	 4.976287314535490e-01	 1.216431697230087e+00	-1.558580126718185e+01
1	 4.698965688942295e-01	 1.227410967131020e+00	-1.588041077222727e+01
1	 4.420575255837426e-01	 1.237709830325687e+00	-1.615081758065207e+01
1	 4.141353232872625e-01	 1.247330108637632e+00	-1.639651888384875e+01
1	 3.861533398848386e-01	 1.256274661414386e+00	-1.661708187218929e+01
1	 3.581345568429812e-01	 1.264547351496750e+00	-1.681214598593360e+01
1	 3.301015098803090e-01	 1.272153008327602e+00	-1.698142463645575e+01
1	 3.020762429769927e-01	 1.279097388507421e+00	-1.712470639996743e+01
1	 2.740802658471492e-01	 1.285387134108794e+00	-1.724185569129772e+01
1	 5.586836412198745e-01	 1.205391534475477e+00	-1.478715830754108e+01
1	 5.309391655221455e-01	 1.217866929553885e+00	-1.512968781702661e+01
1	 5.030378726110818e-01	 1.229654106515435e+00	-1.544973848710252e+01
1	 4.750042660788756e-01	 1.240752719245839e+00	-1.574669775889731e+01
1	 4.468626170196098e-01	 1.251163529362787e+00	-1.602001200409848e+01
1	 4.186369050500766e-01	 1.260888378492727e+00	-1.626918989298932e+01
1	 3.903507621639697e-01	 1.269930157063807e+00	-1.649380527818603e+01
1	 3.620274196324958e-01	 1.278292769905249e+00	-1.669349958240164e+01
1	 3.336896581337639e-01	 1.285981098955156e+00	-1.686798368423808e+01
1	 3.053597612623210e-01	 1.293000963387279e+00	-1.701703930151392e+01
1	 2.770594725392778e-01	 1.299359077472413e+00	-1.714051987688670e+01
1	 5.646911343467459e-01	 1.218353040460394e+00	-1.464442161816681e+01
1	 5.366483238943944e-01	 1.230962582746256e+00	-1.498769177113555e+01
1	 5.084470099822319e-01	 1.242876506545394e+00	-1.530897657115909e+01
1	 4.801119596881672e-01	 1.254094462021757e+00	-1.560770523378038e+01
1	 4.516677050919607e-01	 1.264617218982655e+00	-1.588336128054690e+01
1	 4.231384836618437e-01	 1.274446638857421e+00	-1.613548580607134e+01
1	 3.945481815049780e-01	 1.283585643154801e+00	-1.636368029825179e+01
1	 3.659202796970926e-01	 1.292038178692406e+00	-1.656760899902667e+01
1	 3.372778038756170e-01	 1.299809179903525e+00	-1.674700079837821e+01
1	 3.086432772493077e-01	 1.306904528535139e+00	-1.690165065949256e+01
1	 2.800386771461065e-01	 1.313331011056197e+00	-1.703142057796490e+01
1	 5.706986218666309e-01	 1.231314534348166e+00	-1.449779945792574e+01
1	 5.423574769381242e-01	 1.244058223716290e+00	-1.484125461522028e+01
1	 5.138561423048991e-01	 1.256098894234734e+00	-1.516319629047604e+01
1	 4.852196485303356e-01	 1.267436192345687e+00	-1.546311521218298e+01
1	 4.564727886796288e-01	 1.278070896046066e+00	-1.574055215562302e+01
1	 4.276400580722104e-01	 1.288004886568077e+00	-1.599510093689060e+01
1	 3.987455969284734e-01	 1.297241116501029e+00	-1.622641100240183e+01
1	 3.698131361284367e-01	 1.305783574650884e+00	-1.643418960164661e+01
1	 3.408659462686225e-01	 1.313637247946070e+00	-1.661820353580762e+01
1	 3.119267901717747e-01	 1.320808080706736e+00	-1.677828047961196e+01
1	 2.830178789724484e-01	 1.327302931599920e+00	-1.691430987835061e+01
1	 5.767061023778234e-01	 1.244276013114461e+00	-1.434699598346127e+01
1	 5.480666233212343e-01	 1.257153849408346e+00	-1.469007317176480e+01
1	 5.192652683169823e-01	 1.269321266498228e+00	-1.501209170102980e+01
1	 4.903273314136112e-01	 1.280777907104539e+00	-1.531262294147200e+01
1	 4.612778666614481e-01	 1.291524557413797e+00	-1.559128440903124e+01
1	 4.321416272308229e-01	 1.301563118461056e+00	-1.584774231719466e+01
1	 4.029430074550653e-01	 1.310896573916152e+00	-1.608171377143895e+01
1	 3.737059880181927e-01	 1.319528954573350e+00	-1.629296859573747e+01
1	 3.444540844755351e-01	 1.327465299856153e+00	-1.648133078483983e+01
1	 3.152102992635440e-01	 1.334711616657808e+00	-1.664667958019835e+01
1	 2.859970773231161e-01	 1.341274835843357e+00	-1.678895017141790e+01
1	 5.827135744786168e-01	 1.257237473734950e+00	-1.419172753643267e+01
1	 5.537757617116243e-01	 1.270249456766782e+00	-1.453385674968885e+01
1	 5.246743867563802e-01	 1.282543620250645e+00	-1.485536945829334e+01
1	 4.954350071462251e-01	 1.294119603185224e+00	-1.515593621839250e+01
1	 4.660829379162515e-01	 1.304978199946625e+00	-1.543527018203168e+01
1	 4.366431900873278e-01	 1.315121331372720e+00	-1.569312904041248e+01
1	 4.071404121053634e-01	 1.324552012213832e+00	-1.592931666163535e+01
1	 3.775988344580258e-01	 1.333274315252468e+00	-1.614368441535159e+01
1	 3.480422176591093e-01	 1.341293332407137e+00	-1.633613218028708e+01
1	 3.184938037584378e-01	 1.348615133144092e+00	-1.650660903404128e+01
1	 2.889762715029223e-01	 1.355246720526281e+00	-1.665511362787285e+01
1	 5.887210367673058e-01	 1.270198913185302e+00	-1.403172202135586e+01
1	 5.594848907771935e-01	 1.283345042735955e+00	-1.437232650675968e+01
1	 5.300834963609925e-01	 1.295765952406758e+00	-1.469274817383070e+01
1	 5.005426745364085e-01	 1.307461277474654e+00	-1.499277474817059e+01
1	 4.708880013228732e-01	 1.318431820505326e+00	-1.527223334608007e+01
1	 4.411447455913715e-01	 1.328679522139431e+00	-1.553099164555407e+01
1	 4.113378098999779e-01	 1.338207428207729e+00	-1.576895880830046e+01
1	 3.814916745396011e-01	 1.347019653480905e+00	-1.598608614945831e+01
1	 3.516303449820996e-01	 1.355121342372383e+00	-1.618236755437632e+01
1	 3.217773028902782e-01	 1.362518626921326e+00	-1.635783964440320e+01
1	 2.919554608166801e-01	 1.369218582388467e+00	-1.651258169610748e+01
1	 5.947284878421829e-01	 1.283160328441185e+00	-1.386671832114047e+01
1	 5.651940091858411e-01	 1.296440604260224e+00	-1.420521485063640e+01
1	 5.354925958687180e-01	 1.308988259881339e+00	-1.452395781087468e+01
1	 5.056503323923919e-01	 1.320802926859741e+00	-1.482286954244838e+01
1	 4.756930557601460e-01	 1.331885415950674e+00	-1.510190890972273e+01
1	 4.456462926925999e-01	 1.342237687597550e+00	-1.536107153843866e+01
1	 4.155351998595183e-01	 1.351862818711506e+00	-1.560038986548765e+01
1	 3.853845073545833e-01	 1.360764966051325e+00	-1.581993300304247e+01
1	 3.552184656072604e-01	 1.368949326525253e+00	-1.601980642093439e+01
1	 3.250607958928872e-01	 1.376422094745246e+00	-1.620015145277754e+01
1	 2.949346445692019e-01	 1.383190418169688e+00	-1.636114463282633e+01
1	 6.007359263015425e-01	 1.296121716478273e+00	-1.369646574768589e+01
1	 5.709031156054668e-01	 1.309536138283946e+00	-1.403226487584101e+01
1	 5.409016840174559e-01	 1.322210539589158e+00	-1.434873911616100e+01
1	 5.107579795224065e-01	 1.334144548227396e+00	-1.464596235333344e+01
1	 4.804981001069039e-01	 1.345338983143447e+00	-1.492404246106792e+01
1	 4.501478303406600e-01	 1.355795824583440e+00	-1.518312044764039e+01
1	 4.197325810045943e-01	 1.365518180538823e+00	-1.542336947930844e+01
1	 3.892773319946376e-01	 1.374510249756393e+00	-1.564499379052829e+01
1	 3.588065786973464e-01	 1.382777281639109e+00	-1.584822749051401e+01
1	 3.283442820000870e-01	 1.390325533371589e+00	-1.603333327617357e+01
1	 2.979138220653007e-01	 1.397162224609720e+00	-1.620060106182859e+01
1	 2.681218489877413e-01	 1.257443231082956e+00	-1.742228352072669e+01
1	 2.407817228767851e-01	 1.262963522352994e+00	-1.750064487560988e+01
1	 2.135106558184331e-01	 1.267858745981453e+00	-1.755301048630168e+01
1	 1.863279375037964e-01	 1.272137738871794e+00	-1.757810848932434e+01
1	 1.592522018633585e-01	 1.275810025489055e+00	-1.757480078147253e+01
1	 1.323014031501211e-01	 1.278885770601601e+00	-1.754208720949788e+01
1	 1.054927955345951e-01	 1.281375731613288e+00	-1.747910859248230e+01
1	 7.884291614478943e-02	 1.283291210751440e+00	-1.738514861436439e+01
1	 5.236757146467105e-02	 1.284644007362039e+00	-1.725963463314017e+01
1	 2.608182698689521e-02	 1.285446370548278e+00	-1.710213746110716e+01
1	 0.000000000000000e+00	 1.285710952372222e+00	-1.691237017716178e+01
1	 2.711010577649079e-01	 1.271415184225567e+00	-1.733568681423930e+01
1	 2.434571446109329e-01	 1.276996813653051e+00	-1.742074780490274e+01
1	 2.158830578522008e-01	 1.281946430063098e+00	-1.748000740113611e+01
1	 1.883983015152831e-01	 1.286272968549541e+00	-1.751211538098869e+01
1	 1.610217165797056e-01	 1.289986059407557e+00	-1.751585522838921e+01
1	 1.337714567953441e-01	 1.293095980350324e+00	-1.749014899857626e+01
1	 1.066649680506879e-01	 1.295613608311512e+00	-1.743406097267532e+01
1	 7.971897122437922e-02	 1.297550371102009e+00	-1.734680013605571e+01
1	 5.294944843254006e-02	 1.298918199175053e+00	-1.722772152482413e+01
1	 2.637163256653081e-02	 1.299729477738514e+00	-1.707632649331093e+01
1	 0.000000000000000e+00	 1.299996999436575e+00	-1.689226196265913e+01
1	 2.740802658471492e-01	 1.285387134108794e+00	-1.724185569129772e+01
1	 2.461325657211033e-01	 1.291030101679448e+00	-1.733369782311127e+01
1	 2.182554593327630e-01	 1.296034110858418e+00	-1.740006290986245e+01
1	 1.904686650441012e-01	 1.300408194929889e+00	-1.743949753965200e+01
1	 1.627912308836288e-01	 1.304162090019158e+00	-1.745068185994894e+01
1	 1.352415100980418e-01	 1.307306186784182e+00	-1.743243530840405e+01
1	 1.078371402937548e-01	 1.309851481688423e+00	-1.738372107773457e+01
1	 8.059502609999235e-02	 1.311809528126306e+00	-1.730364934567592e+01
1	 5.353132526498362e-02	 1.313192387658288e+00	-1.719147931157041e+01
1	 2.666143807874780e-02	 1.314012581596891e+00	-1.704662009048610e+01
1	 0.000000000000000e+00	 1.314283043168385e+00	-1.686863052379059e+01
1	 2.770594725392778e-01	 1.299359077472413e+00	-1.714051987688670e+01
1	 2.488079855829751e-01	 1.305063383157637e+00	-1.723923477189007e+01
1	 2.206278597064843e-01	 1.310121785080170e+00	-1.731292224319009e+01
1	 1.925390276070735e-01	 1.314543414714498e+00	-1.736000164031168e+01
1	 1.645607443621362e-01	 1.318338114015989e+00	-1.737902562798961e+01
1	 1.367115627150885e-01	 1.321516386587330e+00	-1.736868696903694e+01
1	 1.090093119901753e-01	 1.324089348421717e+00	-1.732782397486054e+01
1	 8.147108056711205e-02	 1.326068678497057e+00	-1.725542465019008e+01
1	 5.411320182614732e-02	 1.327466569480965e+00	-1.715062957018759e+01
1	 2.695124345587590e-02	 1.328295678790551e+00	-1.701273353841998e+01
1	 0.000000000000000e+00	 1.328569080234105e+00	-1.684118608315552e+01
1	 2.800386771461065e-01	 1.313331011056197e+00	-1.703142057796490e+01
1	 2.514834035722265e-01	 1.319096654813073e+00	-1.713710954482735e+01
1	 2.230002584197293e-01	 1.324209449441108e+00	-1.721834145512391e+01
1	 1.946093887210234e-01	 1.328678624605022e+00	-1.727338512066654e+01
1	 1.663302566022356e-01	 1.332514128090182e+00	-1.730064232137861e+01
1	 1.381816143033584e-01	 1.335726576443923e+00	-1.729865582404829e+01
1	 1.101814828663291e-01	 1.338327205189094e+00	-1.726611599113902e+01
1	 8.234713442122146e-02	 1.340327818886994e+00	-1.720186600100584e+01
1	 5.469507798017686e-02	 1.341740741312307e+00	-1.710490571367466e+01
1	 2.724104863024481e-02	 1.342578765986636e+00	-1.697439422781510e+01
1	 0.000000000000000e+00	 1.342855107300192e+00	-1.680965118462366e+01
1	 2.830178789724484e-01	 1.327302931599920e+00	-1.691430987835061e+01
1	 2.541588190645365e-01	 1.333129913371210e+00	-1.702708350497499e+01
1	 2.253726549188625e-01	 1.338297100653986e+00	-1.711608685254877e+01
1	 1.966797479027737e-01	 1.342813821303118e+00	-1.717941561392017e+01
1	 1.680997671909344e-01	 1.346690128933866e+00	-1.721529799493898e+01
1	 1.396516645197257e-01	 1.349936753038114e+00	-1.722210415020643e+01
1	 1.113536526485959e-01	 1.352565048668249e+00	-1.719835412029413e+01
1	 8.322318745780383e-02	 1.354586945968846e+00	-1.714272428579224e+01
1	 5.527695359121787e-02	 1.356014899821536e+00	-1.705405236772686e+01
1	 2.753085353418426e-02	 1.356861839852286e+00	-1.693134101669046e+01
1	 0.000000000000000e+00	 1.357141121033102e+00	-1.677376004438434e+01
1	 2.859970773231161e-01	 1.341274835843357e+00	-1.678895017141790e+01
1	 2.568342314355833e-01	 1.347163155557500e+00	-1.690892793877381e+01
1	 2.277450486502487e-01	 1.352384735431563e+00	-1.700593446045630e+01
1	 1.987501046691476e-01	 1.356949001510443e+00	-1.707787041702396e+01
1	 1.698692757152408e-01	 1.360866113239175e+00	-1.712276843405844e+01
1	 1.411217130210647e-01	 1.364146913054058e+00	-1.713880411341184e+01
1	 1.125258210633554e-01	 1.366802875536879e+00	-1.712430546650857e+01
1	 8.409923947234235e-02	 1.368846056415343e+00	-1.707776075829979e+01
1	 5.585882852341595e-02	 1.370289041677874e+00	-1.699782478619877e+01
1	 2.782065810002395e-02	 1.371144897054644e+00	-1.688332363262232e+01
1	 0.000000000000000e+00	 1.371427118099289e+00	-1.673325794254380e+01
1	 2.889762715029223e-01	 1.355246720526281e+00	-1.665511362787286e+01
1	 2.595096400610456e-01	 1.361196378097397e+00	-1.678242354374768e+01
1	 2.301174390602524e-01	 1.366472350486590e+00	-1.688766952024048e+01
1	 2.008204585369680e-01	 1.371084161928650e+00	-1.696853599180410e+01
1	 1.716387817621622e-01	 1.375042077698238e+00	-1.702283865240597e+01
1	 1.425917594642496e-01	 1.378357053175909e+00	-1.704853725827905e+01
1	 1.136979878369874e-01	 1.381040682472682e+00	-1.704374672263786e+01
1	 8.497529026032022e-02	 1.383105146899215e+00	-1.700674650343976e+01
1	 5.644070264091678e-02	 1.384563163550541e+00	-1.693598830271570e+01
1	 2.811046226009360e-02	 1.385427934260852e+00	-1.683010211194948e+01
1	 0.000000000000000e+00	 1.385713095165209e+00	-1.668790065234588e+01
1	 2.919554608166801e-01	 1.369218582388467e+00	-1.651258169610748e+01
1	 2.621850443166021e-01	 1.375229577716355e+00	-1.664735994755382e+01
1	 2.324898255952381e-01	 1.380559942531825e+00	-1.676108601870254e+01
1	 2.028908090230582e-01	 1.385219299259399e+00	-1.685120749662270e+01
1	 1.734082849187065e-01	 1.389218019003189e+00	-1.691530242039256e+01
1	 1.440618035061546e-01	 1.392567170087822e+00	-1.695109402896013e+01
1	 1.148701526958714e-01	 1.395278466153354e+00	-1.695646368036192e+01
1	 8.585133961722070e-02	 1.397364214093191e+00	-1.692946193510473e+01
1	 5.702257580786600e-02	 1.398837262108762e+00	-1.686831781584943e+01
1	 2.840026594672293e-02	 1.399710948138050e+00	-1.677144627330363e+01
1	 0.000000000000000e+00	 1.399999048897318e+00	-1.663745390432862e+01
1	 2.949346445692019e-01	 1.383190418169688e+00	-1.636114463282633e+01
1	 2.648604435779311e-01	 1.389262751139826e+00	-1.650353525617521e+01
1	 2.348622077015705e-01	 1.394647508280022e+00	-1.662598624559244e+01
1	 2.049611556442410e-01	 1.399354410204343e+00	-1.672568834641645e+01
1	 1.751777847718815e-01	 1.403393933846157e+00	-1.679996182220226e+01
1	 1.455318448036539e-01	 1.406777260473951e+00	-1.684627331900185e+01
1	 1.160423153663872e-01	 1.409516223256593e+00	-1.686225077001681e+01
1	 8.672738733852689e-02	 1.411623254670002e+00	-1.684569632441662e+01
1	 5.760444788840924e-02	 1.413111334021757e+00	-1.679459730548850e+01
1	 2.869006909224163e-02	 1.413993935353380e+00	-1.670713522303907e+01
1	 0.000000000000000e+00	 1.414284975962072e+00	-1.658169288294804e+01
1	 2.979138220653007e-01	 1.397162224609720e+00	-1.620060106182859e+01
1	 2.675358372207115e-01	 1.403295895093266e+00	-1.635075562921327e+01
1	 2.372345848256142e-01	 1.408735044443937e+00	-1.648218037769212e+01
1	 2.070314979173397e-01	 1.413489491465140e+00	-1.659178979912538e+01
1	 1.769472809086950e-01	 1.417569818919275e+00	-1.667662683939474e+01
1	 1.470018830136218e-01	 1.420987321018450e+00	-1.673388204820317e+01
1	 1.172144755749144e-01	 1.423753950460095e+00	-1.676091062802894e+01
1	 8.760343321972207e-02	 1.425882265302377e+00	-1.675524735627217e+01
1	 5.818631874669211e-02	 1.427385375958748e+00	-1.671461937821794e+01
1	 2.897987162897944e-02	 1.428276892573984e+00	-1.663695689032823e+01
1	 0.000000000000000e+00	 1.428570873025926e+00	-1.652040175339635e+01
1	 1.428570873025926e+00	 0.000000000000000e+00	 8.285285442669730e+00
1	 1.428276892573984e+00	 2.897987162897983e-02	 7.822219883935976e+00
1	 1.427385375958749e+00	 5.818631874669251e-02	 7.363474359563074e+00
1	 1.425882265302377e+00	 8.760343321972237e-02	 6.910103893107152e+00
1	 1.423753950460095e+00	 1.172144755749147e-01	 6.463171553338323e+00
1	 1.420987321018450e+00	 1.470018830136220e-01	 6.023742726793394e+00
1	 1.417569818919275e+00	 1.769472809086952e-01	 5.592878981186984e+00
1	 1.413489491465139e+00	 2.070314979173397e-01	 5.171631541371124e+00
1	 1.408735044443936e+00	 2.372345848256141e-01	 4.761034405231531e+00
1	 1.403295895093266e+00	 2.675358372207115e-01	 4.362097132739414e+00
1	 1.397162224609719e+00	 2.979138220653008e-01	 3.975797347266308e+00
1	 1.442856738422074e+00	 0.000000000000000e+00	 7.990171777384405e+00
1	 1.442559818133399e+00	 2.926967352309299e-02	 7.535447494174908e+00
1	 1.441659386254313e+00	 5.876818831477279e-02	 7.085277461326819e+00
1	 1.440141244326646e+00	 8.847947715852847e-02	 6.640751383731562e+00
1	 1.437991646102674e+00	 1.183866331846208e-01	 6.202961184136530e+00
1	 1.435197350063360e+00	 1.484719179644717e-01	 5.772994705709349e+00
1	 1.431745672568570e+00	 1.787167731226271e-01	 5.351929016076141e+00
1	 1.427624541392580e+00	 2.091018356007429e-01	 4.940823340199653e+00
1	 1.422822549379909e+00	 2.396069566905304e-01	 4.540711655421699e+00
1	 1.417329007939364e+00	 2.702112249327637e-01	 4.152594988031231e+00
1	 1.411134000078413e+00	 3.008929929573673e-01	 3.777433456750801e+00
1	 1.457142577150667e+00	 0.000000000000000e+00	 7.705804799345732e+00
1	 1.456842717030744e+00	 2.955947487604390e-02	 7.259408444600157e+00
1	 1.455933369904449e+00	 5.935005679635650e-02	 6.817765235557124e+00
1	 1.454400196733541e+00	 8.935551946162226e-02	 6.382000544726136e+00
1	 1.452229315167604e+00	 1.195587886058234e-01	 5.953235804715589e+00
1	 1.449407352582267e+00	 1.499419501707724e-01	 5.532581617722642e+00
1	 1.445921499755661e+00	 1.804862620330460e-01	 5.121130478600583e+00
1	 1.441759564933990e+00	 2.111721694191012e-01	 4.719949144850791e+00
1	 1.436910028018618e+00	 2.419793241266670e-01	 4.330070693108492e+00
1	 1.431362094589756e+00	 2.728866076504773e-01	 3.952486307934710e+00
1	 1.425105749465931e+00	 3.038721582881034e-01	 3.588136854896148e+00
1	 1.471428395878593e+00	 0.000000000000000e+00	 7.431614310898937e+00
1	 1.471125595931537e+00	 2.984927582312151e-02	 6.993559222952991e+00
1	 1.470207333570505e+00	 5.993192446306174e-02	 6.560419082340475e+00
1	 1.468659129177392e+00	 9.023156053791931e-02	 6.133355912197479e+00
1	 1.466466964299278e+00	 1.207309423856280e-01	 5.713521313341419e+00
1	 1.463617335206642e+00	 1.514119803186326e-01	 5.302048957861027e+00
1	 1.460097307096061e+00	 1.822557484657932e-01	 4.900046709856266e+00
1	 1.455894568685836e+00	 2.132425003386314e-01	 4.508588412958119e+00
1	 1.450997486934333e+00	 2.443516882411687e-01	 4.128705390748661e+00
1	 1.445395161593315e+00	 2.755619866223831e-01	 3.761377712649756e+00
1	 1.439077479292515e+00	 3.068513194477887e-01	 3.407525284152525e+00
1	 1.485714201272741e+00	 0.000000000000000e+00	 7.167052054843624e+00
1	 1.485408461501291e+00	 3.013907649961475e-02	 6.737377231098582e+00
1	 1.484481283913834e+00	 6.051379158650658e-02	 6.312740357724396e+00
1	 1.482918048312531e+00	 9.110760079633509e-02	 5.894341088335663e+00
1	 1.480704600142087e+00	 1.219030950711400e-01	 5.483361852669589e+00
1	 1.477827304567958e+00	 1.528820090941604e-01	 5.080959711701367e+00
1	 1.474273101205284e+00	 1.840252332467092e-01	 4.688257854931905e+00
1	 1.470029559244577e+00	 2.153128293255499e-01	 4.306336786060331e+00
1	 1.465084932701314e+00	 2.467240501411799e-01	 3.936225250015549e+00
1	 1.459428215498915e+00	 2.782373630970129e-01	 3.578890960973804e+00
1	 1.453049196078406e+00	 3.098304778267026e-01	 3.235231197422888e+00
1	 1.500000000000000e+00	 0.000000000000000e+00	 6.911590669289788e+00
1	 1.499691320405524e+00	 3.042887704081255e-02	 6.490359788762516e+00
1	 1.498755227595788e+00	 6.109565843830920e-02	 6.074249423089347e+00
1	 1.497176960793287e+00	 9.198364064578519e-02	 5.664497833170665e+00
1	 1.494942229340423e+00	 1.230752472094650e-01	 5.262318940640202e+00
1	 1.492037267297686e+00	 1.543520371834642e-01	 4.868893522172259e+00
1	 1.488448888698843e+00	 1.857947172016354e-01	 4.485360062415862e+00
1	 1.484164543206676e+00	 2.173831573460732e-01	 4.112805318647686e+00
1	 1.479172371893830e+00	 2.490964109338453e-01	 3.752254657271500e+00
1	 1.473461262855428e+00	 2.809127383228979e-01	 3.404662229149916e+00
1	 1.467020906343844e+00	 3.128096348151254e-01	 3.070901057312804e+00
1	 1.514285798727260e+00	 0.000000000000000e+00	 6.664722701723463e+00
1	 1.513974179309750e+00	 3.071867758200388e-02	 6.252023193707703e+00
1	 1.513029171277717e+00	 6.167752529008763e-02	 5.844484748375745e+00
1	 1.511435873273994e+00	 9.285968049518506e-02	 5.443385207782798e+00
1	 1.509179858538677e+00	 1.242473993477081e-01	 5.049970650609400e+00
1	 1.506247230027299e+00	 1.558220652726523e-01	 4.665445903559045e+00
1	 1.502624676192253e+00	 1.875642011564123e-01	 4.290964729252675e+00
1	 1.498299527168598e+00	 2.194534853664177e-01	 3.927619750884624e+00
1	 1.493259811086144e+00	 2.514687717263093e-01	 3.576432181219299e+00
1	 1.487494310211727e+00	 2.835881135485694e-01	 3.238341430569679e+00
1	 1.480992616609070e+00	 3.157887918033364e-01	 2.914194675079259e+00
1	 1.528571604121408e+00	 0.000000000000000e+00	 6.425959678405232e+00
1	 1.528257044879485e+00	 3.100847825847763e-02	 6.021901834656264e+00
1	 1.527303121620974e+00	 6.225939241346007e-02	 5.623002065639858e+00
1	 1.525694792408982e+00	 9.373572075345028e-02	 5.230578765598032e+00
1	 1.523417494381241e+00	 1.254195520329751e-01	 4.845910837493594e+00
1	 1.520457199388268e+00	 1.572920940478329e-01	 4.470227499620595e+00
1	 1.516800470301028e+00	 1.893336859368810e-01	 4.104697787979820e+00
1	 1.512434517726803e+00	 2.215238143527999e-01	 3.750419822148777e+00
1	 1.507347256852522e+00	 2.538411336257166e-01	 3.408409909970922e+00
1	 1.501527364116686e+00	 2.862634900225589e-01	 3.079591573655834e+00
1	 1.494964333394326e+00	 3.187679501816155e-01	 2.764784586679086e+00
1	 1.542857422849333e+00	 0.000000000000000e+00	 6.194831225512149e+00
1	 1.542539923780245e+00	 3.129827920552281e-02	 5.799547353534862e+00
1	 1.541577085286909e+00	 6.284126008004454e-02	 5.409373569673736e+00
1	 1.539953724852582e+00	 9.461176182949638e-02	 5.025669788648885e+00
1	 1.537655143512507e+00	 1.265917058123711e-01	 4.649748406941800e+00
1	 1.534667182012065e+00	 1.587621241951145e-01	 4.282863382956298e+00
1	 1.530976277640682e+00	 1.911031723688825e-01	 3.926199033595680e+00
1	 1.526569521477754e+00	 2.235941452714363e-01	 3.580858622738595e+00
1	 1.521434715767229e+00	 2.562134977392117e-01	 3.247852824976680e+00
1	 1.515560431119178e+00	 2.889388689933976e-01	 2.928088155447983e+00
1	 1.508936063219851e+00	 3.217471113402418e-01	 2.622355463510408e+00
1	 1.557143261577926e+00	 0.000000000000000e+00	 5.970884238697367e+00
1	 1.556822822677546e+00	 3.158808055842829e-02	 5.584527853873251e+00
1	 1.555851068936875e+00	 6.342312856145918e-02	 5.203187162664347e+00
1	 1.554212677259125e+00	 9.548780413223884e-02	 4.828264565911156e+00
1	 1.551892812576865e+00	 1.277638612330018e-01	 4.461106624770378e+00
1	 1.548877184530161e+00	 1.602321564006051e-01	 4.102992392972098e+00
1	 1.545152104826728e+00	 1.928726612782576e-01	 3.755121487511342e+00
1	 1.540704545017914e+00	 2.256644790885435e-01	 3.418601981296502e+00
1	 1.535522194404530e+00	 2.585858651739392e-01	 3.094438209445584e+00
1	 1.529593517768076e+00	 2.916142517096169e-01	 2.783518588596582e+00
1	 1.522907812605887e+00	 3.247262766694958e-01	 2.486603555617250e+00
1	 1.571429126974074e+00	 0.000000000000000e+00	 5.753682097983811e+00
1	 1.571105748236902e+00	 3.187788245248305e-02	 5.376427152416622e+00
1	 1.570125079232222e+00	 6.400499812932213e-02	 5.004045740086959e+00
1	 1.568471656282942e+00	 9.636384807059326e-02	 4.637983711036201e+00
1	 1.566130508218708e+00	 1.289360188419724e-01	 4.279622464095936e+00
1	 1.563087213574030e+00	 1.617021913504133e-01	 3.930266509987099e+00
1	 1.559327958474683e+00	 1.946421534908473e-01	 3.591130796224502e+00
1	 1.554839594943744e+00	 2.277348167703377e-01	 3.263327885672686e+00
1	 1.549609699338691e+00	 2.609582370370436e-01	 2.947855089060147e+00
1	 1.543626630612252e+00	 2.942896394197481e-01	 2.645581659637531e+00
1	 1.536879588072675e+00	 3.277054475596566e-01	 2.357236165289799e+00
1	 1.397162224609719e+00	 2.979138220653008e-01	 3.975797347266308e+00
1	 1.390325533371589e+00	 3.283442820000868e-01	 3.593161787133603e+00
1	 1.382777281639109e+00	 3.588065786973459e-01	 3.205084850406270e+00
1	 1.374510249756393e+00	 3.892773319946374e-01	 2.812379724134658e+00
1	 1.365518180538822e+00	 4.197325810045940e-01	 2.415832771990139e+00
1	 1.355795824583439e+00	 4.501478303406597e-01	 2.016198497993025e+00
1	 1.345338983143448e+00	 4.804981001069037e-01	 1.614194586848630e+00
1	 1.334144548227396e+00	 5.107579795224063e-01	 1.210497068521403e+00
1	 1.322210539589158e+00	 5.409016840174555e-01	 8.057356555609690e-01
1	 1.309536138283946e+00	 5.709031156054665e-01	 4.004893019735797e-01
1	 1.296121716478273e+00	 6.007359263015425e-01	-4.717967932961475e-03
1	 1.411134000078413e+00	 3.008929929573673e-01	 3.777433456750801e+00
1	 1.404228941178191e+00	 3.316277608287755e-01	 3.406226409627955e+00
1	 1.396605206100602e+00	 3.623946838337244e-01	 3.029834956645478e+00
1	 1.388255502992416e+00	 3.931701480055892e-01	 2.649034792353159e+00
1	 1.379173512096488e+00	 4.239299528455067e-01	 2.264572481330053e+00
1	 1.369353931515263e+00	 4.546493580103738e-01	 1.877160534744379e+00
1	 1.358792520514022e+00	 4.853031338025658e-01	 1.487472583576746e+00
1	 1.347486140021065e+00	 5.158656153305728e-01	 1.096138696019333e+00
1	 1.335432789987597e+00	 5.463107601761635e-01	 7.037408872302326e-01
1	 1.322631643279300e+00	 5.766122093700307e-01	 3.108088696750774e-01
1	 1.309083075784400e+00	 6.067433514445451e-01	-8.218390830888922e-02
1	 1.425105749465931e+00	 3.038721582881034e-01	 3.588136854896150e+00
1	 1.418132323031283e+00	 3.349112335281558e-01	 3.228012482517350e+00
1	 1.410433104749542e+00	 3.659827822722144e-01	 2.862960728991305e+00
1	 1.402000730570267e+00	 3.970629567499074e-01	 2.493720109913166e+00
1	 1.392828818163903e+00	 4.281273168513230e-01	 2.120997755752193e+00
1	 1.382912013138390e+00	 4.591508772772685e-01	 1.745464602744812e+00
1	 1.372246032771167e+00	 4.901081585288932e-01	 1.367750700190980e+00
1	 1.360827706910340e+00	 5.209732416045713e-01	 9.884406815194481e-01
1	 1.348655015704478e+00	 5.517198262380337e-01	 6.080694469382214e-01
1	 1.335727123829745e+00	 5.823212924777389e-01	 2.271181053153700e-01
1	 1.322044410896074e+00	 6.127507653738173e-01	-1.539897778899774e-01
1	 1.439077479292515e+00	 3.068513194477887e-01	 3.407525284152525e+00
1	 1.432035685419194e+00	 3.381947016305061e-01	 3.058148215888382e+00
1	 1.424260984039027e+00	 3.695708756872476e-01	 2.704101127040582e+00
1	 1.415745938904460e+00	 4.009557600442207e-01	 2.346085659915070e+00
1	 1.406484105113612e+00	 4.323246749808002e-01	 1.984769866643344e+00
1	 1.396470075779993e+00	 4.636523902420470e-01	 1.620783515903998e+00
1	 1.385699526193253e+00	 4.949131765282328e-01	 1.254713535480340e+00
1	 1.374169255121346e+00	 5.260808607279711e-01	 8.870996378429764e-01
1	 1.361877222910231e+00	 5.571288847273165e-01	 5.184301761826994e-01
1	 1.348822586046562e+00	 5.880303675928577e-01	 1.491382779267506e-01
1	 1.335005727861969e+00	 6.187581708928535e-01	-2.204016982796845e-01
1	 1.453049196078406e+00	 3.098304778267026e-01	 3.235231197422888e+00
1	 1.445939034830253e+00	 3.414781666681055e-01	 2.896276127274972e+00
1	 1.438088850422154e+00	 3.731589657532558e-01	 2.552909003956426e+00
1	 1.429491134409508e+00	 4.048485597051586e-01	 2.205794894574493e+00
1	 1.420139379318163e+00	 4.365220291926967e-01	 1.855563119841186e+00
1	 1.410028125767245e+00	 4.681538990054123e-01	 1.502802678113104e+00
1	 1.399153007058650e+00	 4.997181900429310e-01	 1.148057824400475e+00
1	 1.387510790880210e+00	 5.311884750843423e-01	 7.918238513279545e-01
1	 1.375099417775286e+00	 5.625379381682628e-01	 4.345431190542054e-01
1	 1.361918036041029e+00	 5.937394373796537e-01	 7.660138054593407e-02
1	 1.347967032730759e+00	 6.247655708051465e-01	-2.816755526719982e-01
1	 1.467020906343844e+00	 3.128096348151254e-01	 3.070901057312806e+00
1	 1.459842377752788e+00	 3.447616301732324e-01	 2.742052360113168e+00
1	 1.451916710352021e+00	 3.767470541446709e-01	 2.409050444645561e+00
1	 1.443236323499923e+00	 4.087413575493496e-01	 2.072524093625051e+00
1	 1.433794647150103e+00	 4.407193814457703e-01	 1.733064234748456e+00
1	 1.423586169427317e+00	 4.726554056680671e-01	 1.391219483536939e+00
1	 1.412606481645731e+00	 5.045232013153349e-01	 1.047491859988397e+00
1	 1.400852320413059e+00	 5.362960870572544e-01	 7.023327257869080e-01
1	 1.388321606470075e+00	 5.679469890851228e-01	 3.561389886303058e-01
1	 1.375013479924427e+00	 5.994485045023932e-01	 9.249619409436194e-03
1	 1.360928331551120e+00	 6.307729679141900e-01	-3.380574735218119e-01
1	 1.480992616609070e+00	 3.157887918033364e-01	 2.914194675079259e+00
1	 1.473745720675130e+00	 3.480450936781657e-01	 2.595146040806944e+00
1	 1.465744570281727e+00	 3.803351425359247e-01	 2.272204141429240e+00
1	 1.456981512590223e+00	 4.126341553934235e-01	 1.945961759068897e+00
1	 1.447449914981977e+00	 4.449167336987789e-01	 1.616971758621626e+00
1	 1.437144213087383e+00	 4.771569123307148e-01	 1.285742750880786e+00
1	 1.426059956232863e+00	 5.093282125877910e-01	 9.527349480270055e-01
1	 1.414193849946018e+00	 5.414036990302772e-01	 6.183562579655135e-01
1	 1.401543795165028e+00	 5.733560400021475e-01	 2.829586635996839e-01
1	 1.388108923808035e+00	 6.051575716253428e-01	-5.316506791298364e-02
1	 1.373889630371724e+00	 6.367803650234781e-01	-3.897843025876787e-01
1	 1.494964333394326e+00	 3.187679501816155e-01	 2.764784586679086e+00
1	 1.487649070085608e+00	 3.513285587151836e-01	 2.455238671876852e+00
1	 1.479572436664370e+00	 3.839232326014490e-01	 2.142060804752939e+00
1	 1.470726708094918e+00	 4.165269550540093e-01	 1.825808043895276e+00
1	 1.461105189186332e+00	 4.491140879104804e-01	 1.506995513730959e+00
1	 1.450702263074612e+00	 4.816584210940578e-01	 1.186092189407470e+00
1	 1.439513437098418e+00	 5.141332261026461e-01	 8.635168923149923e-01
1	 1.427535385705215e+00	 5.465113133869804e-01	 5.396345424396874e-01
1	 1.414765990030577e+00	 5.787650934435867e-01	 2.147527131369102e-01
1	 1.401204373803133e+00	 6.108666414127690e-01	-1.108814673413336e-01
1	 1.386850935241248e+00	 6.427877649365041e-01	-4.370840251560654e-01
1	 1.508936063219851e+00	 3.217471113402418e-01	 2.622355463510408e+00
1	 1.501552432472550e+00	 3.546120268165655e-01	 2.322023558850882e+00
1	 1.493400315953049e+00	 3.875113260156757e-01	 2.018322606661784e+00
1	 1.484471916428524e+00	 4.204197583477359e-01	 1.711774212563460e+00
1	 1.474760476135717e+00	 4.533114460396327e-01	 1.402856075259659e+00
1	 1.464260325716179e+00	 4.861599340587995e-01	 1.091997894644969e+00
1	 1.452966930520765e+00	 5.189382441022472e-01	 7.795775085568892e-01
1	 1.440876933916774e+00	 5.516189325109339e-01	 4.659173040414566e-01
1	 1.427988197237152e+00	 5.841741519336919e-01	 1.512809481950714e-01
1	 1.414299836021000e+00	 6.165757165289386e-01	-1.641295178193657e-01
1	 1.399812252208365e+00	 6.487951704567616e-01	-4.801761801216579e-01
1	 1.522907812605887e+00	 3.247262766694958e-01	 2.486603555617251e+00
1	 1.515455814324286e+00	 3.578954995145896e-01	 2.195205268728790e+00
1	 1.507228214600859e+00	 3.910994244530367e-01	 1.900702654935785e+00
1	 1.498217144005554e+00	 4.243125670912325e-01	 1.603582131208525e+00
1	 1.488415782202676e+00	 4.575088100449939e-01	 1.304284277966355e+00
1	 1.477818407339255e+00	 4.906614533256427e-01	 1.003199871876292e+00
1	 1.466420442778276e+00	 5.237432688289406e-01	 7.006661650336189e-01
1	 1.454218500806824e+00	 5.567265587857070e-01	 3.969634560441954e-01
1	 1.441210422955184e+00	 5.895832179967133e-01	 9.231199751851332e-02
1	 1.427395316572917e+00	 6.222847996381182e-01	-2.131307171847941e-01
1	 1.412773587321749e+00	 6.548025843877445e-01	-5.192722474758231e-01
1	 1.536879588072675e+00	 3.277054475596566e-01	 2.357236165289799e+00
1	 1.529359222129145e+00	 3.611789783415347e-01	 2.074499118009045e+00
1	 1.521056139060902e+00	 3.946875295879635e-01	 1.788924495932238e+00
1	 1.511962397240521e+00	 4.282053831011283e-01	 1.500963785677032e+00
1	 1.502071113759757e+00	 4.617061818853215e-01	 1.211020749779039e+00
1	 1.491376514271011e+00	 4.951629809952903e-01	 9.194475856421982e-01
1	 1.479873980149320e+00	 5.285483025250732e-01	 6.265413483480359e-01
1	 1.467560092601489e+00	 5.618341945948696e-01	 3.325406824666976e-01
1	 1.454432673355103e+00	 5.949922941569014e-01	 3.762290680110530e-02
1	 1.440490821570163e+00	 6.279938934045739e-01	-2.580985058829045e-01
1	 1.425734946630075e+00	 6.608100095329462e-01	-5.545760146417962e-01
1	 1.296121716478273e+00	 6.007359263015425e-01	-4.717967932960809e-03
1	 1.281967848036833e+00	 6.303756502559339e-01	-4.160819398391242e-01
1	 1.267078280965017e+00	 6.597935335531179e-01	-8.393906847930368e-01
1	 1.251457107126304e+00	 6.889628711939321e-01	-1.273641310965297e+00
1	 1.235109686128581e+00	 7.178569865660782e-01	-1.717839754977949e+00
1	 1.218042652399525e+00	 7.464493056294462e-01	-2.171004910752185e+00
1	 1.200263917106523e+00	 7.747134321542246e-01	-2.632172638625524e+00
1	 1.181782664794757e+00	 8.026232235966543e-01	-3.100399619036342e+00
1	 1.162609344655126e+00	 8.301528671821563e-01	-3.574767016407609e+00
1	 1.142755656373624e+00	 8.572769557543545e-01	-4.054383920689338e+00
1	 1.122234530555182e+00	 8.839705629414819e-01	-4.538390536319736e+00
1	 1.309083075784400e+00	 6.067433514445451e-01	-8.218390830888850e-02
1	 1.294787667106306e+00	 6.366794758887820e-01	-4.814200300490503e-01
1	 1.279749202730872e+00	 6.663915412449152e-01	-8.926679956559701e-01
1	 1.263971815440652e+00	 6.958525754608674e-01	-1.314964036148217e+00
1	 1.247460918440193e+00	 7.250356351552959e-01	-1.747352792343128e+00
1	 1.230223212502171e+00	 7.539138805447811e-01	-2.188891279537863e+00
1	 1.212266687906508e+00	 7.824606514343239e-01	-2.638652733636364e+00
1	 1.193600621044838e+00	 8.106495438518657e-01	-3.095730304322912e+00
1	 1.174235565601107e+00	 8.384544868922558e-01	-3.559240562219474e+00
1	 1.154183338259446e+00	 8.658498193247729e-01	-4.028326788776528e+00
1	 1.133456998932246e+00	 8.928103655112042e-01	-4.502162019918003e+00
1	 1.322044410896074e+00	 6.127507653738173e-01	-1.539897778899774e-01
1	 1.307607462245575e+00	 6.429832897546267e-01	-5.414213532556948e-01
1	 1.292420100844492e+00	 6.729895366205751e-01	-9.409239349702986e-01
1	 1.276486500394384e+00	 7.027422668671673e-01	-1.351573141339893e+00
1	 1.259812127696359e+00	 7.322142703445174e-01	-1.772452587570262e+00
1	 1.242403749867965e+00	 7.613784415263900e-01	-2.202657682368099e+00
1	 1.224269436301516e+00	 7.902078562530934e-01	-2.641299307080324e+00
1	 1.205418555234924e+00	 8.186758491247561e-01	-3.087507344316266e+00
1	 1.185861764844993e+00	 8.467560911061389e-01	-3.540434024336695e+00
1	 1.165610998813772e+00	 8.744226668926508e-01	-3.999257059294080e+00
1	 1.144679446360872e+00	 9.016501515800983e-01	-4.463182537647239e+00
1	 1.335005727861969e+00	 6.187581708928535e-01	-2.204016982796852e-01
1	 1.320427239437255e+00	 6.492870947952859e-01	-5.963393854290083e-01
1	 1.305090981219005e+00	 6.795875227591991e-01	-9.843994251478032e-01
1	 1.289001167827722e+00	 7.096319486280581e-01	-1.383697076667045e+00
1	 1.272163319661003e+00	 7.393928954838045e-01	-1.793355188678414e+00
1	 1.254584270181177e+00	 7.688429920577627e-01	-2.212507823987202e+00
1	 1.236272167892840e+00	 7.979550502259156e-01	-2.640303767714550e+00
1	 1.217236472880059e+00	 8.267021431609495e-01	-3.075909887377656e+00
1	 1.197487947812345e+00	 8.550576836978963e-01	-3.518514314520780e+00
1	 1.177038643369505e+00	 8.829955024586523e-01	-3.967329419358683e+00
1	 1.155901878078191e+00	 9.104899252733928e-01	-4.421594552102115e+00
1	 1.347967032730759e+00	 6.247655708051465e-01	-2.816755526719981e-01
1	 1.333247004663966e+00	 6.555908939525751e-01	-6.464178511308197e-01
1	 1.317761849767537e+00	 6.861855027398904e-01	-1.023326120660961e+00
1	 1.301515823580887e+00	 7.165216239587651e-01	-1.411555504665531e+00
1	 1.284514500098049e+00	 7.465715139232197e-01	-1.810268333747035e+00
1	 1.266764779126081e+00	 7.763075356223882e-01	-2.218637574586871e+00
1	 1.248274888281778e+00	 8.057022369681759e-01	-2.635850163307113e+00
1	 1.229054379495284e+00	 8.347284297060696e-01	-3.061110193066014e+00
1	 1.209114119928721e+00	 8.633592685416175e-01	-3.493641926991202e+00
1	 1.188466277259546e+00	 8.915683300234398e-01	-3.932692609331358e+00
1	 1.167124299321332e+00	 9.193296907163157e-01	-4.377535049886297e+00
1	 1.360928331551120e+00	 6.307729679141900e-01	-3.380574735218116e-01
1	 1.346066763908323e+00	 6.618946901683121e-01	-6.918911879843612e-01
1	 1.330432712403213e+00	 6.927834796417507e-01	-1.057926849480606e+00
1	 1.314030473494097e+00	 7.234112960745130e-01	-1.435359718835261e+00
1	 1.296865674771423e+00	 7.537501290128256e-01	-1.823391846716936e+00
1	 1.278945282386943e+00	 7.837720757037558e-01	-2.221235342961555e+00
1	 1.260277603069626e+00	 8.134494200952568e-01	-2.628115531233893e+00
1	 1.240872280595642e+00	 8.427547125057406e-01	-3.043273960242018e+00
1	 1.220740286619681e+00	 8.716608495113923e-01	-3.465971244081008e+00
1	 1.199893905816797e+00	 9.001411535876770e-01	-3.895489706047526e+00
1	 1.178346715327428e+00	 9.281694520340954e-01	-4.331135802418252e+00
1	 1.373889630371724e+00	 6.367803650234781e-01	-3.897843025876792e-01
1	 1.358886523152945e+00	 6.681984863843136e-01	-7.329849848308376e-01
1	 1.343103575039161e+00	 6.993814565438822e-01	-1.088416029505408e+00
1	 1.326545123407574e+00	 7.303009681905276e-01	-1.455313038483006e+00
1	 1.309216849445051e+00	 7.609287441026844e-01	-1.832918010768380e+00
1	 1.291125785648038e+00	 7.912366157853546e-01	-2.220482428523785e+00
1	 1.272280317857678e+00	 8.211966032225428e-01	-2.617270229213188e+00
1	 1.252690181696174e+00	 8.507809953055863e-01	-3.022560636584288e+00
1	 1.232366453310785e+00	 8.799624304813104e-01	-3.435650824576613e+00
1	 1.211321534374162e+00	 9.087139771520272e-01	-3.855858390001635e+00
1	 1.189569131333609e+00	 9.370092133519605e-01	-4.282523611961635e+00
1	 1.386850935241248e+00	 6.427877649365041e-01	-4.370840251560648e-01
1	 1.371706288380448e+00	 6.745022855423962e-01	-7.699163952954795e-01
1	 1.355774443588506e+00	 7.059794365253866e-01	-1.115000061620150e+00
1	 1.339059779161538e+00	 7.371906435220346e-01	-1.471611181405952e+00
1	 1.321568029882856e+00	 7.681073625428583e-01	-1.839031920744371e+00
1	 1.303306294593635e+00	 7.987011593506748e-01	-2.216553353563459e+00
1	 1.284283038247231e+00	 8.289437899654170e-01	-2.603478247479044e+00
1	 1.264508088311923e+00	 8.588072818512308e-01	-2.999123710735063e+00
1	 1.243992625427591e+00	 8.882640153254620e-01	-3.402823675875275e+00
1	 1.222749168264542e+00	 9.172868047171535e-01	-3.813931197536591e+00
1	 1.200791552577006e+00	 9.458489787951391e-01	-4.231820543847956e+00
1	 1.399812252208365e+00	 6.487951704567616e-01	-4.801761801216570e-01
1	 1.384526065573450e+00	 6.808060905843768e-01	-8.028945283585831e-01
1	 1.368445323964375e+00	 7.125774226653668e-01	-1.137877700899292e+00
1	 1.351574446596209e+00	 7.440803252842588e-01	-1.484442615853105e+00
1	 1.333919221848763e+00	 7.752859876834094e-01	-1.841911815978246e+00
1	 1.315486814908005e+00	 8.061657098832048e-01	-2.209616177032962e+00
1	 1.296285769839580e+00	 8.366909839392637e-01	-2.586897503596734e+00
1	 1.276326005957931e+00	 8.668335758882978e-01	-2.973110988201785e+00
1	 1.255618808395660e+00	 8.965656079179360e-01	-3.367627511009763e+00
1	 1.234176812820839e+00	 9.258596402837190e-01	-3.769835759011022e+00
1	 1.212013984294751e+00	 9.546887524888598e-01	-4.179144145787124e+00
1	 1.412773587321749e+00	 6.548025843877445e-01	-5.192722474758231e-01
1	 1.397345860714569e+00	 6.871099044520724e-01	-8.321208174092778e-01
1	 1.381116222079894e+00	 7.191754180429248e-01	-1.157240407360310e+00
1	 1.364089131551809e+00	 7.509700166924258e-01	-1.493988893096525e+00
1	 1.346270431106699e+00	 7.824646228744004e-01	-1.841729394785536e+00
1	 1.327667352275420e+00	 8.136302708664346e-01	-2.199832791045204e+00
1	 1.308288518236020e+00	 8.444381887594662e-01	-2.567680121036613e+00
1	 1.288143940149242e+00	 8.748598811624115e-01	-2.944664852058703e+00
1	 1.267245007640550e+00	 9.048672121328237e-01	-3.330194991513451e+00
1	 1.245604473375955e+00	 9.344324878523876e-01	-3.723695023845382e+00
1	 1.223236431723973e+00	 9.635285385583509e-01	-4.124607655095756e+00
1	 1.425734946630075e+00	 6.608100095329462e-01	-5.545760146417966e-01
1	 1.410165679786421e+00	 6.934137300872995e-01	-8.577893691524865e-01
1	 1.393787143848190e+00	 7.257734257371631e-01	-1.173272677569144e+00
1	 1.376603839868557e+00	 7.578597209617606e-01	-1.500424961847507e+00
1	 1.358621663420585e+00	 7.896432714658930e-01	-1.838650111787342e+00
1	 1.339847912380150e+00	 8.210948457838531e-01	-2.187359201185831e+00
1	 1.320291289037849e+00	 8.521854080414092e-01	-2.545972692540334e+00
1	 1.299961896400895e+00	 8.828862014191952e-01	-2.913922509416943e+00
1	 1.278871228587822e+00	 9.131688318442138e-01	-3.290653957026983e+00
1	 1.257032155262793e+00	 9.430053514238217e-01	-3.675627473282803e+00
1	 1.234458900101805e+00	 9.723683411288404e-01	-4.068320194612877e+00
1	 1.122234530555182e+00	 8.839705629414819e-01	-4.538390536319736e+00
1	 1.101060100629861e+00	 9.102093196591319e-01	-5.027212279042704e+00
1	 1.079247663196073e+00	 9.359694939558444e-01	-5.520948890491852e+00
1	 1.056813651966454e+00	 9.612280539843321e-01	-6.018259995965205e+00
1	 1.033775600453680e+00	 9.859627334580974e-01	-6.517787369199753e+00
1	 1.010152096705643e+00	 1.010152096705644e+00	-7.018161367993065e+00
1	 9.859627334580970e-01	 1.033775600453680e+00	-7.518007466516021e+00
1	 9.612280539843319e-01	 1.056813651966455e+00	-8.015952830251647e+00
1	 9.359694939558441e-01	 1.079247663196073e+00	-8.510632878918646e+00
1	 9.102093196591318e-01	 1.101060100629861e+00	-9.000697782869061e+00
1	 8.839705629414819e-01	 1.122234530555182e+00	-9.484818839292529e+00
1	 1.133456998932246e+00	 8.928103655112042e-01	-4.502162019918003e+00
1	 1.112070822385416e+00	 9.193115126736295e-01	-4.981074387962870e+00
1	 1.090040258185034e+00	 9.453292915384648e-01	-5.465070419046708e+00
1	 1.067381904382676e+00	 9.708404399374153e-01	-5.952846695633044e+00
1	 1.044113469828073e+00	 9.958224689186665e-01	-6.443080688513598e+00
1	 1.020253728451648e+00	 1.020253728451648e+00	-6.934437079385178e+00
1	 9.958224689186663e-01	 1.044113469828074e+00	-7.425574189888370e+00
1	 9.708404399374146e-01	 1.067381904382677e+00	-7.915150463717925e+00
1	 9.453292915384641e-01	 1.090040258185035e+00	-8.401830947721539e+00
1	 9.193115126736290e-01	 1.112070822385416e+00	-8.884293717915952e+00
1	 8.928103655112043e-01	 1.133456998932246e+00	-9.361236197064850e+00
1	 1.144679446360872e+00	 9.016501515800983e-01	-4.463182537647239e+00
1	 1.123081523587785e+00	 9.284136886975023e-01	-4.932441151749780e+00
1	 1.100832833027974e+00	 9.546890716495984e-01	-5.406942058912580e+00
1	 1.077950137071642e+00	 9.804528079475135e-01	-5.885412514758039e+00
1	 1.054451319905255e+00	 1.005682185974534e+00	-6.366558780573564e+00
1	 1.030355341341413e+00	 1.030355341341414e+00	-6.849072382602087e+00
1	 1.005682185974534e+00	 1.054451319905255e+00	-7.331636492765602e+00
1	 9.804528079475129e-01	 1.077950137071642e+00	-7.812932377598123e+00
1	 9.546890716495977e-01	 1.100832833027974e+00	-8.291645861298987e+00
1	 9.284136886975021e-01	 1.123081523587786e+00	-8.766473748658727e+00
1	 9.016501515800985e-01	 1.144679446360873e+00	-9.236130154160898e+00
1	 1.155901878078191e+00	 9.104899252733928e-01	-4.421594552102115e+00
1	 1.134092209375281e+00	 9.375158519784222e-01	-4.881441400135032e+00
1	 1.111625392761407e+00	 9.640488386571276e-01	-5.346676300232439e+00
1	 1.088518354965175e+00	 9.900651625003817e-01	-5.816051060081737e+00
1	 1.064789155509534e+00	 1.015541889226881e+00	-6.288294000039969e+00
1	 1.040456940089006e+00	 1.040456940089006e+00	-6.762116198128566e+00
1	 1.015541889226881e+00	 1.064789155509535e+00	-7.236217876557046e+00
1	 9.900651625003815e-01	 1.088518354965175e+00	-7.709294876217712e+00
1	 9.640488386571272e-01	 1.111625392761407e+00	-8.180045164499184e+00
1	 9.375158519784218e-01	 1.134092209375281e+00	-8.647175321388170e+00
1	 9.104899252733929e-01	 1.155901878078191e+00	-9.109406949174423e+00
1	 1.167124299321332e+00	 9.193296907163157e-01	-4.377535049886297e+00
1	 1.145102884886215e+00	 9.466180067640608e-01	-4.828199011776601e+00
1	 1.122417942421851e+00	 9.734085969289363e-01	-5.284381311096985e+00
1	 1.099086562995096e+00	 9.996775080817737e-01	-5.744852343167466e+00
1	 1.075126981465220e+00	 1.025401583276890e+00	-6.208355924402764e+00
1	 1.050558529408490e+00	 1.050558529408490e+00	-6.673615571262711e+00
1	 1.025401583276890e+00	 1.075126981465220e+00	-7.139340945880290e+00
1	 9.996775080817734e-01	 1.099086562995096e+00	-7.604234413980356e+00
1	 9.734085969289358e-01	 1.122417942421852e+00	-8.066997659323341e+00
1	 9.466180067640603e-01	 1.145102884886215e+00	-8.526338298262205e+00
1	 9.193296907163158e-01	 1.167124299321332e+00	-8.980976438100063e+00
1	 1.178346715327428e+00	 9.281694520340954e-01	-4.331135802418252e+00
1	 1.156113555258898e+00	 9.557201573020899e-01	-4.772833150061595e+00
1	 1.133210487045824e+00	 9.827683508329064e-01	-5.220161143387511e+00
1	 1.109654766093226e+00	 1.009289849177444e+00	-5.671902951625433e+00
1	 1.085464802596620e+00	 1.035261272725742e+00	-6.126811486251409e+00
1	 1.060660114013930e+00	 1.060660114013931e+00	-6.583615761434936e+00
1	 1.035261272725741e+00	 1.085464802596620e+00	-7.041027451295141e+00
1	 1.009289849177443e+00	 1.109654766093227e+00	-7.497747588261969e+00
1	 9.827683508329058e-01	 1.133210487045824e+00	-7.952473345119653e+00
1	 9.557201573020896e-01	 1.156113555258899e+00	-8.403904842348652e+00
1	 9.281694520340955e-01	 1.178346715327428e+00	-8.850751922195650e+00
1	 1.189569131333609e+00	 9.370092133519605e-01	-4.282523611961635e+00
1	 1.167124225631645e+00	 9.648223078401814e-01	-4.715458485550058e+00
1	 1.144003031669840e+00	 9.921281047369207e-01	-5.154115926957256e+00
1	 1.120222969191389e+00	 1.018902190273145e+00	-5.597286210637231e+00
1	 1.095802623728044e+00	 1.045120962174616e+00	-6.043725098050956e+00
1	 1.070761698619392e+00	 1.070761698619392e+00	-6.492160326466694e+00
1	 1.045120962174616e+00	 1.095802623728045e+00	-6.941298329616636e+00
1	 1.018902190273145e+00	 1.120222969191389e+00	-7.389831132707219e+00
1	 9.921281047369205e-01	 1.144003031669840e+00	-7.836443362165189e+00
1	 9.648223078401810e-01	 1.167124225631645e+00	-8.279819309180702e+00
1	 9.370092133519605e-01	 1.189569131333609e+00	-8.718649985595833e+00
1	 1.200791552577006e+00	 9.458489787951391e-01	-4.231820543847956e+00
1	 1.178134901142766e+00	 9.739244626260072e-01	-4.656185405934817e+00
1	 1.154795581330418e+00	 1.001487863008863e+00	-5.086342052914993e+00
1	 1.130791177221405e+00	 1.028514535854631e+00	-5.521082335415366e+00
1	 1.106140449683802e+00	 1.054980656224697e+00	-5.959158769915646e+00
1	 1.080863287938940e+00	 1.080863287938940e+00	-6.399291202100436e+00
1	 1.054980656224697e+00	 1.106140449683802e+00	-6.840173741965737e+00
1	 1.028514535854631e+00	 1.130791177221405e+00	-7.280481910902361e+00
1	 1.001487863008862e+00	 1.154795581330418e+00	-7.718879938414190e+00
1	 9.739244626260068e-01	 1.178134901142766e+00	-8.154028144398167e+00
1	 9.458489787951390e-01	 1.200791552577005e+00	-8.584590342039544e+00
1	 1.212013984294751e+00	 9.546887524888598e-01	-4.179144145787124e+00
1	 1.189145586930573e+00	 9.830266259072385e-01	-4.595120214327029e+00
1	 1.165588141064074e+00	 1.010847630016615e+00	-5.016932346717407e+00
1	 1.141359395115096e+00	 1.038126890407658e+00	-5.443368575185465e+00
1	 1.116478285288201e+00	 1.064840359477164e+00	-5.873172220833829e+00
1	 1.090964886686639e+00	 1.090964886686639e+00	-6.305048777107525e+00
1	 1.064840359477164e+00	 1.116478285288201e+00	-6.737673109703779e+00
1	 1.038126890407658e+00	 1.141359395115096e+00	-7.169696910399593e+00
1	 1.010847630016614e+00	 1.165588141064074e+00	-7.599756339207187e+00
1	 9.830266259072381e-01	 1.189145586930573e+00	-8.026479787080159e+00
1	 9.546887524888599e-01	 1.212013984294750e+00	-8.448495690119428e+00
1	 1.223236431723973e+00	 9.635285385583509e-01	-4.124607655095756e+00
1	 1.200156288133378e+00	 9.921288019315477e-01	-4.532365316617732e+00
1	 1.176380715907324e+00	 1.020207410128059e+00	-4.945976231725602e+00
1	 1.151927627804283e+00	 1.047739258417978e+00	-5.364219349236612e+00
1	 1.126816135365550e+00	 1.074700076533199e+00	-5.785822983765311e+00
1	 1.101066499576554e+00	 1.101066499576555e+00	-6.209471964258116e+00
1	 1.074700076533199e+00	 1.126816135365550e+00	-6.633815148387714e+00
1	 1.047739258417978e+00	 1.151927627804284e+00	-7.057473237070612e+00
1	 1.020207410128059e+00	 1.176380715907324e+00	-7.479046819750581e+00
1	 9.921288019315472e-01	 1.200156288133379e+00	-7.897124578403513e+00
1	 9.635285385583509e-01	 1.223236431723973e+00	-8.310291576505993e+00
1	 1.234458900101805e+00	 9.723683411288404e-01	-4.068320194612877e+00
1	 1.211167009889495e+00	 1.001230994946606e+00	-4.468019398611437e+00
1	 1.187173310896686e+00	 1.029567207711080e+00	-4.873559883832978e+00
1	 1.162495880220790e+00	 1.057351644371346e+00	-5.283706375544137e+00
1	 1.137154004740159e+00	 1.084559811993984e+00	-5.697166505001513e+00
1	 1.111168131322751e+00	 1.111168131322752e+00	-6.112598267416922e+00
1	 1.084559811993984e+00	 1.137154004740160e+00	-6.528617899871363e+00
1	 1.057351644371345e+00	 1.162495880220790e+00	-6.943808109768441e+00
1	 1.029567207711079e+00	 1.187173310896686e+00	-7.356726580190416e+00
1	 1.001230994946606e+00	 1.211167009889495e+00	-7.765914675286975e+00
1	 9.723683411288406e-01	 1.234458900101806e+00	-8.169906266637952e+00
1	 8.839705629414819e-01	 1.122234530555182e+00	-9.484818839292529e+00
1	 8.572769557543541e-01	 1.142755656373625e+00	-9.961128744894653e+00
1	 8.301528671821561e-01	 1.162609344655126e+00	-1.042791540552284e+01
1	 8.026232235966541e-01	 1.181782664794758e+00	-1.088411177510140e+01
1	 7.747134321542239e-01	 1.200263917106523e+00	-1.132866815270690e+01
1	 7.464493056294456e-01	 1.218042652399525e+00	-1.176055831149298e+01
1	 7.178569865660778e-01	 1.235109686128581e+00	-1.217878542889910e+01
1	 6.889628711939315e-01	 1.251457107126304e+00	-1.258238776813298e+01
1	 6.597935335531173e-01	 1.267078280965017e+00	-1.297044406448561e+01
1	 6.303756502559335e-01	 1.281967848036833e+00	-1.334207857413854e+01
1	 6.007359263015425e-01	 1.296121716478273e+00	-1.369646574768590e+01
1	 8.928103655112043e-01	 1.133456998932246e+00	-9.361236197064850e+00
1	 8.658498193247725e-01	 1.154183338259446e+00	-9.830744716965883e+00
1	 8.384544868922551e-01	 1.174235565601107e+00	-1.029105939312188e+01
1	 8.106495438518655e-01	 1.193600621044838e+00	-1.074113326871757e+01
1	 7.824606514343235e-01	 1.212266687906508e+00	-1.117993337995094e+01
1	 7.539138805447808e-01	 1.230223212502172e+00	-1.160644693785907e+01
1	 7.250356351552953e-01	 1.247460918440193e+00	-1.201968733432437e+01
1	 6.958525754608671e-01	 1.263971815440653e+00	-1.241869992085189e+01
1	 6.663915412449148e-01	 1.279749202730872e+00	-1.280256751207886e+01
1	 6.366794758887817e-01	 1.294787667106307e+00	-1.317041556991340e+01
1	 6.067433514445451e-01	 1.309083075784400e+00	-1.352141702861866e+01
1	 9.016501515800985e-01	 1.144679446360873e+00	-9.236130154160898e+00
1	 8.744226668926504e-01	 1.165610998813773e+00	-9.698648404274827e+00
1	 8.467560911061386e-01	 1.185861764844994e+00	-1.015223144101990e+01
1	 8.186758491247558e-01	 1.205418555234924e+00	-1.059586982355471e+01
1	 7.902078562530926e-01	 1.224269436301516e+00	-1.102856611448396e+01
1	 7.613784415263897e-01	 1.242403749867965e+00	-1.144934093756153e+01
1	 7.322142703445168e-01	 1.259812127696359e+00	-1.185723887605554e+01
1	 7.027422668671670e-01	 1.276486500394385e+00	-1.225133416085042e+01
1	 6.729895366205746e-01	 1.292420100844493e+00	-1.263073610054214e+01
1	 6.429832897546265e-01	 1.307607462245575e+00	-1.299459420952737e+01
1	 6.127507653738173e-01	 1.322044410896074e+00	-1.334210299432997e+01
1	 9.104899252733929e-01	 1.155901878078191e+00	-9.109406949174423e+00
1	 8.829955024586520e-01	 1.177038643369505e+00	-9.564718088102669e+00
1	 8.550576836978958e-01	 1.197487947812345e+00	-1.001128898211865e+01
1	 8.267021431609489e-01	 1.217236472880060e+00	-1.044816459573711e+01
1	 7.979550502259154e-01	 1.236272167892840e+00	-1.087440124532922e+01
1	 7.688429920577622e-01	 1.254584270181178e+00	-1.128907235855637e+01
1	 7.393928954838040e-01	 1.272163319661003e+00	-1.169127408462514e+01
1	 7.096319486280576e-01	 1.289001167827722e+00	-1.208013070677911e+01
1	 6.795875227591985e-01	 1.305090981219005e+00	-1.245479981144197e+01
1	 6.492870947952851e-01	 1.320427239437256e+00	-1.281447717196666e+01
1	 6.187581708928535e-01	 1.335005727861969e+00	-1.315840130895786e+01
1	 9.193296907163158e-01	 1.167124299321332e+00	-8.980976438100063e+00
1	 8.915683300234393e-01	 1.188466277259546e+00	-9.428836743825162e+00
1	 8.633592685416168e-01	 1.209114119928721e+00	-9.868094946829434e+00
1	 8.347284297060690e-01	 1.229054379495284e+00	-1.029786678965456e+01
1	 8.057022369681752e-01	 1.248274888281779e+00	-1.071728002943369e+01
1	 7.763075356223875e-01	 1.266764779126081e+00	-1.112547972767860e+01
1	 7.465715139232193e-01	 1.284514500098049e+00	-1.152163339481025e+01
1	 7.165216239587646e-01	 1.301515823580887e+00	-1.190493594502319e+01
1	 6.861855027398900e-01	 1.317761849767538e+00	-1.227461441989577e+01
1	 6.555908939525746e-01	 1.333247004663966e+00	-1.262993244247581e+01
1	 6.247655708051463e-01	 1.347967032730759e+00	-1.297019436731366e+01
1	 9.281694520340955e-01	 1.178346715327428e+00	-8.850751922195650e+00
1	 9.001411535876764e-01	 1.199893905816797e+00	-9.290891817548932e+00
1	 8.716608495113920e-01	 1.220740286619682e+00	-9.722517501505967e+00
1	 8.427547125057401e-01	 1.240872280595642e+00	-1.014483137022951e+01
1	 8.134494200952562e-01	 1.260277603069626e+00	-1.055704978877899e+01
1	 7.837720757037553e-01	 1.278945282386944e+00	-1.095840774253610e+01
1	 7.537501290128253e-01	 1.296865674771424e+00	-1.134816334114490e+01
1	 7.234112960745126e-01	 1.314030473494097e+00	-1.172560213653825e+01
1	 6.927834796417501e-01	 1.330432712403214e+00	-1.209004121927831e+01
1	 6.618946901683117e-01	 1.346066763908323e+00	-1.244083306051182e+01
1	 6.307729679141899e-01	 1.360928331551119e+00	-1.277736907027398e+01
1	 9.370092133519605e-01	 1.189569131333609e+00	-8.718649985595833e+00
1	 9.087139771520266e-01	 1.211321534374162e+00	-9.150775015401759e+00
1	 8.799624304813101e-01	 1.232366453310785e+00	-9.574429801695619e+00
1	 8.507809953055858e-01	 1.252690181696174e+00	-9.988918791485347e+00
1	 8.211966032225422e-01	 1.272280317857678e+00	-1.039356362465099e+01
1	 7.912366157853544e-01	 1.291125785648038e+00	-1.078770698085773e+01
1	 7.609287441026841e-01	 1.309216849445050e+00	-1.117071627068240e+01
1	 7.303009681905274e-01	 1.326545123407575e+00	-1.154198714029426e+01
1	 6.993814565438816e-01	 1.343103575039162e+00	-1.190094676152492e+01
1	 6.681984863843131e-01	 1.358886523152945e+00	-1.224705688197687e+01
1	 6.367803650234780e-01	 1.373889630371725e+00	-1.257981661289710e+01
1	 9.458489787951390e-01	 1.200791552577005e+00	-8.584590342039544e+00
1	 9.172868047171532e-01	 1.222749168264542e+00	-9.008382104648124e+00
1	 8.882640153254612e-01	 1.243992625427591e+00	-9.423709759238220e+00
1	 8.588072818512302e-01	 1.264508088311923e+00	-9.829994740347360e+00
1	 8.289437899654166e-01	 1.284283038247231e+00	-1.022668014794573e+01
1	 7.987011593506743e-01	 1.303306294593636e+00	-1.061323362615380e+01
1	 7.681073625428576e-01	 1.321568029882856e+00	-1.098915007187818e+01
1	 7.371906435220340e-01	 1.339059779161539e+00	-1.135395415223980e+01
1	 7.059794365253862e-01	 1.355774443588507e+00	-1.170720261200886e+01
1	 6.745022855423957e-01	 1.371706288380448e+00	-1.204848635479523e+01
1	 6.427877649365041e-01	 1.386850935241248e+00	-1.237743228443012e+01
1	 9.546887524888599e-01	 1.212013984294750e+00	-8.448495690119428e+00
1	 9.258596402837188e-01	 1.234176812820839e+00	-8.863612725863200e+00
1	 8.965656079179358e-01	 1.255618808395660e+00	-9.270239822315071e+00
1	 8.668335758882972e-01	 1.276326005957932e+00	-9.667929894689179e+00
1	 8.366909839392632e-01	 1.296285769839580e+00	-1.005626322447024e+01
1	 8.061657098832041e-01	 1.315486814908005e+00	-1.043484920862992e+01
1	 7.752859876834088e-01	 1.333919221848763e+00	-1.080332791854676e+01
1	 7.440803252842582e-01	 1.351574446596210e+00	-1.116137145878119e+01
1	 7.125774226653666e-01	 1.368445323964376e+00	-1.150868511804777e+01
1	 6.808060905843761e-01	 1.384526065573451e+00	-1.184500830696803e+01
1	 6.487951704567616e-01	 1.399812252208365e+00	-1.217011527943654e+01
1	 9.635285385583509e-01	 1.223236431723973e+00	-8.310291576505993e+00
1	 9.344324878523871e-01	 1.245604473375955e+00	-8.716370215454376e+00
1	 9.048672121328234e-01	 1.267245007640551e+00	-9.113906767615052e+00
1	 8.748598811624111e-01	 1.288143940149242e+00	-9.502599694708680e+00
1	 8.444381887594662e-01	 1.308288518236021e+00	-9.882181734275443e+00
1	 8.136302708664341e-01	 1.327667352275421e+00	-1.025242036037430e+01
1	 7.824646228744000e-01	 1.346270431106699e+00	-1.061311802792481e+01
1	 7.509700166924256e-01	 1.364089131551809e+00	-1.096411220384174e+01
1	 7.191754180429246e-01	 1.381116222079895e+00	-1.130527519016389e+01
1	 6.871099044520719e-01	 1.397345860714569e+00	-1.163651374630467e+01
1	 6.548025843877445e-01	 1.412773587321749e+00	-1.195776851932873e+01
1	 9.723683411288406e-01	 1.234458900101806e+00	-8.169906266637952e+00
1	 9.430053514238215e-01	 1.257032155262794e+00	-8.566561437871369e+00
1	 9.131688318442132e-01	 1.278871228587822e+00	-8.954601503846312e+00
1	 8.828862014191952e-01	 1.299961896400895e+00	-9.333884126784255e+00
1	 8.521854080414087e-01	 1.320291289037849e+00	-9.704309344126708e+00
1	 8.210948457838527e-01	 1.339847912380151e+00	-1.006581858390951e+01
1	 7.896432714658925e-01	 1.358621663420585e+00	-1.041839343194117e+01
1	 7.578597209617604e-01	 1.376603839868557e+00	-1.076205416863789e+01
1	 7.257734257371627e-01	 1.393787143848190e+00	-1.109685809528433e+01
1	 6.934137300872991e-01	 1.410165679786422e+00	-1.142289767108620e+01
1	 6.608100095329461e-01	 1.425734946630075e+00	-1.174029848364249e+01
1	 6.007359263015425e-01	 1.296121716478273e+00	-1.369646574768589e+01
1	 5.709031156054668e-01	 1.309536138283946e+00	-1.403226487584101e+01
1	 5.409016840174559e-01	 1.322210539589158e+00	-1.434873911616100e+01
1	 5.107579795224065e-01	 1.334144548227396e+00	-1.464596235333344e+01
1	 4.804981001069039e-01	 1.345338983143447e+00	-1.492404246106792e+01
1	 4.501478303406600e-01	 1.355795824583440e+00	-1.518312044764039e+01
1	 4.197325810045943e-01	 1.365518180538823e+00	-1.542336947930844e+01
1	 3.892773319946376e-01	 1.374510249756393e+00	-1.564499379052829e+01
1	 3.588065786973464e-01	 1.382777281639109e+00	-1.584822749051401e+01
1	 3.283442820000870e-01	 1.390325533371589e+00	-1.603333327617357e+01
1	 2.979138220653007e-01	 1.397162224609720e+00	-1.620060106182859e+01
1	 6.067433514445451e-01	 1.309083075784400e+00	-1.352141702861867e+01
1	 5.766122093700309e-01	 1.322631643279299e+00	-1.385422493382161e+01
1	 5.463107601761639e-01	 1.335432789987598e+00	-1.416819870978333e+01
1	 5.158656153305731e-01	 1.347486140021065e+00	-1.446356194477733e+01
1	 4.853031338025660e-01	 1.358792520514021e+00	-1.474056960760163e+01
1	 4.546493580103738e-01	 1.369353931515262e+00	-1.499950610459841e+01
1	 4.239299528455069e-01	 1.379173512096489e+00	-1.524068328048913e+01
1	 3.931701480055894e-01	 1.388255502992416e+00	-1.546443837868818e+01
1	 3.623946838337248e-01	 1.396605206100602e+00	-1.567113197626941e+01
1	 3.316277608287758e-01	 1.404228941178191e+00	-1.586114590813573e+01
1	 3.008929929573673e-01	 1.411134000078413e+00	-1.603488119419773e+01
1	 6.127507653738173e-01	 1.322044410896074e+00	-1.334210299432997e+01
1	 5.823212924777392e-01	 1.335727123829746e+00	-1.367193486199172e+01
1	 5.517198262380341e-01	 1.348655015704478e+00	-1.398354272710394e+01
1	 5.209732416045715e-01	 1.360827706910340e+00	-1.427728002146282e+01
1	 4.901081585288934e-01	 1.372246032771167e+00	-1.455352847586899e+01
1	 4.591508772772688e-01	 1.382912013138390e+00	-1.481269525085033e+01
1	 4.281273168513232e-01	 1.392828818163903e+00	-1.505521007318076e+01
1	 3.970629567499076e-01	 1.402000730570267e+00	-1.528152239934470e+01
1	 3.659827822722146e-01	 1.410433104749542e+00	-1.549209862562561e+01
1	 3.349112335281559e-01	 1.418132323031283e+00	-1.568741936287584e+01
1	 3.038721582881034e-01	 1.425105749465931e+00	-1.586797679230200e+01
1	 6.187581708928535e-01	 1.335005727861969e+00	-1.315840130895786e+01
1	 5.880303675928579e-01	 1.348822586046562e+00	-1.348528595884181e+01
1	 5.571288847273168e-01	 1.361877222910231e+00	-1.379467194796562e+01
1	 5.260808607279712e-01	 1.374169255121346e+00	-1.408702329760476e+01
1	 4.949131765282329e-01	 1.385699526193252e+00	-1.436282877743690e+01
1	 4.636523902420471e-01	 1.396470075779993e+00	-1.462259826940789e+01
1	 4.323246749808004e-01	 1.406484105113612e+00	-1.486685919549334e+01
1	 4.009557600442210e-01	 1.415745938904460e+00	-1.509615303476535e+01
1	 3.695708756872477e-01	 1.424260984039027e+00	-1.531103195283085e+01
1	 3.381947016305064e-01	 1.432035685419194e+00	-1.551205556421871e+01
1	 3.068513194477885e-01	 1.439077479292515e+00	-1.569978784570536e+01
1	 6.247655708051463e-01	 1.347967032730759e+00	-1.297019436731366e+01
1	 5.937394373796542e-01	 1.361918036041030e+00	-1.329417372955812e+01
1	 5.625379381682628e-01	 1.375099417775286e+00	-1.360149099433219e+01
1	 5.311884750843425e-01	 1.387510790880210e+00	-1.389270210109161e+01
1	 4.997181900429311e-01	 1.399153007058650e+00	-1.416838372180117e+01
1	 4.681538990054125e-01	 1.410028125767245e+00	-1.442912901470160e+01
1	 4.365220291926969e-01	 1.420139379318163e+00	-1.467554349627229e+01
1	 4.048485597051587e-01	 1.429491134409507e+00	-1.490824105984824e+01
1	 3.731589657532560e-01	 1.438088850422154e+00	-1.512784016624858e+01
1	 3.414781666681058e-01	 1.445939034830253e+00	-1.533496022853020e+01
1	 3.098304778267026e-01	 1.453049196078406e+00	-1.553021820966586e+01
1	 6.307729679141899e-01	 1.360928331551119e+00	-1.277736907027397e+01
1	 5.994485045023934e-01	 1.375013479924427e+00	-1.309849768637850e+01
1	 5.679469890851232e-01	 1.388321606470075e+00	-1.340390814800154e+01
1	 5.362960870572546e-01	 1.400852320413059e+00	-1.369423020206067e+01
1	 5.045232013153351e-01	 1.412606481645730e+00	-1.397010985044590e+01
1	 4.726554056680674e-01	 1.423586169427317e+00	-1.423220464786621e+01
1	 4.407193814457706e-01	 1.433794647150102e+00	-1.448117916846896e+01
1	 4.087413575493499e-01	 1.443236323499923e+00	-1.471770067154835e+01
1	 3.767470541446711e-01	 1.451916710352021e+00	-1.494243499290261e+01
1	 3.447616301732327e-01	 1.459842377752788e+00	-1.515604268452992e+01
1	 3.128096348151254e-01	 1.467020906343844e+00	-1.535917542142307e+01
1	 6.367803650234780e-01	 1.373889630371725e+00	-1.257981661289710e+01
1	 6.051575716253430e-01	 1.388108923808035e+00	-1.289816116025800e+01
1	 5.733560400021477e-01	 1.401543795165028e+00	-1.320183517864606e+01
1	 5.414036990302774e-01	 1.414193849946018e+00	-1.349152465118476e+01
1	 5.093282125877912e-01	 1.426059956232863e+00	-1.376792688030362e+01
1	 4.771569123307149e-01	 1.437144213087382e+00	-1.403174548135744e+01
1	 4.449167336987791e-01	 1.447449914981977e+00	-1.428368559195200e+01
1	 4.126341553934238e-01	 1.456981512590223e+00	-1.452444932796542e+01
1	 3.803351425359250e-01	 1.465744570281728e+00	-1.475473151296297e+01
1	 3.480450936781660e-01	 1.473745720675131e+00	-1.497521570331203e+01
1	 3.157887918033364e-01	 1.480992616609070e+00	-1.518657052689223e+01
1	 6.427877649365041e-01	 1.386850935241248e+00	-1.237743228443012e+01
1	 6.108666414127693e-01	 1.401204373803133e+00	-1.269307112310485e+01
1	 5.787650934435871e-01	 1.414765990030577e+00	-1.299518718150299e+01
1	 5.465113133869809e-01	 1.427535385705215e+00	-1.328450562703447e+01
1	 5.141332261026464e-01	 1.439513437098417e+00	-1.356175755600019e+01
1	 4.816584210940583e-01	 1.450702263074612e+00	-1.382767483228934e+01
1	 4.491140879104806e-01	 1.461105189186332e+00	-1.408298518513927e+01
1	 4.165269550540095e-01	 1.470726708094918e+00	-1.432840759646349e+01
1	 3.839232326014494e-01	 1.479572436664371e+00	-1.456464800351976e+01
1	 3.513285587151840e-01	 1.487649070085608e+00	-1.479239533790514e+01
1	 3.187679501816154e-01	 1.494964333394326e+00	-1.501231791708503e+01
1	 6.487951704567616e-01	 1.399812252208365e+00	-1.217011527943654e+01
1	 6.165757165289388e-01	 1.414299836021000e+00	-1.248313801989912e+01
1	 5.841741519336923e-01	 1.427988197237152e+00	-1.278388242408968e+01
1	 5.516189325109340e-01	 1.440876933916775e+00	-1.307309629192669e+01
1	 5.189382441022474e-01	 1.452966930520765e+00	-1.335152751031584e+01
1	 4.861599340587998e-01	 1.464260325716178e+00	-1.361991888392560e+01
1	 4.533114460396329e-01	 1.474760476135716e+00	-1.387900326488005e+01
1	 4.204197583477361e-01	 1.484471916428524e+00	-1.412949901023461e+01
1	 3.875113260156759e-01	 1.493400315953048e+00	-1.437210579104379e+01
1	 3.546120268165657e-01	 1.501552432472550e+00	-1.460750077175309e+01
1	 3.217471113402418e-01	 1.508936063219851e+00	-1.483633517362571e+01
1	 6.548025843877445e-01	 1.412773587321749e+00	-1.195776851932873e+01
1	 6.222847996381184e-01	 1.427395316572917e+00	-1.226827561006126e+01
1	 5.895832179967134e-01	 1.441210422955183e+00	-1.256784220136350e+01
1	 5.567265587857072e-01	 1.454218500806824e+00	-1.285722265571554e+01
1	 5.237432688289408e-01	 1.466420442778276e+00	-1.313716513233246e+01
1	 4.906614533256430e-01	 1.477818407339254e+00	-1.340840655480201e+01
1	 4.575088100449941e-01	 1.488415782202676e+00	-1.367166791405578e+01
1	 4.243125670912327e-01	 1.498217144005554e+00	-1.392764993276481e+01
1	 3.910994244530369e-01	 1.507228214600860e+00	-1.417702911197538e+01
1	 3.578954995145898e-01	 1.515455814324286e+00	-1.442045417554312e+01
1	 3.247262766694958e-01	 1.522907812605887e+00	-1.465854292277744e+01
1	 6.608100095329461e-01	 1.425734946630075e+00	-1.174029848364248e+01
1	 6.279938934045742e-01	 1.440490821570162e+00	-1.204840081747923e+01
1	 5.949922941569017e-01	 1.454432673355103e+00	-1.234699069878823e+01
1	 5.618341945948699e-01	 1.467560092601490e+00	-1.263681344701767e+01
1	 5.285483025250735e-01	 1.479873980149320e+00	-1.291860144277905e+01
1	 4.951629809952906e-01	 1.491376514271011e+00	-1.319306937499293e+01
1	 4.617061818853219e-01	 1.502071113759757e+00	-1.346090985640859e+01
1	 4.282053831011286e-01	 1.511962397240521e+00	-1.372278942969833e+01
1	 3.946875295879637e-01	 1.521056139060901e+00	-1.397934498092298e+01
1	 3.611789783415348e-01	 1.529359222129144e+00	-1.423118057184933e+01
1	 3.277054475596566e-01	 1.536879588072675e+00	-1.447886469743741e+01
1	 2.979138220653007e-01	 1.397162224609720e+00	-1.620060106182859e+01
1	 2.675358372207115e-01	 1.403295895093266e+00	-1.635075562921327e+01
1	 2.372345848256142e-01	 1.408735044443937e+00	-1.648218037769212e+01
1	 2.070314979173397e-01	 1.413489491465140e+00	-1.659178979912538e+01
1	 1.769472809086950e-01	 1.417569818919275e+00	-1.667662683939474e+01
1	 1.470018830136218e-01	 1.420987321018450e+00	-1.673388204820317e+01
1	 1.172144755749144e-01	 1.423753950460095e+00	-1.676091062802894e+01
1	 8.760343321972207e-02	 1.425882265302377e+00	-1.675524735627217e+01
1	 5.818631874669211e-02	 1.427385375958748e+00	-1.671461937821794e+01
1	 2.897987162897944e-02	 1.428276892573984e+00	-1.663695689032823e+01
1	 0.000000000000000e+00	 1.428570873025926e+00	-1.652040175339635e+01
1	 3.008929929573673e-01	 1.411134000078413e+00	-1.603488119419773e+01
1	 2.702112249327637e-01	 1.417329007939364e+00	-1.619301780337605e+01
1	 2.396069566905304e-01	 1.422822549379909e+00	-1.633364185600908e+01
1	 2.091018356007427e-01	 1.427624541392580e+00	-1.645339287570034e+01
1	 1.787167731226268e-01	 1.431745672568571e+00	-1.654903744622906e+01
1	 1.484719179644715e-01	 1.435197350063360e+00	-1.661749068010373e+01
1	 1.183866331846205e-01	 1.437991646102674e+00	-1.665583544487826e+01
1	 8.847947715852815e-02	 1.440141244326646e+00	-1.666133931122793e+01
1	 5.876818831477241e-02	 1.441659386254313e+00	-1.663146921260056e+01
1	 2.926967352309260e-02	 1.442559818133399e+00	-1.656390383031396e+01
1	 0.000000000000000e+00	 1.442856738422074e+00	-1.645654374005706e+01
1	 3.038721582881034e-01	 1.425105749465931e+00	-1.586797679230200e+01
1	 2.728866076504773e-01	 1.431362094589756e+00	-1.603437478952480e+01
1	 2.419793241266670e-01	 1.436910028018619e+00	-1.618439824590750e+01
1	 2.111721694191012e-01	 1.441759564933991e+00	-1.631443290064837e+01
1	 1.804862620330458e-01	 1.445921499755662e+00	-1.642098964146547e+01
1	 1.499419501707722e-01	 1.449407352582267e+00	-1.650072819205174e+01
1	 1.195587886058231e-01	 1.452229315167604e+00	-1.655047842558880e+01
1	 8.935551946162196e-02	 1.454400196733541e+00	-1.656725925842077e+01
1	 5.935005679635611e-02	 1.455933369904449e+00	-1.654829510593911e+01
1	 2.955947487604350e-02	 1.456842717030745e+00	-1.649102990885081e+01
1	 0.000000000000000e+00	 1.457142577150667e+00	-1.639313876206297e+01
1	 3.068513194477885e-01	 1.439077479292515e+00	-1.569978784570536e+01
1	 2.755619866223831e-01	 1.445395161593315e+00	-1.587472598834886e+01
1	 2.443516882411685e-01	 1.450997486934333e+00	-1.603434960010537e+01
1	 2.132425003386314e-01	 1.455894568685836e+00	-1.617481120560655e+01
1	 1.822557484657930e-01	 1.460097307096061e+00	-1.629238606080304e+01
1	 1.514119803186323e-01	 1.463617335206642e+00	-1.638349796144969e+01
1	 1.207309423856277e-01	 1.466466964299278e+00	-1.644474255545670e+01
1	 9.023156053791902e-02	 1.468659129177393e+00	-1.647290810346000e+01
1	 5.993192446306135e-02	 1.470207333570505e+00	-1.646499366193810e+01
1	 2.984927582312111e-02	 1.471125595931537e+00	-1.641822469129174e+01
1	 0.000000000000000e+00	 1.471428395878593e+00	-1.633006611724786e+01
1	 3.098304778267026e-01	 1.453049196078406e+00	-1.553021820966586e+01
1	 2.782373630970130e-01	 1.459428215498915e+00	-1.571397468763212e+01
1	 2.467240501411798e-01	 1.465084932701314e+00	-1.588339983207569e+01
1	 2.153128293255497e-01	 1.470029559244577e+00	-1.603443293248856e+01
1	 1.840252332467091e-01	 1.474273101205284e+00	-1.616313309873228e+01
1	 1.528820090941602e-01	 1.477827304567958e+00	-1.626570709458369e+01
1	 1.219030950711398e-01	 1.480704600142087e+00	-1.633853456230018e+01
1	 9.110760079633477e-02	 1.482918048312530e+00	-1.637819057295173e+01
1	 6.051379158650618e-02	 1.484481283913834e+00	-1.638146546916561e+01
1	 3.013907649961434e-02	 1.485408461501292e+00	-1.634538199688375e+01
1	 0.000000000000000e+00	 1.485714201272741e+00	-1.626720975047974e+01
1	 3.128096348151254e-01	 1.467020906343844e+00	-1.535917542142307e+01
1	 2.809127383228978e-01	 1.473461262855427e+00	-1.555202787748494e+01
1	 2.490964109338452e-01	 1.479172371893830e+00	-1.573145653250150e+01
1	 2.173831573460730e-01	 1.484164543206676e+00	-1.589320685231589e+01
1	 1.857947172016352e-01	 1.488448888698843e+00	-1.603314072979157e+01
1	 1.543520371834640e-01	 1.492037267297686e+00	-1.614726624927768e+01
1	 1.230752472094646e-01	 1.494942229340423e+00	-1.623176473843497e+01
1	 9.198364064578483e-02	 1.497176960793287e+00	-1.628301503270412e+01
1	 6.109565843830880e-02	 1.498755227595788e+00	-1.629761491141576e+01
1	 3.042887704081213e-02	 1.499691320405524e+00	-1.627239969627231e+01
1	 0.000000000000000e+00	 1.500000000000000e+00	-1.620445803238830e+01
1	 3.157887918033364e-01	 1.480992616609070e+00	-1.518657052689222e+01
1	 2.835881135485694e-01	 1.487494310211727e+00	-1.538879607604281e+01
1	 2.514687717263093e-01	 1.493259811086144e+00	-1.557843079612867e+01
1	 2.194534853664175e-01	 1.498299527168598e+00	-1.575104519431284e+01
1	 1.875642011564121e-01	 1.502624676192253e+00	-1.590232233995059e+01
1	 1.558220652726521e-01	 1.506247230027299e+00	-1.602808946759450e+01
1	 1.242473993477078e-01	 1.509179858538677e+00	-1.612434677273534e+01
1	 9.285968049518474e-02	 1.511435873273994e+00	-1.618729331623140e+01
1	 6.167752529008724e-02	 1.513029171277717e+00	-1.621334998881446e+01
1	 3.071867758200346e-02	 1.513974179309750e+00	-1.619917952047755e+01
1	 0.000000000000000e+00	 1.514285798727260e+00	-1.614170355062794e+01
1	 3.187679501816154e-01	 1.494964333394326e+00	-1.501231791708502e+01
1	 2.862634900225589e-01	 1.501527364116686e+00	-1.522419316494763e+01
1	 2.538411336257165e-01	 1.507347256852522e+00	-1.542423705833654e+01
1	 2.215238143527998e-01	 1.512434517726803e+00	-1.560786348459277e+01
1	 1.893336859368808e-01	 1.516800470301028e+00	-1.577059456745597e+01
1	 1.572920940478327e-01	 1.520457199388267e+00	-1.590809401792611e+01
1	 1.254195520329748e-01	 1.523417494381241e+00	-1.601619759212019e+01
1	 9.373572075344996e-02	 1.525694792408982e+00	-1.609094056288288e+01
1	 6.225939241345967e-02	 1.527303121620974e+00	-1.612858214896513e+01
1	 3.100847825847722e-02	 1.528257044879485e+00	-1.612562688059134e+01
1	 0.000000000000000e+00	 1.528571604121408e+00	-1.607884291285583e+01
1	 3.217471113402418e-01	 1.508936063219851e+00	-1.483633517362571e+01
1	 2.889388689933977e-01	 1.515560431119178e+00	-1.505813623397590e+01
1	 2.562134977392116e-01	 1.521434715767229e+00	-1.526879294079526e+01
1	 2.235941452714363e-01	 1.526569521477754e+00	-1.546358039381329e+01
1	 1.911031723688823e-01	 1.530976277640682e+00	-1.563787715252655e+01
1	 1.587621241951142e-01	 1.534667182012064e+00	-1.578720024586417e+01
1	 1.265917058123708e-01	 1.537655143512507e+00	-1.590723721185224e+01
1	 9.461176182949604e-02	 1.539953724852582e+00	-1.599387506497168e+01
1	 6.284126008004413e-02	 1.541577085286909e+00	-1.604322612748295e+01
1	 3.129827920552237e-02	 1.542539923780245e+00	-1.605165069749923e+01
1	 0.000000000000000e+00	 1.542857422849333e+00	-1.601577656066456e+01
1	 3.247262766694958e-01	 1.522907812605887e+00	-1.465854292277744e+01
1	 2.916142517096169e-01	 1.529593517768076e+00	-1.489054543422695e+01
1	 2.585858651739391e-01	 1.535522194404530e+00	-1.511201910562579e+01
1	 2.256644790885433e-01	 1.540704545017914e+00	-1.531811759322500e+01
1	 1.928726612782574e-01	 1.545152104826729e+00	-1.550409279532907e+01
1	 1.602321564006049e-01	 1.548877184530161e+00	-1.566533143328592e+01
1	 1.277638612330015e-01	 1.551892812576865e+00	-1.579738859408548e+01
1	 9.548780413223854e-02	 1.554212677259125e+00	-1.589601812332606e+01
1	 6.342312856145879e-02	 1.555851068936875e+00	-1.595719979731434e+01
1	 3.158808055842786e-02	 1.556822822677546e+00	-1.597716324098364e+01
1	 0.000000000000000e+00	 1.557143261577926e+00	-1.595240859376553e+01
1	 3.277054475596566e-01	 1.536879588072675e+00	-1.447886469743742e+01
1	 2.942896394197481e-01	 1.543626630612252e+00	-1.472134383932538e+01
1	 2.609582370370435e-01	 1.549609699338690e+00	-1.495383911752162e+01
1	 2.277348167703377e-01	 1.554839594943745e+00	-1.517139961857785e+01
1	 1.946421534908471e-01	 1.559327958474682e+00	-1.536916702170674e+01
1	 1.617021913504131e-01	 1.563087213574030e+00	-1.554241366513246e+01
1	 1.289360188419721e-01	 1.566130508218708e+00	-1.568657751413309e+01
1	 9.636384807059289e-02	 1.568471656282942e+00	-1.579729391072556e+01
1	 6.400499812932171e-02	 1.570125079232223e+00	-1.587042402628215e+01
1	 3.187788245248261e-02	 1.571105748236902e+00	-1.590207997760992e+01
1	 0.000000000000000e+00	 1.571429126974074e+00	-1.588864660377038e+01
1	 1.571429126974074e+00	 0.000000000000000e+00	 5.753682097983811e+00
1	 1.571105748236902e+00	 3.187788245248305e-02	 5.376427152416622e+00
1	 1.570125079232222e+00	 6.400499812932213e-02	 5.004045740086959e+00
1	 1.568471656282942e+00	 9.636384807059326e-02	 4.637983711036201e+00
1	 1.566130508218708e+00	 1.289360188419724e-01	 4.279622464095936e+00
1	 1.563087213574030e+00	 1.617021913504133e-01	 3.930266509987099e+00
1	 1.559327958474683e+00	 1.946421534908473e-01	 3.591130796224502e+00
1	 1.554839594943744e+00	 2.277348167703377e-01	 3.263327885672686e+00
1	 1.549609699338691e+00	 2.609582370370436e-01	 2.947855089060147e+00
1	 1.543626630612252e+00	 2.942896394197481e-01	 2.645581659637531e+00
1	 1.536879588072675e+00	 3.277054475596566e-01	 2.357236165289799e+00
1	 1.585715024037928e+00	 0.000000000000000e+00	 5.543427198401048e+00
1	 1.585388705457436e+00	 3.216768498914990e-02	 5.175405451955893e+00
1	 1.584399121168951e+00	 6.458686898734099e-02	 4.812078443846484e+00
1	 1.582730666914771e+00	 9.723989395123972e-02	 4.454934692238732e+00
1	 1.580368235421320e+00	 1.301081790496063e-01	 4.105389441647933e+00
1	 1.577297274117268e+00	 1.631722295591160e-01	 3.764771451919262e+00
1	 1.573503843546176e+00	 1.964116496260304e-01	 3.434309573992666e+00
1	 1.568974676202594e+00	 2.298051590414821e-01	 3.115119212776072e+00
1	 1.563697235500412e+00	 2.633306141588864e-01	 2.808188786196038e+00
1	 1.557659774563367e+00	 2.969650330601948e-01	 2.514366297567105e+00
1	 1.550851394510401e+00	 3.306846250534405e-01	 2.234346145637801e+00
1	 1.600000951102682e+00	 0.000000000000000e+00	 5.340389589761397e+00
1	 1.599671692672685e+00	 3.245748813458729e-02	 4.981679400093774e+00
1	 1.598673193081649e+00	 6.516874106758157e-02	 4.627460637504196e+00
1	 1.596989707490964e+00	 9.811594167191688e-02	 4.279262021860220e+00
1	 1.594605992523555e+00	 1.312803417190980e-01	 3.938530043040601e+00
1	 1.591507364501976e+00	 1.646422708551649e-01	 3.606614986795239e+00
1	 1.587679758387314e+00	 1.981811494773362e-01	 3.284756774227858e+00
1	 1.583109787145346e+00	 2.318755056604247e-01	 2.974070723729640e+00
1	 1.577784801246143e+00	 2.657029962626958e-01	 2.675533353202462e+00
1	 1.571692947984227e+00	 2.996404323188487e-01	 2.389968348656411e+00
1	 1.564823230289037e+00	 3.336638088033086e-01	 2.118032832552680e+00
1	 1.614286904834791e+00	 0.000000000000000e+00	 5.144254626974080e+00
1	 1.613954706549798e+00	 3.274729182112748e-02	 4.794937334673993e+00
1	 1.612947291639554e+00	 6.575061423419915e-02	 4.449883796897893e+00
1	 1.611248774684285e+00	 9.899199102812814e-02	 4.110660552233141e+00
1	 1.608843776203160e+00	 1.324525065768599e-01	 3.778742820077117e+00
1	 1.605717481412379e+00	 1.661123148954807e-01	 3.455499774075692e+00
1	 1.601855699690321e+00	 1.999506526318325e-01	 3.142179657861786e+00
1	 1.597244924473770e+00	 2.339458561440600e-01	 2.839894860453115e+00
1	 1.591872393288765e+00	 2.680753827949168e-01	 2.549607077926872e+00
1	 1.585726147600425e+00	 3.023158365714738e-01	 2.272112696387886e+00
1	 1.578795092148498e+00	 3.366429981141584e-01	 2.008028538582558e+00
1	 1.628572881900711e+00	 0.000000000000000e+00	 4.954718702484129e+00
1	 1.628237743755919e+00	 3.303709598110283e-02	 4.614878526224283e+00
1	 1.627221413511901e+00	 6.633248835134901e-02	 4.279050220300030e+00
1	 1.625507865167491e+00	 9.986804181537659e-02	 3.948835839549821e+00
1	 1.623081583137882e+00	 1.336246733493043e-01	 3.625736898555306e+00
1	 1.619927621532703e+00	 1.675823613369837e-01	 3.311138903069290e+00
1	 1.616031664147422e+00	 2.017201586765867e-01	 3.006295754239540e+00
1	 1.611380084889633e+00	 2.360162100092826e-01	 2.712314151547307e+00
1	 1.605960008341164e+00	 2.704477732019947e-01	 2.430138129867085e+00
1	 1.599759370137554e+00	 3.049912451938342e-01	 2.160533874587032e+00
1	 1.592766976828704e+00	 3.396221922908876e-01	 1.904074966092347e+00
1	 1.642858878966899e+00	 0.000000000000000e+00	 4.771488766536996e+00
1	 1.642520800958195e+00	 3.332690054684562e-02	 4.441212702773795e+00
1	 1.641495555367929e+00	 6.691436328318649e-02	 4.114672558023201e+00
1	 1.639766975613346e+00	 1.007440938291657e-01	 3.793503678618459e+00
1	 1.637319410005468e+00	 1.347968417628436e-01	 3.479231518665717e+00
1	 1.634137781547173e+00	 1.690524098365947e-01	 3.173255439593923e+00
1	 1.630207648450840e+00	 2.034896671986659e-01	 2.876832414795789e+00
1	 1.625515265094705e+00	 2.380865667729873e-01	 2.591060773867639e+00
1	 1.620047643116225e+00	 2.728201669303749e-01	 2.316864130655024e+00
1	 1.613792612321206e+00	 3.076666575616935e-01	 2.054975647958255e+00
1	 1.606738881069569e+00	 3.426013906383932e-01	 1.805922799121466e+00
1	 1.657144892699808e+00	 0.000000000000000e+00	 4.594281872243224e+00
1	 1.656803874823768e+00	 3.361670545068816e-02	 4.273659599235144e+00
1	 1.655769713876872e+00	 6.749623889386683e-02	 3.956473366342788e+00
1	 1.654026102694607e+00	 1.016201468649986e-01	 3.644389661670201e+00
1	 1.651557253483665e+00	 1.359690115438903e-01	 3.338955599148917e+00
1	 1.648347958140016e+00	 1.705224600512339e-01	 3.041581996073425e+00
1	 1.644383649292800e+00	 2.052591777851378e-01	 2.753526389803792e+00
1	 1.639650461790754e+00	 2.401569259520683e-01	 2.475876136762337e+00
1	 1.634135294326828e+00	 2.751925634265019e-01	 2.209531746744339e+00
1	 1.627825870876976e+00	 3.103420730508160e-01	 1.955190614305054e+00
1	 1.620710801611011e+00	 3.455805924615732e-01	 1.713331316340652e+00
1	 1.671430919765895e+00	 0.000000000000000e+00	 4.422824743960229e+00
1	 1.671086962019786e+00	 3.390651062496277e-02	 4.111948529882307e+00
1	 1.670043885707968e+00	 6.807811504754545e-02	 3.804184684282698e+00
1	 1.668285243084035e+00	 1.024962007183786e-01	 3.501228759778930e+00
1	 1.665795110250220e+00	 1.371411824188566e-01	 3.204647323791382e+00
1	 1.662558147995456e+00	 1.719925116378220e-01	 2.915860323668428e+00
1	 1.658559663365526e+00	 2.070286900230698e-01	 2.636123426817587e+00
1	 1.653785671679549e+00	 2.422272870634203e-01	 2.366510487619894e+00
1	 1.648222958685861e+00	 2.775649621368212e-01	 2.107896302974370e+00
1	 1.641859142530455e+00	 3.130174910369654e-01	 1.860939827137882e+00
1	 1.634682735192946e+00	 3.485597970653249e-01	 1.626068023846091e+00
1	 1.685716956831615e+00	 0.000000000000000e+00	 4.256853367608749e+00
1	 1.685370059213394e+00	 3.419631600200176e-02	 3.955817982554985e+00
1	 1.684318067530453e+00	 6.865999160837752e-02	 3.657547631908724e+00
1	 1.682544393454392e+00	 1.033722551848091e-01	 3.363764925553131e+00
1	 1.680032976982881e+00	 1.383133541141549e-01	 3.076053748935463e+00
1	 1.676768347797721e+00	 1.734625642532795e-01	 2.795840925134939e+00
1	 1.672735687361242e+00	 2.087982034995292e-01	 2.524377889521181e+00
1	 1.667920891462859e+00	 2.442976496239379e-01	 2.262722537462464e+00
1	 1.662310632906206e+00	 2.799373625077780e-01	 2.011721415772602e+00
1	 1.655892424007237e+00	 3.156929108959058e-01	 1.771992437460892e+00
1	 1.648654678555294e+00	 3.515390037545457e-01	 1.543908306614868e+00
1	 1.700003000563425e+00	 0.000000000000000e+00	 4.096112601634315e+00
1	 1.699653163071738e+00	 3.448612151413742e-02	 3.805015233312179e+00
1	 1.698592256013564e+00	 6.924186844051838e-02	 3.516312028864946e+00
1	 1.696803550478436e+00	 1.042483100597932e-01	 3.231750715849230e+00
1	 1.694270850359394e+00	 1.394855263561977e-01	 2.952930430768000e+00
1	 1.690978554231035e+00	 1.749326175545268e-01	 2.681282687192032e+00
1	 1.686911717972173e+00	 2.105677178015834e-01	 2.418052395784985e+00
1	 1.682056117842452e+00	 2.463680131505156e-01	 2.164279105406655e+00
1	 1.676398313700747e+00	 2.823097639858172e-01	 1.920778644841038e+00
1	 1.669925712032915e+00	 3.183683320034011e-01	 1.688125353610088e+00
1	 1.662626628437969e+00	 3.545182118341332e-01	 1.466635097524495e+00
1	 1.714289047627778e+00	 0.000000000000000e+00	 3.940355807410232e+00
1	 1.713936270261961e+00	 3.477592709370207e-02	 3.659295980342661e+00
1	 1.712866447826537e+00	 6.982374540812339e-02	 3.380236031973083e+00
1	 1.711062710828929e+00	 1.051243651388343e-01	 3.104946933339026e+00
1	 1.708508727057505e+00	 1.406576988713972e-01	 2.835041071234506e+00
1	 1.705188763979623e+00	 1.764026711984846e-01	 2.571952531261307e+00
1	 1.701087751890541e+00	 2.123372325163000e-01	 2.316917473809673e+00
1	 1.696191347520097e+00	 2.484383771600481e-01	 2.070954780891694e+00
1	 1.690485997782368e+00	 2.846821660173839e-01	 1.834847162248906e+00
1	 1.683959003333080e+00	 3.210437537352151e-01	 1.609122918090370e+00
1	 1.676598581580888e+00	 3.574974206089848e-01	 1.394038562912563e+00
1	 1.536879588072675e+00	 3.277054475596566e-01	 2.357236165289799e+00
1	 1.529359222129145e+00	 3.611789783415347e-01	 2.074499118009045e+00
1	 1.521056139060902e+00	 3.946875295879635e-01	 1.788924495932238e+00
1	 1.511962397240521e+00	 4.282053831011283e-01	 1.500963785677032e+00
1	 1.502071113759757e+00	 4.617061818853215e-01	 1.211020749779039e+00
1	 1.491376514271011e+00	 4.951629809952903e-01	 9.194475856421982e-01
1	 1.479873980149320e+00	 5.285483025250732e-01	 6.265413483480359e-01
1	 1.467560092601489e+00	 5.618341945948696e-01	 3.325406824666976e-01
1	 1.454432673355103e+00	 5.949922941569014e-01	 3.762290680110530e-02
1	 1.440490821570163e+00	 6.279938934045739e-01	-2.580985058829045e-01
1	 1.425734946630075e+00	 6.608100095329462e-01	-5.545760146417962e-01
1	 1.550851394510401e+00	 3.306846250534405e-01	 2.234346145637801e+00
1	 1.543262660753379e+00	 3.644624644466162e-01	 1.960002018361029e+00
1	 1.534884094173004e+00	 3.982756426762859e-01	 1.683089064128852e+00
1	 1.525707680944315e+00	 4.320982077398996e-01	 1.404023386935393e+00
1	 1.515726475586372e+00	 4.659035630296869e-01	 1.123171486692499e+00
1	 1.504934651256828e+00	 4.996645186432699e-01	 8.408465501999984e-01
1	 1.493327547342673e+00	 5.333533468724031e-01	 5.573050236500838e-01
1	 1.480901713970360e+00	 5.669418417260944e-01	 2.727435113820548e-01
1	 1.467654953064725e+00	 6.004013823074373e-01	-1.270395581474548e-02
1	 1.453586355596186e+00	 6.337029998264971e-01	-2.989682416401565e-01
1	 1.438696334669837e+00	 6.668174479949772e-01	-5.860469760199540e-01
1	 1.564823230289037e+00	 3.336638088033086e-01	 2.118032832552680e+00
1	 1.557166128574940e+00	 3.677459574467969e-01	 1.851817553174427e+00
1	 1.548712078323922e+00	 4.018637632994254e-01	 1.583304017399960e+00
1	 1.539452993513331e+00	 4.359910405534110e-01	 1.312871808926887e+00
1	 1.529381866089396e+00	 4.701009529884128e-01	 1.040849001294375e+00
1	 1.518492816714911e+00	 5.041660657444060e-01	 7.675085910673163e-01
1	 1.506781142788726e+00	 5.381584013103312e-01	 4.930652308784954e-01
1	 1.494243363356876e+00	 5.720494995834654e-01	 2.176723065462138e-01
1	 1.480877260541402e+00	 6.058104818172241e-01	-5.858059915056224e-02
1	 1.466681917123116e+00	 6.394121182377791e-01	-3.356698157660195e-01
1	 1.451657749928804e+00	 6.728248990729171e-01	-6.136392302618052e-01
1	 1.578795092148498e+00	 3.366429981141584e-01	 2.008028538582558e+00
1	 1.571069622349703e+00	 3.710294565759766e-01	 1.749685899459589e+00
1	 1.562540088287140e+00	 4.054518906202006e-01	 1.489317400977071e+00
1	 1.553198331740336e+00	 4.398838806333745e-01	 1.227264999909511e+00
1	 1.543037282082569e+00	 4.742983507821346e-01	 9.638172111665205e-01
1	 1.532051007481672e+00	 5.086676212483482e-01	 6.992056932616387e-01
1	 1.520234763348278e+00	 5.429634647176710e-01	 4.336021526045281e-01
1	 1.507585037647940e+00	 5.771571669751688e-01	 1.671156102641904e-01
1	 1.494099592699866e+00	 6.112195914240948e-01	-1.002099270121761e-01
1	 1.479777503095249e+00	 6.451212473062344e-01	-3.683973522793313e-01
1	 1.464619189382567e+00	 6.788323613649613e-01	-6.375378643418597e-01
1	 1.592766976828704e+00	 3.396221922908876e-01	 1.904074966092347e+00
1	 1.584973138833540e+00	 3.743129610680547e-01	 1.653356348259610e+00
1	 1.576368120836146e+00	 4.090400238014308e-01	 1.400886098224541e+00
1	 1.566943692418100e+00	 4.437767270715023e-01	 1.146967469166045e+00
1	 1.556692720379632e+00	 4.784957554314885e-01	 8.918483154913164e-01
1	 1.545609220393526e+00	 5.131691841047462e-01	 6.357178405410706e-01
1	 1.533688405882126e+00	 5.477685359732344e-01	 3.787036827182340e-01
1	 1.520926733730455e+00	 5.822648427093915e-01	 1.208693830478325e-01
1	 1.507321946454855e+00	 6.166287098658830e-01	-1.377877249260308e-01
1	 1.492873110456881e+00	 6.508303856996788e-01	-3.973381647795337e-01
1	 1.477580650006715e+00	 6.848398334693059e-01	-6.579214717114295e-01
1	 1.606738881069569e+00	 3.426013906383932e-01	 1.805922799121466e+00
1	 1.598876674782327e+00	 3.775964701569309e-01	 1.562586908493083e+00
1	 1.590196172744423e+00	 4.126281620059348e-01	 1.317775446472575e+00
1	 1.580689072339393e+00	 4.476695789595059e-01	 1.071751914879924e+00
1	 1.570348177794325e+00	 4.826931659571098e-01	 8.247224350711353e-01
1	 1.559167452286884e+00	 5.176707532632487e-01	 5.768326677166578e-01
1	 1.547142067251067e+00	 5.525736139558342e-01	 3.281650912318366e-01
1	 1.534268448491324e+00	 5.873725255943198e-01	 7.873668115730920e-02
1	 1.520544318721103e+00	 6.220378358804218e-01	-1.715029695635504e-01
1	 1.505968736152310e+00	 6.565395320859273e-01	-4.226730524925390e-01
1	 1.490542128776837e+00	 6.908473139841474e-01	-6.749624345736630e-01
1	 1.620710801611011e+00	 3.455805924615732e-01	 1.713331316340653e+00
1	 1.612780226951937e+00	 3.808799830765046e-01	 1.477143931276322e+00
1	 1.604024240785459e+00	 4.162163043965318e-01	 1.239758872709835e+00
1	 1.594434468296982e+00	 4.515624353890975e-01	 1.001398871248178e+00
1	 1.584003651140387e+00	 4.868905813796344e-01	 7.622272709570943e-01
1	 1.572725699998159e+00	 5.221723276735052e-01	 5.223451309385763e-01
1	 1.560595744315899e+00	 5.573786975442835e-01	 2.817887064112241e-01
1	 1.547610178817450e+00	 5.924802144381413e-01	 4.052735081224457e-02
1	 1.533766706413343e+00	 6.274469682055448e-01	-2.015381221697953e-01
1	 1.519064377125835e+00	 6.622486851327958e-01	-4.445765810124815e-01
1	 1.503503622668521e+00	 6.968548015076813e-01	-6.888271915664108e-01
1	 1.634682735192946e+00	 3.485597970653249e-01	 1.626068023846091e+00
1	 1.626683792098246e+00	 3.841634990606757e-01	 1.396801753500444e+00
1	 1.617852321732738e+00	 4.198044501360408e-01	 1.166617547948168e+00
1	 1.608179877083639e+00	 4.554552954519889e-01	 9.356963736811472e-01
1	 1.597659137231561e+00	 4.910880007196983e-01	 7.041577805743661e-01
1	 1.586283960363763e+00	 5.266739062851653e-01	 4.720571948813352e-01
1	 1.574049433937420e+00	 5.621837856173943e-01	 2.393836131993175e-01
1	 1.560951921595736e+00	 5.975879080490416e-01	 6.057738075642471e-03
1	 1.546989106446313e+00	 6.328561055790852e-01	-2.280694069527220e-01
1	 1.532160030321749e+00	 6.679578435080992e-01	-4.632173486543166e-01
1	 1.516465128657361e+00	 7.028622946381038e-01	-6.996764917252506e-01
1	 1.648654678555294e+00	 3.515390037545457e-01	 1.543908306614868e+00
1	 1.640587366977126e+00	 3.874470173433434e-01	 1.321342359521714e+00
1	 1.631680412359747e+00	 4.233925983872808e-01	 1.098140059152354e+00
1	 1.621925295492131e+00	 4.593481582398919e-01	 8.744396410165756e-01
1	 1.611314632881585e+00	 4.952854229979368e-01	 6.503158703066538e-01
1	 1.599842230220112e+00	 5.311754880478783e-01	 4.257775358261008e-01
1	 1.587503132976426e+00	 5.669888770539796e-01	 2.007653669655040e-01
1	 1.574293673713085e+00	 6.026956052352079e-01	-2.484958651861557e-02
1	 1.560211515734747e+00	 6.382652467388765e-01	-2.512670753248737e-01
1	 1.545255692684351e+00	 6.736670058796529e-01	-4.787582392706117e-01
1	 1.529426643718942e+00	 7.088697919736108e-01	-7.076656355402619e-01
1	 1.662626628437969e+00	 3.545182118341332e-01	 1.466635097524495e+00
1	 1.654490948344454e+00	 3.907305371584074e-01	 1.250555059900268e+00
1	 1.645508509439972e+00	 4.269807483130709e-01	 1.034122097702235e+00
1	 1.635670720315228e+00	 4.632410228445187e-01	 8.174307737478477e-01
1	 1.624970134904200e+00	 4.994828472349860e-01	 6.005101035721949e-01
1	 1.613400506403614e+00	 5.356770719112931e-01	 3.833212597055302e-01
1	 1.600956838293715e+00	 5.717939707328521e-01	 1.657557216799764e-01
1	 1.587635432056398e+00	 6.078033048048268e-01	-5.236608946149257e-02
1	 1.573433931193380e+00	 6.436743904227519e-01	-2.712956568291691e-01
1	 1.558351361157939e+00	 6.793761709152729e-01	-4.913566623281043e-01
1	 1.542388164828857e+00	 7.148772921123988e-01	-7.129447038652681e-01
1	 1.676598581580888e+00	 3.574974206089848e-01	 1.394038562912563e+00
1	 1.668394532956103e+00	 3.940140577397678e-01	 1.184236186193213e+00
1	 1.659336609746896e+00	 4.305688990762300e-01	 9.743661634233277e-01
1	 1.649416148345699e+00	 4.671338883575807e-01	 7.644784673326537e-01
1	 1.638625640113148e+00	 5.036802724514817e-01	 5.545554234880568e-01
1	 1.626958785750686e+00	 5.401786568250593e-01	 3.445096342387604e-01
1	 1.614410546750085e+00	 5.765990655328240e-01	 1.341823716720696e-01
1	 1.600977193512580e+00	 6.129110055660848e-01	-7.665752269676207e-02
1	 1.586656349736946e+00	 6.490835353685447e-01	-2.883141975251926e-01
1	 1.571447032686810e+00	 6.850853372827735e-01	-5.011647809869401e-01
1	 1.555349688962692e+00	 7.208847936526629e-01	-7.156587753877890e-01
1	 1.425734946630075e+00	 6.608100095329462e-01	-5.545760146417966e-01
1	 1.410165679786421e+00	 6.934137300872995e-01	-8.577893691524865e-01
1	 1.393787143848190e+00	 7.257734257371631e-01	-1.173272677569144e+00
1	 1.376603839868557e+00	 7.578597209617606e-01	-1.500424961847507e+00
1	 1.358621663420585e+00	 7.896432714658930e-01	-1.838650111787342e+00
1	 1.339847912380150e+00	 8.210948457838531e-01	-2.187359201185831e+00
1	 1.320291289037849e+00	 8.521854080414092e-01	-2.545972692540334e+00
1	 1.299961896400895e+00	 8.828862014191952e-01	-2.913922509416943e+00
1	 1.278871228587822e+00	 9.131688318442138e-01	-3.290653957026983e+00
1	 1.257032155262793e+00	 9.430053514238217e-01	-3.675627473282803e+00
1	 1.234458900101805e+00	 9.723683411288404e-01	-4.068320194612877e+00
1	 1.438696334669837e+00	 6.668174479949772e-01	-5.860469760199540e-01
1	 1.422985527275958e+00	 6.997175696964119e-01	-8.798904951323989e-01
1	 1.406458093704091e+00	 7.323714480573985e-01	-1.186000451330800e+00
1	 1.389118575926604e+00	 7.647494405036754e-01	-1.503814634605420e+00
1	 1.370972923113356e+00	 7.968219359704288e-01	-1.832775065555003e+00
1	 1.352028499485387e+00	 8.285594372480739e-01	-2.172330125293420e+00
1	 1.332294086446027e+00	 8.599326444966284e-01	-2.521936576810988e+00
1	 1.311779878849165e+00	 8.909125394678691e-01	-2.881061458502106e+00
1	 1.290497475306639e+00	 9.214704699576771e-01	-3.249183831984629e+00
1	 1.268459862481026e+00	 9.515782339985250e-01	-3.625796368029878e+00
1	 1.245681393356093e+00	 9.812081632942572e-01	-4.010406756376856e+00
1	 1.451657749928804e+00	 6.728248990729171e-01	-6.136392302618061e-01
1	 1.435805401687458e+00	 7.060214225439064e-01	-8.984084415933595e-01
1	 1.419129070169253e+00	 7.389694842338115e-01	-1.195441609897294e+00
1	 1.401633338265831e+00	 7.716391745143251e-01	-1.504210429286472e+00
1	 1.383324208743967e+00	 8.040006155504626e-01	-1.824189668480907e+00
1	 1.364209112170008e+00	 8.360240443882061e-01	-2.154859141090133e+00
1	 1.344296909060183e+00	 8.676798972212709e-01	-2.495705575073115e+00
1	 1.323597886115254e+00	 8.989388943720311e-01	-2.846224363524414e+00
1	 1.302123746440581e+00	 9.297721255047077e-01	-3.205921180274832e+00
1	 1.279887593697410e+00	 9.601511345763568e-01	-3.574313445397926e+00
1	 1.256903910177548e+00	 9.900480040233278e-01	-3.950931627554918e+00
1	 1.464619189382567e+00	 6.788323613649613e-01	-6.375378643418590e-01
1	 1.448625300029533e+00	 7.123252871588173e-01	-9.135181514079815e-01
1	 1.431800070287028e+00	 7.455675327267967e-01	-1.201759086046917e+00
1	 1.414148123966046e+00	 7.785289213860510e-01	-1.501761512886276e+00
1	 1.395675517430381e+00	 8.111793085309283e-01	-1.813027685360448e+00
1	 1.376389747591809e+00	 8.434886654624829e-01	-2.135063102622170e+00
1	 1.356299754079610e+00	 8.754271644076367e-01	-2.467378258111507e+00
1	 1.335415915441594e+00	 9.069652642588758e-01	-2.809490283208919e+00
1	 1.313750039276837e+00	 9.380737965482800e-01	-3.160924470608552e+00
1	 1.291315346245472e+00	 9.687240511570182e-01	-3.521215663500580e+00
1	 1.268126447947593e+00	 9.988878612534782e-01	-3.889909498326984e+00
1	 1.477580650006715e+00	 6.848398334693059e-01	-6.579214717114293e-01
1	 1.461445219310796e+00	 7.186291620701782e-01	-9.253884296776823e-01
1	 1.444471091100772e+00	 7.521655919967494e-01	-1.205110096021118e+00
1	 1.426662930107062e+00	 7.854186795111947e-01	-1.496611818705525e+00
1	 1.408026846290560e+00	 8.183580132367593e-01	-1.799418187552852e+00
1	 1.388570402908588e+00	 8.509532987291373e-01	-2.113054763682810e+00
1	 1.368302618703605e+00	 8.831744442480259e-01	-2.437049737785707e+00
1	 1.347233964070615e+00	 9.149916472555970e-01	-2.770935501778102e+00
1	 1.325376351102590e+00	 9.463754811513688e-01	-3.114250119411021e+00
1	 1.302743117458739e+00	 9.772969817402075e-01	-3.466538682647122e+00
1	 1.279349004047656e+00	 1.007727732922136e+00	-3.827354542077429e+00
1	 1.490542128776837e+00	 6.908473139841474e-01	-6.749624345736633e-01
1	 1.474265156539857e+00	 7.249330458070223e-01	-9.341822105483473e-01
1	 1.457142129653841e+00	 7.587636605040647e-01	-1.205646388034207e+00
1	 1.439177753768686e+00	 7.923084472820973e-01	-1.488900273874920e+00
1	 1.420378192442467e+00	 8.255367279928895e-01	-1.783485757025217e+00
1	 1.400751075278142e+00	 8.584179424464018e-01	-2.088942956073935e+00
1	 1.380305500131459e+00	 8.909217349347384e-01	-2.404811817415166e+00
1	 1.359052029244751e+00	 9.230180414893885e-01	-2.730633649585361e+00
1	 1.337002679205026e+00	 9.546771773769483e-01	-3.065952580058782e+00
1	 1.314170904670738e+00	 9.858699243256250e-01	-3.410316921777639e+00
1	 1.290571575859161e+00	 1.016567616966727e+00	-3.763280437872861e+00
1	 1.503503622668521e+00	 6.968548015076813e-01	-6.888271915664104e-01
1	 1.487085108725331e+00	 7.312369368983842e-01	-9.400568102326805e-01
1	 1.469813182989592e+00	 7.653617367091381e-01	-1.203514477935867e+00
1	 1.451692592030731e+00	 7.991982230911011e-01	-1.478761015118283e+00
1	 1.432729553004065e+00	 8.327154511242526e-01	-1.765350679848497e+00
1	 1.412931761858268e+00	 8.658825948725100e-01	-2.062832758652324e+00
1	 1.392308395562468e+00	 8.986690346600738e-01	-2.370753134389858e+00
1	 1.370870108206433e+00	 9.310444450874450e-01	-2.688655817512079e+00
1	 1.348629020871332e+00	 9.629788832879940e-01	-3.016084427503240e+00
1	 1.325598705214996e+00	 9.944428769129717e-01	-3.352583611980987e+00
1	 1.301794160763533e+00	 1.025407511324678e+00	-3.697700391777719e+00
1	 1.516465128657361e+00	 7.028622946381038e-01	-6.996764917252505e-01
1	 1.499905072875827e+00	 7.375408338732975e-01	-9.431641670644347e-01
1	 1.482484248151378e+00	 7.719598190723639e-01	-1.198855872795419e+00
1	 1.464207441973005e+00	 8.060880053305461e-01	-1.466323593456951e+00
1	 1.445080925093318e+00	 8.398941809557829e-01	-1.745129129776005e+00
1	 1.425112459806761e+00	 8.733472542656954e-01	-2.034825657711619e+00
1	 1.404311302195926e+00	 9.064163416163323e-01	-2.334959295471697e+00
1	 1.382688198198093e+00	 9.390708561769601e-01	-2.645070665501511e+00
1	 1.360255373388692e+00	 9.712805969474798e-01	-2.964696438557041e+00
1	 1.337026516425042e+00	 1.003015837501946e+00	-3.293370847269524e+00
1	 1.313016756142200e+00	 1.034247413933416e+00	-3.630627157077484e+00
1	 1.529426643718942e+00	 7.088697919736108e-01	-7.076656355402621e-01
1	 1.512725045999958e+00	 7.438447352607953e-01	-9.436510693529988e-01
1	 1.495155322182557e+00	 7.785579060541381e-01	-1.191807283123429e+00
1	 1.476722300675319e+00	 8.129777923927746e-01	-1.451713168511157e+00
1	 1.457432305828187e+00	 8.470729158124134e-01	-1.722933342492628e+00
1	 1.437293166281423e+00	 8.808119188841904e-01	-2.005019699213884e+00
1	 1.416314217231126e+00	 9.141636539958131e-01	-2.297513005220076e+00
1	 1.394506296462164e+00	 9.470972728851270e-01	-2.599944525577092e+00
1	 1.371881734044294e+00	 9.795823164183801e-01	-2.911837668100458e+00
1	 1.348454335634401e+00	 1.011588804092248e+00	-3.232709632773627e+00
1	 1.324239359376585e+00	 1.043087322730367e+00	-3.562073053474134e+00
1	 1.542388164828857e+00	 7.148772921123988e-01	-7.129447038652681e-01
1	 1.525545025106338e+00	 7.501486395899122e-01	-9.416593717558621e-01
1	 1.507826402126483e+00	 7.851559961148554e-01	-1.182500824398953e+00
1	 1.489237165217485e+00	 8.198675826701277e-01	-1.435050693010058e+00
1	 1.469783692326635e+00	 8.542516540190780e-01	-1.698871781083096e+00
1	 1.449473878440046e+00	 8.882765869862278e-01	-1.973509633349597e+00
1	 1.428317137867365e+00	 9.219109699908171e-01	-2.258494187945438e+00
1	 1.406324400241078e+00	 9.551236933391417e-01	-2.553341499669168e+00
1	 1.383508100125322e+00	 9.878840397636706e-01	-2.857555521447225e+00
1	 1.359882160176601e+00	 1.020161774683578e+00	-3.170629930507550e+00
1	 1.335461967848114e+00	 1.051927235652958e+00	-3.492049985314262e+00
1	 1.555349688962692e+00	 7.208847936526629e-01	-7.156587753877888e-01
1	 1.538365007203576e+00	 7.564525453896814e-01	-9.373262008382678e-01
1	 1.520497485026512e+00	 7.917540877149108e-01	-1.171064208525854e+00
1	 1.501752032679311e+00	 8.267573745549470e-01	-1.416453088081221e+00
1	 1.482135081706625e+00	 8.614303939007104e-01	-1.673049293231232e+00
1	 1.461654593440430e+00	 8.957412568300415e-01	-1.940387051873700e+00
1	 1.440320061303935e+00	 9.296582877936430e-01	-2.217980103568721e+00
1	 1.418142506777267e+00	 9.631501156661962e-01	-2.505323552553277e+00
1	 1.395134468918961e+00	 9.961857650463246e-01	-2.801895823094386e+00
1	 1.371309987385168e+00	 1.028734747275635e+00	-3.107160702848072e+00
1	 1.346684578938213e+00	 1.060767150638615e+00	-3.420569458906233e+00
1	 1.234458900101805e+00	 9.723683411288404e-01	-4.068320194612877e+00
1	 1.211167009889495e+00	 1.001230994946606e+00	-4.468019398611437e+00
1	 1.187173310896686e+00	 1.029567207711080e+00	-4.873559883832978e+00
1	 1.162495880220790e+00	 1.057351644371346e+00	-5.283706375544137e+00
1	 1.137154004740159e+00	 1.084559811993984e+00	-5.697166505001513e+00
1	 1.111168131322751e+00	 1.111168131322752e+00	-6.112598267416922e+00
1	 1.084559811993984e+00	 1.137154004740160e+00	-6.528617899871363e+00
1	 1.057351644371345e+00	 1.162495880220790e+00	-6.943808109768441e+00
1	 1.029567207711079e+00	 1.187173310896686e+00	-7.356726580190416e+00
1	 1.001230994946606e+00	 1.211167009889495e+00	-7.765914675286975e+00
1	 9.723683411288406e-01	 1.234458900101806e+00	-8.169906266637952e+00
1	 1.245681393356093e+00	 9.812081632942572e-01	-4.010406756376856e+00
1	 1.222177756052655e+00	 1.010333208138176e+00	-4.402144602845077e+00
1	 1.197965929809548e+00	 1.038927026041595e+00	-4.799663493278849e+00
1	 1.173064156063485e+00	 1.066964051632084e+00	-5.201717432239993e+00
1	 1.147491897030265e+00	 1.094419569310411e+00	-5.606997366296809e+00
1	 1.121269785460785e+00	 1.121269785460785e+00	-6.014138921888044e+00
1	 1.094419569310411e+00	 1.147491897030266e+00	-6.421730613515608e+00
1	 1.066964051632084e+00	 1.173064156063485e+00	-6.828322449491159e+00
1	 1.038927026041595e+00	 1.197965929809549e+00	-7.232434857667815e+00
1	 1.010333208138175e+00	 1.222177756052656e+00	-7.632567849843014e+00
1	 9.812081632942573e-01	 1.245681393356094e+00	-8.027210340884670e+00
1	 1.256903910177548e+00	 9.900480040233278e-01	-3.950931627554918e+00
1	 1.233188525338287e+00	 1.019435440444377e+00	-4.334735863487909e+00
1	 1.208758571386796e+00	 1.048286864027678e+00	-4.724199141620895e+00
1	 1.183632454099435e+00	 1.076576479078796e+00	-5.118076585843353e+00
1	 1.157829811029820e+00	 1.104279347332226e+00	-5.515055802020843e+00
1	 1.131371460812173e+00	 1.131371460812174e+00	-5.913764793774907e+00
1	 1.104279347332226e+00	 1.157829811029820e+00	-6.312780387031692e+00
1	 1.076576479078796e+00	 1.183632454099436e+00	-6.710637088262444e+00
1	 1.048286864027677e+00	 1.208758571386797e+00	-7.105836296107742e+00
1	 1.019435440444377e+00	 1.233188525338288e+00	-7.496855781934063e+00
1	 9.900480040233277e-01	 1.256903910177548e+00	-7.882159351886790e+00
1	 1.268126447947593e+00	 9.988878612534782e-01	-3.889909498326984e+00
1	 1.244199315177236e+00	 1.028537689741422e+00	-4.265788491705186e+00
1	 1.219551233110184e+00	 1.057646719485435e+00	-4.647148979806424e+00
1	 1.194200771862754e+00	 1.086188924468655e+00	-5.032758717620493e+00
1	 1.168167744326701e+00	 1.114139143758882e+00	-5.421314959250648e+00
1	 1.141473155019926e+00	 1.141473155019926e+00	-5.811452451175792e+00
1	 1.114139143758882e+00	 1.168167744326702e+00	-6.201751960946885e+00
1	 1.086188924468655e+00	 1.194200771862755e+00	-6.590749264988418e+00
1	 1.057646719485435e+00	 1.219551233110185e+00	-6.976944513634624e+00
1	 1.028537689741422e+00	 1.244199315177236e+00	-7.358811887102155e+00
1	 9.988878612534781e-01	 1.268126447947593e+00	-7.734809452857585e+00
1	 1.279349004047656e+00	 1.007727732922136e+00	-3.827354542077429e+00
1	 1.255210123000349e+00	 1.037639953905520e+00	-4.195297961455728e+00
1	 1.230343912461471e+00	 1.067006590230976e+00	-4.568495782912680e+00
1	 1.204769106887557e+00	 1.095801385558832e+00	-4.945739587582302e+00
1	 1.178505694508791e+00	 1.123998956289837e+00	-5.325748924173054e+00
1	 1.151574865727051e+00	 1.151574865727052e+00	-5.707179280773564e+00
1	 1.123998956289837e+00	 1.178505694508792e+00	-6.088630607143349e+00
1	 1.095801385558832e+00	 1.204769106887557e+00	-6.468656310942630e+00
1	 1.067006590230976e+00	 1.230343912461471e+00	-6.845772645632723e+00
1	 1.037639953905520e+00	 1.255210123000350e+00	-7.218468403174680e+00
1	 1.007727732922135e+00	 1.279349004047656e+00	-7.585214821245792e+00
1	 1.290571575859161e+00	 1.016567616966727e+00	-3.763280437872861e+00
1	 1.266220946238475e+00	 1.046742230812884e+00	-4.123259902418061e+00
1	 1.241136606922412e+00	 1.076366474080407e+00	-4.488222923007340e+00
1	 1.215337456707958e+00	 1.105413860106501e+00	-4.856995796264171e+00
1	 1.188843659163968e+00	 1.133858782624547e+00	-5.228332681227577e+00
1	 1.161676590576559e+00	 1.161676590576559e+00	-5.600923452205496e+00
1	 1.133858782624547e+00	 1.188843659163969e+00	-5.973402105702666e+00
1	 1.105413860106501e+00	 1.215337456707958e+00	-6.344355645684528e+00
1	 1.076366474080407e+00	 1.241136606922412e+00	-6.712333365658766e+00
1	 1.046742230812883e+00	 1.266220946238475e+00	-7.075856441386145e+00
1	 1.016567616966727e+00	 1.290571575859161e+00	-7.433427744552061e+00
1	 1.301794160763533e+00	 1.025407511324678e+00	-3.697700391777719e+00
1	 1.277231782322459e+00	 1.055844518339723e+00	-4.049670093282328e+00
1	 1.251929313974762e+00	 1.085726368849838e+00	-4.406314343411939e+00
1	 1.225905818858070e+00	 1.115026345868833e+00	-4.766504748481686e+00
1	 1.199181635880113e+00	 1.143718620462467e+00	-5.129042074361623e+00
1	 1.171778327211458e+00	 1.171778327211458e+00	-5.492663884274927e+00
1	 1.143718620462467e+00	 1.199181635880114e+00	-5.856052722947416e+00
1	 1.115026345868833e+00	 1.225905818858070e+00	-6.217844773188979e+00
1	 1.085726368849838e+00	 1.251929313974763e+00	-6.576638905273533e+00
1	 1.055844518339723e+00	 1.277231782322459e+00	-6.931006034856919e+00
1	 1.025407511324678e+00	 1.301794160763533e+00	-7.279498701709270e+00
1	 1.313016756142200e+00	 1.034247413933416e+00	-3.630627157077484e+00
1	 1.288242628683150e+00	 1.064946814362249e+00	-3.974524455386016e+00
1	 1.262722031100280e+00	 1.095086272355376e+00	-4.322754534284542e+00
1	 1.236474190872010e+00	 1.124638840603001e+00	-4.674244618944029e+00
1	 1.209519622245105e+00	 1.153578467503053e+00	-5.027853770271418e+00
1	 1.181880073274757e+00	 1.181880073274757e+00	-5.382380212894852e+00
1	 1.153578467503053e+00	 1.209519622245105e+00	-5.736569190608298e+00
1	 1.124638840603001e+00	 1.236474190872010e+00	-6.089121278173968e+00
1	 1.095086272355376e+00	 1.262722031100281e+00	-6.438701072856858e+00
1	 1.064946814362248e+00	 1.288242628683150e+00	-6.783946184587483e+00
1	 1.034247413933416e+00	 1.313016756142199e+00	-7.123476440291620e+00
1	 1.324239359376585e+00	 1.043087322730367e+00	-3.562073053474134e+00
1	 1.299253482751394e+00	 1.074049116756672e+00	-3.897819046672943e+00
1	 1.273514755780722e+00	 1.104446182413130e+00	-4.237528509442980e+00
1	 1.247042570283890e+00	 1.134251342066178e+00	-4.580194319614748e+00
1	 1.219857615846823e+00	 1.163438321445762e+00	-4.924745223510832e+00
1	 1.191981826409463e+00	 1.191981826409464e+00	-5.270052760660378e+00
1	 1.163438321445762e+00	 1.219857615846824e+00	-5.614938686049804e+00
1	 1.134251342066178e+00	 1.247042570283891e+00	-5.958182822614968e+00
1	 1.104446182413130e+00	 1.273514755780723e+00	-6.298531271466572e+00
1	 1.074049116756672e+00	 1.299253482751395e+00	-6.634704903114926e+00
1	 1.043087322730367e+00	 1.324239359376585e+00	-6.965408049800025e+00
1	 1.335461967848114e+00	 1.051927235652958e+00	-3.492049985314262e+00
1	 1.310264341958040e+00	 1.083151423399203e+00	-3.819550055956916e+00
1	 1.284307485497844e+00	 1.113806096839209e+00	-4.150621784356380e+00
1	 1.257610954627826e+00	 1.143863848015535e+00	-4.484333468717365e+00
1	 1.230195614273149e+00	 1.173298179990049e+00	-4.819694643358758e+00
1	 1.202083584258589e+00	 1.202083584258589e+00	-5.155662507954752e+00
1	 1.173298179990048e+00	 1.230195614273149e+00	-5.491148813492361e+00
1	 1.143863848015536e+00	 1.257610954627827e+00	-5.825027142435097e+00
1	 1.113806096839208e+00	 1.284307485497845e+00	-6.156140515797395e+00
1	 1.083151423399203e+00	 1.310264341958040e+00	-6.483309255969765e+00
1	 1.051927235652957e+00	 1.335461967848114e+00	-6.805339031254473e+00
1	 1.346684578938213e+00	 1.060767150638615e+00	-3.420569458906233e+00
1	 1.321275203733934e+00	 1.092253732166055e+00	-3.739713797471876e+00
1	 1.295100217733402e+00	 1.123166013449718e+00	-4.062020355236237e+00
1	 1.268179341437932e+00	 1.153476356208247e+00	-4.386642361289941e+00
1	 1.240533615111960e+00	 1.183158040835369e+00	-4.712680962342027e+00
1	 1.212185344465141e+00	 1.212185344465141e+00	-5.039191065499002e+00
1	 1.183158040835369e+00	 1.240533615111961e+00	-5.365187586173082e+00
1	 1.153476356208246e+00	 1.268179341437933e+00	-5.689652044360415e+00
1	 1.123166013449718e+00	 1.295100217733403e+00	-6.011539448292312e+00
1	 1.092253732166054e+00	 1.321275203733934e+00	-6.329785401060898e+00
1	 1.060767150638615e+00	 1.346684578938213e+00	-6.643313363308544e+00
1	 9.723683411288406e-01	 1.234458900101806e+00	-8.169906266637952e+00
1	 9.430053514238215e-01	 1.257032155262794e+00	-8.566561437871369e+00
1	 9.131688318442132e-01	 1.278871228587822e+00	-8.954601503846312e+00
1	 8.828862014191952e-01	 1.299961896400895e+00	-9.333884126784255e+00
1	 8.521854080414087e-01	 1.320291289037849e+00	-9.704309344126708e+00
1	 8.210948457838527e-01	 1.339847912380151e+00	-1.006581858390951e+01
1	 7.896432714658925e-01	 1.358621663420585e+00	-1.041839343194117e+01
1	 7.578597209617604e-01	 1.376603839868557e+00	-1.076205416863789e+01
1	 7.257734257371627e-01	 1.393787143848190e+00	-1.109685809528433e+01
1	 6.934137300872991e-01	 1.410165679786422e+00	-1.142289767108620e+01
1	 6.608100095329461e-01	 1.425734946630075e+00	-1.174029848364249e+01
1	 9.812081632942573e-01	 1.245681393356094e+00	-8.027210340884670e+00
1	 9.515782339985246e-01	 1.268459862481026e+00	-8.414295198305851e+00
1	 9.214704699576766e-01	 1.290497475306639e+00	-8.792747646979690e+00
1	 8.909125394678685e-01	 1.311779878849166e+00	-9.162581342914020e+00
1	 8.599326444966280e-01	 1.332294086446028e+00	-9.523860076159242e+00
1	 8.285594372480736e-01	 1.352028499485388e+00	-9.876695359069600e+00
1	 7.968219359704285e-01	 1.370972923113356e+00	-1.022124373657127e+01
1	 7.647494405036750e-01	 1.389118575926605e+00	-1.055770385079380e+01
1	 7.323714480573981e-01	 1.406458093704092e+00	-1.088631329418713e+01
1	 6.997175696964111e-01	 1.422985527275958e+00	-1.120734528649981e+01
1	 6.668174479949773e-01	 1.438696334669837e+00	-1.152110521173181e+01
1	 9.900480040233277e-01	 1.256903910177548e+00	-7.882159351886790e+00
1	 9.601511345763564e-01	 1.279887593697410e+00	-8.259792538642364e+00
1	 9.297721255047072e-01	 1.302123746440582e+00	-8.628898863078700e+00
1	 8.989388943720305e-01	 1.323597886115255e+00	-8.989628552986638e+00
1	 8.676798972212705e-01	 1.344296909060183e+00	-9.342187891349887e+00
1	 8.360240443882055e-01	 1.364209112170008e+00	-9.686835567201079e+00
1	 8.040006155504622e-01	 1.383324208743968e+00	-1.002387872841841e+01
1	 7.716391745143246e-01	 1.401633338265832e+00	-1.035366878125292e+01
1	 7.389694842338108e-01	 1.419129070169253e+00	-1.067659698295427e+01
1	 7.060214225439060e-01	 1.435805401687458e+00	-1.099308987476305e+01
1	 6.728248990729170e-01	 1.451657749928804e+00	-1.130360460277326e+01
1	 9.988878612534781e-01	 1.268126447947593e+00	-7.734809452857585e+00
1	 9.687240511570175e-01	 1.291315346245473e+00	-8.103129159444530e+00
1	 9.380737965482796e-01	 1.313750039276837e+00	-8.463141756218901e+00
1	 9.069652642588754e-01	 1.335415915441594e+00	-8.815115173156755e+00
1	 8.754271644076362e-01	 1.356299754079611e+00	-9.159377509716405e+00
1	 8.434886654624822e-01	 1.376389747591809e+00	-9.496312334945680e+00
1	 8.111793085309278e-01	 1.395675517430381e+00	-9.826353679067319e+00
1	 7.785289213860508e-01	 1.414148123966047e+00	-1.014998077172651e+01
1	 7.455675327267963e-01	 1.431800070287028e+00	-1.046771258343275e+01
1	 7.123252871588168e-01	 1.448625300029533e+00	-1.078010222727053e+01
1	 6.788323613649613e-01	 1.464619189382567e+00	-1.108773127770124e+01
1	 1.007727732922135e+00	 1.279349004047656e+00	-7.585214821245792e+00
1	 9.772969817402068e-01	 1.302743117458739e+00	-7.944378099511606e+00
1	 9.463754811513685e-01	 1.325376351102590e+00	-8.295559886108402e+00
1	 9.149916472555962e-01	 1.347233964070615e+00	-8.639127476606882e+00
1	 8.831744442480255e-01	 1.368302618703605e+00	-8.975510673218078e+00
1	 8.509532987291364e-01	 1.388570402908589e+00	-9.305196217861704e+00
1	 8.183580132367586e-01	 1.408026846290560e+00	-9.628721915735378e+00
1	 7.854186795111944e-01	 1.426662930107062e+00	-9.946670512945721e+00
1	 7.521655919967490e-01	 1.444471091100773e+00	-1.025966339284778e+01
1	 7.186291620701775e-01	 1.461445219310796e+00	-1.056835415591067e+01
1	 6.848398334693059e-01	 1.477580650006715e+00	-1.087342214721071e+01
1	 1.016567616966727e+00	 1.290571575859161e+00	-7.433427744552061e+00
1	 9.858699243256248e-01	 1.314170904670739e+00	-7.783609851524781e+00
1	 9.546771773769478e-01	 1.337002679205027e+00	-8.126233900379026e+00
1	 9.230180414893882e-01	 1.359052029244751e+00	-8.461748730141888e+00
1	 8.909217349347384e-01	 1.380305500131460e+00	-8.790666275200108e+00
1	 8.584179424464011e-01	 1.400751075278142e+00	-9.113555312197583e+00
1	 8.255367279928891e-01	 1.420378192442468e+00	-9.431034905823058e+00
1	 7.923084472820969e-01	 1.439177753768687e+00	-9.743767623438975e+00
1	 7.587636605040642e-01	 1.457142129653841e+00	-1.005245258928493e+01
1	 7.249330458070220e-01	 1.474265156539858e+00	-1.035781844878232e+01
1	 6.908473139841474e-01	 1.490542128776837e+00	-1.066061631230622e+01
1	 1.025407511324678e+00	 1.301794160763533e+00	-7.279498701709270e+00
1	 9.944428769129710e-01	 1.325598705214997e+00	-7.620892471714670e+00
1	 9.629788832879937e-01	 1.348629020871333e+00	-7.955241660038513e+00
1	 9.310444450874443e-01	 1.370870108206433e+00	-8.283059323721856e+00
1	 8.986690346600733e-01	 1.392308395562468e+00	-8.604920483146797e+00
1	 8.658825948725094e-01	 1.412931761858267e+00	-8.921455360887361e+00
1	 8.327154511242522e-01	 1.432729553004066e+00	-9.233342337093696e+00
1	 7.991982230911002e-01	 1.451692592030731e+00	-9.541300695787433e+00
1	 7.653617367091377e-01	 1.469813182989592e+00	-9.846083236888491e+00
1	 7.312369368983839e-01	 1.487085108725331e+00	-1.014846882820044e+01
1	 6.968548015076812e-01	 1.503503622668521e+00	-1.044925496999200e+01
1	 1.034247413933416e+00	 1.313016756142199e+00	-7.123476440291620e+00
1	 1.003015837501945e+00	 1.337026516425043e+00	-7.456291683908033e+00
1	 9.712805969474790e-01	 1.360255373388693e+00	-7.782658358493203e+00
1	 9.390708561769592e-01	 1.382688198198093e+00	-8.103136893355890e+00
1	 9.064163416163318e-01	 1.404311302195926e+00	-8.418346855142376e+00
1	 8.733472542656946e-01	 1.425112459806762e+00	-8.728959854113421e+00
1	 8.398941809557823e-01	 1.445080925093319e+00	-9.035692193743856e+00
1	 8.060880053305455e-01	 1.464207441973005e+00	-9.339297340509685e+00
1	 7.719598190723636e-01	 1.482484248151379e+00	-9.640558290793976e+00
1	 7.375408338732968e-01	 1.499905072875827e+00	-9.940279910854372e+00
1	 7.028622946381037e-01	 1.516465128657361e+00	-1.023928132379562e+01
1	 1.043087322730367e+00	 1.324239359376585e+00	-6.965408049800025e+00
1	 1.011588804092248e+00	 1.348454335634402e+00	-7.289870978287111e+00
1	 9.795823164183798e-01	 1.371881734044294e+00	-7.608556634521487e+00
1	 9.470972728851269e-01	 1.394506296462165e+00	-7.922056437750775e+00
1	 9.141636539958126e-01	 1.416314217231127e+00	-8.231016450414229e+00
1	 8.808119188841896e-01	 1.437293166281423e+00	-8.536130124758825e+00
1	 8.470729158124131e-01	 1.457432305828188e+00	-8.838130828607634e+00
1	 8.129777923927742e-01	 1.476722300675320e+00	-9.137784227716393e+00
1	 7.785579060541377e-01	 1.495155322182557e+00	-9.435880601809306e+00
1	 7.438447352607950e-01	 1.512725045999959e+00	-9.733227169990526e+00
1	 7.088697919736107e-01	 1.529426643718942e+00	-1.003064049883896e+01
1	 1.051927235652957e+00	 1.335461967848114e+00	-6.805339031254473e+00
1	 1.020161774683578e+00	 1.359882160176601e+00	-7.121691705171854e+00
1	 9.878840397636699e-01	 1.383508100125321e+00	-7.433006679554595e+00
1	 9.551236933391410e-01	 1.406324400241079e+00	-7.739890429080911e+00
1	 9.219109699908166e-01	 1.428317137867365e+00	-8.042997934304687e+00
1	 8.882765869862271e-01	 1.449473878440046e+00	-8.343025439049246e+00
1	 8.542516540190774e-01	 1.469783692326635e+00	-8.640703031722349e+00
1	 8.198675826701273e-01	 1.489237165217485e+00	-8.936787126665715e+00
1	 7.851559961148549e-01	 1.507826402126484e+00	-9.232052920860504e+00
1	 7.501486395899116e-01	 1.525545025106338e+00	-9.527286899501057e+00
1	 7.148772921123988e-01	 1.542388164828856e+00	-9.823279461188966e+00
1	 1.060767150638615e+00	 1.346684578938213e+00	-6.643313363308544e+00
1	 1.028734747275635e+00	 1.371309987385168e+00	-6.951813164115684e+00
1	 9.961857650463243e-01	 1.395134468918961e+00	-7.256076339596031e+00
1	 9.631501156661958e-01	 1.418142506777268e+00	-7.556708918223292e+00
1	 9.296582877936426e-01	 1.440320061303935e+00	-7.854357677997688e+00
1	 8.957412568300408e-01	 1.461654593440431e+00	-8.149703082665383e+00
1	 8.614303939007100e-01	 1.482135081706625e+00	-8.443452095467865e+00
1	 8.267573745549465e-01	 1.501752032679311e+00	-8.736330943342015e+00
1	 7.917540877149102e-01	 1.520497485026513e+00	-9.029077903214967e+00
1	 7.564525453896809e-01	 1.538365007203576e+00	-9.322436179806875e+00
1	 7.208847936526629e-01	 1.555349688962692e+00	-9.617146941238518e+00
1	 6.608100095329461e-01	 1.425734946630075e+00	-1.174029848364248e+01
1	 6.279938934045742e-01	 1.440490821570162e+00	-1.204840081747923e+01
1	 5.949922941569017e-01	 1.454432673355103e+00	-1.234699069878823e+01
1	 5.618341945948699e-01	 1.467560092601490e+00	-1.263681344701767e+01
1	 5.285483025250735e-01	 1.479873980149320e+00	-1.291860144277905e+01
1	 4.951629809952906e-01	 1.491376514271011e+00	-1.319306937499293e+01
1	 4.617061818853219e-01	 1.502071113759757e+00	-1.346090985640859e+01
1	 4.282053831011286e-01	 1.511962397240521e+00	-1.372278942969833e+01
1	 3.946875295879637e-01	 1.521056139060901e+00	-1.397934498092298e+01
1	 3.611789783415348e-01	 1.529359222129144e+00	-1.423118057184933e+01
1	 3.277054475596566e-01	 1.536879588072675e+00	-1.447886469743741e+01
1	 6.668174479949773e-01	 1.438696334669837e+00	-1.152110521173181e+01
1	 6.337029998264974e-01	 1.453586355596186e+00	-1.182701843795505e+01
1	 6.004013823074378e-01	 1.467654953064726e+00	-1.212483148100109e+01
1	 5.669418417260947e-01	 1.480901713970360e+00	-1.241527690129207e+01
1	 5.333533468724034e-01	 1.493327547342673e+00	-1.269906824760972e+01
1	 4.996645186432702e-01	 1.504934651256828e+00	-1.297689558684146e+01
1	 4.659035630296873e-01	 1.515726475586372e+00	-1.324942142988354e+01
1	 4.320982077398997e-01	 1.525707680944315e+00	-1.351727707223966e+01
1	 3.982756426762863e-01	 1.534884094173004e+00	-1.378105936237558e+01
1	 3.644624644466165e-01	 1.543262660753379e+00	-1.404132790554363e+01
1	 3.306846250534405e-01	 1.550851394510401e+00	-1.429860270565189e+01
1	 6.728248990729170e-01	 1.451657749928804e+00	-1.130360460277326e+01
1	 6.394121182377791e-01	 1.466681917123116e+00	-1.160761946112184e+01
1	 6.058104818172244e-01	 1.480877260541401e+00	-1.190483244882910e+01
1	 5.720494995834655e-01	 1.494243363356876e+00	-1.219597105828430e+01
1	 5.381584013103314e-01	 1.506781142788726e+00	-1.248173944736135e+01
1	 5.041660657444063e-01	 1.518492816714911e+00	-1.276281411808738e+01
1	 4.701009529884130e-01	 1.529381866089396e+00	-1.303984001212104e+01
1	 4.359910405534112e-01	 1.539452993513330e+00	-1.331342703948438e+01
1	 4.018637632994256e-01	 1.548712078323922e+00	-1.358414705142480e+01
1	 3.677459574467972e-01	 1.557166128574941e+00	-1.385253126287308e+01
1	 3.336638088033086e-01	 1.564823230289037e+00	-1.411906812479780e+01
1	 6.788323613649613e-01	 1.464619189382567e+00	-1.108773127770124e+01
1	 6.451212473062347e-01	 1.479777503095249e+00	-1.139010508046148e+01
1	 6.112195914240951e-01	 1.494099592699866e+00	-1.168686975574038e+01
1	 5.771571669751691e-01	 1.507585037647940e+00	-1.197875515392575e+01
1	 5.429634647176713e-01	 1.520234763348278e+00	-1.226646519025925e+01
1	 5.086676212483486e-01	 1.532051007481673e+00	-1.255067354078484e+01
1	 4.742983507821348e-01	 1.543037282082569e+00	-1.283201976871385e+01
1	 4.398838806333749e-01	 1.553198331740336e+00	-1.311110589710488e+01
1	 4.054518906202008e-01	 1.562540088287140e+00	-1.338849343808296e+01
1	 3.710294565759769e-01	 1.571069622349703e+00	-1.366470088331816e+01
1	 3.366429981141584e-01	 1.578795092148498e+00	-1.394020165523587e+01
1	 6.848398334693059e-01	 1.477580650006715e+00	-1.087342214721071e+01
1	 6.508303856996792e-01	 1.492873110456881e+00	-1.117437995215479e+01
1	 6.166287098658833e-01	 1.507321946454855e+00	-1.147082389646049e+01
1	 5.822648427093918e-01	 1.520926733730455e+00	-1.176349335888963e+01
1	 5.477685359732346e-01	 1.533688405882126e+00	-1.205310087796053e+01
1	 5.131691841047463e-01	 1.545609220393526e+00	-1.234032773549645e+01
1	 4.784957554314886e-01	 1.556692720379631e+00	-1.262581997723453e+01
1	 4.437767270715026e-01	 1.566943692418100e+00	-1.291018488737804e+01
1	 4.090400238014310e-01	 1.576368120836146e+00	-1.319398792817591e+01
1	 3.743129610680549e-01	 1.584973138833540e+00	-1.347775014998807e+01
1	 3.396221922908876e-01	 1.592766976828704e+00	-1.376194607191320e+01
1	 6.908473139841474e-01	 1.490542128776837e+00	-1.066061631230622e+01
1	 6.565395320859277e-01	 1.505968736152311e+00	-1.096035204464481e+01
1	 6.220378358804222e-01	 1.520544318721102e+00	-1.125657951834186e+01
1	 5.873725255943202e-01	 1.534268448491324e+00	-1.155005456415508e+01
1	 5.525736139558346e-01	 1.547142067251067e+00	-1.184150693725456e+01
1	 5.176707532632490e-01	 1.559167452286884e+00	-1.213163566058583e+01
1	 4.826931659571100e-01	 1.570348177794324e+00	-1.242110480505565e+01
1	 4.476695789595063e-01	 1.580689072339393e+00	-1.271053972591419e+01
1	 4.126281620059352e-01	 1.590196172744423e+00	-1.300052376877785e+01
1	 3.775964701569311e-01	 1.598876674782327e+00	-1.329159545295205e+01
1	 3.426013906383933e-01	 1.606738881069568e+00	-1.358424613414899e+01
1	 6.968548015076812e-01	 1.503503622668521e+00	-1.044925496999200e+01
1	 6.622486851327958e-01	 1.519064377125835e+00	-1.074793249597679e+01
1	 6.274469682055451e-01	 1.533766706413344e+00	-1.104402524248514e+01
1	 5.924802144381417e-01	 1.547610178817451e+00	-1.133831217765705e+01
1	 5.573786975442838e-01	 1.560595744315900e+00	-1.163154860356524e+01
1	 5.221723276735055e-01	 1.572725699998159e+00	-1.192446113343723e+01
1	 4.868905813796346e-01	 1.584003651140387e+00	-1.221774309865551e+01
1	 4.515624353890979e-01	 1.594434468296983e+00	-1.251205040889334e+01
1	 4.162163043965322e-01	 1.604024240785459e+00	-1.280799788267077e+01
1	 3.808799830765049e-01	 1.612780226951937e+00	-1.310615605963527e+01
1	 3.455805924615731e-01	 1.620710801611011e+00	-1.340704850008349e+01
1	 7.028622946381037e-01	 1.516465128657361e+00	-1.023928132379562e+01
1	 6.679578435080994e-01	 1.532160030321748e+00	-1.053703547845022e+01
1	 6.328561055790856e-01	 1.546989106446313e+00	-1.083305349402792e+01
1	 5.975879080490418e-01	 1.560951921595736e+00	-1.112814393135777e+01
1	 5.621837856173949e-01	 1.574049433937420e+00	-1.142309571554988e+01
1	 5.266739062851655e-01	 1.586283960363764e+00	-1.171867262288808e+01
1	 4.910880007196984e-01	 1.597659137231560e+00	-1.201560818372289e+01
1	 4.554552954519890e-01	 1.608179877083638e+00	-1.231460103018259e+01
1	 4.198044501360410e-01	 1.617852321732738e+00	-1.261631071128848e+01
1	 3.841634990606759e-01	 1.626683792098246e+00	-1.292135399185800e+01
1	 3.485597970653248e-01	 1.634682735192947e+00	-1.323030164551167e+01
1	 7.088697919736107e-01	 1.529426643718942e+00	-1.003064049883896e+01
1	 6.736670058796532e-01	 1.545255692684351e+00	-1.032757807014885e+01
1	 6.382652467388765e-01	 1.560211515734747e+00	-1.062356034105887e+01
1	 6.026956052352083e-01	 1.574293673713084e+00	-1.091943169812347e+01
1	 5.669888770539799e-01	 1.587503132976426e+00	-1.121602252013593e+01
1	 5.311754880478785e-01	 1.599842230220111e+00	-1.151414305220985e+01
1	 4.952854229979372e-01	 1.611314632881585e+00	-1.181457767542041e+01
1	 4.593481582398922e-01	 1.621925295492131e+00	-1.211807960774611e+01
1	 4.233925983872811e-01	 1.631680412359747e+00	-1.242536606564195e+01
1	 3.874470173433437e-01	 1.640587366977126e+00	-1.273711390912302e+01
1	 3.515390037545456e-01	 1.648654678555294e+00	-1.305395578684207e+01
1	 7.148772921123988e-01	 1.542388164828856e+00	-9.823279461188966e+00
1	 6.793761709152731e-01	 1.558351361157939e+00	-1.011948013294511e+01
1	 6.436743904227521e-01	 1.573433931193380e+00	-1.041544534164898e+01
1	 6.078033048048269e-01	 1.587635432056398e+00	-1.071206131782878e+01
1	 5.717939707328523e-01	 1.600956838293715e+00	-1.101020748738324e+01
1	 5.356770719112932e-01	 1.613400506403615e+00	-1.131074961201768e+01
1	 4.994828472349865e-01	 1.624970134904201e+00	-1.161453329820907e+01
1	 4.632410228445188e-01	 1.635670720315228e+00	-1.192237791880390e+01
1	 4.269807483130713e-01	 1.645508509439972e+00	-1.223507098475697e+01
1	 3.907305371584079e-01	 1.654490948344454e+00	-1.255336299778475e+01
1	 3.545182118341331e-01	 1.662626628437968e+00	-1.287796280793765e+01
1	 7.208847936526629e-01	 1.555349688962692e+00	-9.617146941238515e+00
1	 6.850853372827741e-01	 1.571447032686810e+00	-9.912664196600543e+00
1	 6.490835353685449e-01	 1.586656349736946e+00	-1.020861139852704e+01
1	 6.129110055660850e-01	 1.600977193512580e+00	-1.050592243215155e+01
1	 5.765990655328243e-01	 1.614410546750085e+00	-1.080553313459733e+01
1	 5.401786568250596e-01	 1.626958785750686e+00	-1.110837358252902e+01
1	 5.036802724514819e-01	 1.638625640113148e+00	-1.141536071467678e+01
1	 4.671338883575810e-01	 1.649416148345699e+00	-1.172739134322756e+01
1	 4.305688990762302e-01	 1.659336609746896e+00	-1.204533560118608e+01
1	 3.940140577397680e-01	 1.668394532956102e+00	-1.237003086575712e+01
1	 3.574974206089847e-01	 1.676598581580888e+00	-1.270227619061266e+01
1	 3.277054475596566e-01	 1.536879588072675e+00	-1.447886469743742e+01
1	 2.942896394197481e-01	 1.543626630612252e+00	-1.472134383932538e+01
1	 2.609582370370435e-01	 1.549609699338690e+00	-1.495383911752162e+01
1	 2.277348167703377e-01	 1.554839594943745e+00	-1.517139961857785e+01
1	 1.946421534908471e-01	 1.559327958474682e+00	-1.536916702170674e+01
1	 1.617021913504131e-01	 1.563087213574030e+00	-1.554241366513246e+01
1	 1.289360188419721e-01	 1.566130508218708e+00	-1.568657751413309e+01
1	 9.636384807059289e-02	 1.568471656282942e+00	-1.579729391072556e+01
1	 6.400499812932171e-02	 1.570125079232223e+00	-1.587042402628215e+01
1	 3.187788245248261e-02	 1.571105748236902e+00	-1.590207997760992e+01
1	 0.000000000000000e+00	 1.571429126974074e+00	-1.588864660377038e+01
1	 3.306846250534405e-01	 1.550851394510401e+00	-1.429860270565189e+01
1	 2.969650330601949e-01	 1.557659774563367e+00	-1.455151615809933e+01
1	 2.633306141588863e-01	 1.563697235500412e+00	-1.479496324551269e+01
1	 2.298051590414819e-01	 1.568974676202594e+00	-1.502391954426650e+01
1	 1.964116496260302e-01	 1.573503843546176e+00	-1.523344595471118e+01
1	 1.631722295591158e-01	 1.577297274117268e+00	-1.541872812854226e+01
1	 1.301081790496060e-01	 1.580368235421320e+00	-1.557511275724794e+01
1	 9.723989395123935e-02	 1.582730666914771e+00	-1.569814059249826e+01
1	 6.458686898734058e-02	 1.584399121168951e+00	-1.578357611183695e+01
1	 3.216768498914947e-02	 1.585388705457435e+00	-1.582743378344759e+01
1	 0.000000000000000e+00	 1.585715024037928e+00	-1.582600092167288e+01
1	 3.336638088033086e-01	 1.564823230289037e+00	-1.411906812479780e+01
1	 2.996404323188487e-01	 1.571692947984227e+00	-1.438207737848750e+01
1	 2.657029962626957e-01	 1.577784801246143e+00	-1.463614885695049e+01
1	 2.318755056604246e-01	 1.583109787145346e+00	-1.487622941851411e+01
1	 1.981811494773361e-01	 1.587679758387314e+00	-1.509734119739657e+01
1	 1.646422708551647e-01	 1.591507364501976e+00	-1.529462223002986e+01
1	 1.312803417190977e-01	 1.594605992523555e+00	-1.546336393179277e+01
1	 9.811594167191655e-02	 1.596989707490964e+00	-1.559904528525399e+01
1	 6.516874106758115e-02	 1.598673193081649e+00	-1.569736364443241e+01
1	 3.245748813458684e-02	 1.599671692672685e+00	-1.575426210094184e+01
1	 0.000000000000000e+00	 1.600000951102682e+00	-1.576595339676033e+01
1	 3.366429981141584e-01	 1.578795092148498e+00	-1.394020165523587e+01
1	 3.023158365714739e-01	 1.585726147600425e+00	-1.421299888086257e+01
1	 2.680753827949167e-01	 1.591872393288765e+00	-1.447739235517131e+01
1	 2.339458561440598e-01	 1.597244924473769e+00	-1.472834390354983e+01
1	 1.999506526318324e-01	 1.601855699690321e+00	-1.496087784885910e+01
1	 1.661123148954805e-01	 1.605717481412379e+00	-1.517012267703446e+01
1	 1.324525065768595e-01	 1.608843776203160e+00	-1.535134957197752e+01
1	 9.899199102812779e-02	 1.611248774684285e+00	-1.550000767040542e+01
1	 6.575061423419873e-02	 1.612947291639554e+00	-1.561175593139926e+01
1	 3.274729182112705e-02	 1.613954706549799e+00	-1.568249155747628e+01
1	 0.000000000000000e+00	 1.614286904834791e+00	-1.570837494367220e+01
1	 3.396221922908876e-01	 1.592766976828704e+00	-1.376194607191320e+01
1	 3.049912451938341e-01	 1.599759370137553e+00	-1.404425304351417e+01
1	 2.704477732019946e-01	 1.605960008341164e+00	-1.431869026336113e+01
1	 2.360162100092825e-01	 1.611380084889633e+00	-1.458027714087760e+01
1	 2.017201586765864e-01	 1.616031664147421e+00	-1.482408012155134e+01
1	 1.675823613369835e-01	 1.619927621532703e+00	-1.504525523444549e+01
1	 1.336246733493040e-01	 1.623081583137882e+00	-1.523908755704348e+01
1	 9.986804181537626e-02	 1.625507865167492e+00	-1.540102743700644e+01
1	 6.633248835134857e-02	 1.627221413511901e+00	-1.552672335490801e+01
1	 3.303709598110238e-02	 1.628237743755919e+00	-1.561205135461557e+01
1	 0.000000000000000e+00	 1.628572881900711e+00	-1.565314100823793e+01
1	 3.426013906383933e-01	 1.606738881069568e+00	-1.358424613414899e+01
1	 3.076666575616935e-01	 1.613792612321206e+00	-1.387581319922135e+01
1	 2.728201669303748e-01	 1.620047643116225e+00	-1.416003921928356e+01
1	 2.380865667729871e-01	 1.625515265094705e+00	-1.443204277383936e+01
1	 2.034896671986657e-01	 1.630207648450840e+00	-1.468697137974867e+01
1	 1.690524098365944e-01	 1.634137781547173e+00	-1.492004476550341e+01
1	 1.347968417628433e-01	 1.637319410005468e+00	-1.512659513967868e+01
1	 1.007440938291653e-01	 1.639766975613346e+00	-1.530210428139019e+01
1	 6.691436328318605e-02	 1.641495555367928e+00	-1.544223732525725e+01
1	 3.332690054684517e-02	 1.642520800958194e+00	-1.554287315627248e+01
1	 0.000000000000000e+00	 1.642858878966899e+00	-1.560013137064432e+01
1	 3.455805924615731e-01	 1.620710801611011e+00	-1.340704850008349e+01
1	 3.103420730508159e-01	 1.627825870876976e+00	-1.370765359406941e+01
1	 2.751925634265017e-01	 1.634135294326828e+00	-1.400143597027932e+01
1	 2.401569259520681e-01	 1.639650461790754e+00	-1.428365396901185e+01
1	 2.052591777851377e-01	 1.644383649292800e+00	-1.454957417602584e+01
1	 1.705224600512337e-01	 1.648347958140015e+00	-1.479451527058626e+01
1	 1.359690115438899e-01	 1.651557253483665e+00	-1.501388897296342e+01
1	 1.016201468649982e-01	 1.654026102694607e+00	-1.520323790682640e+01
1	 6.749623889386641e-02	 1.655769713876872e+00	-1.535827023657604e+01
1	 3.361670545068771e-02	 1.656803874823768e+00	-1.547489098265624e+01
1	 0.000000000000000e+00	 1.657144892699808e+00	-1.554922995877867e+01
1	 3.485597970653248e-01	 1.634682735192947e+00	-1.323030164551167e+01
1	 3.130174910369654e-01	 1.641859142530455e+00	-1.353974934837817e+01
1	 2.775649621368211e-01	 1.648222958685861e+00	-1.384287736852271e+01
1	 2.422272870634201e-01	 1.653785671679549e+00	-1.413512343650617e+01
1	 2.070286900230696e-01	 1.658559663365526e+00	-1.441191028586523e+01
1	 1.719925116378218e-01	 1.662558147995457e+00	-1.466868992400805e+01
1	 1.371411824188563e-01	 1.665795110250220e+00	-1.490098513593498e+01
1	 1.024962007183783e-01	 1.668285243084035e+00	-1.510442802319571e+01
1	 6.807811504754498e-02	 1.670043885707968e+00	-1.527479542479719e+01
1	 3.390651062496230e-02	 1.671086962019786e+00	-1.540804110965655e+01
1	 0.000000000000000e+00	 1.671430919765895e+00	-1.550032467113835e+01
1	 3.515390037545456e-01	 1.648654678555294e+00	-1.305395578684207e+01
1	 3.156929108959057e-01	 1.655892424007237e+00	-1.337207641961501e+01
1	 2.799373625077779e-01	 1.662310632906206e+00	-1.368436036651896e+01
1	 2.442976496239377e-01	 1.667920891462859e+00	-1.398646344923674e+01
1	 2.087982034995289e-01	 1.672735687361241e+00	-1.427400074050578e+01
1	 1.734625642532792e-01	 1.676768347797720e+00	-1.454259110894725e+01
1	 1.383133541141546e-01	 1.680032976982881e+00	-1.478789915785350e+01
1	 1.033722551848087e-01	 1.682544393454391e+00	-1.500567434668093e+01
1	 6.865999160837707e-02	 1.684318067530453e+00	-1.519178712776598e+01
1	 3.419631600200129e-02	 1.685370059213394e+00	-1.534226197334075e+01
1	 0.000000000000000e+00	 1.685716956831615e+00	-1.545330720874050e+01
1	 3.545182118341331e-01	 1.662626628437968e+00	-1.287796280793764e+01
1	 3.183683320034011e-01	 1.669925712032915e+00	-1.320461156717768e+01
1	 2.823097639858171e-01	 1.676398313700747e+00	-1.352588201282820e+01
1	 2.463680131505155e-01	 1.682056117842452e+00	-1.383768586121809e+01
1	 2.105677178015833e-01	 1.686911717972173e+00	-1.413586585813619e+01
1	 1.749326175545266e-01	 1.690978554231035e+00	-1.441624045061485e+01
1	 1.394855263561973e-01	 1.694270850359393e+00	-1.467464604124442e+01
1	 1.042483100597928e-01	 1.696803550478436e+00	-1.490697659947353e+01
1	 6.924186844051797e-02	 1.698592256013564e+00	-1.510922044735958e+01
1	 3.448612151413695e-02	 1.699653163071737e+00	-1.527749407926360e+01
1	 0.000000000000000e+00	 1.700003000563425e+00	-1.540807291550173e+01
1	 3.574974206089847e-01	 1.676598581580888e+00	-1.270227619061266e+01
1	 3.210437537352151e-01	 1.683959003333080e+00	-1.303733231893626e+01
1	 2.846821660173839e-01	 1.690485997782369e+00	-1.336743944800339e+01
1	 2.484383771600480e-01	 1.696191347520098e+00	-1.368880212494816e+01
1	 2.123372325162998e-01	 1.701087751890542e+00	-1.399752527353001e+01
1	 1.764026711984843e-01	 1.705188763979623e+00	-1.428965884776525e+01
1	 1.406576988713968e-01	 1.708508727057505e+00	-1.456124028378983e+01
1	 1.051243651388339e-01	 1.711062710828929e+00	-1.480833450949513e+01
1	 6.982374540812293e-02	 1.712866447826537e+00	-1.502707131349853e+01
1	 3.477592709370159e-02	 1.713936270261961e+00	-1.521367991630935e+01
1	 0.000000000000000e+00	 1.714289047627778e+00	-1.536452062659507e+01
1	 1.714289047627778e+00	 0.000000000000000e+00	 3.940355807410232e+00
1	 1.713936270261961e+00	 3.477592709370207e-02	 3.659295980342661e+00
1	 1.712866447826537e+00	 6.982374540812339e-02	 3.380236031973084e+00
1	 1.711062710828929e+00	 1.051243651388343e-01	 3.104946933339027e+00
1	 1.708508727057505e+00	 1.406576988713972e-01	 2.835041071234505e+00
1	 1.705188763979623e+00	 1.764026711984846e-01	 2.571952531261308e+00
1	 1.701087751890541e+00	 2.123372325163000e-01	 2.316917473809673e+00
1	 1.696191347520097e+00	 2.484383771600481e-01	 2.070954780891694e+00
1	 1.690485997782368e+00	 2.846821660173839e-01	 1.834847162248906e+00
1	 1.683959003333080e+00	 3.210437537352151e-01	 1.609122918090370e+00
1	 1.676598581580888e+00	 3.574974206089848e-01	 1.394038562912563e+00
1	 1.728574095521189e+00	 0.000000000000000e+00	 3.790207534936703e+00
1	 1.728218378486883e+00	 3.506571240396094e-02	 3.518988604442087e+00
1	 1.727139641297820e+00	 7.040558167873665e-02	 3.249431118021948e+00
1	 1.725320873889139e+00	 1.060003589459308e-01	 2.983318500292796e+00
1	 1.722745607954046e+00	 1.418297894041265e-01	 2.722264938468651e+00
1	 1.719397979861821e+00	 1.778726220261430e-01	 2.467695032266576e+00
1	 1.715262794332935e+00	 2.141066234704215e-01	 2.220823585755387e+00
1	 1.710325588575774e+00	 2.505085963676164e-01	 1.982635727840915e+00
1	 1.704572696567506e+00	 2.870544021224812e-01	 1.753867558620785e+00
1	 1.697991313141118e+00	 3.237189883473828e-01	 1.534987527706032e+00
1	 1.690569557521760e+00	 3.604764210173156e-01	 1.326178757510728e+00
1	 1.742859145080407e+00	 0.000000000000000e+00	 3.646348250843753e+00
1	 1.742500488377288e+00	 3.535549774782452e-02	 3.384474419325269e+00
1	 1.741412836433600e+00	 7.098741801690599e-02	 3.124057113026944e+00
1	 1.739579038612174e+00	 1.068763528548506e-01	 2.866872815840663e+00
1	 1.736982490511031e+00	 1.430018800732304e-01	 2.614516937772433e+00
1	 1.733607197401348e+00	 1.793425730249776e-01	 2.368382925804637e+00
1	 1.729437838428791e+00	 2.158760146307364e-01	 2.129641579881589e+00
1	 1.724459831280267e+00	 2.525788158165745e-01	 1.899220769491954e+00
1	 1.718659396996017e+00	 2.894266385043066e-01	 1.677785756750847e+00
1	 1.712023624586264e+00	 3.263942232717196e-01	 1.465720340516009e+00
1	 1.704540535092635e+00	 3.634554217733189e-01	 1.263109042613697e+00
1	 1.757144197972236e+00	 0.000000000000000e+00	 3.508656591585606e+00
1	 1.756782601599632e+00	 3.564528315913626e-02	 3.255627851322885e+00
1	 1.755686034899275e+00	 7.156925449056786e-02	 3.003982090730636e+00
1	 1.753837206661650e+00	 1.077523469678567e-01	 2.755469971889992e+00
1	 1.751219376389558e+00	 1.441739710155140e-01	 2.511648080711497e+00
1	 1.747816418256035e+00	 1.808125243665337e-01	 2.273857591499824e+00
1	 1.743612885831910e+00	 2.176454062037084e-01	 2.043203213822219e+00
1	 1.738594077282574e+00	 2.546490357484635e-01	 1.820532625945112e+00
1	 1.732746100711309e+00	 2.917988754396157e-01	 1.606416609272606e+00
1	 1.726055939305545e+00	 3.290694588203119e-01	 1.401130106458160e+00
1	 1.718511515923357e+00	 3.664344232245056e-01	 1.204634431870484e+00
1	 1.771429255863481e+00	 0.000000000000000e+00	 3.377015107965157e+00
1	 1.771064719820369e+00	 3.593506867173953e-02	 3.132327377464773e+00
1	 1.769959238360241e+00	 7.215109116765889e-02	 2.889078380894064e+00
1	 1.768095379701184e+00	 1.086283413872122e-01	 2.648974574113945e+00
1	 1.765456267250724e+00	 1.453460623677827e-01	 2.413514185687670e+00
1	 1.762025644083712e+00	 1.822824762223564e-01	 2.183965526580818e+00
1	 1.757787938196089e+00	 2.194147983958013e-01	 1.961345673184768e+00
1	 1.752728328231689e+00	 2.567192564048238e-01	 1.746399736730944e+00
1	 1.746832809356790e+00	 2.941711132051639e-01	 1.539580941922971e+00
1	 1.740088258935989e+00	 3.317446953052459e-01	 1.341031745299792e+00
1	 1.732482501643770e+00	 3.694134257183873e-01	 1.150566229151945e+00
1	 1.785714320420949e+00	 0.000000000000000e+00	 3.251310108490241e+00
1	 1.785346844705957e+00	 3.622485431947773e-02	 3.014455363401634e+00
1	 1.784232448481896e+00	 7.273292811611563e-02	 2.779222399020608e+00
1	 1.782353559394390e+00	 1.095043362151798e-01	 2.547255561376311e+00
1	 1.779693164755627e+00	 1.465181542668418e-01	 2.319975685648354e+00
1	 1.776234876542209e+00	 1.837524287639910e-01	 2.098558141163648e+00
1	 1.771962997175129e+00	 2.211841914134787e-01	 1.883911354420591e+00
1	 1.766862585776610e+00	 2.587894780271963e-01	 1.676656032022499e+00
1	 1.760919524575868e+00	 2.965433520777065e-01	 1.477105314606727e+00
1	 1.754120585114621e+00	 3.344199330386080e-01	 1.285246099831806e+00
1	 1.746453493883714e+00	 3.723924296024745e-01	 1.100721776928202e+00
1	 1.799999393311444e+00	 0.000000000000000e+00	 3.131431510190779e+00
1	 1.799628977922850e+00	 3.651464013619429e-02	 2.901897909046487e+00
1	 1.798505666929638e+00	 7.331476540387465e-02	 2.674294484190025e+00
1	 1.796611747404884e+00	 1.103803315540226e-01	 2.450186033757090e+00
1	 1.793930070565364e+00	 1.476902468494966e-01	 2.230897444954568e+00
1	 1.790444117289355e+00	 1.852223821629827e-01	 2.017491563285300e+00
1	 1.786138064422830e+00	 2.229535854632044e-01	 1.810747658036893e+00
1	 1.780996851566330e+00	 2.608597008571214e-01	 1.611140714744655e+00
1	 1.775006248011951e+00	 2.989155923339993e-01	 1.418821793841450e+00
1	 1.768152919478469e+00	 3.370951723324846e-01	 1.233599700818132e+00
1	 1.760424494273034e+00	 3.753714352242781e-01	 1.054924216630749e+00
1	 1.814284476201773e+00	 0.000000000000000e+00	 3.017272696485416e+00
1	 1.813911121137507e+00	 3.680442615573260e-02	 2.794544701510206e+00
1	 1.812778895368865e+00	 7.389660309887248e-02	 2.574178744555559e+00
1	 1.810869945396284e+00	 1.112563275060036e-01	 2.357643088704546e+00
1	 1.808166986341034e+00	 1.488623402525523e-01	 2.146148584902874e+00
1	 1.804653367982980e+00	 1.866923365908769e-01	 1.940626453150326e+00
1	 1.800313141592991e+00	 2.247229807514419e-01	 1.741706791580448e+00
1	 1.795131127249848e+00	 2.629299251361402e-01	 1.549698052979672e+00
1	 1.789092981308450e+00	 3.012878342507974e-01	 1.364567735955307e+00
1	 1.782185263664559e+00	 3.397704134989622e-01	 1.185924543052343e+00
1	 1.774395504441572e+00	 3.783504429313092e-01	 1.013002260338529e+00
1	 1.828569570758740e+00	 0.000000000000000e+00	 2.908730381712201e+00
1	 1.828193276016381e+00	 3.709421241193604e-02	 2.692288874932280e+00
1	 1.827052135464973e+00	 7.447844126904567e-02	 2.478762910084965e+00
1	 1.825128155032205e+00	 1.121323241733859e-01	 2.269507664869426e+00
1	 1.822403913743735e+00	 1.500344346128143e-01	 2.065602317427607e+00
1	 1.818862630280913e+00	 1.881622922192187e-01	 1.867827826086544e+00
1	 1.814488230339411e+00	 2.264923774846551e-01	 1.676645581858433e+00
1	 1.809265414476158e+00	 2.650001511057931e-01	 1.492177182105966e+00
1	 1.803179726108771e+00	 3.036600781048565e-01	 1.314185580449788e+00
1	 1.796217619309920e+00	 3.424456568501271e-01	 1.142057871913834e+00
1	 1.788366526019169e+00	 3.813294530710787e-01	 9.747899731684957e-01
1	 1.842854678649152e+00	 0.000000000000000e+00	 2.805704481961433e+00
1	 1.842475444225930e+00	 3.738399893864804e-02	 2.595026876832333e+00
1	 1.841325388883362e+00	 7.506027998233086e-02	 2.387938192152195e+00
1	 1.839386377976264e+00	 1.130083216584323e-01	 2.185664393204134e+00
1	 1.836640854434564e+00	 1.512065300670879e-01	 1.989135786539714e+00
1	 1.833071905840984e+00	 1.896322492195532e-01	 1.798964883737079e+00
1	 1.828663332315891e+00	 2.282617758693076e-01	 1.615425295895029e+00
1	 1.823399714894257e+00	 2.670703790076208e-01	 1.438431916141564e+00
1	 1.817266484056323e+00	 3.060323241729319e-01	 1.267522652975414e+00
1	 1.810249988051576e+00	 3.451209026980651e-01	 1.101841979853823e+00
1	 1.802337560635670e+00	 3.843084659910977e-01	 9.401265657897683e-01
1	 1.857139801539814e+00	 0.000000000000000e+00	 2.708097991871422e+00
1	 1.856757627432609e+00	 3.767378576971200e-02	 2.502658340631522e+00
1	 1.855598657289427e+00	 7.564211930666453e-02	 2.301599149610930e+00
1	 1.853644615892075e+00	 1.138843200634058e-01	 2.106001454935773e+00
1	 1.850877810074617e+00	 1.523786267521784e-01	 1.916629917085180e+00
1	 1.847281196321023e+00	 1.911022077634259e-01	 1.733910853045300e+00
1	 1.842838449176228e+00	 2.300311761118631e-01	 1.557911470153345e+00
1	 1.837534030153142e+00	 2.691406090831643e-01	 1.388320567796748e+00
1	 1.831353256794514e+00	 3.084045727317791e-01	 1.224430977402913e+00
1	 1.824282371526556e+00	 3.477961513548631e-01	 1.065124012276268e+00
1	 1.816308609920916e+00	 3.872874820388771e-01	 9.088561965160730e-01
1	 1.676598581580888e+00	 3.574974206089848e-01	 1.394038562912563e+00
1	 1.668394532956103e+00	 3.940140577397678e-01	 1.184236186193213e+00
1	 1.659336609746896e+00	 4.305688990762300e-01	 9.743661634233276e-01
1	 1.649416148345699e+00	 4.671338883575807e-01	 7.644784673326536e-01
1	 1.638625640113148e+00	 5.036802724514817e-01	 5.545554234880566e-01
1	 1.626958785750686e+00	 5.401786568250593e-01	 3.445096342387604e-01
1	 1.614410546750085e+00	 5.765990655328240e-01	 1.341823716720693e-01
1	 1.600977193512580e+00	 6.129110055660848e-01	-7.665752269676185e-02
1	 1.586656349736946e+00	 6.490835353685447e-01	-2.883141975251929e-01
1	 1.571447032686810e+00	 6.850853372827735e-01	-5.011647809869397e-01
1	 1.555349688962692e+00	 7.208847936526629e-01	-7.156587753877885e-01
1	 1.690569557521760e+00	 3.604764210173156e-01	 1.326178757510728e+00
1	 1.682297145147446e+00	 3.972973486709880e-01	 1.122489349974188e+00
1	 1.673163742912899e+00	 4.341567988833240e-01	 9.190039657358239e-01
1	 1.663160615017326e+00	 4.710264816027064e-01	 7.157285010713181e-01
1	 1.652280190252409e+00	 5.078774040989901e-01	 5.125993020613402e-01
1	 1.640516116827987e+00	 5.446799268967493e-01	 3.094813123056160e-01
1	 1.627863314250304e+00	 5.814038242630720e-01	 1.061667115956168e-01
1	 1.614318021842113e+00	 6.180183490931940e-01	-9.762591787359032e-02
1	 1.599877843500642e+00	 6.544923019970287e-01	-3.022518652087876e-01
1	 1.584541788300445e+00	 6.907941043493352e-01	-5.081399766122294e-01
1	 1.568310306563534e+00	 7.268918750263221e-01	-7.157917307898818e-01
1	 1.704540535092635e+00	 3.634554217733189e-01	 1.263109042613697e+00
1	 1.696199758960834e+00	 4.005806399854069e-01	 1.065407252661419e+00
1	 1.686990877692122e+00	 4.377446991091438e-01	 8.681531669149125e-01
1	 1.676905083292483e+00	 4.749190753020670e-01	 6.713104887835962e-01
1	 1.665934741984644e+00	 5.120745362362030e-01	 4.747718800864581e-01
1	 1.654073449486839e+00	 5.491811974935525e-01	 2.783573315489640e-01
1	 1.641316083319784e+00	 5.862085835537597e-01	 8.181304297558850e-02
1	 1.627658851727757e+00	 6.231256932159654e-01	-1.151891515843183e-01
1	 1.613099338806441e+00	 6.599010692562723e-01	-3.130517826545601e-01
1	 1.597636545441326e+00	 6.965028720816038e-01	-5.122511420776672e-01
1	 1.581270925675919e+00	 7.328989571004662e-01	-7.133360572295639e-01
1	 1.718511515923357e+00	 3.664344232245056e-01	 1.204634431870484e+00
1	 1.710102376018112e+00	 4.038639320660273e-01	 1.012793336368750e+00
1	 1.700818015697596e+00	 4.413326001722281e-01	 8.216171619192073e-01
1	 1.690649554774556e+00	 4.788116699097500e-01	 6.310292456286323e-01
1	 1.679589296902752e+00	 5.162716693527420e-01	 4.408807967370927e-01
1	 1.667630785308807e+00	 5.536824691405806e-01	 2.509494889648584e-01
1	 1.654768855527909e+00	 5.910133439654144e-01	 6.093857806186675e-02
1	 1.640999684725852e+00	 6.282330385302358e-01	-1.295234215042252e-01
1	 1.626320837196780e+00	 6.653098377772834e-01	-3.208824713073081e-01
1	 1.610731305637117e+00	 7.022116411455900e-01	-5.136581309400148e-01
1	 1.594231547811875e+00	 7.389060405759064e-01	-7.084420487832781e-01
1	 1.732482501643770e+00	 3.694134257183873e-01	 1.150566229151945e+00
1	 1.724004997941130e+00	 4.071472252958528e-01	 9.644573840102559e-01
1	 1.714645158542355e+00	 4.449205024911146e-01	 7.792056879293746e-01
1	 1.704394031066931e+00	 4.827042658798432e-01	 5.946958830919737e-01
1	 1.693243856599635e+00	 5.204688039382299e-01	 4.107398963492592e-01
1	 1.681188125875464e+00	 5.581837423629465e-01	 2.270756525365464e-01
1	 1.668221632444061e+00	 5.958181060585634e-01	 4.336642536781832e-02
1	 1.654340522392739e+00	 6.333403856318414e-01	-1.407992416540198e-01
1	 1.639542340214093e+00	 6.707186081910695e-01	-3.259070165929698e-01
1	 1.623826070415485e+00	 7.079204122073055e-01	-5.125156403533613e-01
1	 1.607192174483439e+00	 7.449131261534553e-01	-7.012551514959060e-01
1	 1.746453493883714e+00	 3.723924296024745e-01	 1.100721776928201e+00
1	 1.737907626351737e+00	 4.104305200578861e-01	 9.202152656541613e-01
1	 1.728472307839431e+00	 4.485084064843417e-01	 7.407345706454515e-01
1	 1.718138513772992e+00	 4.865968636664336e-01	 5.621275571195754e-01
1	 1.706898422668192e+00	 5.246659404822887e-01	 3.841689802032956e-01
1	 1.694745472768375e+00	 5.626850176857625e-01	 2.065595183853408e-01
1	 1.681674415637626e+00	 6.006228703937345e-01	 2.892535381243233e-02
1	 1.667681366284758e+00	 6.384477351166188e-01	-1.491816697506471e-01
1	 1.652763849400814e+00	 6.761273811286392e-01	-3.282832853610534e-01
1	 1.636920841304096e+00	 7.136291859327605e-01	-5.089734173238261e-01
1	 1.620152807202639e+00	 7.509202145339247e-01	-6.919161572974194e-01
1	 1.760424494273034e+00	 3.753714352242781e-01	 1.054924216630749e+00
1	 1.751810262871778e+00	 4.137138167351304e-01	 8.798886969578460e-01
1	 1.742299465201855e+00	 4.520963125704471e-01	 7.060254826679271e-01
1	 1.731883004496130e+00	 4.904894637236090e-01	 5.331472282480811e-01
1	 1.720552996701325e+00	 5.288630794745405e-01	 3.609935701283460e-01
1	 1.708302827569110e+00	 5.671862956341406e-01	 1.892303794883046e-01
1	 1.695127206677984e+00	 6.054276375314546e-01	 1.744956809629961e-02
1	 1.681022217958248e+00	 6.435550875804049e-01	-1.548305237294877e-01
1	 1.665985366299380e+00	 6.815361572210009e-01	-3.281641329703852e-01
1	 1.650015619830615e+00	 7.193379629879657e-01	-5.031764551404111e-01
1	 1.633113447481505e+00	 7.569273064181260e-01	-6.805613886833890e-01
1	 1.774395504441572e+00	 3.783504429313092e-01	 1.013002260338529e+00
1	 1.765712909123104e+00	 4.169971157105886e-01	 8.433050090178215e-01
1	 1.756126632242661e+00	 4.556842211679692e-01	 6.749057132963621e-01
1	 1.745627504839728e+00	 4.943820665054570e-01	 5.075834330699788e-01
1	 1.734207580291934e+00	 5.330602214046075e-01	 3.410446832775723e-01
1	 1.721860191859237e+00	 5.716875767331930e-01	 1.749229053250260e-01
1	 1.708580007134521e+00	 6.102324080322513e-01	 8.778494692038508e-03
1	 1.694363078969549e+00	 6.486624436190352e-01	-1.579005880349126e-01
1	 1.679206892452224e+00	 6.869449370991629e-01	-3.256976005891594e-01
1	 1.663110407522708e+00	 7.250467440389313e-01	-4.952651805236223e-01
1	 1.646074096832072e+00	 7.629344025068715e-01	-6.673228746685065e-01
1	 1.788366526019169e+00	 3.813294530710787e-01	 9.747899731684957e-01
1	 1.779615566727561e+00	 4.202804173672640e-01	 8.102969290103624e-01
1	 1.769953810574883e+00	 4.592721326954460e-01	 6.472079491210558e-01
1	 1.759372016407173e+00	 4.982746724660650e-01	 4.852700664136884e-01
1	 1.747862175032921e+00	 5.372573667621118e-01	 3.241586174630880e-01
1	 1.735417567220324e+00	 5.761888615080321e-01	 1.634769318557069e-01
1	 1.722032818576619e+00	 6.150371824566518e-01	 2.756577868610333e-03
1	 1.707703950875002e+00	 6.537698038283475e-01	-1.585418102388990e-01
1	 1.692428429401783e+00	 6.923537213941328e-01	-3.210271032445228e-01
1	 1.676205205908041e+00	 7.307555297516691e-01	-4.853756319996395e-01
1	 1.659034756766367e+00	 7.689415035009731e-01	-6.523285184905059e-01
1	 1.802337560635670e+00	 3.843084659910977e-01	 9.401265657897683e-01
1	 1.793518237306999e+00	 4.235637220881598e-01	 7.807023710370887e-01
1	 1.783781001811550e+00	 4.628600475714155e-01	 6.227700648219422e-01
1	 1.773116540801850e+00	 5.021672820595204e-01	 4.660461736569586e-01
1	 1.761516782517186e+00	 5.414545160366759e-01	 3.101767464774421e-01
1	 1.748974955233941e+00	 5.806901504837704e-01	 1.547372612698025e-01
1	 1.735485642573661e+00	 6.198419613651838e-01	-7.669147951049893e-04
1	 1.721044835230948e+00	 6.588771688041771e-01	-1.568994885125817e-01
1	 1.705649978690491e+00	 6.977625107369195e-01	-3.142916091237977e-01
1	 1.689300016514280e+00	 7.364643207921889e-01	-4.736396299761680e-01
1	 1.671995428796423e+00	 7.749486101012426e-01	-6.357022575122171e-01
1	 1.816308609920916e+00	 3.872874820388771e-01	 9.088561965160730e-01
1	 1.807420922483264e+00	 4.268470302562786e-01	 7.543642366258569e-01
1	 1.797608207565696e+00	 4.664479662144158e-01	 6.014349236249732e-01
1	 1.786861079627148e+00	 5.060598957399112e-01	 4.497557526278625e-01
1	 1.775171404337629e+00	 5.456516697179217e-01	 2.989453248638281e-01
1	 1.762532357481656e+00	 5.851914441855203e-01	 1.485534709790183e-01
1	 1.748938480695031e+00	 6.246467453183742e-01	-1.938077918481329e-03
1	 1.734385733593725e+00	 6.639845391423612e-01	-1.531144504434757e-01
1	 1.718871541860783e+00	 7.031713057585306e-01	-3.056258105984754e-01
1	 1.702394840869089e+00	 7.421731178265019e-01	-4.601849389670105e-01
1	 1.684956114434273e+00	 7.809557230084924e-01	-6.175642157419485e-01
1	 1.555349688962692e+00	 7.208847936526629e-01	-7.156587753877889e-01
1	 1.538365007203576e+00	 7.564525453896814e-01	-9.373262008382673e-01
1	 1.520497485026512e+00	 7.917540877149108e-01	-1.171064208525854e+00
1	 1.501752032679311e+00	 8.267573745549470e-01	-1.416453088081221e+00
1	 1.482135081706625e+00	 8.614303939007104e-01	-1.673049293231232e+00
1	 1.461654593440430e+00	 8.957412568300415e-01	-1.940387051873700e+00
1	 1.440320061303935e+00	 9.296582877936430e-01	-2.217980103568721e+00
1	 1.418142506777267e+00	 9.631501156661962e-01	-2.505323552553278e+00
1	 1.395134468918961e+00	 9.961857650463246e-01	-2.801895823094385e+00
1	 1.371309987385168e+00	 1.028734747275635e+00	-3.107160702848072e+00
1	 1.346684578938213e+00	 1.060767150638615e+00	-3.420569458906232e+00
1	 1.568310306563534e+00	 7.268918750263221e-01	-7.157917307898815e-01
1	 1.551184092667272e+00	 7.627560102922637e-01	-9.306575240936410e-01
1	 1.533167681707038e+00	 7.983517178423892e-01	-1.157521162331407e+00
1	 1.514266024847395e+00	 8.336466845656623e-01	-1.395958929593542e+00
1	 1.494485607226607e+00	 8.686086316992264e-01	-1.645517989322000e+00
1	 1.473834456517870e+00	 9.032054045928206e-01	-1.905718050837040e+00
1	 1.452322145252416e+00	 9.374050637470668e-01	-2.176053210233918e+00
1	 1.429959786751590e+00	 9.711759766233089e-01	-2.455993953887168e+00
1	 1.406760024561010e+00	 1.004486909704372e+00	-2.744989310951472e+00
1	 1.382737015328290e+00	 1.037307120272059e+00	-3.042469139532327e+00
1	 1.357906405115834e+00	 1.069606447358677e+00	-3.347846529645999e+00
1	 1.581270925675919e+00	 7.328989571004662e-01	-7.133360572295638e-01
1	 1.564003179625969e+00	 7.690594759299150e-01	-9.216652522818640e-01
1	 1.545837879865191e+00	 8.049493487392900e-01	-1.141899545879460e+00
1	 1.526780018474901e+00	 8.405359953798863e-01	-1.373609921962874e+00
1	 1.506836134186976e+00	 8.757868703350351e-01	-1.616332856350058e+00
1	 1.486014321015837e+00	 9.106695532263362e-01	-1.869572046541641e+00
1	 1.464324230600748e+00	 9.451518406042934e-01	-2.132800363994287e+00
1	 1.441777068104277e+00	 9.792018385168768e-01	-2.405462017192043e+00
1	 1.418385581559138e+00	 1.012788055331077e+00	-2.686974911425489e+00
1	 1.394164044604415e+00	 1.045879494268859e+00	-2.976733188890087e+00
1	 1.369128232602603e+00	 1.078445745110314e+00	-3.274109930579154e+00
1	 1.594231547811875e+00	 7.389060405759064e-01	-7.084420487832780e-01
1	 1.576822269575201e+00	 7.753629430380167e-01	-9.104896392211737e-01
1	 1.558508080979141e+00	 8.115469811753018e-01	-1.124329442959565e+00
1	 1.539294015021777e+00	 8.474253078013222e-01	-1.349525862062683e+00
1	 1.519186664028611e+00	 8.829651106455277e-01	-1.585603301071887e+00
1	 1.498194188355300e+00	 9.181337036013143e-01	-1.832047966869095e+00
1	 1.476326318749155e+00	 9.528986192690015e-01	-2.088309940245368e+00
1	 1.453594352213986e+00	 9.872277022831201e-01	-2.353805507558807e+00
1	 1.430011141269625e+00	 1.021089202894761e+00	-2.627919737859094e+00
1	 1.405591076546650e+00	 1.054451870265986e+00	-2.910009287961445e+00
1	 1.380350062707676e+00	 1.087285044924608e+00	-3.199405415220413e+00
1	 1.607192174483439e+00	 7.449131261534553e-01	-7.012551514959062e-01
1	 1.589641364010496e+00	 7.816664123519513e-01	-8.972664145755498e-01
1	 1.571178286527056e+00	 8.181446159201138e-01	-1.104936741270239e+00
1	 1.551808015947974e+00	 8.543146226336708e-01	-1.323822682510544e+00
1	 1.531537198192393e+00	 8.901433534680959e-01	-1.553435201155240e+00
1	 1.510374059957227e+00	 9.255978565884824e-01	-1.793241548647295e+00
1	 1.488328411097860e+00	 9.606454006448713e-01	-2.042667463745454e+00
1	 1.465411640459374e+00	 9.952535688582588e-01	-2.301099681731729e+00
1	 1.441636705048751e+00	 1.029390353363743e+00	-2.567888738887206e+00
1	 1.417018112488103e+00	 1.063024249263388e+00	-2.842352053523804e+00
1	 1.391571896740206e+00	 1.096124347832640e+00	-3.123777261516448e+00
1	 1.620152807202639e+00	 7.509202145339247e-01	-6.919161572974193e-01
1	 1.602460464427385e+00	 7.879698846071012e-01	-8.821269648131758e-01
1	 1.583848497987105e+00	 8.247422537434151e-01	-1.083843300252050e+00
1	 1.564322022713442e+00	 8.612039406806343e-01	-1.296612606225077e+00
1	 1.543887738119204e+00	 8.973215996401301e-01	-1.519931046326875e+00
1	 1.522553937242588e+00	 9.330620130585675e-01	-1.753245465274725e+00
1	 1.500330509047090e+00	 9.683921856355834e-01	-1.995955722621521e+00
1	 1.477228934219098e+00	 1.003279439178514e+00	-2.247417388421451e+00
1	 1.453262274252797e+00	 1.037691507706341e+00	-2.506944785003787e+00
1	 1.428445153761881e+00	 1.071596632261015e+00	-2.773814354880572e+00
1	 1.402793736009346e+00	 1.104963654865492e+00	-3.047268330847284e+00
1	 1.633113447481505e+00	 7.569273064181260e-01	-6.805613886833890e-01
1	 1.615279572321401e+00	 7.942733605388487e-01	-8.651985055459508e-01
1	 1.596518716837457e+00	 8.313398954148942e-01	-1.061167110926805e+00
1	 1.576836036778132e+00	 8.680932627459149e-01	-1.268004293621388e+00
1	 1.556238285249923e+00	 9.044998499990216e-01	-1.485190072797618e+00
1	 1.534733821632353e+00	 9.405261738822969e-01	-1.712149448266080e+00
1	 1.512332613997067e+00	 9.761389751448170e-01	-1.948254876945066e+00
1	 1.489046234871818e+00	 1.011305314180105e+00	-2.192829163840188e+00
1	 1.464887850238044e+00	 1.045992666890878e+00	-2.445148751005378e+00
1	 1.439872201701093e+00	 1.080169020258817e+00	-2.704447383183092e+00
1	 1.414015581824253e+00	 1.113802967054246e+00	-2.969920124217572e+00
1	 1.646074096832072e+00	 7.629344025068715e-01	-6.673228746685065e-01
1	 1.628098689188072e+00	 8.005768408825760e-01	-8.466042457251827e-01
1	 1.609188944556280e+00	 8.379375417042396e-01	-1.037022448183667e+00
1	 1.589350059601992e+00	 8.749825896332135e-01	-1.238102982850863e+00
1	 1.568588841025432e+00	 9.116781053821615e-01	-1.449308391335125e+00
1	 1.546913714547490e+00	 9.479903399303972e-01	-1.670040403054320e+00
1	 1.524334727348017e+00	 9.838857700762513e-01	-1.899642562177331e+00
1	 1.500863543796188e+00	 1.019331194799254e+00	-2.137403322722417e+00
1	 1.476513434360772e+00	 1.054293831885672e+00	-2.382559594538877e+00
1	 1.451299257638845e+00	 1.088741414256743e+00	-2.634300717476618e+00
1	 1.425237435494077e+00	 1.122642285429984e+00	-2.891772835792487e+00
1	 1.659034756766367e+00	 7.689415035009731e-01	-6.523285184905059e-01
1	 1.640917816522931e+00	 8.068803263736651e-01	-8.264635441389409e-01
1	 1.621859182621744e+00	 8.445351933811411e-01	-1.011520015925252e+00
1	 1.601864092644973e+00	 8.818719221462324e-01	-1.207010623465824e+00
1	 1.580939406886612e+00	 9.188563666269413e-01	-1.412379109332071e+00
1	 1.559093617408970e+00	 9.554545120735956e-01	-1.627002519363334e+00
1	 1.536336850500164e+00	 9.916325713335676e-01	-1.850193987764432e+00
1	 1.512680862370868e+00	 1.027357081972180e+00	-2.081206045078052e+00
1	 1.488139027977261e+00	 1.062595003659041e+00	-2.319234430966630e+00
1	 1.462726322908246e+00	 1.097313815254742e+00	-2.563422387649919e+00
1	 1.436459298327973e+00	 1.131481611023788e+00	-2.812865403923666e+00
1	 1.671995428796423e+00	 7.749486101012426e-01	-6.357022575122173e-01
1	 1.653736955821508e+00	 8.131838177474986e-01	-8.048920586289173e-01
1	 1.634529432512017e+00	 8.511328512152869e-01	-9.847670854614020e-01
1	 1.614378137367023e+00	 8.887612610886734e-01	-1.174826003865891e+00
1	 1.593289984274342e+00	 9.260346345707517e-01	-1.374492447195386e+00
1	 1.571273531637759e+00	 9.629186911826185e-01	-1.583117376445814e+00
1	 1.548338984853731e+00	 9.993793798204444e-01	-1.799982031145705e+00
1	 1.524498191974515e+00	 1.035382976635103e+00	-2.024301458909780e+00
1	 1.499764632443794e+00	 1.070896183179308e+00	-2.255228604748509e+00
1	 1.474153398842403e+00	 1.105886224252765e+00	-2.491858934456208e+00
1	 1.447681171635097e+00	 1.140320944866739e+00	-2.733235559801235e+00
1	 1.684956114434273e+00	 7.809557230084924e-01	-6.175642157419486e-01
1	 1.666556108579333e+00	 8.194873157394583e-01	-7.820018884188500e-01
1	 1.647199695705267e+00	 8.577305159763660e-01	-9.568676275140897e-01
1	 1.626892195228096e+00	 8.956506072642391e-01	-1.141644872860885e+00
1	 1.605640574629505e+00	 9.332129100509844e-01	-1.335735849362639e+00
1	 1.583453458654829e+00	 9.703828781281937e-01	-1.538464043463090e+00
1	 1.560341131808945e+00	 1.007126196440562e+00	-1.749077327422247e+00
1	 1.536315533985785e+00	 1.043408879724244e+00	-1.966751719111765e+00
1	 1.511390249116649e+00	 1.079197371414791e+00	-2.190595757528944e+00
1	 1.485580486774423e+00	 1.114458642250760e+00	-2.419655466763345e+00
1	 1.458903056724601e+00	 1.149160287989920e+00	-2.652919873859997e+00
1	 1.346684578938213e+00	 1.060767150638615e+00	-3.420569458906232e+00
1	 1.321275203733934e+00	 1.092253732166055e+00	-3.739713797471876e+00
1	 1.295100217733402e+00	 1.123166013449718e+00	-4.062020355236237e+00
1	 1.268179341437932e+00	 1.153476356208247e+00	-4.386642361289941e+00
1	 1.240533615111960e+00	 1.183158040835369e+00	-4.712680962342027e+00
1	 1.212185344465141e+00	 1.212185344465141e+00	-5.039191065499002e+00
1	 1.183158040835369e+00	 1.240533615111961e+00	-5.365187586173082e+00
1	 1.153476356208246e+00	 1.268179341437933e+00	-5.689652044360415e+00
1	 1.123166013449718e+00	 1.295100217733403e+00	-6.011539448292312e+00
1	 1.092253732166054e+00	 1.321275203733934e+00	-6.329785401060899e+00
1	 1.060767150638615e+00	 1.346684578938213e+00	-6.643313363308544e+00
1	 1.357906405115834e+00	 1.069606447358677e+00	-3.347846529645999e+00
1	 1.332285295407249e+00	 1.101355404315454e+00	-3.658588762498564e+00
1	 1.305892195122514e+00	 1.132525275425623e+00	-3.972082468256243e+00
1	 1.278746989092457e+00	 1.163088192100015e+00	-4.287572461781301e+00
1	 1.250870892908526e+00	 1.193017212079803e+00	-4.604259165885803e+00
1	 1.222286398152247e+00	 1.222286398152248e+00	-4.921303800436333e+00
1	 1.193017212079802e+00	 1.250870892908527e+00	-5.237833916621843e+00
1	 1.163088192100015e+00	 1.278746989092458e+00	-5.552949226097801e+00
1	 1.132525275425623e+00	 1.305892195122514e+00	-5.865727671124391e+00
1	 1.101355404315453e+00	 1.332285295407250e+00	-6.175231678957013e+00
1	 1.069606447358677e+00	 1.357906405115834e+00	-6.480514541674225e+00
1	 1.369128232602603e+00	 1.078445745110314e+00	-3.274109930579154e+00
1	 1.343295388365096e+00	 1.110457077527072e+00	-3.576469349453533e+00
1	 1.316684173770791e+00	 1.141884538493812e+00	-3.881182897723771e+00
1	 1.289314637980051e+00	 1.172700029113527e+00	-4.187590881944986e+00
1	 1.261208171911349e+00	 1.202876384474809e+00	-4.494997618323334e+00
1	 1.232387453018106e+00	 1.232387453018106e+00	-4.802675924179343e+00
1	 1.202876384474808e+00	 1.261208171911349e+00	-5.109871888568548e+00
1	 1.172700029113527e+00	 1.289314637980052e+00	-5.415809878728105e+00
1	 1.141884538493811e+00	 1.316684173770792e+00	-5.719697736131590e+00
1	 1.110457077527072e+00	 1.343295388365097e+00	-6.020732113678831e+00
1	 1.078445745110314e+00	 1.369128232602603e+00	-6.318103903961227e+00
1	 1.380350062707676e+00	 1.087285044924608e+00	-3.199405415220413e+00
1	 1.354305483891912e+00	 1.119558752862599e+00	-3.493391847419984e+00
1	 1.327476154937207e+00	 1.151243803746028e+00	-3.789350836029788e+00
1	 1.299882289333497e+00	 1.182311868369999e+00	-4.086721978303288e+00
1	 1.271545453326321e+00	 1.212735559170472e+00	-4.384917983873903e+00
1	 1.242488510241032e+00	 1.242488510241033e+00	-4.683328425115519e+00
1	 1.212735559170472e+00	 1.271545453326321e+00	-4.981323694678394e+00
1	 1.182311868369999e+00	 1.299882289333497e+00	-5.278259134303999e+00
1	 1.151243803746028e+00	 1.327476154937208e+00	-5.573479296910072e+00
1	 1.119558752862599e+00	 1.354305483891912e+00	-5.866322302345408e+00
1	 1.087285044924608e+00	 1.380350062707676e+00	-6.156124246167607e+00
1	 1.391571896740206e+00	 1.096124347832640e+00	-3.123777261516448e+00
1	 1.365315583272132e+00	 1.128660431383724e+00	-3.409391375302220e+00
1	 1.338268139880734e+00	 1.160603072274015e+00	-3.696614534415302e+00
1	 1.310449944385579e+00	 1.191923710990649e+00	-3.984989322340989e+00
1	 1.281882738359330e+00	 1.222594737316876e+00	-4.274041228691877e+00
1	 1.252589570999343e+00	 1.252589570999343e+00	-4.563281615493019e+00
1	 1.222594737316875e+00	 1.281882738359331e+00	-4.852210812747585e+00
1	 1.191923710990648e+00	 1.310449944385579e+00	-5.140321315294036e+00
1	 1.160603072274015e+00	 1.338268139880735e+00	-5.427101051696477e+00
1	 1.128660431383724e+00	 1.365315583272132e+00	-5.712036695039544e+00
1	 1.096124347832640e+00	 1.391571896740206e+00	-5.994616985042252e+00
1	 1.402793736009346e+00	 1.104963654865492e+00	-3.047268330847284e+00
1	 1.376325687790191e+00	 1.137762114152136e+00	-3.324501928612332e+00
1	 1.349060129860346e+00	 1.169962345169516e+00	-3.603001340597803e+00
1	 1.321017604369081e+00	 1.201535558096693e+00	-3.882415731888002e+00
1	 1.292220028216271e+00	 1.232453920064102e+00	-4.162387648770465e+00
1	 1.262690636471355e+00	 1.262690636471356e+00	-4.442555158447354e+00
1	 1.232453920064102e+00	 1.292220028216272e+00	-4.722554034278397e+00
1	 1.201535558096693e+00	 1.321017604369082e+00	-5.002019966944330e+00
1	 1.169962345169516e+00	 1.349060129860347e+00	-5.280590781557889e+00
1	 1.137762114152136e+00	 1.376325687790191e+00	-5.557908640660088e+00
1	 1.104963654865492e+00	 1.402793736009346e+00	-5.833622213220103e+00
1	 1.414015581824253e+00	 1.113802967054246e+00	-2.969920124217572e+00
1	 1.387335798730527e+00	 1.146863802229525e+00	-3.238756424028472e+00
1	 1.359852126135016e+00	 1.179321623524276e+00	-3.508537734605385e+00
1	 1.331585270516789e+00	 1.211147410809349e+00	-3.779023301006934e+00
1	 1.302557324103033e+00	 1.242313108562236e+00	-4.049976896516695e+00
1	 1.272791707835383e+00	 1.272791707835383e+00	-4.321168093740869e+00
1	 1.242313108562235e+00	 1.302557324103034e+00	-4.592373491693146e+00
1	 1.211147410809349e+00	 1.331585270516789e+00	-4.863377888098889e+00
1	 1.179321623524276e+00	 1.359852126135016e+00	-5.133975386762671e+00
1	 1.146863802229524e+00	 1.387335798730527e+00	-5.403970430590883e+00
1	 1.113802967054246e+00	 1.414015581824252e+00	-5.673178751731193e+00
1	 1.425237435494077e+00	 1.122642285429984e+00	-2.891772835792487e+00
1	 1.398345917377575e+00	 1.155965496677579e+00	-3.152186741847608e+00
1	 1.370644129963715e+00	 1.188680908430038e+00	-3.413249362917797e+00
1	 1.342152944061485e+00	 1.220759270249834e+00	-3.674833428468693e+00
1	 1.312894627225508e+00	 1.252172303961360e+00	-3.936828006070396e+00
1	 1.282892786269745e+00	 1.282892786269745e+00	-4.199138862285747e+00
1	 1.252172303961359e+00	 1.312894627225508e+00	-4.461688684262094e+00
1	 1.220759270249834e+00	 1.342152944061485e+00	-4.724417160563774e+00
1	 1.188680908430037e+00	 1.370644129963716e+00	-4.987280921432585e+00
1	 1.155965496677578e+00	 1.398345917377575e+00	-5.250253340305678e+00
1	 1.122642285429984e+00	 1.425237435494076e+00	-5.513324200028541e+00
1	 1.436459298327973e+00	 1.131481611023788e+00	-2.812865403923666e+00
1	 1.409356045015772e+00	 1.165067198557988e+00	-3.064823766447808e+00
1	 1.381436142605417e+00	 1.198040200978544e+00	-3.317161071006528e+00
1	 1.352720626235953e+00	 1.230371137539366e+00	-3.569866844892784e+00
1	 1.323231938789585e+00	 1.262031507411558e+00	-3.822959417436331e+00
1	 1.292993872952757e+00	 1.292993872952757e+00	-4.076485329517473e+00
1	 1.262031507411557e+00	 1.323231938789586e+00	-4.330518502815812e+00
1	 1.230371137539366e+00	 1.352720626235953e+00	-4.585159177094232e+00
1	 1.198040200978543e+00	 1.381436142605418e+00	-4.840532626570443e+00
1	 1.165067198557988e+00	 1.409356045015773e+00	-5.096787669022740e+00
1	 1.131481611023788e+00	 1.436459298327974e+00	-5.354094983670355e+00
1	 1.447681171635097e+00	 1.140320944866739e+00	-2.733235559801235e+00
1	 1.420366182929554e+00	 1.174168908932441e+00	-2.976697424868183e+00
1	 1.392228165319096e+00	 1.207399502261539e+00	-3.220296934361271e+00
1	 1.363288318272978e+00	 1.239983013799161e+00	-3.464143638625047e+00
1	 1.333569260001157e+00	 1.271890720062913e+00	-3.708388999493357e+00
1	 1.303094969062733e+00	 1.303094969062734e+00	-3.953224807680669e+00
1	 1.271890720062912e+00	 1.333569260001157e+00	-4.198881253307898e+00
1	 1.239983013799161e+00	 1.363288318272979e+00	-4.445624668079969e+00
1	 1.207399502261539e+00	 1.392228165319096e+00	-4.693754961551001e+00
1	 1.174168908932441e+00	 1.420366182929554e+00	-4.943602777514467e+00
1	 1.140320944866739e+00	 1.447681171635097e+00	-5.195526399784097e+00
1	 1.458903056724601e+00	 1.149160287989920e+00	-2.652919873859997e+00
1	 1.431376332403356e+00	 1.183270628862627e+00	-2.887836723607772e+00
1	 1.403020199363723e+00	 1.216758813370768e+00	-3.122680288083991e+00
1	 1.373856021405344e+00	 1.249594900150438e+00	-3.357683280420824e+00
1	 1.343906592066114e+00	 1.281749943065508e+00	-3.593134071941649e+00
1	 1.313196075777992e+00	 1.313196075777993e+00	-3.829374077086426e+00
1	 1.281749943065507e+00	 1.343906592066115e+00	-4.066794679289861e+00
1	 1.249594900150437e+00	 1.373856021405345e+00	-4.305833726998504e+00
1	 1.216758813370767e+00	 1.403020199363723e+00	-4.546971634158276e+00
1	 1.183270628862627e+00	 1.431376332403357e+00	-4.790727124171596e+00
1	 1.149160287989920e+00	 1.458903056724601e+00	-5.037652660431624e+00
1	 1.060767150638615e+00	 1.346684578938213e+00	-6.643313363308544e+00
1	 1.028734747275635e+00	 1.371309987385168e+00	-6.951813164115684e+00
1	 9.961857650463243e-01	 1.395134468918961e+00	-7.256076339596031e+00
1	 9.631501156661958e-01	 1.418142506777268e+00	-7.556708918223292e+00
1	 9.296582877936426e-01	 1.440320061303935e+00	-7.854357677997689e+00
1	 8.957412568300408e-01	 1.461654593440431e+00	-8.149703082665383e+00
1	 8.614303939007100e-01	 1.482135081706625e+00	-8.443452095467865e+00
1	 8.267573745549465e-01	 1.501752032679311e+00	-8.736330943342015e+00
1	 7.917540877149102e-01	 1.520497485026513e+00	-9.029077903214967e+00
1	 7.564525453896809e-01	 1.538365007203576e+00	-9.322436179806875e+00
1	 7.208847936526629e-01	 1.555349688962692e+00	-9.617146941238515e+00
1	 1.069606447358677e+00	 1.357906405115834e+00	-6.480514541674225e+00
1	 1.037307120272059e+00	 1.382737015328291e+00	-6.781482761594759e+00
1	 1.004486909704371e+00	 1.406760024561010e+00	-7.079052059805410e+00
1	 9.711759766233082e-01	 1.429959786751590e+00	-7.373814342824137e+00
1	 9.374050637470666e-01	 1.452322145252417e+00	-7.666393237056769e+00
1	 9.032054045928201e-01	 1.473834456517870e+00	-7.957437349652870e+00
1	 8.686086316992259e-01	 1.494485607226608e+00	-8.247613467210515e+00
1	 8.336466845656616e-01	 1.514266024847395e+00	-8.537599760457793e+00
1	 7.983517178423887e-01	 1.533167681707038e+00	-8.828079061256963e+00
1	 7.627560102922631e-01	 1.551184092667272e+00	-9.119732275626241e+00
1	 7.268918750263222e-01	 1.568310306563534e+00	-9.413231993025594e+00
1	 1.078445745110314e+00	 1.369128232602603e+00	-6.318103903961227e+00
1	 1.045879494268859e+00	 1.394164044604415e+00	-6.611918678455685e+00
1	 1.012788055331076e+00	 1.418385581559138e+00	-6.903185971706232e+00
1	 9.792018385168759e-01	 1.441777068104277e+00	-7.192471645717336e+00
1	 9.451518406042926e-01	 1.464324230600748e+00	-7.480363316972261e+00
1	 9.106695532263354e-01	 1.486014321015837e+00	-7.767464065983073e+00
1	 8.757868703350344e-01	 1.506836134186976e+00	-8.054386149628558e+00
1	 8.405359953798860e-01	 1.526780018474900e+00	-8.341744778282580e+00
1	 8.049493487392894e-01	 1.545837879865191e+00	-8.630152017441569e+00
1	 7.690594759299142e-01	 1.564003179625969e+00	-8.920210870498090e+00
1	 7.328989571004663e-01	 1.581270925675919e+00	-9.212509595559158e+00
1	 1.087285044924608e+00	 1.380350062707676e+00	-6.156124246167607e+00
1	 1.054451870265985e+00	 1.405591076546650e+00	-6.443169522887740e+00
1	 1.021089202894760e+00	 1.430011141269625e+00	-6.728528778644845e+00
1	 9.872277022831192e-01	 1.453594352213985e+00	-7.012730215395580e+00
1	 9.528986192690011e-01	 1.476326318749156e+00	-7.296312901072838e+00
1	 9.181337036013135e-01	 1.498194188355299e+00	-7.579821050265120e+00
1	 8.829651106455275e-01	 1.519186664028611e+00	-7.863798377199679e+00
1	 8.474253078013217e-01	 1.539294015021778e+00	-8.148782575588303e+00
1	 8.115469811753013e-01	 1.558508080979141e+00	-8.435299977080334e+00
1	 7.753629430380159e-01	 1.576822269575201e+00	-8.723860436610005e+00
1	 7.389060405759063e-01	 1.594231547811876e+00	-9.014952488900951e+00
1	 1.096124347832640e+00	 1.391571896740206e+00	-5.994616985042252e+00
1	 1.063024249263387e+00	 1.417018112488103e+00	-6.275282336299377e+00
1	 1.029390353363742e+00	 1.441636705048751e+00	-6.555129549510969e+00
1	 9.952535688582581e-01	 1.465411640459374e+00	-6.834637848180623e+00
1	 9.606454006448711e-01	 1.488328411097861e+00	-7.114285522460957e+00
1	 9.255978565884818e-01	 1.510374059957227e+00	-7.394544901827749e+00
1	 8.901433534680955e-01	 1.531537198192394e+00	-7.675877474108068e+00
1	 8.543146226336705e-01	 1.551808015947975e+00	-7.958729196672957e+00
1	 8.181446159201131e-01	 1.571178286527056e+00	-8.243526042263490e+00
1	 7.816664123519507e-01	 1.589641364010496e+00	-8.530669818075488e+00
1	 7.449131261534554e-01	 1.607192174483440e+00	-8.820534292460225e+00
1	 1.104963654865492e+00	 1.402793736009346e+00	-5.833622213220103e+00
1	 1.071596632261015e+00	 1.428445153761882e+00	-6.108302655947623e+00
1	 1.037691507706341e+00	 1.453262274252797e+00	-6.383035784066073e+00
1	 1.003279439178513e+00	 1.477228934219099e+00	-6.658240811851775e+00
1	 9.683921856355830e-01	 1.500330509047090e+00	-6.934323321955316e+00
1	 9.330620130585670e-01	 1.522553937242589e+00	-7.211671049416039e+00
1	 8.973215996401297e-01	 1.543887738119204e+00	-7.490649890574320e+00
1	 8.612039406806341e-01	 1.564322022713443e+00	-7.771600172652104e+00
1	 8.247422537434145e-01	 1.583848497987105e+00	-8.054833215896554e+00
1	 7.879698846071006e-01	 1.602460464427385e+00	-8.340628215962180e+00
1	 7.509202145339245e-01	 1.620152807202639e+00	-8.629229469725331e+00
1	 1.113802967054246e+00	 1.414015581824252e+00	-5.673178751731193e+00
1	 1.080169020258817e+00	 1.439872201701093e+00	-5.942274574584079e+00
1	 1.045992666890877e+00	 1.464887850238044e+00	-6.212293475159965e+00
1	 1.011305314180105e+00	 1.489046234871818e+00	-6.483583906243772e+00
1	 9.761389751448162e-01	 1.512332613997067e+00	-6.756467103273468e+00
1	 9.405261738822962e-01	 1.534733821632353e+00	-7.031233797568615e+00
1	 9.044998499990210e-01	 1.556238285249923e+00	-7.308141237454999e+00
1	 8.680932627459145e-01	 1.576836036778132e+00	-7.587410541735658e+00
1	 8.313398954148933e-01	 1.596518716837457e+00	-7.869224405544430e+00
1	 7.942733605388482e-01	 1.615279572321401e+00	-8.153725174033250e+00
1	 7.569273064181261e-01	 1.633113447481505e+00	-8.441013294674862e+00
1	 1.122642285429984e+00	 1.425237435494076e+00	-5.513324200028541e+00
1	 1.088741414256743e+00	 1.451299257638846e+00	-5.777240797282585e+00
1	 1.054293831885671e+00	 1.476513434360772e+00	-6.042947168007439e+00
1	 1.019331194799253e+00	 1.500863543796189e+00	-6.310710520981262e+00
1	 9.838857700762512e-01	 1.524334727348017e+00	-6.580756385606857e+00
1	 9.479903399303966e-01	 1.546913714547491e+00	-6.853266370803445e+00
1	 9.116781053821611e-01	 1.568588841025433e+00	-7.128376319207296e+00
1	 8.749825896332130e-01	 1.589350059601992e+00	-7.406174868546722e+00
1	 8.379375417042393e-01	 1.609188944556281e+00	-7.686702427094387e+00
1	 8.005768408825752e-01	 1.628098689188072e+00	-7.969950565162697e+00
1	 7.629344025068716e-01	 1.646074096832072e+00	-8.255861819776090e+00
1	 1.131481611023788e+00	 1.436459298327974e+00	-5.354094983670355e+00
1	 1.097313815254742e+00	 1.462726322908246e+00	-5.613242695602496e+00
1	 1.062595003659041e+00	 1.488139027977262e+00	-5.875040016686027e+00
1	 1.027357081972179e+00	 1.512680862370868e+00	-6.139662690506330e+00
1	 9.916325713335669e-01	 1.536336850500164e+00	-6.407229453730864e+00
1	 9.554545120735946e-01	 1.559093617408970e+00	-6.677800955731755e+00
1	 9.188563666269405e-01	 1.580939406886611e+00	-6.951379165308163e+00
1	 8.818719221462320e-01	 1.601864092644972e+00	-7.227907262534939e+00
1	 8.445351933811404e-01	 1.621859182621744e+00	-7.507270008246902e+00
1	 8.068803263736645e-01	 1.640917816522931e+00	-7.789294578387150e+00
1	 7.689415035009731e-01	 1.659034756766367e+00	-8.073751845484026e+00
1	 1.140320944866739e+00	 1.447681171635097e+00	-5.195526399784097e+00
1	 1.105886224252765e+00	 1.474153398842404e+00	-5.450320359232133e+00
1	 1.070896183179307e+00	 1.499764632443794e+00	-5.708613838004772e+00
1	 1.035382976635102e+00	 1.524498191974515e+00	-5.970481146545965e+00
1	 9.993793798204437e-01	 1.548338984853732e+00	-6.235923405783694e+00
1	 9.629186911826177e-01	 1.571273531637760e+00	-6.504868741213014e+00
1	 9.260346345707511e-01	 1.593289984274343e+00	-6.777173060211454e+00
1	 8.887612610886730e-01	 1.614378137367024e+00	-7.052621395532759e+00
1	 8.511328512152861e-01	 1.634529432512017e+00	-7.330929791844170e+00
1	 8.131838177474978e-01	 1.653736955821508e+00	-7.611747706560642e+00
1	 7.749486101012426e-01	 1.671995428796423e+00	-7.894660891159053e+00
1	 1.149160287989920e+00	 1.458903056724601e+00	-5.037652660431624e+00
1	 1.114458642250760e+00	 1.485580486774424e+00	-5.288512645248248e+00
1	 1.079197371414790e+00	 1.511390249116649e+00	-5.543709162886807e+00
1	 1.043408879724243e+00	 1.536315533985785e+00	-5.803205368157567e+00
1	 1.007126196440562e+00	 1.560341131808945e+00	-6.066874198839491e+00
1	 9.703828781281930e-01	 1.583453458654829e+00	-6.334499956655932e+00
1	 9.332129100509838e-01	 1.605640574629505e+00	-6.605780571922677e+00
1	 8.956506072642383e-01	 1.626892195228096e+00	-6.880330518501637e+00
1	 8.577305159763654e-01	 1.647199695705267e+00	-7.157684339044982e+00
1	 8.194873157394577e-01	 1.666556108579334e+00	-7.437300734578761e+00
1	 7.809557230084923e-01	 1.684956114434272e+00	-7.718567167327349e+00
1	 7.208847936526629e-01	 1.555349688962692e+00	-9.617146941238518e+00
1	 6.850853372827741e-01	 1.571447032686810e+00	-9.912664196600545e+00
1	 6.490835353685449e-01	 1.586656349736946e+00	-1.020861139852705e+01
1	 6.129110055660850e-01	 1.600977193512580e+00	-1.050592243215155e+01
1	 5.765990655328243e-01	 1.614410546750085e+00	-1.080553313459733e+01
1	 5.401786568250596e-01	 1.626958785750686e+00	-1.110837358252902e+01
1	 5.036802724514819e-01	 1.638625640113148e+00	-1.141536071467678e+01
1	 4.671338883575810e-01	 1.649416148345699e+00	-1.172739134322756e+01
1	 4.305688990762302e-01	 1.659336609746896e+00	-1.204533560118608e+01
1	 3.940140577397680e-01	 1.668394532956102e+00	-1.237003086575711e+01
1	 3.574974206089847e-01	 1.676598581580888e+00	-1.270227619061266e+01
1	 7.268918750263222e-01	 1.568310306563534e+00	-9.413231993025594e+00
1	 6.907941043493353e-01	 1.584541788300445e+00	-9.708055212264773e+00
1	 6.544923019970291e-01	 1.599877843500642e+00	-1.000392336557624e+01
1	 6.180183490931941e-01	 1.614318021842112e+00	-1.030181790277872e+01
1	 5.814038242630725e-01	 1.627863314250304e+00	-1.060273193705505e+01
1	 5.446799268967494e-01	 1.640516116827987e+00	-1.090766163172697e+01
1	 5.078774040989904e-01	 1.652280190252410e+00	-1.121759788344361e+01
1	 4.710264816027066e-01	 1.663160615017326e+00	-1.153351836616926e+01
1	 4.341567988833242e-01	 1.673163742912899e+00	-1.185637999337604e+01
1	 3.972973486709883e-01	 1.682297145147446e+00	-1.218711184848565e+01
1	 3.604764210173155e-01	 1.690569557521760e+00	-1.252660862599162e+01
1	 7.328989571004663e-01	 1.581270925675919e+00	-9.212509595559156e+00
1	 6.965028720816041e-01	 1.597636545441325e+00	-9.506570065971806e+00
1	 6.599010692562729e-01	 1.613099338806442e+00	-9.802240074898261e+00
1	 6.231256932159656e-01	 1.627658851727757e+00	-1.010054286898612e+01
1	 5.862085835537600e-01	 1.641316083319784e+00	-1.040252343970846e+01
1	 5.491811974935527e-01	 1.654073449486838e+00	-1.070923903134011e+01
1	 5.120745362362032e-01	 1.665934741984644e+00	-1.102174990328361e+01
1	 4.749190753020673e-01	 1.676905083292483e+00	-1.134111042160091e+01
1	 4.377446991091440e-01	 1.686990877692122e+00	-1.166836054747895e+01
1	 4.005806399854071e-01	 1.696199758960834e+00	-1.200451778272057e+01
1	 3.634554217733189e-01	 1.704540535092635e+00	-1.235056962434504e+01
1	 7.389060405759063e-01	 1.594231547811876e+00	-9.014952488900951e+00
1	 7.022116411455905e-01	 1.610731305637117e+00	-9.308165506569434e+00
1	 6.653098377772835e-01	 1.626320837196780e+00	-9.603502601085363e+00
1	 6.282330385302360e-01	 1.640999684725852e+00	-9.902023166024183e+00
1	 5.910133439654147e-01	 1.654768855527908e+00	-1.020481878933841e+01
1	 5.536824691405809e-01	 1.667630785308807e+00	-1.051300290405807e+01
1	 5.162716693527424e-01	 1.679589296902752e+00	-1.082770064780030e+01
1	 4.788116699097502e-01	 1.690649554774555e+00	-1.115003901639693e+01
1	 4.413326001722285e-01	 1.700818015697596e+00	-1.148113738971308e+01
1	 4.038639320660276e-01	 1.710102376018112e+00	-1.182209849984835e+01
1	 3.664344232245057e-01	 1.718511515923357e+00	-1.217399990354940e+01
1	 7.449131261534554e-01	 1.607192174483440e+00	-8.820534292460225e+00
1	 7.079204122073058e-01	 1.623826070415485e+00	-9.112799678092520e+00
1	 6.707186081910698e-01	 1.639542340214093e+00	-9.407653919597147e+00
1	 6.333403856318418e-01	 1.654340522392739e+00	-9.706187021728589e+00
1	 5.958181060585638e-01	 1.668221632444062e+00	-1.000953199932816e+01
1	 5.581837423629469e-01	 1.681188125875464e+00	-1.031885369182926e+01
1	 5.204688039382303e-01	 1.693243856599634e+00	-1.063533773758345e+01
1	 4.827042658798433e-01	 1.704394031066930e+00	-1.096017980375468e+01
1	 4.449205024911150e-01	 1.714645158542355e+00	-1.129457516021915e+01
1	 4.071472252958531e-01	 1.724004997941130e+00	-1.163970867782312e+01
1	 3.694134257183873e-01	 1.732482501643770e+00	-1.199674532265728e+01
1	 7.509202145339245e-01	 1.620152807202639e+00	-8.629229469725331e+00
1	 7.136291859327608e-01	 1.636920841304096e+00	-8.920432063863808e+00
1	 6.761273811286393e-01	 1.652763849400814e+00	-9.214638830638451e+00
1	 6.384477351166191e-01	 1.667681366284758e+00	-9.512964960736712e+00
1	 6.006228703937347e-01	 1.681674415637626e+00	-9.816579834928655e+00
1	 5.626850176857628e-01	 1.694745472768375e+00	-1.012669502303172e+01
1	 5.246659404822889e-01	 1.706898422668192e+00	-1.044455239028606e+01
1	 4.865968636664338e-01	 1.718138513772993e+00	-1.077141241731526e+01
1	 4.485084064843421e-01	 1.728472307839431e+00	-1.110854283249819e+01
1	 4.104305200578863e-01	 1.737907626351737e+00	-1.145720764732141e+01
1	 3.723924296024744e-01	 1.746453493883714e+00	-1.181865667629372e+01
1	 7.569273064181261e-01	 1.633113447481505e+00	-8.441013294674862e+00
1	 7.193379629879660e-01	 1.650015619830615e+00	-8.731023433256377e+00
1	 6.815361572210011e-01	 1.665985366299380e+00	-9.024403886663135e+00
1	 6.435550875804052e-01	 1.681022217958248e+00	-9.322289713265979e+00
1	 6.054276375314549e-01	 1.695127206677984e+00	-9.625881703988528e+00
1	 5.671862956341406e-01	 1.708302827569109e+00	-9.936433585971077e+00
1	 5.288630794745408e-01	 1.720552996701325e+00	-1.025523927784191e+01
1	 4.904894637236094e-01	 1.731883004496130e+00	-1.058362031318559e+01
1	 4.520963125704475e-01	 1.742299465201855e+00	-1.092291354144876e+01
1	 4.137138167351306e-01	 1.751810262871778e+00	-1.127445920712982e+01
1	 3.753714352242780e-01	 1.760424494273034e+00	-1.163958949884589e+01
1	 7.629344025068716e-01	 1.646074096832072e+00	-8.255861819776090e+00
1	 7.250467440389318e-01	 1.663110407522708e+00	-8.544535790972368e+00
1	 6.869449370991632e-01	 1.679206892452224e+00	-8.836897323303148e+00
1	 6.486624436190357e-01	 1.694363078969549e+00	-9.134096128202977e+00
1	 6.102324080322518e-01	 1.708580007134521e+00	-9.437359552847507e+00
1	 5.716875767331934e-01	 1.721860191859236e+00	-9.747979008356138e+00
1	 5.330602214046076e-01	 1.734207580291934e+00	-1.006729639043059e+01
1	 4.943820665054574e-01	 1.745627504839728e+00	-1.039669061942515e+01
1	 4.556842211679696e-01	 1.756126632242662e+00	-1.073756441953075e+01
1	 4.169971157105890e-01	 1.765712909123104e+00	-1.109133144825622e+01
1	 3.783504429313092e-01	 1.774395504441572e+00	-1.145940387790504e+01
1	 7.689415035009731e-01	 1.659034756766367e+00	-8.073751845484027e+00
1	 7.307555297516694e-01	 1.676205205908041e+00	-8.360932328699267e+00
1	 6.923537213941330e-01	 1.692428429401784e+00	-8.652068993536261e+00
1	 6.537698038283479e-01	 1.707703950875003e+00	-8.948321090267207e+00
1	 6.150371824566522e-01	 1.722032818576619e+00	-9.250937767110990e+00
1	 5.761888615080327e-01	 1.735417567220324e+00	-9.561243742425173e+00
1	 5.372573667621120e-01	 1.747862175032921e+00	-9.880624906820254e+00
1	 4.982746724660653e-01	 1.759372016407173e+00	-1.021051399259012e+01
1	 4.592721326954463e-01	 1.769953810574882e+00	-1.055237644061048e+01
1	 4.202804173672643e-01	 1.779615566727561e+00	-1.090769658628804e+01
1	 3.813294530710786e-01	 1.788366526019169e+00	-1.127796427645589e+01
1	 7.749486101012426e-01	 1.671995428796423e+00	-7.894660891159053e+00
1	 7.364643207921892e-01	 1.689300016514279e+00	-8.180177379015863e+00
1	 6.977625107369196e-01	 1.705649978690491e+00	-8.469870304916464e+00
1	 6.588771688041773e-01	 1.721044835230948e+00	-8.764903441028856e+00
1	 6.198419613651840e-01	 1.735485642573660e+00	-9.066543077040768e+00
1	 5.806901504837709e-01	 1.748974955233940e+00	-9.376142955416382e+00
1	 5.414545160366762e-01	 1.761516782517186e+00	-9.695129070742354e+00
1	 5.021672820595209e-01	 1.773116540801851e+00	-1.002498448095081e+01
1	 4.628600475714159e-01	 1.783781001811550e+00	-1.036723427107025e+01
1	 4.235637220881601e-01	 1.793518237307000e+00	-1.072343080154891e+01
1	 3.843084659910977e-01	 1.802337560635670e+00	-1.109513936333757e+01
1	 7.809557230084923e-01	 1.684956114434272e+00	-7.718567167327349e+00
1	 7.421731178265022e-01	 1.702394840869089e+00	-8.002236371425447e+00
1	 7.031713057585309e-01	 1.718871541860783e+00	-8.290254159701929e+00
1	 6.639845391423617e-01	 1.734385733593725e+00	-8.583783903572252e+00
1	 6.246467453183745e-01	 1.748938480695031e+00	-8.884104467313200e+00
1	 5.851914441855204e-01	 1.762532357481655e+00	-9.192594425094713e+00
1	 5.456516697179219e-01	 1.775171404337629e+00	-9.510716072973331e+00
1	 5.060598957399114e-01	 1.786861079627148e+00	-9.839999394023833e+00
1	 4.664479662144161e-01	 1.797608207565696e+00	-1.018202612779131e+01
1	 4.268470302562790e-01	 1.807420922483264e+00	-1.053841408663472e+01
1	 3.872874820388771e-01	 1.816308609920916e+00	-1.091080185153125e+01
1	 3.574974206089847e-01	 1.676598581580888e+00	-1.270227619061266e+01
1	 3.210437537352151e-01	 1.683959003333080e+00	-1.303733231893625e+01
1	 2.846821660173839e-01	 1.690485997782369e+00	-1.336743944800339e+01
1	 2.484383771600480e-01	 1.696191347520098e+00	-1.368880212494816e+01
1	 2.123372325162998e-01	 1.701087751890542e+00	-1.399752527353001e+01
1	 1.764026711984843e-01	 1.705188763979623e+00	-1.428965884776525e+01
1	 1.406576988713968e-01	 1.708508727057505e+00	-1.456124028378983e+01
1	 1.051243651388339e-01	 1.711062710828929e+00	-1.480833450949513e+01
1	 6.982374540812293e-02	 1.712866447826537e+00	-1.502707131349853e+01
1	 3.477592709370159e-02	 1.713936270261961e+00	-1.521367991630936e+01
1	 0.000000000000000e+00	 1.714289047627778e+00	-1.536452062659507e+01
1	 3.604764210173155e-01	 1.690569557521760e+00	-1.252660862599162e+01
1	 3.237189883473829e-01	 1.697991313141118e+00	-1.286961604706163e+01
1	 2.870544021224811e-01	 1.704572696567507e+00	-1.320807188027730e+01
1	 2.505085963676162e-01	 1.710325588575774e+00	-1.353857529980315e+01
1	 2.141066234704213e-01	 1.715262794332936e+00	-1.385759323275900e+01
1	 1.778726220261427e-01	 1.719397979861820e+00	-1.416150433732880e+01
1	 1.418297894041262e-01	 1.722745607954046e+00	-1.444664104993709e+01
1	 1.060003589459304e-01	 1.725320873889138e+00	-1.470932944795888e+01
1	 7.040558167873620e-02	 1.727139641297820e+00	-1.494592671475176e+01
1	 3.506571240396045e-02	 1.728218378486884e+00	-1.515285603370992e+01
1	 0.000000000000000e+00	 1.728574095521189e+00	-1.532663877698377e+01
1	 3.634554217733189e-01	 1.704540535092635e+00	-1.235056962434504e+01
1	 3.263942232717195e-01	 1.712023624586264e+00	-1.270072408941143e+01
1	 2.894266385043065e-01	 1.718659396996017e+00	-1.304670552437903e+01
1	 2.525788158165745e-01	 1.724459831280267e+00	-1.338567220628744e+01
1	 2.158760146307361e-01	 1.729437838428791e+00	-1.371461602526892e+01
1	 1.793425730249773e-01	 1.733607197401348e+00	-1.403040462666188e+01
1	 1.430018800732300e-01	 1.736982490511031e+00	-1.432982197572673e+01
1	 1.068763528548503e-01	 1.739579038612175e+00	-1.460960708260568e+01
1	 7.098741801690550e-02	 1.741412836433599e+00	-1.486649066263026e+01
1	 3.535549774782404e-02	 1.742500488377288e+00	-1.509722954447472e+01
1	 0.000000000000000e+00	 1.742859145080407e+00	-1.529863867545020e+01
1	 3.664344232245057e-01	 1.718511515923357e+00	-1.217399990354940e+01
1	 3.290694588203119e-01	 1.726055939305545e+00	-1.253049951559718e+01
1	 2.917988754396156e-01	 1.732746100711309e+00	-1.288320475983558e+01
1	 2.546490357484634e-01	 1.738594077282575e+00	-1.322999341229680e+01
1	 2.176454062037082e-01	 1.743612885831910e+00	-1.356854124070262e+01
1	 1.808125243665334e-01	 1.747816418256036e+00	-1.389636116531796e+01
1	 1.441739710155136e-01	 1.751219376389558e+00	-1.421084127764155e+01
1	 1.077523469678564e-01	 1.753837206661650e+00	-1.450928144995877e+01
1	 7.156925449056739e-02	 1.755686034899275e+00	-1.478892830222422e+01
1	 3.564528315913577e-02	 1.756782601599632e+00	-1.504700832651663e+01
1	 0.000000000000000e+00	 1.757144197972236e+00	-1.528075900290171e+01
1	 3.694134257183873e-01	 1.732482501643770e+00	-1.199674532265728e+01
1	 3.317446953052459e-01	 1.740088258935989e+00	-1.235879046123466e+01
1	 2.941711132051638e-01	 1.746832809356790e+00	-1.271743834542355e+01
1	 2.567192564048237e-01	 1.752728328231689e+00	-1.307144269810682e+01
1	 2.194147983958010e-01	 1.757787938196089e+00	-1.341931816444962e+01
1	 1.822824762223561e-01	 1.762025644083713e+00	-1.375937536094655e+01
1	 1.453460623677824e-01	 1.765456267250724e+00	-1.408975529827539e+01
1	 1.086283413872118e-01	 1.768095379701183e+00	-1.440846291052804e+01
1	 7.215109116765843e-02	 1.769959238360240e+00	-1.471339945166772e+01
1	 3.593506867173904e-02	 1.771064719820369e+00	-1.500239354911916e+01
1	 0.000000000000000e+00	 1.771429255863481e+00	-1.527323073375396e+01
1	 3.723924296024744e-01	 1.746453493883714e+00	-1.181865667629372e+01
1	 3.344199330386081e-01	 1.754120585114621e+00	-1.218544992537504e+01
1	 2.965433520777064e-01	 1.760919524575867e+00	-1.254927924409542e+01
1	 2.587894780271962e-01	 1.766862585776609e+00	-1.290992692799159e+01
1	 2.211841914134786e-01	 1.771962997175130e+00	-1.326689770993591e+01
1	 1.837524287639907e-01	 1.776234876542210e+00	-1.361944858107906e+01
1	 1.465181542668414e-01	 1.779693164755627e+00	-1.396661858136843e+01
1	 1.095043362151794e-01	 1.782353559394389e+00	-1.430725829587743e+01
1	 7.273292811611519e-02	 1.784232448481896e+00	-1.464005881516187e+01
1	 3.622485431947724e-02	 1.785346844705956e+00	-1.496357994111350e+01
1	 0.000000000000000e+00	 1.785714320420949e+00	-1.527627744387406e+01
1	 3.753714352242780e-01	 1.760424494273034e+00	-1.163958949884589e+01
1	 3.370951723324846e-01	 1.768152919478469e+00	-1.201033557758419e+01
1	 2.989155923339992e-01	 1.775006248011952e+00	-1.237860445624410e+01
1	 2.608597008571213e-01	 1.780996851566330e+00	-1.274535592795647e+01
1	 2.229535854632042e-01	 1.786138064422830e+00	-1.311123235413847e+01
1	 1.852223821629825e-01	 1.790444117289355e+00	-1.347658215482978e+01
1	 1.476902468494962e-01	 1.793930070565365e+00	-1.384148394326913e+01
1	 1.103803315540222e-01	 1.796611747404885e+00	-1.420577104868706e+01
1	 7.331476540387417e-02	 1.798505666929638e+00	-1.456905618585151e+01
1	 3.651464013619379e-02	 1.799628977922850e+00	-1.493075604628219e+01
1	 0.000000000000000e+00	 1.799999393311444e+00	-1.529011560385662e+01
1	 3.783504429313092e-01	 1.774395504441572e+00	-1.145940387790504e+01
1	 3.397704134989622e-01	 1.782185263664560e+00	-1.183330957413816e+01
1	 3.012878342507974e-01	 1.789092981308450e+00	-1.220529486084630e+01
1	 2.629299251361400e-01	 1.795131127249847e+00	-1.257764236924890e+01
1	 2.247229807514416e-01	 1.800313141592991e+00	-1.295227607614735e+01
1	 1.866923365908766e-01	 1.804653367982979e+00	-1.333077737451653e+01
1	 1.488623402525520e-01	 1.808166986341034e+00	-1.371440254101923e+01
1	 1.112563275060033e-01	 1.810869945396284e+00	-1.410410135619665e+01
1	 7.389660309887201e-02	 1.812778895368865e+00	-1.450053663911556e+01
1	 3.680442615573210e-02	 1.813911121137507e+00	-1.490410446669350e+01
1	 0.000000000000000e+00	 1.814284476201773e+00	-1.531495485844072e+01
1	 3.813294530710786e-01	 1.788366526019169e+00	-1.127796427645589e+01
1	 3.424456568501270e-01	 1.796217619309920e+00	-1.165423838283637e+01
1	 3.036600781048563e-01	 1.803179726108770e+00	-1.202923506405459e+01
1	 2.650001511057929e-01	 1.809265414476159e+00	-1.240670165733103e+01
1	 2.264923774846549e-01	 1.814488230339411e+00	-1.278998429860824e+01
1	 1.881622922192183e-01	 1.818862630280913e+00	-1.318203549720500e+01
1	 1.500344346128140e-01	 1.822403913743735e+00	-1.358542393724625e+01
1	 1.121323241733855e-01	 1.825128155032206e+00	-1.400234627739288e+01
1	 7.447844126904522e-02	 1.827052135464974e+00	-1.443464071679421e+01
1	 3.709421241193553e-02	 1.828193276016381e+00	-1.488380209462770e+01
1	 0.000000000000000e+00	 1.828569570758740e+00	-1.535099829282698e+01
1	 3.843084659910977e-01	 1.802337560635670e+00	-1.109513936333757e+01
1	 3.451209026980651e-01	 1.810249988051577e+00	-1.147299261596515e+01
1	 3.060323241729317e-01	 1.817266484056323e+00	-1.185031325483215e+01
1	 2.670703790076207e-01	 1.823399714894258e+00	-1.223245182601669e+01
1	 2.282617758693074e-01	 1.828663332315890e+00	-1.262431383188880e+01
1	 1.896322492195529e-01	 1.833071905840984e+00	-1.303035774618169e+01
1	 1.512065300670876e-01	 1.836640854434563e+00	-1.345459616203724e+01
1	 1.130083216584319e-01	 1.839386377976264e+00	-1.390059986427933e+01
1	 7.506027998233038e-02	 1.841325388883361e+00	-1.437150460284608e+01
1	 3.738399893864753e-02	 1.842475444225930e+00	-1.487002033371322e+01
1	 0.000000000000000e+00	 1.842854678649152e+00	-1.539844268660456e+01
1	 3.872874820388771e-01	 1.816308609920916e+00	-1.091080185153125e+01
1	 3.477961513548631e-01	 1.824282371526556e+00	-1.128944687097187e+01
1	 3.084045727317791e-01	 1.831353256794514e+00	-1.166842106725322e+01
1	 2.691406090831641e-01	 1.837534030153142e+00	-1.205481343649639e+01
1	 2.300311761118629e-01	 1.842838449176229e+00	-1.245522282082299e+01
1	 1.911022077634256e-01	 1.847281196321023e+00	-1.287574531235840e+01
1	 1.523786267521780e-01	 1.850877810074617e+00	-1.332196577195650e+01
1	 1.138843200634055e-01	 1.853644615892075e+00	-1.379895327754837e+01
1	 7.564211930666406e-02	 1.855598657289427e+00	-1.431126029089628e+01
1	 3.767378576971149e-02	 1.856757627432609e+00	-1.486292530985454e+01
1	 0.000000000000000e+00	 1.857139801539814e+00	-1.545747875595650e+01
1	 1.857139801539814e+00	 0.000000000000000e+00	 2.708097991871422e+00
1	 1.856757627432609e+00	 3.767378576971200e-02	 2.502658340631522e+00
1	 1.855598657289427e+00	 7.564211930666453e-02	 2.301599149610930e+00
1	 1.853644615892075e+00	 1.138843200634058e-01	 2.106001454935773e+00
1	 1.850877810074617e+00	 1.523786267521784e-01	 1.916629917085180e+00
1	 1.847281196321023e+00	 1.911022077634259e-01	 1.733910853045301e+00
1	 1.842838449176228e+00	 2.300311761118631e-01	 1.557911470153345e+00
1	 1.837534030153142e+00	 2.691406090831643e-01	 1.388320567796748e+00
1	 1.831353256794514e+00	 3.084045727317791e-01	 1.224430977402913e+00
1	 1.824282371526556e+00	 3.477961513548631e-01	 1.065124012276268e+00
1	 1.816308609920916e+00	 3.872874820388771e-01	 9.088561965160730e-01
1	 1.871425938885499e+00	 0.000000000000000e+00	 2.616586853148629e+00
1	 1.871040824885513e+00	 3.796359318002383e-02	 2.415392293679426e+00
1	 1.869872939308534e+00	 7.622399995034108e-02	 2.219691966884195e+00
1	 1.867903866353384e+00	 1.147603806773741e-01	 2.030352283230240e+00
1	 1.865115776748616e+00	 1.535508066735918e-01	 1.847907240839610e+00
1	 1.861491495870142e+00	 1.925722706961614e-01	 1.672537364986755e+00
1	 1.857014572678569e+00	 2.318007020079917e-01	 1.504050024827519e+00
1	 1.851669349156259e+00	 2.712109861755549e-01	 1.341861396106094e+00
1	 1.845441029900473e+00	 3.107769897551533e-01	 1.184980341130572e+00
1	 1.838315751506641e+00	 3.504715899935780e-01	 1.031994476548586e+00
1	 1.830280651355449e+00	 3.902667096404622e-01	 8.810586951121612e-01
1	 1.885712081233184e+00	 0.000000000000000e+00	 2.532937473124207e+00
1	 1.885324027339362e+00	 3.825340069197129e-02	 2.334175168698061e+00
1	 1.884147226325385e+00	 7.680588079802278e-02	 2.142591456581362e+00
1	 1.882163121807059e+00	 1.156364415984023e-01	 1.958715954396285e+00
1	 1.879353748407376e+00	 1.547229870057536e-01	 1.782740133398073e+00
1	 1.875701800394163e+00	 1.940423341439140e-01	 1.614498547588149e+00
1	 1.871190701143662e+00	 2.335702285239304e-01	 1.453451611880614e+00
1	 1.865804673107656e+00	 2.732813639930134e-01	 1.298670188112906e+00
1	 1.859528807937886e+00	 3.131494076092566e-01	 1.148822237739521e+00
1	 1.852349136398974e+00	 3.531470295690236e-01	 1.002161796748419e+00
1	 1.844252697680622e+00	 3.932459382850533e-01	 8.565205214484761e-01
1	 1.899998216915481e+00	 0.000000000000000e+00	 2.458636544564043e+00
1	 1.899607223129177e+00	 3.854320806894736e-02	 2.259973820080568e+00
1	 1.898421506682321e+00	 7.738776137463460e-02	 2.070808101523534e+00
1	 1.896422370607763e+00	 1.165125021112167e-01	 1.891212619013598e+00
1	 1.893591713423013e+00	 1.558951667915989e-01	 1.720926864676787e+00
1	 1.889912098287876e+00	 1.955123969063782e-01	 1.559341476172169e+00
1	 1.885366822994288e+00	 2.353397542148335e-01	 1.405484837406232e+00
1	 1.879939990463522e+00	 2.753517408450131e-01	 1.258011632862128e+00
1	 1.873616579401857e+00	 3.155218243569036e-01	 1.115193588763127e+00
1	 1.866382514743161e+00	 3.558224678965475e-01	 9.749126277973615e-01
1	 1.858224737486206e+00	 3.962251655398985e-01	 8.346566541658758e-01
1	 1.914284334264999e+00	 0.000000000000000e+00	 2.395126389953739e+00
1	 1.913890400589984e+00	 3.883301507434495e-02	 2.193726241901385e+00
1	 1.912695768721676e+00	 7.796964120510148e-02	 2.004837142621211e+00
1	 1.910681601110162e+00	 1.173885615005441e-01	 1.827958835154730e+00
1	 1.907829660167639e+00	 1.570673450740623e-01	 1.662271719866084e+00
1	 1.904122377946063e+00	 1.969824577832475e-01	 1.506626740239671e+00
1	 1.899542926653227e+00	 2.371092776358554e-01	 1.359537150338106e+00
1	 1.894075289680050e+00	 2.774221150410274e-01	 1.219172365706760e+00
1	 1.887704332787491e+00	 3.178942380609087e-01	 1.083354092291618e+00
1	 1.880415875078809e+00	 3.584979027914969e-01	 9.495549176054675e-01
1	 1.872196759361968e+00	 3.992043889722462e-01	 8.148995348191678e-01
1	 1.928570421614352e+00	 0.000000000000000e+00	 2.343806605862112e+00
1	 1.928173548056805e+00	 3.912282147155702e-02	 2.136342637446540e+00
1	 1.926970000785793e+00	 7.855151981434853e-02	 1.945159143745022e+00
1	 1.924940801668923e+00	 1.182646190511110e-01	 1.769067701615850e+00
1	 1.922067577013370e+00	 1.582395208960790e-01	 1.606584776709791e+00
1	 1.918332627763509e+00	 1.984525155742158e-01	 1.455927942958487e+00
1	 1.913719000543260e+00	 2.388787973421505e-01	 1.315014144565561e+00
1	 1.908210559213428e+00	 2.794924848905294e-01	 1.181460155488761e+00
1	 1.901792056589895e+00	 3.202666467840865e-01	 1.052585379424938e+00
1	 1.894449205945524e+00	 3.611733320692193e-01	 9.254171184982845e-01
1	 1.886168751897681e+00	 4.021836061493447e-01	 7.966984211866435e-01
1	 1.942856467296148e+00	 0.000000000000000e+00	 2.306035634922018e+00
1	 1.942456653864665e+00	 3.941262702397651e-02	 2.088706441664528e+00
1	 1.941244191217008e+00	 7.913339672730063e-02	 1.892240531731356e+00
1	 1.939199960638711e+00	 1.191406740476439e-01	 1.714648985282714e+00
1	 1.936305452332318e+00	 1.594116933005836e-01	 1.553681692588318e+00
1	 1.932542836135003e+00	 1.999225690789774e-01	 1.406831222683927e+00
1	 1.927895033087166e+00	 2.406483118888731e-01	 1.271338891768853e+00
1	 1.922345787519848e+00	 2.815628487029927e-01	 1.144203127499139e+00
1	 1.915879739304173e+00	 3.226390485892515e-01	 1.022190207857419e+00
1	 1.908482495882913e+00	 3.638487535450625e-01	 9.018474333558395e-01
1	 1.900140703683113e+00	 4.051628146384417e-01	 7.795187690460350e-01
1	 1.957142459643000e+00	 0.000000000000000e+00	 2.283132269118516e+00
1	 1.956739706348589e+00	 3.970243149499637e-02	 2.051675298937940e+00
1	 1.955518328357658e+00	 7.971527146888283e-02	 1.846534112790811e+00
1	 1.953459066374192e+00	 1.200167257748695e-01	 1.664809242930914e+00
1	 1.950543274496597e+00	 1.605838613305110e-01	 1.503383500905787e+00
1	 1.946752991455327e+00	 2.013926170972260e-01	 1.358934795387938e+00
1	 1.942071012707724e+00	 2.424178198311774e-01	 1.227951303408365e+00
1	 1.936480963055499e+00	 2.836332047878904e-01	 1.106749020393222e+00
1	 1.929967369425429e+00	 3.250114415392181e-01	 9.914916907013077e-01
1	 1.922515733430581e+00	 3.665241650343736e-01	 8.782130946939646e-01
1	 1.914112603308034e+00	 4.081420120067854e-01	 7.628416409657596e-01
1	 1.971428386987518e+00	 0.000000000000000e+00	 2.276377087861069e+00
1	 1.971022693843598e+00	 3.999223464800954e-02	 2.026081998437167e+00
1	 1.969792400550084e+00	 8.029714356402012e-02	 1.808479566513466e+00
1	 1.967718107230032e+00	 1.208927735175143e-01	 1.619651937742060e+00
1	 1.964781031878321e+00	 1.617560240287962e-01	 1.455516416310190e+00
1	 1.960963082119269e+00	 2.028626584286554e-01	 1.311848516938524e+00
1	 1.956246927827715e+00	 2.441873197242181e-01	 1.184307520391965e+00
1	 1.950616074276571e+00	 2.857035514546962e-01	 1.068464475342542e+00
1	 1.944054935448770e+00	 3.273838236968006e-01	 9.598325587656107e-01
1	 1.936548907128135e+00	 3.691995643525005e-01	 8.538996750206090e-01
1	 1.928084439362215e+00	 4.111211958216242e-01	 7.461631407440565e-01
1	 1.985714237662315e+00	 0.000000000000000e+00	 2.287013834116896e+00
1	 1.985305604684719e+00	 4.028203624640896e-02	 2.012735369187633e+00
1	 1.984066396136623e+00	 8.087901253763749e-02	 1.778503918596984e+00
1	 1.981977071560896e+00	 1.217688165603047e-01	 1.579277550801401e+00
1	 1.979018712849604e+00	 1.629281804383741e-01	 1.409911648302824e+00
1	 1.975173096521612e+00	 2.043326918729596e-01	 1.265193464232206e+00
1	 1.970422766869918e+00	 2.459568101231494e-01	 1.139879329029967e+00
1	 1.964751109639255e+00	 2.877738870128831e-01	 1.028734355803467e+00
1	 1.958142425869298e+00	 3.297561931248137e-01	 9.265744546090882e-01
1	 1.950582005515181e+00	 3.718749493147904e-01	 8.283104268956871e-01
1	 1.942056200435424e+00	 4.141003636502061e-01	 7.289938722072828e-01
1	 2.000000000000000e+00	 0.000000000000000e+00	 2.316250731695729e+00
1	 1.999588427206973e+00	 4.057183605358756e-02	 2.012421136860479e+00
1	 1.998340303459614e+00	 8.146087791465992e-02	 1.757021993358943e+00
1	 1.996235947721451e+00	 1.226448541879675e-01	 1.543783687827355e+00
1	 1.993256305782559e+00	 1.641003296021794e-01	 1.366405222818357e+00
1	 1.989383023057143e+00	 2.058027162298326e-01	 1.218601534238617e+00
1	 1.984598518257113e+00	 2.477262895831255e-01	 1.094153601965841e+00
1	 1.978886057599742e+00	 2.898442097719247e-01	 9.869610963750794e-01
1	 1.972229829182122e+00	 3.321285478860718e-01	 8.910972567823454e-01
1	 1.964615017131326e+00	 3.745503177365909e-01	 8.008656512124485e-01
1	 1.956027875117432e+00	 4.170795130597794e-01	 7.108584211520783e-01
1	 1.816308609920916e+00	 3.872874820388771e-01	 9.088561965160730e-01
1	 1.807420922483264e+00	 4.268470302562786e-01	 7.543642366258571e-01
1	 1.797608207565696e+00	 4.664479662144158e-01	 6.014349236249730e-01
1	 1.786861079627148e+00	 5.060598957399112e-01	 4.497557526278623e-01
1	 1.775171404337629e+00	 5.456516697179217e-01	 2.989453248638282e-01
1	 1.762532357481656e+00	 5.851914441855203e-01	 1.485534709790181e-01
1	 1.748938480695031e+00	 6.246467453183742e-01	-1.938077918481163e-03
1	 1.734385733593725e+00	 6.639845391423612e-01	-1.531144504434758e-01
1	 1.718871541860783e+00	 7.031713057585306e-01	-3.056258105984754e-01
1	 1.702394840869089e+00	 7.421731178265019e-01	-4.601849389670106e-01
1	 1.684956114434273e+00	 7.809557230084924e-01	-6.175642157419485e-01
1	 1.830280651355449e+00	 3.902667096404622e-01	 8.810586951121612e-01
1	 1.821324594953817e+00	 4.301305715873713e-01	 7.313208448622068e-01
1	 1.811436395253883e+00	 4.700361396521799e-01	 5.831754986286399e-01
1	 1.800606594515861e+00	 5.099527858528720e-01	 4.362974437866769e-01
1	 1.788826995836037e+00	 5.498491214585424e-01	 2.902922694579829e-01
1	 1.776090722503322e+00	 5.896930575450493e-01	 1.446965329369946e-01
1	 1.762392274164796e+00	 6.294518704816068e-01	-1.021522859164792e-03
1	 1.747727579355579e+00	 6.690922721786595e-01	-1.474606800945737e-01
1	 1.732094043955664e+00	 7.085804848838240e-01	-2.952848693674454e-01
1	 1.715490595148239e+00	 7.478823202690240e-01	-4.452206960457407e-01
1	 1.697917720470713e+00	 7.869632625087234e-01	-5.980543662157550e-01
1	 1.844252697680622e+00	 3.932459382850533e-01	 8.565205214484761e-01
1	 1.835228272290978e+00	 4.334141140679417e-01	 7.114256213440672e-01
1	 1.825264587782192e+00	 4.736243143460175e-01	 5.678749280152751e-01
1	 1.814352114215724e+00	 5.138456773285418e-01	 4.255613708926430e-01
1	 1.802482592114112e+00	 5.540465746684604e-01	 2.841042823940682e-01
1	 1.789649092270640e+00	 5.941946724803288e-01	 1.430492638188623e-01
1	 1.775846072343640e+00	 6.342569973268171e-01	 1.868626386725691e-03
1	 1.761069429787372e+00	 6.742000070028453e-01	-1.400375679181664e-01
1	 1.745316550678762e+00	 7.139896659025048e-01	-2.833398464641168e-01
1	 1.728586354011298e+00	 7.535915247099296e-01	-4.287770338207872e-01
1	 1.710879331044161e+00	 7.929708041117344e-01	-5.771533206320287e-01
1	 1.858224737486206e+00	 3.962251655398985e-01	 8.346566541658756e-01
1	 1.849131943140409e+00	 4.366976550167055e-01	 6.942523872248324e-01
1	 1.839092773857973e+00	 4.772124873658478e-01	 5.552473788342607e-01
1	 1.828097627501635e+00	 5.177385669879708e-01	 4.173830281831465e-01
1	 1.816138182020209e+00	 5.582440259199826e-01	 2.803187080825815e-01
1	 1.803207455711374e+00	 5.986962853152487e-01	 1.436309909142012e-01
1	 1.789299864244732e+00	 6.390621219300107e-01	 6.813494449273816e-03
1	 1.774411273993693e+00	 6.793077394437820e-01	-1.307226199638754e-01
1	 1.758539051232120e+00	 7.193988443972456e-01	-2.696474699489143e-01
1	 1.741682106763799e+00	 7.593007264868671e-01	-4.107105747877322e-01
1	 1.723840935569680e+00	 7.989783429115335e-01	-5.547382645743254e-01
1	 1.872196759361968e+00	 3.992043889722462e-01	 8.148995348191677e-01
1	 1.863035596147771e+00	 4.399811917523779e-01	 6.793876849758279e-01
1	 1.852920942188578e+00	 4.808006557815890e-01	 5.450155496722429e-01
1	 1.841843123148493e+00	 5.216314516522095e-01	 4.116028192062191e-01
1	 1.829793754402687e+00	 5.624414717854167e-01	 2.788747593862381e-01
1	 1.816765801753297e+00	 6.031978923737006e-01	 1.464604622355621e-01
1	 1.802753638881248e+00	 6.438672403671951e-01	 1.389178166826760e-02
1	 1.787753101079132e+00	 6.844154653303315e-01	-1.193970015691799e-01
1	 1.771761534817776e+00	 7.248080159507175e-01	-2.540687472423786e-01
1	 1.754777842711275e+00	 7.650099209374835e-01	-3.908822235218539e-01
1	 1.736802523462338e+00	 8.049858740021280e-01	-5.306900512077313e-01
1	 1.886168751897681e+00	 4.021836061493447e-01	 7.966984211866436e-01
1	 1.876939219958725e+00	 4.432647215936743e-01	 6.664303073276404e-01
1	 1.866749081481357e+00	 4.843888166631600e-01	 5.369103547719399e-01
1	 1.855588589931198e+00	 5.255243281423084e-01	 4.080658750851939e-01
1	 1.843449298109903e+00	 5.666389088370701e-01	 2.797134484919043e-01
1	 1.830324119324177e+00	 6.076994899795758e-01	 1.515558680276050e-01
1	 1.816207385266352e+00	 6.486723487143761e-01	 2.317985391752486e-02
1	 1.801094900148275e+00	 6.895231804913566e-01	-1.059454018100506e-01
1	 1.784983990637771e+00	 7.302171761455920e-01	-2.364688066214350e-01
1	 1.767873551159260e+00	 7.707191033994266e-01	-3.691570080803768e-01
1	 1.749764084137201e+00	 8.109933924775250e-01	-5.048930654431284e-01
1	 1.900140703683113e+00	 4.051628146384417e-01	 7.795187690460347e-01
1	 1.890842803218936e+00	 4.465482418593103e-01	 6.549908469468204e-01
1	 1.880577180443664e+00	 4.879769670804797e-01	 5.306706220556194e-01
1	 1.869334016624649e+00	 5.294171932793179e-01	 4.066218807830422e-01
1	 1.857104801990212e+00	 5.708363336472505e-01	 2.827775208254291e-01
1	 1.843882397351781e+00	 6.122010744567645e-01	 1.589348613294057e-01
1	 1.829661092413219e+00	 6.534774430475603e-01	 3.475182847522795e-02
1	 1.814436660305711e+00	 6.946308807557207e-01	-9.025590391832650e-02
1	 1.798206407894145e+00	 7.356263205645408e-01	-2.167167456928515e-01
1	 1.780969221413285e+00	 7.764282692103445e-01	-3.454039283859891e-01
1	 1.762725607009334e+00	 8.170008934317318e-01	-4.772350940808017e-01
1	 1.914112603308034e+00	 4.081420120067854e-01	 7.628416409657597e-01
1	 1.904746334574061e+00	 4.498317498680010e-01	 6.446912657908385e-01
1	 1.894405227782849e+00	 4.915651041034668e-01	 5.260428043443791e-01
1	 1.883079392003745e+00	 5.333100438842887e-01	 4.071249089586526e-01
1	 1.870760254891974e+00	 5.750337427882651e-01	 2.880113918542321e-01
1	 1.857440624763881e+00	 6.167026421291587e-01	 1.686145776381567e-01
1	 1.843114749335018e+00	 6.582825194427546e-01	 4.867965614182584e-02
1	 1.827778370656030e+00	 6.997385619522857e-01	-7.221986136166375e-02
1	 1.811428775788937e+00	 7.410354447902353e-01	-1.946854864881536e-01
1	 1.794064842778885e+00	 7.821374137078839e-01	-3.194958112358185e-01
1	 1.775687081493801e+00	 8.230083719587561e-01	-4.476072016285693e-01
1	 1.928084439362215e+00	 4.111211958216242e-01	 7.461631407440565e-01
1	 1.918649802669765e+00	 4.531152429384617e-01	 6.351644831454087e-01
1	 1.908233212206262e+00	 4.951532248020400e-01	 5.227807031053335e-01
1	 1.896824704843383e+00	 5.372028767782708e-01	 4.094332610307235e-01
1	 1.884415645663542e+00	 5.792311328324216e-01	 2.953610866315022e-01
1	 1.870998790488245e+00	 6.212041893206487e-01	 1.806116537197895e-01
1	 1.856568345044922e+00	 6.630875739759653e-01	 6.503319979543049e-02
1	 1.841120020303820e+00	 7.048462199099149e-01	-5.173177929947853e-02
1	 1.824651083524189e+00	 7.464445444053474e-01	-1.702516368449103e-01
1	 1.807160404561592e+00	 7.878465322296934e-01	-2.913091716004218e-01
1	 1.788648497005671e+00	 8.290158231526051e-01	-4.159036115072510e-01
1	 1.942056200435424e+00	 4.141003636502061e-01	 7.289938722072828e-01
1	 1.932553196151707e+00	 4.563987183894079e-01	 6.260539814053141e-01
1	 1.922061122421255e+00	 4.987413262461179e-01	 5.206452040972092e-01
1	 1.910569943918465e+00	 5.410956887823153e-01	 4.134093150871428e-01
1	 1.898070963153277e+00	 5.834285003520271e-01	 3.047741819442271e-01
1	 1.884556883452640e+00	 6.257057123551258e-01	 1.949422456093434e-01
1	 1.870021868556099e+00	 6.678926027231987e-01	 8.388030956371845e-02
1	 1.854461598353669e+00	 7.099538504574706e-01	-2.868920114471379e-02
1	 1.837873320301940e+00	 7.518536149925487e-01	-1.432953577584841e-01
1	 1.820255896066940e+00	 7.935556201134200e-01	-2.607240798968443e-01
1	 1.801609842960009e+00	 8.350232421072867e-01	-3.820215923726950e-01
1	 1.956027875117432e+00	 4.170795130597794e-01	 7.108584211520784e-01
1	 1.946456503665550e+00	 4.596821735395547e-01	 6.170134287135729e-01
1	 1.935888947135180e+00	 5.023294055056194e-01	 5.194040243207541e-01
1	 1.924315098003887e+00	 5.449884767174719e-01	 4.189193802983410e-01
1	 1.911726196209532e+00	 5.876258419193892e-01	 3.161997509351560e-01
1	 1.898114892584837e+00	 6.302072075564812e-01	 2.116220458415331e-01
1	 1.883475308881720e+00	 6.726976017604614e-01	 1.052868947811384e-01
1	 1.867803093910167e+00	 7.150614494238159e-01	-2.992599976734123e-03
1	 1.851095475324230e+00	 7.572626521345105e-01	-1.137002364063953e-01
1	 1.833351306600461e+00	 7.992646726967115e-01	-2.276240349376003e-01
1	 1.814571108771880e+00	 8.410306239168078e-01	-3.458613492992332e-01
1	 1.684956114434273e+00	 7.809557230084924e-01	-6.175642157419485e-01
1	 1.666556108579333e+00	 8.194873157394583e-01	-7.820018884188501e-01
1	 1.647199695705267e+00	 8.577305159763660e-01	-9.568676275140898e-01
1	 1.626892195228096e+00	 8.956506072642391e-01	-1.141644872860885e+00
1	 1.605640574629505e+00	 9.332129100509844e-01	-1.335735849362639e+00
1	 1.583453458654829e+00	 9.703828781281937e-01	-1.538464043463090e+00
1	 1.560341131808945e+00	 1.007126196440562e+00	-1.749077327422247e+00
1	 1.536315533985785e+00	 1.043408879724244e+00	-1.966751719111765e+00
1	 1.511390249116649e+00	 1.079197371414791e+00	-2.190595757528944e+00
1	 1.485580486774423e+00	 1.114458642250760e+00	-2.419655466763345e+00
1	 1.458903056724601e+00	 1.149160287989920e+00	-2.652919873859997e+00
1	 1.697917720470713e+00	 7.869632625087234e-01	-5.980543662157549e-01
1	 1.679376171684905e+00	 8.257912613720412e-01	-7.578460938983782e-01
1	 1.659870858672978e+00	 8.643286492681638e-01	-9.277761219111065e-01
1	 1.639407141770808e+00	 9.025404426841122e-01	-1.107319195458862e+00
1	 1.617992042057758e+00	 9.403916952936697e-01	-1.295862938912444e+00
1	 1.595634250625419e+00	 9.778475951400555e-01	-1.492710410264221e+00
1	 1.572344131092705e+00	 1.014873563197749e+00	-1.697083357769378e+00
1	 1.548133715201746e+00	 1.051435352769626e+00	-1.908126166585952e+00
1	 1.523016691378873e+00	 1.087499149155750e+00	-2.124910475061132e+00
1	 1.497008386197335e+00	 1.123031669015494e+00	-2.346440432182935e+00
1	 1.470125738732542e+00	 1.158000258835432e+00	-2.571658559762008e+00
1	 1.710879331044161e+00	 7.929708041117344e-01	-5.771533206320287e-01
1	 1.692196239277984e+00	 8.320952092111141e-01	-7.323459806046690e-01
1	 1.672542026076116e+00	 8.709267848693754e-01	-8.973442412035002e-01
1	 1.651922092694297e+00	 9.094302805154478e-01	-1.071628258167040e+00
1	 1.630343513809585e+00	 9.475704830488989e-01	-1.254585804250339e+00
1	 1.607815046859852e+00	 9.853123147644879e-01	-1.445514819117016e+00
1	 1.584347134578076e+00	 1.022620932666389e+00	-1.643626709375487e+00
1	 1.559951900554614e+00	 1.059461828624110e+00	-1.848050387317038e+00
1	 1.534643137710871e+00	 1.095800929802140e+00	-2.057837028180061e+00
1	 1.508436289620492e+00	 1.131604698780583e+00	-2.271965517050974e+00
1	 1.481348424668851e+00	 1.166840232774733e+00	-2.489348547960855e+00
1	 1.723840935569680e+00	 7.989783429115335e-01	-5.547382645743254e-01
1	 1.705016300889208e+00	 8.383991541086286e-01	-7.054105901624308e-01
1	 1.685213187566892e+00	 8.775249173917148e-01	-8.655146952457959e-01
1	 1.664437037778324e+00	 9.163201151317564e-01	-1.034550023476896e+00
1	 1.642694979798230e+00	 9.547492674542318e-01	-1.211919007292226e+00
1	 1.619995837410733e+00	 9.927770309055642e-01	-1.396929531586866e+00
1	 1.596350132462838e+00	 1.030368298519748e+00	-1.588798189147187e+00
1	 1.571770080393091e+00	 1.067488300733048e+00	-1.786654317782196e+00
1	 1.546269578617915e+00	 1.104102706574501e+00	-1.989544799877073e+00
1	 1.519864187711302e+00	 1.140177724545059e+00	-2.196439595868327e+00
1	 1.492571105368532e+00	 1.175680202588859e+00	-2.406237974060035e+00
1	 1.736802523462338e+00	 8.049858740021280e-01	-5.306900512077313e-01
1	 1.717836346049209e+00	 8.447030909165361e-01	-6.769516799863337e-01
1	 1.697884332797518e+00	 8.841230414468964e-01	-8.322319036720685e-01
1	 1.676951966802650e+00	 9.232099409065490e-01	-9.960631102966765e-01
1	 1.655046429936937e+00	 9.619280426472270e-01	-1.167876672818121e+00
1	 1.632176612330666e+00	 1.000241737467358e+00	-1.347005245792059e+00
1	 1.608353114944773e+00	 1.038115654431095e+00	-1.532685889144863e+00
1	 1.583588245065871e+00	 1.075514762541794e+00	-1.724064011004007e+00
1	 1.557896004605275e+00	 1.112404472693372e+00	-1.920198111924053e+00
1	 1.531292071137173e+00	 1.148750739307956e+00	-2.120065303187321e+00
1	 1.503793771666583e+00	 1.184520161058842e+00	-2.322567562316072e+00
1	 1.749764084137201e+00	 8.109933924775250e-01	-5.048930654431283e-01
1	 1.730656364288626e+00	 8.510070144867884e-01	-6.468836226950146e-01
1	 1.710555451420205e+00	 8.907211516466336e-01	-7.974419325627351e-01
1	 1.689466869547038e+00	 9.300997522133370e-01	-9.561467696222659e-01
1	 1.667397854138950e+00	 9.691068027654434e-01	-1.122472504635648e+00
1	 1.644357361672258e+00	 1.007706428353941e+00	-1.295791154275916e+00
1	 1.620356072221661e+00	 1.045862994073695e+00	-1.475375287098143e+00
1	 1.595406384921654e+00	 1.083541207495701e+00	-1.660401780354773e+00
1	 1.569522406178222e+00	 1.120706221379292e+00	-1.849956412316923e+00
1	 1.542719930565512e+00	 1.157323736068305e+00	-2.043039264743925e+00
1	 1.515016414398009e+00	 1.193360100965718e+00	-2.238570900204411e+00
1	 1.762725607009334e+00	 8.170008934317318e-01	-4.772350940808016e-01
1	 1.743476345138092e+00	 8.573109196713373e-01	-6.151233099526863e-01
1	 1.723226533087164e+00	 8.973192426026411e-01	-7.610924338991555e-01
1	 1.701981735791249e+00	 9.369895434256313e-01	-9.147808612789859e-01
1	 1.679749242317513e+00	 9.762855419464395e-01	-1.075719801032117e+00
1	 1.656538075488112e+00	 1.015171097469386e+00	-1.243334999331569e+00
1	 1.632358994491283e+00	 1.053610311120815e+00	-1.416949342496842e+00
1	 1.607224490309136e+00	 1.091567629040120e+00	-1.595786337030811e+00
1	 1.581148773842030e+00	 1.129007945852801e+00	-1.778974454467962e+00
1	 1.554147756663726e+00	 1.165896707825141e+00	-1.965552318415587e+00
1	 1.526239024397810e+00	 1.202200015090521e+00	-2.154474700899438e+00
1	 1.775687081493801e+00	 8.230083719587561e-01	-4.476072016285693e-01
1	 1.756296278128241e+00	 8.636148013221341e-01	-5.815900605127658e-01
1	 1.735897567450607e+00	 9.039173089266328e-01	-7.231325876640151e-01
1	 1.714496555315046e+00	 9.438793089169430e-01	-8.719458316797321e-01
1	 1.692100584385871e+00	 9.834642543277747e-01	-1.027631469551227e+00
1	 1.668718743830833e+00	 1.022635738717768e+00	-1.189683125908951e+00
1	 1.644361871951418e+00	 1.061357599245724e+00	-1.357488588482665e+00
1	 1.619042551577015e+00	 1.099594020620405e+00	-1.530332921519155e+00
1	 1.592775098101968e+00	 1.137309639334439e+00	-1.707402468567645e+00
1	 1.565575540099225e+00	 1.174469647577495e+00	-1.887789725523640e+00
1	 1.537461592500988e+00	 1.211039896214285e+00	-2.070499054284419e+00
1	 1.788648497005671e+00	 8.290158231526051e-01	-4.159036115072510e-01
1	 1.769116152789709e+00	 8.699186542911306e-01	-5.462055322507802e-01
1	 1.748568544162743e+00	 9.105153452303222e-01	-6.835130464535207e-01
1	 1.727011317898189e+00	 9.507690430607832e-01	-8.276226925480019e-01
1	 1.704451870257265e+00	 9.906429340470074e-01	-9.782200411288322e-01
1	 1.680899356753025e+00	 1.030100346003158e+00	-1.134880532226670e+00
1	 1.656364694799848e+00	 1.069104852121687e+00	-1.297071219754598e+00
1	 1.630860559073990e+00	 1.107620375681909e+00	-1.464153429361029e+00
1	 1.604401369463309e+00	 1.145611295044744e+00	-1.635386325512568e+00
1	 1.577003271539414e+00	 1.183042548324400e+00	-1.809931372968876e+00
1	 1.548684109542545e+00	 1.219879737118045e+00	-1.986857667072103e+00
1	 1.801609842960009e+00	 8.350232421072867e-01	-3.820215923726952e-01
1	 1.781935958653133e+00	 8.762224734302785e-01	-5.088936379860842e-01
1	 1.761239452875785e+00	 9.171133461254239e-01	-6.421858824751463e-01
1	 1.739526013320439e+00	 9.576587402306627e-01	-7.817930005573305e-01
1	 1.716803089844941e+00	 9.978215752416968e-01	-9.274976836197437e-01
1	 1.693079904307295e+00	 1.037564913229629e+00	-1.078970918203900e+00
1	 1.668367453234355e+00	 1.076852063421972e+00	-1.235773176687937e+00
1	 1.642678503148756e+00	 1.115646687669985e+00	-1.397356531498458e+00
1	 1.616027578431323e+00	 1.153912906204257e+00	-1.563067693772509e+00
1	 1.588430941651701e+00	 1.191615403064889e+00	-1.732151966660905e+00
1	 1.559906566357481e+00	 1.228719530582835e+00	-1.903758092583033e+00
1	 1.814571108771880e+00	 8.410306239168078e-01	-3.458613492992332e-01
1	 1.794755685249146e+00	 8.825262535915291e-01	-4.695804649034570e-01
1	 1.773910283241944e+00	 9.237113062236514e-01	-5.991045368120508e-01
1	 1.752040631361560e+00	 9.645483948000926e-01	-7.344388378414444e-01
1	 1.729154233062143e+00	 1.005000172049402e+00	-8.754762147461077e-01
1	 1.705260376546246e+00	 1.045029434301255e+00	-1.021996731821025e+00
1	 1.680370137452718e+00	 1.084599226819845e+00	-1.173668225856182e+00
1	 1.654496374150013e+00	 1.123672950029984e+00	-1.330047789474338e+00
1	 1.627653715511282e+00	 1.162214466033516e+00	-1.490584189549519e+00
1	 1.599858541103495e+00	 1.200188204797995e+00	-1.654621216675771e+00
1	 1.571128953780799e+00	 1.237559269389690e+00	-1.821401950697638e+00
1	 1.458903056724601e+00	 1.149160287989920e+00	-2.652919873859997e+00
1	 1.431376332403356e+00	 1.183270628862627e+00	-2.887836723607773e+00
1	 1.403020199363723e+00	 1.216758813370768e+00	-3.122680288083991e+00
1	 1.373856021405344e+00	 1.249594900150438e+00	-3.357683280420824e+00
1	 1.343906592066114e+00	 1.281749943065508e+00	-3.593134071941649e+00
1	 1.313196075777992e+00	 1.313196075777993e+00	-3.829374077086425e+00
1	 1.281749943065507e+00	 1.343906592066115e+00	-4.066794679289860e+00
1	 1.249594900150437e+00	 1.373856021405345e+00	-4.305833726998504e+00
1	 1.216758813370767e+00	 1.403020199363723e+00	-4.546971634158275e+00
1	 1.183270628862627e+00	 1.431376332403357e+00	-4.790727124171597e+00
1	 1.149160287989920e+00	 1.458903056724601e+00	-5.037652660431624e+00
1	 1.470125738732542e+00	 1.158000258835432e+00	-2.571658559762008e+00
1	 1.442387263759201e+00	 1.192372995147767e+00	-2.798156935961409e+00
1	 1.413812999800923e+00	 1.226118789127744e+00	-3.024456519355789e+00
1	 1.384424474999414e+00	 1.259207469086070e+00	-3.250902867827144e+00
1	 1.354244658232962e+00	 1.291609866217064e+00	-3.477908585810225e+00
1	 1.323297899819588e+00	 1.323297899819588e+00	-3.705949757457054e+00
1	 1.291609866217063e+00	 1.354244658232962e+00	-3.935561827529489e+00
1	 1.259207469086070e+00	 1.384424474999415e+00	-4.167334969001626e+00
1	 1.226118789127743e+00	 1.413812999800923e+00	-4.401908982515991e+00
1	 1.192372995147766e+00	 1.442387263759201e+00	-4.639967778369383e+00
1	 1.158000258835432e+00	 1.470125738732542e+00	-4.882233496514231e+00
1	 1.481348424668851e+00	 1.166840232774733e+00	-2.489348547960855e+00
1	 1.453398198969239e+00	 1.201475364618558e+00	-2.707756536047123e+00
1	 1.424605804015899e+00	 1.235478768160576e+00	-2.925967154539545e+00
1	 1.394992932292661e+00	 1.268820041386022e+00	-3.144415434278644e+00
1	 1.364582728018272e+00	 1.301469792819580e+00	-3.363609544462590e+00
1	 1.333399727396883e+00	 1.333399727396884e+00	-3.584126473947835e+00
1	 1.301469792819580e+00	 1.364582728018273e+00	-3.806607110193363e+00
1	 1.268820041386021e+00	 1.394992932292662e+00	-4.031750762448813e+00
1	 1.235478768160575e+00	 1.424605804015899e+00	-4.260309182478617e+00
1	 1.201475364618558e+00	 1.453398198969239e+00	-4.493080142061947e+00
1	 1.166840232774733e+00	 1.481348424668851e+00	-4.730900631614380e+00
1	 1.492571105368532e+00	 1.175680202588859e+00	-2.406237974060035e+00
1	 1.464409129041410e+00	 1.210577729841743e+00	-2.616913508034390e+00
1	 1.435398603194744e+00	 1.244838742825615e+00	-2.827501933642179e+00
1	 1.405561384654415e+00	 1.278432609200344e+00	-3.038504919143557e+00
1	 1.374920792979544e+00	 1.311329714821083e+00	-3.250498145493442e+00
1	 1.343501550260330e+00	 1.343501550260330e+00	-3.464126433123454e+00
1	 1.311329714821082e+00	 1.374920792979545e+00	-3.680098258930708e+00
1	 1.278432609200344e+00	 1.405561384654415e+00	-3.899179715538001e+00
1	 1.244838742825615e+00	 1.435398603194745e+00	-4.122187971630492e+00
1	 1.210577729841742e+00	 1.464409129041410e+00	-4.349984298093069e+00
1	 1.175680202588859e+00	 1.492571105368532e+00	-4.583466729671572e+00
1	 1.503793771666583e+00	 1.184520161058842e+00	-2.322567562316072e+00
1	 1.475420044983652e+00	 1.219680083384064e+00	-2.525897534834401e+00
1	 1.446191388523552e+00	 1.254198705479214e+00	-2.729341946060747e+00
1	 1.416129823454001e+00	 1.288045164679088e+00	-2.933446786283342e+00
1	 1.385258844674276e+00	 1.321189624169597e+00	-3.138827792057885e+00
1	 1.353603360160380e+00	 1.353603360160380e+00	-3.346165213340867e+00
1	 1.321189624169596e+00	 1.385258844674276e+00	-3.556198005563220e+00
1	 1.288045164679088e+00	 1.416129823454001e+00	-3.769717502041265e+00
1	 1.254198705479213e+00	 1.446191388523552e+00	-3.987560628435602e+00
1	 1.219680083384063e+00	 1.475420044983652e+00	-4.210602726418028e+00
1	 1.184520161058843e+00	 1.503793771666584e+00	-4.439750058201788e+00
1	 1.515016414398009e+00	 1.193360100965718e+00	-2.238570900204411e+00
1	 1.486430937803904e+00	 1.228782417812263e+00	-2.434970305692858e+00
1	 1.456984151188414e+00	 1.263558648477723e+00	-2.631759951197276e+00
1	 1.426698240060748e+00	 1.297657699972307e+00	-2.829508338277698e+00
1	 1.395596874659965e+00	 1.331049512813149e+00	-3.028844381974414e+00
1	 1.363705148847485e+00	 1.363705148847485e+00	-3.230452010762720e+00
1	 1.331049512813148e+00	 1.395596874659965e+00	-3.435064267887415e+00
1	 1.297657699972306e+00	 1.426698240060748e+00	-3.643456970698009e+00
1	 1.263558648477722e+00	 1.456984151188414e+00	-3.856441990019236e+00
1	 1.228782417812262e+00	 1.486430937803904e+00	-4.074860216136183e+00
1	 1.193360100965718e+00	 1.515016414398009e+00	-4.299574281570846e+00
1	 1.526239024397810e+00	 1.202200015090521e+00	-2.154474700899438e+00
1	 1.497441798510104e+00	 1.237884725693083e+00	-2.344385810242966e+00
1	 1.467776882375423e+00	 1.272918564177493e+00	-2.535020684960861e+00
1	 1.437266625843982e+00	 1.307270207230050e+00	-2.726949016817875e+00
1	 1.405934874494110e+00	 1.340909372699764e+00	-2.920786584102060e+00
1	 1.373806908072096e+00	 1.373806908072096e+00	-3.117189874541731e+00
1	 1.340909372699764e+00	 1.405934874494111e+00	-3.316850327298405e+00
1	 1.307270207230049e+00	 1.437266625843983e+00	-3.520488249792697e+00
1	 1.272918564177493e+00	 1.467776882375423e+00	-3.728846469167038e+00
1	 1.237884725693082e+00	 1.497441798510105e+00	-3.942683781396165e+00
1	 1.202200015090521e+00	 1.526239024397810e+00	-4.162768263367988e+00
1	 1.537461592500988e+00	 1.211039896214285e+00	-2.070499054284419e+00
1	 1.508452618110191e+00	 1.246986999593266e+00	-2.254390619708864e+00
1	 1.478569573270671e+00	 1.282278444934877e+00	-2.439381152875926e+00
1	 1.447834972173032e+00	 1.316882678602370e+00	-2.626020689973175e+00
1	 1.416272835734211e+00	 1.350769195777470e+00	-2.814886102640129e+00
1	 1.383908629584665e+00	 1.383908629584666e+00	-3.006575931727860e+00
1	 1.350769195777470e+00	 1.416272835734212e+00	-3.201704998651813e+00
1	 1.316882678602369e+00	 1.447834972173032e+00	-3.400898847163063e+00
1	 1.282278444934876e+00	 1.478569573270671e+00	-3.604788070581431e+00
1	 1.246986999593265e+00	 1.508452618110192e+00	-3.814002580975800e+00
1	 1.211039896214285e+00	 1.537461592500988e+00	-4.029165877415250e+00
1	 1.548684109542545e+00	 1.219879737118045e+00	-1.986857667072103e+00
1	 1.519463387612104e+00	 1.256089232079554e+00	-2.165224155909713e+00
1	 1.489362215060251e+00	 1.291638283106225e+00	-2.345090910474863e+00
1	 1.458403270417224e+00	 1.326495106239317e+00	-2.526967926995481e+00
1	 1.426610749937764e+00	 1.360628973994291e+00	-2.711367929962450e+00
1	 1.394010305135645e+00	 1.394010305135645e+00	-2.898801602418846e+00
1	 1.360628973994290e+00	 1.426610749937764e+00	-3.089772792756992e+00
1	 1.326495106239316e+00	 1.458403270417224e+00	-3.284773745869662e+00
1	 1.291638283106225e+00	 1.489362215060251e+00	-3.484280406432976e+00
1	 1.256089232079554e+00	 1.519463387612105e+00	-3.688747841351067e+00
1	 1.219879737118045e+00	 1.548684109542545e+00	-3.898605826976143e+00
1	 1.559906566357481e+00	 1.228719530582835e+00	-1.903758092583033e+00
1	 1.530474098023782e+00	 1.265191415718691e+00	-2.077118948677616e+00
1	 1.500154798930255e+00	 1.300998071047889e+00	-2.252392331613976e+00
1	 1.468971511945886e+00	 1.336107482290944e+00	-2.430028261287596e+00
1	 1.436948608662268e+00	 1.370488699298253e+00	-2.610450588561675e+00
1	 1.404111926475486e+00	 1.404111926475486e+00	-2.794052805643910e+00
1	 1.370488699298252e+00	 1.436948608662268e+00	-2.981194071871577e+00
1	 1.336107482290943e+00	 1.468971511945887e+00	-3.172195495745378e+00
1	 1.300998071047889e+00	 1.500154798930256e+00	-3.367336711242111e+00
1	 1.265191415718691e+00	 1.530474098023782e+00	-3.566852783078860e+00
1	 1.228719530582835e+00	 1.559906566357482e+00	-3.770931471751081e+00
1	 1.571128953780799e+00	 1.237559269389690e+00	-1.821401950697638e+00
1	 1.541484740353162e+00	 1.274293543077417e+00	-1.990300882267195e+00
1	 1.510947316066777e+00	 1.310357801116220e+00	-2.161520865315220e+00
1	 1.479539688128345e+00	 1.345719798907301e+00	-2.335432442126052e+00
1	 1.447286403465221e+00	 1.380348363637383e+00	-2.512346362647208e+00
1	 1.414213485354640e+00	 1.414213485354640e+00	-2.692510156443184e+00
1	 1.380348363637382e+00	 1.447286403465222e+00	-2.876105198546401e+00
1	 1.345719798907301e+00	 1.479539688128346e+00	-3.063244301029569e+00
1	 1.310357801116220e+00	 1.510947316066777e+00	-3.253969856124679e+00
1	 1.274293543077416e+00	 1.541484740353163e+00	-3.448252550327898e+00
1	 1.237559269389690e+00	 1.571128953780800e+00	-3.645990662271536e+00
1	 1.149160287989920e+00	 1.458903056724601e+00	-5.037652660431624e+00
1	 1.114458642250760e+00	 1.485580486774424e+00	-5.288512645248248e+00
1	 1.079197371414790e+00	 1.511390249116649e+00	-5.543709162886808e+00
1	 1.043408879724243e+00	 1.536315533985785e+00	-5.803205368157567e+00
1	 1.007126196440562e+00	 1.560341131808945e+00	-6.066874198839491e+00
1	 9.703828781281930e-01	 1.583453458654829e+00	-6.334499956655934e+00
1	 9.332129100509838e-01	 1.605640574629505e+00	-6.605780571922677e+00
1	 8.956506072642383e-01	 1.626892195228096e+00	-6.880330518501640e+00
1	 8.577305159763654e-01	 1.647199695705267e+00	-7.157684339044984e+00
1	 8.194873157394577e-01	 1.666556108579334e+00	-7.437300734578761e+00
1	 7.809557230084923e-01	 1.684956114434272e+00	-7.718567167327349e+00
1	 1.158000258835432e+00	 1.470125738732542e+00	-4.882233496514231e+00
1	 1.123031669015494e+00	 1.497008386197336e+00	-5.129382754640877e+00
1	 1.087499149155749e+00	 1.523016691378874e+00	-5.381559957756542e+00
1	 1.051435352769625e+00	 1.548133715201746e+00	-5.638635701735786e+00
1	 1.014873563197748e+00	 1.572344131092705e+00	-5.900377944120380e+00
1	 9.778475951400548e-01	 1.595634250625419e+00	-6.166454718380526e+00
1	 9.403916952936689e-01	 1.617992042057758e+00	-6.436437601584821e+00
1	 9.025404426841116e-01	 1.639407141770809e+00	-6.709805889105843e+00
1	 8.643286492681631e-01	 1.659870858672978e+00	-6.985951423007847e+00
1	 8.257912613720407e-01	 1.679376171684905e+00	-7.264184014683728e+00
1	 7.869632625087235e-01	 1.697917720470713e+00	-7.543737397208044e+00
1	 1.166840232774733e+00	 1.481348424668851e+00	-4.730900631614380e+00
1	 1.131604698780582e+00	 1.508436289620493e+00	-4.974298933296398e+00
1	 1.095800929802139e+00	 1.534643137710871e+00	-5.223164787548990e+00
1	 1.059461828624109e+00	 1.559951900554615e+00	-5.477322174579216e+00
1	 1.022620932666388e+00	 1.584347134578076e+00	-5.736489970134138e+00
1	 9.853123147644873e-01	 1.607815046859852e+00	-6.000285179487172e+00
1	 9.475704830488985e-01	 1.630343513809585e+00	-6.268226929353119e+00
1	 9.094302805154472e-01	 1.651922092694298e+00	-6.539741166135930e+00
1	 8.709267848693747e-01	 1.672542026076116e+00	-6.814166002072086e+00
1	 8.320952092111138e-01	 1.692196239277985e+00	-7.090757644961650e+00
1	 7.929708041117345e-01	 1.710879331044161e+00	-7.368696842345527e+00
1	 1.175680202588859e+00	 1.492571105368532e+00	-4.583466729671572e+00
1	 1.140177724545059e+00	 1.519864187711303e+00	-4.822979358978947e+00
1	 1.104102706574500e+00	 1.546269578617915e+00	-5.068183531619397e+00
1	 1.067488300733048e+00	 1.571770080393091e+00	-5.318901340127624e+00
1	 1.030368298519748e+00	 1.596350132462839e+00	-5.574857117961729e+00
1	 9.927770309055636e-01	 1.619995837410733e+00	-5.835680587632691e+00
1	 9.547492674542313e-01	 1.642694979798230e+00	-6.100910706784552e+00
1	 9.163201151317556e-01	 1.664437037778324e+00	-6.370000163105230e+00
1	 8.775249173917143e-01	 1.685213187566893e+00	-6.642320462716283e+00
1	 8.383991541086279e-01	 1.705016300889208e+00	-6.917167551372364e+00
1	 7.989783429115337e-01	 1.723840935569681e+00	-7.193767903453957e+00
1	 1.184520161058843e+00	 1.503793771666584e+00	-4.439750058201788e+00
1	 1.148750739307955e+00	 1.531292071137173e+00	-4.675150632288018e+00
1	 1.112404472693371e+00	 1.557896004605275e+00	-4.916286230101306e+00
1	 1.075514762541794e+00	 1.583588245065872e+00	-5.163020605715767e+00
1	 1.038115654431094e+00	 1.608353114944774e+00	-5.415136771696202e+00
1	 1.000241737467357e+00	 1.632176612330667e+00	-5.672339463525711e+00
1	 9.619280426472262e-01	 1.655046429936937e+00	-5.934258178205021e+00
1	 9.232099409065484e-01	 1.676951966802651e+00	-6.200450747996388e+00
1	 8.841230414468955e-01	 1.697884332797518e+00	-6.470407405130110e+00
1	 8.447030909165353e-01	 1.717836346049210e+00	-6.743555288867318e+00
1	 8.049858740021278e-01	 1.736802523462339e+00	-7.019263342671893e+00
1	 1.193360100965718e+00	 1.515016414398009e+00	-4.299574281570846e+00
1	 1.157323736068305e+00	 1.542719930565512e+00	-4.530547465470995e+00
1	 1.120706221379291e+00	 1.569522406178222e+00	-4.767152708271210e+00
1	 1.083541207495700e+00	 1.595406384921653e+00	-5.009337831159767e+00
1	 1.045862994073694e+00	 1.620356072221661e+00	-5.256996468417598e+00
1	 1.007706428353940e+00	 1.644357361672258e+00	-5.509969257804534e+00
1	 9.691068027654426e-01	 1.667397854138951e+00	-5.768045418211852e+00
1	 9.300997522133365e-01	 1.689466869547039e+00	-6.030964693187281e+00
1	 8.907211516466331e-01	 1.710555451420205e+00	-6.298419635319569e+00
1	 8.510070144867877e-01	 1.730656364288626e+00	-6.570058203280712e+00
1	 8.109933924775248e-01	 1.749764084137200e+00	-6.845486640600313e+00
1	 1.202200015090521e+00	 1.526239024397810e+00	-4.162768263367988e+00
1	 1.165896707825140e+00	 1.554147756663727e+00	-4.388912384933966e+00
1	 1.129007945852801e+00	 1.581148773842030e+00	-4.620472217448391e+00
1	 1.091567629040120e+00	 1.607224490309136e+00	-4.857520945013025e+00
1	 1.053610311120815e+00	 1.632358994491282e+00	-5.100113525336103e+00
1	 1.015171097469386e+00	 1.656538075488112e+00	-5.348286023018590e+00
1	 9.762855419464389e-01	 1.679749242317514e+00	-5.602055080731018e+00
1	 9.369895434256307e-01	 1.701981735791249e+00	-5.861417531982375e+00
1	 8.973192426026407e-01	 1.723226533087165e+00	-6.126350157559715e+00
1	 8.573109196713367e-01	 1.743476345138091e+00	-6.396809586094538e+00
1	 8.170008934317319e-01	 1.762725607009334e+00	-6.672732337624085e+00
1	 1.211039896214285e+00	 1.537461592500988e+00	-4.029165877415250e+00
1	 1.174469647577494e+00	 1.565575540099225e+00	-4.249995446752230e+00
1	 1.137309639334438e+00	 1.592775098101969e+00	-4.475943091586810e+00
1	 1.099594020620405e+00	 1.619042551577015e+00	-4.707247577591382e+00
1	 1.061357599245723e+00	 1.644361871951419e+00	-4.944174683228487e+00
1	 1.022635738717767e+00	 1.668718743830833e+00	-5.187014099944027e+00
1	 9.834642543277738e-01	 1.692100584385871e+00	-5.436076159039898e+00
1	 9.438793089169424e-01	 1.714496555315046e+00	-5.691688421413767e+00
1	 9.039173089266319e-01	 1.735897567450607e+00	-5.954192167176722e+00
1	 8.636148013221334e-01	 1.756296278128241e+00	-6.223938822440117e+00
1	 8.230083719587561e-01	 1.775687081493801e+00	-6.501286360318101e+00
1	 1.219879737118045e+00	 1.548684109542545e+00	-3.898605826976143e+00
1	 1.183042548324399e+00	 1.577003271539414e+00	-4.113553964523275e+00
1	 1.145611295044743e+00	 1.604401369463309e+00	-4.333272418765080e+00
1	 1.107620375681909e+00	 1.630860559073990e+00	-4.558204709918495e+00
1	 1.069104852121687e+00	 1.656364694799849e+00	-4.788875765343305e+00
1	 1.030100346003157e+00	 1.680899356753026e+00	-5.025885817507318e+00
1	 9.906429340470070e-01	 1.704451870257265e+00	-5.269903756200891e+00
1	 9.507690430607827e-01	 1.727011317898189e+00	-5.521660010993696e+00
1	 9.105153452303217e-01	 1.748568544162743e+00	-5.781939043643313e+00
1	 8.699186542911300e-01	 1.769116152789710e+00	-6.051571532679210e+00
1	 8.290158231526052e-01	 1.788648497005671e+00	-6.331426333693188e+00
1	 1.228719530582835e+00	 1.559906566357482e+00	-3.770931471751081e+00
1	 1.191615403064888e+00	 1.588430941651702e+00	-3.979352248940639e+00
1	 1.153912906204256e+00	 1.616027578431323e+00	-4.192175726825635e+00
1	 1.115646687669984e+00	 1.642678503148757e+00	-4.410088337791346e+00
1	 1.076852063421971e+00	 1.668367453234356e+00	-4.633921350996927e+00
1	 1.037564913229628e+00	 1.693079904307296e+00	-4.864641205633494e+00
1	 9.978215752416963e-01	 1.716803089844942e+00	-5.103338865382407e+00
1	 9.576587402306620e-01	 1.739526013320440e+00	-5.351218317119917e+00
1	 9.171133461254229e-01	 1.761239452875786e+00	-5.609584343970877e+00
1	 8.762224734302777e-01	 1.781935958653133e+00	-5.879829707886671e+00
1	 8.350232421072867e-01	 1.801609842960009e+00	-6.163421879992626e+00
1	 1.237559269389690e+00	 1.571128953780800e+00	-3.645990662271536e+00
1	 1.200188204797994e+00	 1.599858541103495e+00	-3.847161358505800e+00
1	 1.162214466033515e+00	 1.627653715511282e+00	-4.052376682457479e+00
1	 1.123672950029984e+00	 1.654496374150013e+00	-4.262603150212080e+00
1	 1.084599226819845e+00	 1.680370137452718e+00	-4.479024463128347e+00
1	 1.045029434301254e+00	 1.705260376546246e+00	-4.703027720374068e+00
1	 1.005000172049402e+00	 1.729154233062144e+00	-4.936188159574026e+00
1	 9.645483948000920e-01	 1.752040631361561e+00	-5.180252602852170e+00
1	 9.237113062236508e-01	 1.773910283241945e+00	-5.437121796384568e+00
1	 8.825262535915284e-01	 1.794755685249146e+00	-5.708831839539222e+00
1	 8.410306239168076e-01	 1.814571108771879e+00	-5.997534904711820e+00
1	 7.809557230084923e-01	 1.684956114434272e+00	-7.718567167327349e+00
1	 7.421731178265022e-01	 1.702394840869089e+00	-8.002236371425447e+00
1	 7.031713057585309e-01	 1.718871541860783e+00	-8.290254159701931e+00
1	 6.639845391423617e-01	 1.734385733593725e+00	-8.583783903572252e+00
1	 6.246467453183745e-01	 1.748938480695031e+00	-8.884104467313200e+00
1	 5.851914441855204e-01	 1.762532357481655e+00	-9.192594425094715e+00
1	 5.456516697179219e-01	 1.775171404337629e+00	-9.510716072973331e+00
1	 5.060598957399114e-01	 1.786861079627148e+00	-9.839999394023835e+00
1	 4.664479662144161e-01	 1.797608207565696e+00	-1.018202612779131e+01
1	 4.268470302562790e-01	 1.807420922483264e+00	-1.053841408663472e+01
1	 3.872874820388771e-01	 1.816308609920916e+00	-1.091080185153125e+01
1	 7.869632625087235e-01	 1.697917720470713e+00	-7.543737397208045e+00
1	 7.478823202690242e-01	 1.715490595148239e+00	-7.825671430380282e+00
1	 7.085804848838243e-01	 1.732094043955664e+00	-8.112302264483455e+00
1	 6.690922721786597e-01	 1.747727579355579e+00	-8.404735560172151e+00
1	 6.294518704816070e-01	 1.762392274164796e+00	-8.704197373602481e+00
1	 5.896930575450495e-01	 1.776090722503322e+00	-9.012018444588035e+00
1	 5.498491214585426e-01	 1.788826995836037e+00	-9.329618237977549e+00
1	 5.099527858528722e-01	 1.800606594515860e+00	-9.658488898227011e+00
1	 4.700361396521803e-01	 1.811436395253883e+00	-1.000017927048745e+01
1	 4.301305715873716e-01	 1.821324594953817e+00	-1.035627913320859e+01
1	 3.902667096404621e-01	 1.830280651355449e+00	-1.072840377750416e+01
1	 7.929708041117345e-01	 1.710879331044161e+00	-7.368696842345527e+00
1	 7.535915247099300e-01	 1.728586354011297e+00	-7.649415338413158e+00
1	 7.139896659025052e-01	 1.745316550678762e+00	-7.935531776632559e+00
1	 6.742000070028458e-01	 1.761069429787372e+00	-8.227986295075615e+00
1	 6.342569973268173e-01	 1.775846072343639e+00	-8.527827983170015e+00
1	 5.941946724803291e-01	 1.789649092270639e+00	-8.836200787869840e+00
1	 5.540465746684606e-01	 1.802482592114111e+00	-9.154329188971410e+00
1	 5.138456773285421e-01	 1.814352114215724e+00	-9.483503788284493e+00
1	 4.736243143460179e-01	 1.825264587782192e+00	-9.825066951416360e+00
1	 4.334141140679419e-01	 1.835228272290978e+00	-1.018039863345880e+01
1	 3.932459382850532e-01	 1.844252697680622e+00	-1.055090251109084e+01
1	 7.989783429115337e-01	 1.723840935569681e+00	-7.193767903453957e+00
1	 7.593007264868672e-01	 1.741682106763799e+00	-7.473942280889792e+00
1	 7.193988443972461e-01	 1.758539051232120e+00	-7.760499551088873e+00
1	 6.793077394437823e-01	 1.774411273993694e+00	-8.054109371296251e+00
1	 6.390621219300110e-01	 1.789299864244733e+00	-8.355522786649924e+00
1	 5.986962853152490e-01	 1.803207455711374e+00	-8.665561281563736e+00
1	 5.582440259199829e-01	 1.816138182020209e+00	-8.985105673257380e+00
1	 5.177385669879710e-01	 1.828097627501634e+00	-9.315084960000341e+00
1	 4.772124873658480e-01	 1.839092773857973e+00	-9.656465231735925e+00
1	 4.366976550167058e-01	 1.849131943140409e+00	-1.001023874469096e+01
1	 3.962251655398985e-01	 1.858224737486205e+00	-1.037741325450915e+01
1	 8.049858740021278e-01	 1.736802523462339e+00	-7.019263342671892e+00
1	 7.650099209374839e-01	 1.754777842711275e+00	-7.299712276231613e+00
1	 7.248080159507176e-01	 1.771761534817776e+00	-7.587745812532659e+00
1	 6.844154653303316e-01	 1.787753101079132e+00	-7.883660937593315e+00
1	 6.438672403671953e-01	 1.802753638881247e+00	-8.187792563142017e+00
1	 6.031978923737010e-01	 1.816765801753297e+00	-8.500507231312451e+00
1	 5.624414717854173e-01	 1.829793754402688e+00	-8.822196791000685e+00
1	 5.216314516522099e-01	 1.841843123148493e+00	-9.153272109594921e+00
1	 4.808006557815893e-01	 1.852920942188577e+00	-9.494156880298474e+00
1	 4.399811917523782e-01	 1.863035596147770e+00	-9.845281581154735e+00
1	 3.992043889722463e-01	 1.872196759361969e+00	-1.020707763725066e+01
1	 8.109933924775248e-01	 1.749764084137200e+00	-6.845486640600313e+00
1	 7.707191033994272e-01	 1.767873551159260e+00	-7.127171700796255e+00
1	 7.302171761455923e-01	 1.784983990637770e+00	-7.417794771678372e+00
1	 6.895231804913569e-01	 1.801094900148274e+00	-7.717180662904898e+00
1	 6.486723487143762e-01	 1.816207385266352e+00	-8.025132962917866e+00
1	 6.076994899795760e-01	 1.830324119324177e+00	-8.341433886528678e+00
1	 5.666389088370706e-01	 1.843449298109902e+00	-8.665844279640634e+00
1	 5.255243281423086e-01	 1.855588589931198e+00	-8.998103779421712e+00
1	 4.843888166631602e-01	 1.866749081481358e+00	-9.337931126509320e+00
1	 4.432647215936746e-01	 1.876939219958725e+00	-9.685024624208824e+00
1	 4.021836061493446e-01	 1.886168751897681e+00	-1.003906273816005e+01
1	 8.170008934317319e-01	 1.762725607009334e+00	-6.672732337624084e+00
1	 7.764282692103445e-01	 1.780969221413285e+00	-6.956753790653445e+00
1	 7.356263205645411e-01	 1.798206407894144e+00	-7.251155214439784e+00
1	 6.946308807557208e-01	 1.814436660305711e+00	-7.555192342853572e+00
1	 6.534774430475607e-01	 1.829661092413220e+00	-7.868025064477148e+00
1	 6.122010744567649e-01	 1.843882397351781e+00	-8.188724884688430e+00
1	 5.708363336472511e-01	 1.857104801990213e+00	-8.516282785783066e+00
1	 5.294171932793182e-01	 1.869334016624649e+00	-8.849617401672516e+00
1	 4.879769670804801e-01	 1.880577180443665e+00	-9.187583424065464e+00
1	 4.465482418593107e-01	 1.890842803218936e+00	-9.528980158449983e+00
1	 4.051628146384416e-01	 1.900140703683113e+00	-9.872560150561155e+00
1	 8.230083719587561e-01	 1.775687081493801e+00	-6.501286360318100e+00
1	 7.821374137078843e-01	 1.794064842778885e+00	-6.788879121434158e+00
1	 7.410354447902358e-01	 1.811428775788938e+00	-7.088321065349423e+00
1	 6.997385619522860e-01	 1.827778370656031e+00	-7.398204479749312e+00
1	 6.582825194427550e-01	 1.843114749335019e+00	-7.716935907261578e+00
1	 6.167026421291589e-01	 1.857440624763881e+00	-8.042752676209188e+00
1	 5.750337427882655e-01	 1.870760254891973e+00	-8.373740125211455e+00
1	 5.333100438842889e-01	 1.883079392003745e+00	-8.707849340173281e+00
1	 4.915651041034672e-01	 1.894405227782849e+00	-9.042915225017312e+00
1	 4.498317498680013e-01	 1.904746334574061e+00	-9.376674732482531e+00
1	 4.081420120067854e-01	 1.914112603308034e+00	-9.706785088235987e+00
1	 8.290158231526052e-01	 1.788648497005671e+00	-6.331426333693188e+00
1	 7.878465322296937e-01	 1.807160404561592e+00	-6.623956067362486e+00
1	 7.464445444053480e-01	 1.824651083524189e+00	-6.929771926535666e+00
1	 7.048462199099151e-01	 1.841120020303820e+00	-7.246710837430395e+00
1	 6.630875739759654e-01	 1.856568345044922e+00	-7.572319001258800e+00
1	 6.212041893206490e-01	 1.870998790488244e+00	-7.903878930896923e+00
1	 5.792311328324219e-01	 1.884415645663543e+00	-8.238437531618509e+00
1	 5.372028767782712e-01	 1.896824704843383e+00	-8.572834930366463e+00
1	 4.951532248020403e-01	 1.908233212206262e+00	-8.903733763634145e+00
1	 4.531152429384621e-01	 1.918649802669765e+00	-9.227648643081334e+00
1	 4.111211958216242e-01	 1.928084439362215e+00	-9.540975530188209e+00
1	 8.350232421072867e-01	 1.801609842960009e+00	-6.163421879992626e+00
1	 7.935556201134204e-01	 1.820255896066940e+00	-6.462381240516662e+00
1	 7.518536149925490e-01	 1.837873320301940e+00	-6.775973593485420e+00
1	 7.099538504574709e-01	 1.854461598353669e+00	-7.101190972207116e+00
1	 6.678926027231988e-01	 1.870021868556099e+00	-7.434614814657241e+00
1	 6.257057123551264e-01	 1.884556883452640e+00	-7.772454926886541e+00
1	 5.834285003520273e-01	 1.898070963153276e+00	-8.110589894625061e+00
1	 5.410956887823155e-01	 1.910569943918465e+00	-8.444608517572441e+00
1	 4.987413262461183e-01	 1.922061122421256e+00	-8.769851849577265e+00
1	 4.563987183894082e-01	 1.932553196151707e+00	-9.081455441571959e+00
1	 4.141003636502062e-01	 1.942056200435424e+00	-9.374391402242683e+00
1	 8.410306239168076e-01	 1.814571108771879e+00	-5.997534904711820e+00
1	 7.992646726967119e-01	 1.833351306600461e+00	-6.304539911305391e+00
1	 7.572626521345107e-01	 1.851095475324230e+00	-6.627378548750740e+00
1	 7.150614494238162e-01	 1.867803093910166e+00	-6.962110741099512e+00
1	 6.726976017604617e-01	 1.883475308881719e+00	-7.304251240646881e+00
1	 6.302072075564815e-01	 1.898114892584837e+00	-7.648821922950444e+00
1	 5.876258419193895e-01	 1.911726196209532e+00	-7.990405987620794e+00
1	 5.449884767174722e-01	 1.924315098003888e+00	-8.323203493614269e+00
1	 5.023294055056197e-01	 1.935888947135180e+00	-8.641087669920012e+00
1	 4.596821735395550e-01	 1.946456503665550e+00	-8.937661461321598e+00
1	 4.170795130597794e-01	 1.956027875117432e+00	-9.206313793643750e+00
1	 3.872874820388771e-01	 1.816308609920916e+00	-1.091080185153125e+01
1	 3.477961513548631e-01	 1.824282371526556e+00	-1.128944687097187e+01
1	 3.084045727317791e-01	 1.831353256794514e+00	-1.166842106725322e+01
1	 2.691406090831641e-01	 1.837534030153142e+00	-1.205481343649639e+01
1	 2.300311761118629e-01	 1.842838449176229e+00	-1.245522282082299e+01
1	 1.911022077634256e-01	 1.847281196321023e+00	-1.287574531235840e+01
1	 1.523786267521780e-01	 1.850877810074617e+00	-1.332196577195650e+01
1	 1.138843200634055e-01	 1.853644615892075e+00	-1.379895327754837e+01
1	 7.564211930666406e-02	 1.855598657289427e+00	-1.431126029089628e+01
1	 3.767378576971149e-02	 1.856757627432609e+00	-1.486292530985454e+01
1	 0.000000000000000e+00	 1.857139801539814e+00	-1.545747875595650e+01
1	 3.902667096404621e-01	 1.830280651355449e+00	-1.072840377750416e+01
1	 3.504715899935780e-01	 1.838315751506641e+00	-1.110644794338196e+01
1	 3.107769897551532e-01	 1.845441029900473e+00	-1.148547260232470e+01
1	 2.712109861755548e-01	 1.851669349156259e+00	-1.187456001176133e+01
1	 2.318007020079915e-01	 1.857014572678568e+00	-1.228227150718257e+01
1	 1.925722706961611e-01	 1.861491495870142e+00	-1.271662145841334e+01
1	 1.535508066735914e-01	 1.865115776748615e+00	-1.318505639427193e+01
1	 1.147603806773737e-01	 1.867903866353385e+00	-1.369443915351483e+01
1	 7.622399995034060e-02	 1.869872939308534e+00	-1.425103787980318e+01
1	 3.796359318002330e-02	 1.871040824885514e+00	-1.486051964340139e+01
1	 0.000000000000000e+00	 1.871425938885499e+00	-1.552794844250453e+01
1	 3.932459382850532e-01	 1.844252697680622e+00	-1.055090251109084e+01
1	 3.531470295690237e-01	 1.852349136398973e+00	-1.092615511743832e+01
1	 3.131494076092565e-01	 1.859528807937886e+00	-1.130260920042618e+01
1	 2.732813639930133e-01	 1.865804673107656e+00	-1.169171002337622e+01
1	 2.335702285239302e-01	 1.871190701143662e+00	-1.210438083874859e+01
1	 1.940423341439138e-01	 1.875701800394163e+00	-1.255097880662529e+01
1	 1.547229870057532e-01	 1.879353748407376e+00	-1.304125720333394e+01
1	 1.156364415984018e-01	 1.882163121807058e+00	-1.358433385565391e+01
1	 7.680588079802229e-02	 1.884147226325386e+00	-1.418866567848166e+01
1	 3.825340069197077e-02	 1.885324027339362e+00	-1.486202914195777e+01
1	 0.000000000000000e+00	 1.885712081233184e+00	-1.561150644815266e+01
1	 3.962251655398985e-01	 1.858224737486205e+00	-1.037741325450915e+01
1	 3.558224678965476e-01	 1.866382514743161e+00	-1.074740272717450e+01
1	 3.155218243569035e-01	 1.873616579401857e+00	-1.111855673589607e+01
1	 2.753517408450131e-01	 1.879939990463523e+00	-1.150504375375638e+01
1	 2.353397542148332e-01	 1.885366822994288e+00	-1.192053844917340e+01
1	 1.955123969063779e-01	 1.889912098287876e+00	-1.237815503244723e+01
1	 1.558951667915985e-01	 1.893591713423012e+00	-1.289038808143667e+01
1	 1.165125021112163e-01	 1.896422370607762e+00	-1.346906089355528e+01
1	 7.738776137463409e-02	 1.898421506682321e+00	-1.412528133297015e+01
1	 3.854320806894682e-02	 1.899607223129177e+00	-1.486940506970707e+01
1	 0.000000000000000e+00	 1.899998216915481e+00	-1.571100604183225e+01
1	 3.992043889722463e-01	 1.872196759361969e+00	-1.020707763725066e+01
1	 3.584979027914968e-01	 1.880415875078809e+00	-1.056905990717813e+01
1	 3.178942380609087e-01	 1.887704332787491e+00	-1.093207910698128e+01
1	 2.774221150410272e-01	 1.894075289680050e+00	-1.131337786971081e+01
1	 2.371092776358552e-01	 1.899542926653227e+00	-1.172976215277784e+01
1	 1.969824577832472e-01	 1.904122377946063e+00	-1.219750753263325e+01
1	 1.570673450740619e-01	 1.907829660167639e+00	-1.273227423397613e+01
1	 1.173885615005437e-01	 1.910681601110162e+00	-1.334903108629799e+01
1	 7.796964120510101e-02	 1.912695768721677e+00	-1.406198849821503e+01
1	 3.883301507434440e-02	 1.913890400589983e+00	-1.488454044412551e+01
1	 0.000000000000000e+00	 1.914284334264999e+00	-1.582921536907979e+01
1	 4.021836061493446e-01	 1.886168751897681e+00	-1.003906273816005e+01
1	 3.611733320692193e-01	 1.894449205945525e+00	-1.039002930409733e+01
1	 3.202666467840865e-01	 1.901792056589895e+00	-1.074197682743290e+01
1	 2.794924848905292e-01	 1.908210559213428e+00	-1.111556407422868e+01
1	 2.388787973421502e-01	 1.913719000543261e+00	-1.153109882564613e+01
1	 1.984525155742156e-01	 1.918332627763510e+00	-1.200841269341217e+01
1	 1.582395208960786e-01	 1.922067577013369e+00	-1.256674599082387e+01
1	 1.182646190511106e-01	 1.924940801668923e+00	-1.322464303125576e+01
1	 7.855151981434802e-02	 1.926970000785793e+00	-1.399985809646246e+01
1	 3.912282147155649e-02	 1.928173548056805e+00	-1.490927219391554e+01
1	 0.000000000000000e+00	 1.928570421614352e+00	-1.596882060718577e+01
1	 4.051628146384416e-01	 1.900140703683113e+00	-9.872560150561155e+00
1	 3.638487535450625e-01	 1.908482495882913e+00	-1.020924584486537e+01
1	 3.226390485892515e-01	 1.915879739304173e+00	-1.054708568009830e+01
1	 2.815628487029925e-01	 1.922345787519847e+00	-1.091048781761209e+01
1	 2.406483118888728e-01	 1.927895033087166e+00	-1.132362333597223e+01
1	 1.999225690789772e-01	 1.932542836135003e+00	-1.181026519087384e+01
1	 1.594116933005831e-01	 1.936305452332318e+00	-1.239363861644257e+01
1	 1.191406740476435e-01	 1.939199960638711e+00	-1.309628355226418e+01
1	 7.913339672730015e-02	 1.941244191217008e+00	-1.393992952025782e+01
1	 3.941262702397597e-02	 1.942456653864665e+00	-1.494538322194833e+01
1	 0.000000000000000e+00	 1.942856467296148e+00	-1.613242898145920e+01
1	 4.081420120067854e-01	 1.914112603308034e+00	-9.706785088235987e+00
1	 3.665241650343737e-01	 1.922515733430581e+00	-1.002567555875156e+01
1	 3.250114415392178e-01	 1.929967369425429e+00	-1.034627542934752e+01
1	 2.836332047878904e-01	 1.936480963055499e+00	-1.069706706492973e+01
1	 2.424178198311772e-01	 1.942071012707724e+00	-1.110643752114844e+01
1	 2.013926170972256e-01	 1.946752991455327e+00	-1.160247732192697e+01
1	 1.605838613305106e-01	 1.950543274496597e+00	-1.221279212829949e+01
1	 1.200167257748691e-01	 1.953459066374192e+00	-1.296432812820482e+01
1	 7.971527146888234e-02	 1.955518328357659e+00	-1.388321178287511e+01
1	 3.970243149499583e-02	 1.956739706348588e+00	-1.499460437806142e+01
1	 0.000000000000000e+00	 1.957142459643000e+00	-1.632257164968709e+01
1	 4.111211958216242e-01	 1.928084439362215e+00	-9.540975530188209e+00
1	 3.691995643525005e-01	 1.936548907128135e+00	-9.838314450514401e+00
1	 3.273838236968005e-01	 1.944054935448769e+00	-1.013844858935884e+01
1	 2.857035514546960e-01	 1.950616074276571e+00	-1.047425111694065e+01
1	 2.441873197242179e-01	 1.956246927827715e+00	-1.087866920922954e+01
1	 2.028626584286550e-01	 1.960963082119268e+00	-1.138447836428131e+01
1	 1.617560240287959e-01	 1.964781031878321e+00	-1.202405112315622e+01
1	 1.208927735175138e-01	 1.967718107230032e+00	-1.282914130299365e+01
1	 8.029714356401962e-02	 1.969792400550084e+00	-1.383068461883825e+01
1	 3.999223464800900e-02	 1.971022693843598e+00	-1.505861634626966e+01
1	 0.000000000000000e+00	 1.971428386987518e+00	-1.654170646146005e+01
1	 4.141003636502062e-01	 1.942056200435424e+00	-9.374391402242683e+00
1	 3.718749493147904e-01	 1.950582005515181e+00	-9.646187422088474e+00
1	 3.297561931248136e-01	 1.958142425869298e+00	-9.922539245453970e+00
1	 2.877738870128829e-01	 1.964751109639256e+00	-1.024101948180151e+01
1	 2.459568101231491e-01	 1.970422766869918e+00	-1.063947128254229e+01
1	 2.043326918729593e-01	 1.975173096521612e+00	-1.115571396399413e+01
1	 1.629281804383737e-01	 1.979018712849604e+00	-1.182726461083954e+01
1	 1.217688165603043e-01	 1.981977071560896e+00	-1.269107707791291e+01
1	 8.087901253763698e-02	 1.984066396136623e+00	-1.378329953704066e+01
1	 4.028203624640840e-02	 1.985305604684719e+00	-1.513905145069432e+01
1	 0.000000000000000e+00	 1.985714237662315e+00	-1.679222059865204e+01
1	 4.170795130597794e-01	 1.956027875117432e+00	-9.206313793643750e+00
1	 3.745503177365909e-01	 1.964615017131326e+00	-9.448347240385493e+00
1	 3.321285478860717e-01	 1.972229829182122e+00	-9.697511925838013e+00
1	 2.898442097719244e-01	 1.978886057599742e+00	-9.996380795024319e+00
1	 2.477262895831253e-01	 1.984598518257113e+00	-1.038802078133877e+01
1	 2.058027162298323e-01	 1.989383023057143e+00	-1.091564554920788e+01
1	 1.641003296021790e-01	 1.993256305782559e+00	-1.162228585512002e+01
1	 1.226448541879670e-01	 1.996235947721450e+00	-1.255047928716137e+01
1	 8.146087791465940e-02	 1.998340303459614e+00	-1.374198082883070e+01
1	 4.057183605358700e-02	 1.999588427206973e+00	-1.523749538426244e+01
1	 0.000000000000000e+00	 2.000000000000000e+00	-1.707643310298441e+01
