label=Stress xy
num_items=4050

0:-3.7176796070416551e-001
1:-5.8751923531667571e-001
2:-1.3128536310410108e-001
3:3.9446562157239196e-001
4:-7.3875850405219656e-002
5:-5.6765224298131939e-002
6:-1.0967407746304756e-002
7:-1.1812372076329594e-001
8:6.0910702358876478e-001
9:-2.1906764809143603e-001
10:-6.2349463025475660e-001
11:-4.1656780080266542e-001
12:6.8017748104409792e-001
13:-3.7391097654524702e-001
14:-5.9111474763494698e-001
15:1.4325574274036088e-001
16:6.2906843159917047e-001
17:1.0410302801496552e+000
18:1.4819538561353662e+000
19:1.6798969868004956e+000
20:-2.6622454577275240e-001
21:-5.7331465278962102e-001
22:-7.7741213516297925e-001
23:-5.7759406000802005e-001
24:-1.6267941500923391e-001
25:-4.5795713953675286e-002
26:-3.7340259812745008e-001
27:-6.5718398107782461e-001
28:7.9586516019945230e-001
29:1.4627833071344125e+000
30:1.2999931606067561e+000
31:6.4606999397349552e-001
32:1.7071614892487865e+000
33:1.4837474961549846e+000
34:8.5055595632741232e-001
35:3.1158322380031112e-001
36:-2.9920625340422596e-001
37:2.6230036214377683e-001
38:7.8881621644420552e-001
39:8.3093210437068576e-001
40:-7.0687087486808253e-001
41:-4.0233774547811751e-001
42:3.4701523312650295e-001
43:7.5996204003591272e-001
44:2.2451349548292432e-001
45:-8.5936421317965223e-002
46:1.7767448006143879e-001
47:5.2362932695556519e-001
48:7.4818785648894007e-002
49:-1.3410653095610378e-001
50:-7.8456367655652712e-002
51:7.0824019269173352e-002
52:6.8199990752465001e-001
53:3.7312616162817996e-001
54:8.3400050924637550e-002
55:4.4329652090202565e-002
56:8.0182098667303270e-001
57:6.5040343920626620e-001
58:2.9765648204700679e-001
59:1.4983915161771280e-001
60:6.4406469194763405e-001
61:6.3761797690251532e-001
62:4.0222086777257854e-001
63:2.7094185480333621e-001
64:1.4110306685890678e-001
65:1.7429618606341302e-001
66:8.7626804979068093e-002
67:-8.4370840920912002e-003
68:1.0640494159869353e-001
69:2.0400830569459277e-001
70:2.4000297773561732e-001
71:1.8422058827179691e-001
72:1.7607711545366433e-001
73:2.6754817134122266e-001
74:3.5481311084803324e-001
75:3.2863238186870286e-001
76:2.7792717364135611e-001
77:3.3808753182333789e-001
78:4.0538477553264457e-001
79:3.7874859606652328e-001
80:-4.7671123562957558e-002
81:-6.5525925051236153e-002
82:-1.7693336762205619e-002
83:3.3708852916991862e-002
84:1.2584307843098252e-001
85:4.6020774915811941e-002
86:1.2616759260447488e-002
87:3.6158821026079251e-002
88:2.6715056796246234e-001
89:1.5856197095243160e-001
90:7.3710575539443754e-002
91:7.1825450995200643e-002
92:3.2119745844880870e-001
93:2.1497392141666555e-001
94:1.2407842201471317e-001
95:1.1368015303235227e-001
96:5.3666509874432763e-002
97:6.0106343038270178e-002
98:2.9666995101894529e-002
99:-9.6676999444949804e-004
100:6.2076280540893466e-002
101:9.1077651617563385e-002
102:8.8611095076715857e-002
103:6.2645445545558870e-002
104:9.5792772240602703e-002
105:1.3217329920046580e-001
106:1.4484572316553962e-001
107:1.2256228425181978e-001
108:1.3291053247996137e-001
109:1.6437684103536701e-001
110:1.7605545047684823e-001
111:1.5419534996528117e-001
112:-1.2785484339984502e-002
113:-1.7811798540269548e-002
114:-3.0633147005698059e-003
115:1.2142018589994332e-002
116:4.3589831527978684e-002
117:2.0996233856186992e-002
118:1.5708017600385985e-002
119:2.4456945596864964e-002
120:9.9496383587245205e-002
121:6.5194948915033718e-002
122:4.4339381325534930e-002
123:4.6539952418063309e-002
124:1.3084207758273567e-001
125:9.4019256301422174e-002
126:6.7920195362557029e-002
127:6.6508781369659473e-002
128:1.7739697799875068e-002
129:1.9324527503276488e-002
130:1.0515046700042776e-002
131:1.9910803561657359e-003
132:3.1349512079293242e-002
133:3.7495000896319013e-002
134:3.3952005269515882e-002
135:2.5937244000165671e-002
136:5.3272151543336935e-002
137:6.1378585599384416e-002
138:6.0871268416135695e-002
139:5.2815348839195642e-002
140:7.2021050650949200e-002
141:7.9144093497277801e-002
142:7.8572258627855551e-002
143:7.0213630373063163e-002
144:-1.1449142966844616e-003
145:-2.4790720607145932e-003
146:1.2726273271741371e-003
147:5.0105425217591851e-003
148:2.1104600261614863e-002
149:1.5761933261939351e-002
150:1.4729303095446247e-002
151:1.6408783656428890e-002
152:4.6437265759835283e-002
153:3.7410174592151513e-002
154:3.1871270013168855e-002
155:3.1548733055978523e-002
156:6.3253512626489511e-002
157:5.2658688771394520e-002
158:4.4898338307964719e-002
159:4.3343337096674157e-002
160:6.2810705541150088e-003
161:6.5017590760199423e-003
162:4.2419530677924181e-003
163:2.1799927434566916e-003
164:1.7461869442320199e-002
165:1.7824570830874929e-002
166:1.5942980643990693e-002
167:1.3748251969358107e-002
168:3.2348506880604380e-002
169:3.2709549028583709e-002
170:3.0871662937819778e-002
171:2.8166541327778499e-002
172:4.3812194712712436e-002
173:4.3833561266279075e-002
174:4.1674178322629173e-002
175:3.8498815301750311e-002
176:1.4569048800648862e-003
177:1.1093712252744756e-003
178:1.8242634265757639e-003
179:2.5082249477683550e-003
180:1.2656164843390754e-002
181:1.1384326513423623e-002
182:1.0777205358672021e-002
183:1.0591707117062209e-002
184:2.6468089502699108e-002
185:2.3925944378328744e-002
186:2.1782072393216608e-002
187:2.0750378890563827e-002
188:3.6391286928594488e-002
189:3.3027138050599397e-002
190:2.9909780800751483e-002
191:2.8341728249112710e-002
192:2.6929895871468882e-003
193:2.6036629393125133e-003
194:2.0039644679632502e-003
195:1.5137028961031806e-003
196:1.0428494681114550e-002
197:9.8342040771630529e-003
198:8.7248264916176092e-003
199:7.8477631580105532e-003
200:2.0309359673287713e-002
201:1.9259234800361853e-002
202:1.7498611265323677e-002
203:1.5964774791079793e-002
204:2.7718236520404380e-002
205:2.6336619136671058e-002
206:2.4052771964929262e-002
207:2.1983628204117475e-002
208:1.3414836049593887e-003
209:1.1912143065176883e-003
210:1.1514345926232699e-003
211:1.0807685173035259e-003
212:7.4356205215359511e-003
213:6.7204105959700732e-003
214:5.7581803326447823e-003
215:4.8813941405513941e-003
216:1.5119212402492071e-002
217:1.3537618457658605e-002
218:1.1409932970704894e-002
219:9.6533699895970503e-003
220:2.0792121060218962e-002
221:1.8550341719903100e-002
222:1.5583731693665727e-002
223:1.3220278937089141e-002
224:9.8338163907419067e-004
225:7.1803951960943335e-004
226:3.2517845192303103e-004
227:8.4968479902255986e-005
228:4.3346504471962043e-003
229:3.2343545785484249e-003
230:1.7343415339487233e-003
231:5.9275665710727718e-004
232:8.6471736753154747e-003
233:6.5693452658821807e-003
234:3.4975045886124095e-003
235:8.8535917856436344e-004
236:1.1901226242769708e-002
237:9.1150230545027546e-003
238:4.8298272928567563e-003
239:1.0460508433845024e-003
240:3.6040544181253609e-001
241:-2.6447348904535906e-001
242:-6.0716785005440213e-002
243:8.6406982002544164e-001
244:-7.9983755555311009e-001
245:5.6372120275050053e-001
246:1.9860784527980979e+000
247:2.7619453541915155e+000
248:-2.5940111767720300e+000
249:2.1421951510252879e+000
250:5.2221855656893554e+000
251:5.1848574344886895e+000
252:-3.4602778565095491e+000
253:3.0242633822464322e+000
254:6.7493115851148673e+000
255:6.0092432027943516e+000
256:1.5702916534516762e+000
257:2.3424019427134786e+000
258:2.2483866961312180e+000
259:1.5020539791591581e+000
260:3.0466588935556014e+000
261:3.2443592848491618e+000
262:2.8481150539239879e+000
263:2.0655444848607347e+000
264:4.3981595207224560e+000
265:3.0619509200906809e+000
266:1.8232389654528851e+000
267:1.1691661244029881e+000
268:4.4956403705968011e+000
269:2.1197872948969869e+000
270:3.3292258259694524e-001
271:-1.4914890391934277e-001
272:9.5643418336978836e-001
273:3.5368041414823742e-001
274:2.5409820720694315e-001
275:4.4348116248859326e-001
276:1.5157035027544261e+000
277:7.5911310024567458e-001
278:3.2460122337927605e-001
279:3.2593194812534559e-001
280:8.9615201951672729e-001
281:4.8327945412875034e-001
282:1.7597318336440759e-001
283:1.5657883635732789e-001
284:-1.5223488048333403e-001
285:-1.4227931637737753e-001
286:-1.2106469884631467e-001
287:-3.5011857170301898e-002
288:5.5102481936672254e-001
289:5.7710529259118415e-001
290:4.2132004402184969e-001
291:3.2873872363810386e-001
292:4.0532380338511470e-001
293:4.6769637065843439e-001
294:4.2855780883486227e-001
295:3.9483537553524639e-001
296:2.2404839478322511e-001
297:3.2330037615954199e-001
298:3.8362095122589279e-001
299:3.9756393005770707e-001
300:4.8672226833681394e-002
301:1.8452924594694767e-001
302:2.9876335144281646e-001
303:3.3829374731168887e-001
304:3.3517339404203284e-001
305:3.8129325570249484e-001
306:4.2570104535237319e-001
307:3.9050889453231558e-001
308:3.9982136886670583e-001
309:4.2319189084156450e-001
310:4.3417376748977715e-001
311:3.9254145756301395e-001
312:4.0017736507346152e-001
313:4.0489795633922848e-001
314:3.9636221156849510e-001
315:3.6414025550938306e-001
316:3.4379369112790276e-001
317:3.4844063379261508e-001
318:3.4317205428104025e-001
319:3.2568161673758483e-001
320:3.3468225977380395e-001
321:2.3396627160544470e-001
322:1.4860464370711446e-001
323:1.3778044500195474e-001
324:3.4532309628167829e-001
325:2.6242667059662123e-001
326:1.9159521931118217e-001
327:1.7888495914519650e-001
328:3.3505913637059964e-001
329:2.8343248921786596e-001
330:2.3484230570674935e-001
331:2.1873696345072591e-001
332:3.1075127116156565e-001
333:2.8240297078819016e-001
334:2.5084399928296508e-001
335:2.3437428730398716e-001
336:1.5441368872211281e-001
337:1.8133683212216836e-001
338:1.8937010634479759e-001
339:1.6693797488056097e-001
340:1.8874749911459734e-001
341:2.0442948547116613e-001
342:2.0484438049727086e-001
343:1.8326562623537079e-001
344:2.1874444864717099e-001
345:2.1883245434795753e-001
346:2.1043833928685843e-001
347:1.9271290469154334e-001
348:2.2911284615653552e-001
349:2.2078045318069769e-001
350:2.0817802075680591e-001
351:1.9383360231432889e-001
352:1.4408328374084689e-001
353:1.0761068155900165e-001
354:8.0613531740153968e-002
355:7.7707333026047501e-002
356:1.6326312264827672e-001
357:1.3050173005408949e-001
358:1.0394731327075001e-001
359:9.8143265452950171e-002
360:1.7849209282839079e-001
361:1.5395098862994724e-001
362:1.3071810067469272e-001
363:1.2161190055496578e-001
364:1.8382630294193877e-001
365:1.6564303288921003e-001
366:1.4592826755648092e-001
367:1.3545661566912082e-001
368:8.2256924636785703e-002
369:8.8137491546761038e-002
370:8.6871293588757795e-002
371:7.8359896069915988e-002
372:1.0021223825743671e-001
373:1.0266833048210514e-001
374:9.9522830280494565e-002
375:9.1143668957096441e-002
376:1.2008280996735451e-001
377:1.1736714134447275e-001
378:1.1140732580333772e-001
379:1.0368612076081885e-001
380:1.3183067713403804e-001
381:1.2594598514804173e-001
382:1.1817056745103247e-001
383:1.1094052090357279e-001
384:7.1339171641694399e-002
385:6.0383486344519691e-002
386:5.1846124362905532e-002
387:4.9671829432640618e-002
388:8.4557785324708118e-002
389:7.3830166191808280e-002
390:6.4499343254484337e-002
391:6.1170502641510256e-002
392:9.8258452206390665e-002
393:8.8892409375769324e-002
394:7.9476762207541130e-002
395:7.4847855007554351e-002
396:1.0638311364562540e-001
397:9.8203909907930709e-002
398:8.9133183681096670e-002
399:8.3849957271994638e-002
400:4.9867108420223988e-002
401:4.9529698347354989e-002
402:4.7073361264502969e-002
403:4.3675947361465746e-002
404:6.0669811051719383e-002
405:5.9364985390885271e-002
406:5.6206282250477142e-002
407:5.2517457350003273e-002
408:7.3331583585418761e-002
409:7.0554944941156120e-002
410:6.6386901153185449e-002
411:6.2484337413921669e-002
412:8.1703132575228182e-002
413:7.7969207692406867e-002
414:7.3119370740277481e-002
415:6.9099090543381411e-002
416:4.1416662776177636e-002
417:3.7729635433039858e-002
418:3.4184433782839967e-002
419:3.2337868209895287e-002
420:5.0128071539759581e-002
421:4.6084109430684118e-002
422:4.1913085538113341e-002
423:3.9545629518333916e-002
424:6.0114817639182846e-002
425:5.5929477245715870e-002
426:5.1212902769985962e-002
427:4.8218593222492029e-002
428:6.6782923424125049e-002
429:6.2584702556882893e-002
430:5.7586831805339370e-002
431:5.4197008600966955e-002
432:3.1596752978189258e-002
433:3.0004252992110125e-002
434:2.7423956406065927e-002
435:2.5084494721491584e-002
436:3.8537415844006100e-002
437:3.6484183852128760e-002
438:3.3338074445017317e-002
439:3.0549653875977495e-002
440:4.6831146222199728e-002
441:4.4137548264666177e-002
442:4.0281399805918314e-002
443:3.7003759974058560e-002
444:5.2549526097147595e-002
445:4.9412949615304583e-002
446:4.5072470412622176e-002
447:4.1474631016011849e-002
448:2.3727615931256212e-002
449:2.1166437300707306e-002
450:1.7779355104837812e-002
451:1.5096921947298354e-002
452:2.8935612734381042e-002
453:2.5854974166087164e-002
454:2.1729922326865068e-002
455:1.8446103961959337e-002
456:3.5132139084865448e-002
457:3.1495991467485072e-002
458:2.6503541296814880e-002
459:2.2458121120841137e-002
460:3.9440261443152783e-002
461:3.5439975297757921e-002
462:2.9852245705799325e-002
463:2.5267269772084728e-002
464:1.3607740095564098e-002
465:1.0445478203951933e-002
466:5.5381559069335711e-003
467:1.1691362997923067e-003
468:1.6623999749510038e-002
469:1.2761533218315252e-002
470:6.7656966896428245e-003
471:1.4134945467352490e-003
472:2.0199780867516042e-002
473:1.5463121268610528e-002
474:8.1946367351282100e-003
475:1.7442963086854845e-003
476:2.2695769376997313e-002
477:1.7343950833027765e-002
478:9.2035421391908814e-003
479:2.0136511426493034e-003
480:-3.5269136778372259e+000
481:3.1595035162935088e+000
482:6.8075574267480459e+000
483:5.7901122415177833e+000
484:-2.9256671466905089e+000
485:2.6561094648946248e+000
486:5.4368494009338084e+000
487:4.2465176102992368e+000
488:-1.4087922021214510e+000
489:1.1843675480290259e+000
490:2.1786807275807898e+000
491:1.2413095418110920e+000
492:-3.0620428858358673e-001
493:6.0998369885712993e-002
494:-1.3569073577640145e-001
495:-7.2054730444958148e-001
496:4.0748024873048383e+000
497:1.4215864166625480e+000
498:-4.8347020172779481e-001
499:-8.6425566132804332e-001
500:2.6115624924228373e+000
501:1.3704932947979748e-001
502:-1.5238172437006312e+000
503:-1.6905114690293881e+000
504:2.5295731609718752e-001
505:-1.1811957655138781e+000
506:-2.0201376235180781e+000
507:-1.9314724231783162e+000
508:-1.1378601280131422e+000
509:-1.6938818634946460e+000
510:-1.9142298933004169e+000
511:-1.7190628084008945e+000
512:-7.5127218094606163e-001
513:-5.4087440230191530e-001
514:-3.3113472461008581e-001
515:-1.6701041264259961e-001
516:-1.4508573254875383e+000
517:-1.0243130289364344e+000
518:-6.0755742202753960e-001
519:-3.6359386712048924e-001
520:-1.6669783912464122e+000
521:-1.2067915281456334e+000
522:-7.5641617935194827e-001
523:-5.1692746658175726e-001
524:-1.5058499876849665e+000
525:-1.1369023287089348e+000
526:-7.6819409580270537e-001
527:-5.7559287042000984e-001
528:-6.6122981792943861e-002
529:9.4513324474000293e-002
530:2.3400083409836503e-001
531:2.8678746487272971e-001
532:-2.5118855396286310e-001
533:-7.2656541206760752e-002
534:9.5562991858588464e-002
535:1.7496920616579795e-001
536:-4.2183077386023649e-001
537:-2.6395319826858421e-001
538:-8.9840841939587981e-002
539:1.9680875528734036e-002
540:-5.0317497245278930e-001
541:-3.7524290907061308e-001
542:-2.1299657499860394e-001
543:-9.1534767179439494e-002
544:2.9706957970223619e-001
545:3.0837182170038624e-001
546:3.1092417697422425e-001
547:3.0183818334188006e-001
548:2.0066718615258008e-001
549:2.3452387298865485e-001
550:2.5655678274207949e-001
551:2.5890406334565136e-001
552:6.9281735009635803e-002
553:1.3934003043581089e-001
554:1.8957945544600860e-001
555:2.0159963729040387e-001
556:-2.8928168020821168e-002
557:6.2538861786492608e-002
558:1.3154500848032447e-001
559:1.5083986080903822e-001
560:2.9290527550704898e-001
561:2.7451196801870770e-001
562:2.5116352469438763e-001
563:2.3615351827017789e-001
564:2.5602095504159522e-001
565:2.4872329076929650e-001
566:2.3734542937329559e-001
567:2.2790152009354925e-001
568:2.0083447789469155e-001
569:1.9937029872349266e-001
570:1.9931686680535177e-001
571:2.0009626113436416e-001
572:1.5170283061487363e-001
573:1.5427745440793306e-001
574:1.6217383434106067e-001
575:1.7079215699602318e-001
576:2.2981056563743721e-001
577:2.1951862238838890e-001
578:2.0608924239591239e-001
579:1.9319933735050260e-001
580:2.2285764271708111e-001
581:2.1387545420182372e-001
582:2.0175439280025595e-001
583:1.9081283988098058e-001
584:2.0050763758319215e-001
585:1.9908620825640794e-001
586:1.9239833945386287e-001
587:1.8346803012666862e-001
588:1.7575947937653225e-001
589:1.8103176844261737e-001
590:1.7961323281116148e-001
591:1.7272008577799142e-001
592:1.8481730527355431e-001
593:1.6926588864507786e-001
594:1.5140150350564635e-001
595:1.4083689015059356e-001
596:1.8409773227634790e-001
597:1.7155297746602985e-001
598:1.5649550743673268e-001
599:1.4670259326283411e-001
600:1.7749076180494799e-001
601:1.6685872422006373e-001
602:1.5490547123754950e-001
603:1.4738043529645181e-001
604:1.6738100193200031e-001
605:1.5835164341843982e-001
606:1.4913001707855100e-001
607:1.4382817088857069e-001
608:1.3660454903621197e-001
609:1.2971406632099100e-001
610:1.2128951905441449e-001
611:1.1421015731534033e-001
612:1.4229250619705458e-001
613:1.3492899296075980e-001
614:1.2613429682274002e-001
615:1.1924262426307573e-001
616:1.4395672601166365e-001
617:1.3781147494902940e-001
618:1.2974562591962949e-001
619:1.2313066069856740e-001
620:1.4150407102801707e-001
621:1.3684119413694970e-001
622:1.2981274980387672e-001
623:1.2360259521257430e-001
624:1.0997188509712555e-001
625:1.0227434985958005e-001
626:9.3431903809920364e-002
627:8.7972035291409026e-002
628:1.1532721695655736e-001
629:1.0817936343154685e-001
630:9.9722455308797142e-002
631:9.4198744415732505e-002
632:1.1937814553078138e-001
633:1.1265041835144894e-001
634:1.0479348390288157e-001
635:9.9605035092463490e-002
636:1.2002587952022883e-001
637:1.1375445389667370e-001
638:1.0661417736413054e-001
639:1.0192127091375830e-001
640:8.5609299265842403e-002
641:8.1524851690597575e-002
642:7.6395325879063919e-002
643:7.2306366105570216e-002
644:9.1659272981257256e-002
645:8.7249067889732593e-002
646:8.1807699894302838e-002
647:7.7604816963269763e-002
648:9.7154346093388078e-002
649:9.2787146283905247e-002
650:8.7265341324726298e-002
651:8.2980664075281013e-002
652:9.9670685220333913e-002
653:9.5529346080250668e-002
654:9.0105520119251145e-002
655:8.5836381675284776e-002
656:7.0000851493236010e-002
657:6.5784608470860539e-002
658:6.0664350929760878e-002
659:5.7107067444161864e-002
660:7.5286983706695440e-002
661:7.1012366499145871e-002
662:6.5710440895860173e-002
663:6.1924871594650877e-002
664:8.0635248518082694e-002
665:7.6311279677522575e-002
666:7.0905198050108725e-002
667:6.6976150299311671e-002
668:8.3505394817479289e-002
669:7.9229400881688686e-002
670:7.3879716260710035e-002
671:6.9946480358345511e-002
672:5.5348031778138199e-002
673:5.2015554803969646e-002
674:4.7449579220209620e-002
675:4.3694833741246268e-002
676:6.0013650916754847e-002
677:5.6397733841167211e-002
678:5.1473919376000668e-002
679:4.7449517011764031e-002
680:6.4957609585541629e-002
681:6.1106966845785975e-002
682:5.5830383701241201e-002
683:5.1511637209117805e-002
684:6.7896879767699300e-002
685:6.3942990501095170e-002
686:5.8471037574547163e-002
687:5.3978539592936435e-002
688:4.1578638420456122e-002
689:3.7396952004401671e-002
690:3.1516216571199990e-002
691:2.6667689883028253e-002
692:4.5187831913271623e-002
693:4.0692833217894735e-002
694:3.4320077993234201e-002
695:2.9033715923046603e-002
696:4.9086835653149669e-002
697:4.4252626390917045e-002
698:3.7360809291255279e-002
699:3.1611762695251046e-002
700:5.1458682228601692e-002
701:4.6431376100981345e-002
702:3.9242322620384400e-002
703:3.3218127239560739e-002
704:2.3943685212415518e-002
705:1.8290839536323062e-002
706:9.7194913775333677e-003
707:2.1601536064057131e-003
708:2.6056086790676797e-002
709:1.9892750461688570e-002
710:1.0575034756878382e-002
711:2.3696989082992717e-003
712:2.8362546884200708e-002
713:2.1637750004746836e-002
714:1.1482226679788769e-002
715:2.5513848246166977e-003
716:2.9801788071030309e-002
717:2.2725051062479650e-002
718:1.2044459177051780e-002
719:2.6689362971977645e-003
720:7.3885891707912196e-002
721:-3.4677638862948995e-001
722:-9.1514910294307728e-001
723:-1.3223639753079899e+000
724:3.2911170454792843e-001
725:-6.6997955736531478e-001
726:-1.4426212406464998e+000
727:-1.6412767072073637e+000
728:1.0582045119994794e-001
729:-5.5505154585186378e-001
730:-1.0411174559869363e+000
731:-1.1653037820636118e+000
732:-1.8057306997572284e-001
733:-3.5830119899731011e-001
734:-5.6427809988346656e-001
735:-7.2629291248119909e-001
736:-1.5121498476227442e+000
737:-1.7341001839559369e+000
738:-1.7467948989919422e+000
739:-1.5458097721128758e+000
740:-1.6232563551568953e+000
741:-1.5613346728421729e+000
742:-1.4401078749352172e+000
743:-1.2907968014162789e+000
744:-1.1626289036192583e+000
745:-1.1590366671641006e+000
746:-1.1503759971895633e+000
747:-1.1104688136472118e+000
748:-8.1878227686358862e-001
749:-9.6201243516337032e-001
750:-1.0683896387790506e+000
751:-1.0775247842806213e+000
752:-1.3725616135986232e+000
753:-1.0699443456122888e+000
754:-7.5891463387567826e-001
755:-5.9374152522016244e-001
756:-1.1864486706881718e+000
757:-9.9218368107668864e-001
758:-7.6864018828679659e-001
759:-6.3522927652143801e-001
760:-1.0693892566901027e+000
761:-9.7019174050669232e-001
762:-8.1739308971848634e-001
763:-6.9708355252204313e-001
764:-1.0549466453815766e+000
765:-9.8586011662273054e-001
766:-8.5766136452078268e-001
767:-7.3852019954566539e-001
768:-5.3169301046630713e-001
769:-4.1815479356017415e-001
770:-2.6506574256841253e-001
771:-1.4319458949033911e-001
772:-5.8020902344049696e-001
773:-4.7701743453343914e-001
774:-3.3471634369474651e-001
775:-2.1892008955302983e-001
776:-6.3600903372722151e-001
777:-5.2581783188418885e-001
778:-3.8868363132852946e-001
779:-2.8760357694263794e-001
780:-6.7095316911430325e-001
781:-5.5307096863906846e-001
782:-4.1846734257533963e-001
783:-3.2876040410609125e-001
784:-7.7928132789114118e-002
785:1.9281405101339601e-002
786:9.5696525723453219e-002
787:1.1988395220271406e-001
788:-1.5592719210457623e-001
789:-5.8737802408577032e-002
790:2.4997744694741881e-002
791:5.9027896740571767e-002
792:-2.3542243904183921e-001
793:-1.5044937845380843e-001
794:-6.5766803682737546e-002
795:-1.9726551574053220e-002
796:-2.8531145399720709e-001
797:-2.1099563410564739e-001
798:-1.2798153251754707e-001
799:-7.4984187848097211e-002
800:1.2290124164902573e-001
801:1.2927621480704904e-001
802:1.4188283818669251e-001
803:1.5398745672271860e-001
804:6.8195895235233867e-002
805:8.4447615074664112e-002
806:1.0637187353286057e-001
807:1.2319530531632189e-001
808:-1.1465687480853733e-003
809:2.9453163158740754e-002
810:6.2588461699998696e-002
811:8.2975591952152400e-002
812:-5.0482011110946017e-002
813:-1.1149915417344584e-002
814:2.8257253148764826e-002
815:5.0326972634754788e-002
816:1.6075804234144267e-001
817:1.6883092245792033e-001
818:1.7007422461467364e-001
819:1.6470078115741915e-001
820:1.3177346349150706e-001
821:1.4305574890354381e-001
822:1.4857217691747837e-001
823:1.4674852689353185e-001
824:9.2081077664467700e-002
825:1.0533483187223780e-001
826:1.1583099373896172e-001
827:1.1946054541151688e-001
828:5.9600297436021875e-002
829:7.4335873505959077e-002
830:8.8982704133948237e-002
831:9.6964053506569448e-002
832:1.6007155504723974e-001
833:1.5242901315978752e-001
834:1.4499631137454788e-001
835:1.4089163160631427e-001
836:1.4413828773718809e-001
837:1.3995676906373944e-001
838:1.3612858285150173e-001
839:1.3395357024003088e-001
840:1.2017342058750176e-001
841:1.2120810962343152e-001
842:1.2199508648306567e-001
843:1.2184131108519565e-001
844:1.0017928584283789e-001
845:1.0491578263560808e-001
846:1.0873675750472349e-001
847:1.0991631311155647e-001
848:1.3909359458955642e-001
849:1.3515578984457860e-001
850:1.2871961956295019e-001
851:1.2284744234434614e-001
852:1.3286713902472866e-001
853:1.3001658540435868e-001
854:1.2478346398317726e-001
855:1.1985128167475449e-001
856:1.2139120659112436e-001
857:1.1979546573138825e-001
858:1.1650101427968747e-001
859:1.1329163198637361e-001
860:1.0997226098365968e-001
861:1.0955893925033593e-001
862:1.0819008098392940e-001
863:1.0657585815126290e-001
864:1.1945718994512246e-001
865:1.1358102316292054e-001
866:1.0695913238280484e-001
867:1.0258392543933796e-001
868:1.1701415374309802e-001
869:1.1213328137019780e-001
870:1.0659347594006048e-001
871:1.0279112555383887e-001
872:1.1143647645966419e-001
873:1.0813382813391653e-001
874:1.0407505352891439e-001
875:1.0098382614267248e-001
876:1.0554667841462863e-001
877:1.0348328629131666e-001
878:1.0051156519891508e-001
879:9.7967243917041327e-002
880:1.0045109413913464e-001
881:9.6448440208581468e-002
882:9.1109301082185914e-002
883:8.6886665832578230e-002
884:1.0085209537641734e-001
885:9.7116542762058347e-002
886:9.2037939738775845e-002
887:8.8017762805216115e-002
888:9.9291282644591763e-002
889:9.5992855669851704e-002
890:9.1496740005913152e-002
891:8.7948173618238965e-002
892:9.6507794837401739e-002
893:9.3681911987330557e-002
894:8.9847327966825000e-002
895:8.6794378397001520e-002
896:8.4589801967672379e-002
897:8.0388558287491974e-002
898:7.5124680657492754e-002
899:7.1220893085270631e-002
900:8.5847605177865216e-002
901:8.1870558596065734e-002
902:7.6824572361199356e-002
903:7.2997647730798060e-002
904:8.6037626659577038e-002
905:8.2470412668654139e-002
906:7.7786095713472767e-002
907:7.4102316605615032e-002
908:8.5127289939250242e-002
909:8.1923717416059874e-002
910:7.7554334915679896e-002
911:7.4020439196901849e-002
912:6.9166673820978436e-002
913:6.5176866400848771e-002
914:5.9624826898189126e-002
915:5.5061357028388935e-002
916:7.0944809733902395e-002
917:6.6920641335173142e-002
918:6.1282660735932866e-002
919:5.6642828621498692e-002
920:7.2081179683970500e-002
921:6.8093908799625277e-002
922:6.2479717062009346e-002
923:5.7846346146087732e-002
924:7.2057777078486249e-002
925:6.8176852439280747e-002
926:6.2689969513736912e-002
927:5.8134954011322085e-002
928:5.2504527694193413e-002
929:4.7401904886882076e-002
930:4.0091208350592496e-002
931:3.3946906485467554e-002
932:5.4046602321287954e-002
933:4.8851778686714309e-002
934:4.1367788087923199e-002
935:3.5038740024131459e-002
936:5.5249798886209470e-002
937:5.0018821317669881e-002
938:4.2409672333291397e-002
939:3.5922968412687932e-002
940:5.5569559618157967e-002
941:5.0364875155822768e-002
942:4.2733652107813623e-002
943:3.6195126277915594e-002
944:3.0454639591647219e-002
945:2.3217827487867111e-002
946:1.2303200876906579e-002
947:2.7365243812782149e-003
948:3.1427259769274088e-002
949:2.3945951874241419e-002
950:1.2686836054956655e-002
951:2.8470338909323866e-003
952:3.2206711667015255e-002
953:2.4520759530072885e-002
954:1.2990073300940586e-002
955:2.9430860052018430e-003
956:3.2442400995552678e-002
957:2.4690796942648242e-002
958:1.3079730299566586e-002
959:2.9715718810574112e-003
960:-2.7987989247267159e-001
961:-3.0245333421730713e-001
962:-4.4231886618940264e-001
963:-6.3847282147323359e-001
964:-3.0659314835392776e-001
965:-2.8062407584736487e-001
966:-4.2749125532128379e-001
967:-6.5578134717783720e-001
968:-1.5108580437743252e-001
969:-3.1081454229228467e-001
970:-5.7302701434137793e-001
971:-7.8254564970035478e-001
972:-8.3569698203007925e-004
973:-2.9477124955682149e-001
974:-6.0404923021127999e-001
975:-7.6349269348128224e-001
976:-7.6974977784636467e-001
977:-9.6012866424637910e-001
978:-1.0836679132399276e+000
979:-1.0892922477919451e+000
980:-8.0413008883464865e-001
981:-1.0001365928908761e+000
982:-1.0985415173796238e+000
983:-1.0822803030244008e+000
984:-8.8430210755940952e-001
985:-1.0007744102659089e+000
986:-1.0315222695963668e+000
987:-9.9523679890123595e-001
988:-8.1585114342010978e-001
989:-8.7171198730699129e-001
990:-8.8437474839523111e-001
991:-8.6507351822884004e-001
992:-1.0643077049163951e+000
993:-9.9550313095262477e-001
994:-8.7195120694129002e-001
995:-7.5438328783954400e-001
996:-1.0511894758249891e+000
997:-9.8135920098009166e-001
998:-8.6869350085969699e-001
999:-7.6196697208278497e-001
1000:-9.6519105674590966e-001
1001:-9.0537886484994146e-001
1002:-8.1671402984491093e-001
1003:-7.3504077218193875e-001
1004:-8.4962694821500884e-001
1005:-8.1404445060198105e-001
1006:-7.5315631427532104e-001
1007:-6.9406813411132451e-001
1008:-6.8571159611955657e-001
1009:-5.6702170255198814e-001
1010:-4.3497439140013200e-001
1011:-3.4988585822693452e-001
1012:-6.9804276810205235e-001
1013:-5.8741473579857650e-001
1014:-4.6474670219600722e-001
1015:-3.8597300403893425e-001
1016:-6.8589393295195311e-001
1017:-5.9793182234888920e-001
1018:-4.9384345728932105e-001
1019:-4.2132178354454236e-001
1020:-6.5823033171464485e-001
1021:-5.9056431202162141e-001
1022:-5.0284729195405797e-001
1023:-4.3579611287047798e-001
1024:-3.0960691744903435e-001
1025:-2.3907002455929352e-001
1026:-1.5659364109591511e-001
1027:-1.0119025352377531e-001
1028:-3.4866511877475920e-001
1029:-2.8159900982429975e-001
1030:-1.9993137325480645e-001
1031:-1.4294876844835844e-001
1032:-3.8488838429673089e-001
1033:-3.1929496934054147e-001
1034:-2.4017479469130854e-001
1035:-1.8567956932968138e-001
1036:-4.0022312315723235e-001
1037:-3.3691886864926202e-001
1038:-2.6241385275472656e-001
1039:-2.1213661282444504e-001
1040:-7.4694559173762026e-002
1041:-3.2499920338257195e-002
1042:9.0005075759504137e-003
1043:3.1902164551945528e-002
1044:-1.1510101635277589e-001
1045:-7.0753736518858287e-002
1046:-2.6886110423543611e-002
1047:-1.9779607369045465e-003
1048:-1.5926963633013916e-001
1049:-1.1620250725669096e-001
1050:-7.1051141221023059e-002
1051:-4.3051756991860868e-002
1052:-1.8793705089302651e-001
1053:-1.4704902716817284e-001
1054:-1.0132778520604048e-001
1055:-7.1046491638949619e-002
1056:4.1531340250304069e-002
1057:5.7520303044988397e-002
1058:7.4674894324320604e-002
1059:8.4859690181332839e-002
1060:8.9504135336403948e-003
1061:2.7874491931787856e-002
1062:4.9323915427843236e-002
1063:6.2684358004154367e-002
1064:-2.9856999270074226e-002
1065:-7.0008567328527869e-003
1066:1.8623611756113968e-002
1067:3.4426580772472008e-002
1068:-5.6284986966557635e-002
1069:-3.1195775267375575e-002
1070:-3.8333351491105245e-003
1071:1.2834651943455714e-002
1072:8.9209685528382432e-002
1073:9.5563936100087232e-002
1074:1.0071401316265856e-001
1075:1.0259232292809581e-001
1076:6.8535626849301909e-002
1077:7.7173194012223265e-002
1078:8.4608187568062293e-002
1079:8.8053950583150076e-002
1080:4.1331806301456414e-002
1081:5.1992400427824194e-002
1082:6.2309635449730533e-002
1083:6.8195495551481411e-002
1084:2.0189665271435907e-002
1085:3.2141764659578735e-002
1086:4.4803973315270251e-002
1087:5.2713598184744782e-002
1088:1.0299957587292050e-001
1089:1.0339050097326476e-001
1090:1.0322763348120940e-001
1091:1.0251256419796272e-001
1092:8.9334134712235919e-002
1093:9.1443380566990043e-002
1094:9.3479173982277453e-002
1095:9.4238896617065651e-002
1096:7.0850131581772516e-002
1097:7.5307474829617679e-002
1098:7.9870920238273940e-002
1099:8.2153043224495972e-002
1100:5.6426803193709442e-002
1101:6.2515061204952038e-002
1102:6.8636426303785331e-002
1103:7.1846638653567177e-002
1104:1.0190652620097997e-001
1105:1.0045694889516704e-001
1106:9.8023743681500616e-002
1107:9.5785892872584086e-002
1108:9.4292752790082923e-002
1109:9.3861716147052410e-002
1110:9.2467472133197504e-002
1111:9.0926473233693211e-002
1112:8.2880155539410638e-002
1113:8.3641599621491855e-002
1114:8.3733569226678753e-002
1115:8.3307019502619220e-002
1116:7.3031852251770196e-002
1117:7.4722164244598349e-002
1118:7.6099503188922016e-002
1119:7.6635673121713391e-002
1120:9.4482177015999896e-002
1121:9.1975818928369271e-002
1122:8.8572011375678480e-002
1123:8.5818211648500092e-002
1124:8.9994441875226677e-002
1125:8.8180429464493587e-002
1126:8.5610110809220707e-002
1127:8.3391296962495559e-002
1128:8.2963018704737754e-002
1129:8.2145626510876688e-002
1130:8.0646542528533913e-002
1131:7.9074599749836813e-002
1132:7.6769581946754872e-002
1133:7.6713348544551876e-002
1134:7.5985865677199671e-002
1135:7.4888014603987182e-002
1136:8.4286646363935860e-002
1137:8.1281558247625160e-002
1138:7.7088577255909993e-002
1139:7.3652485479228633e-002
1140:8.2094298293554274e-002
1141:7.9455051475233227e-002
1142:7.5636266356403220e-002
1143:7.2442183679600050e-002
1144:7.8064598419556347e-002
1145:7.5922027144795512e-002
1146:7.2693312542764302e-002
1147:6.9917027596328063e-002
1148:7.4106798777737362e-002
1149:7.2391628790468038e-002
1150:6.9703266469830924e-002
1151:6.7308899365881428e-002
1152:7.1736811372592635e-002
1153:6.7944400831997626e-002
1154:6.2563765265531437e-002
1155:5.8072860510928297e-002
1156:7.0649419964125271e-002
1157:6.7073244879490096e-002
1158:6.1931800060312646e-002
1159:5.7579447311751200e-002
1160:6.8336173956536433e-002
1161:6.5113244957164931e-002
1162:6.0342542341651761e-002
1163:5.6207515336219302e-002
1164:6.5913773357548971e-002
1165:6.2992876654985486e-002
1166:5.8539412436252672e-002
1167:5.4603982001254284e-002
1168:5.5532467373825806e-002
1169:5.0357650509123941e-002
1170:4.2740254529950110e-002
1171:3.6200446802204300e-002
1172:5.5094271147507999e-002
1173:5.0002148569505883e-002
1174:4.2465886588758640e-002
1175:3.5978024059015463e-002
1176:5.3816817967976854e-002
1177:4.8893222865515916e-002
1178:4.1570721202730573e-002
1179:3.5246454073218865e-002
1180:5.2309839704245360e-002
1181:4.7569958673913157e-002
1182:4.0492118331291724e-002
1183:3.4355730197297915e-002
1184:3.2445327351979032e-002
1185:2.4691860281249312e-002
1186:1.3080193066537283e-002
1187:2.9689977846962990e-003
1188:3.2250087676323307e-002
1189:2.4549100896196906e-002
1190:1.3005049606425395e-002
1191:2.9414391514361294e-003
1192:3.1606738756280943e-002
1193:2.4071446932181956e-002
1194:1.2748114668149544e-002
1195:2.8616905647608783e-003
1196:3.0815463686486001e-002
1197:2.3471148573302247e-002
1198:1.2418016283311952e-002
1199:2.7653493955020251e-003
1200:5.4874413168302175e-002
1201:-2.5119793334744256e-001
1202:-5.3794628828859081e-001
1203:-6.6307412664262477e-001
1204:8.2979147978139003e-002
1205:-1.6409304089577847e-001
1206:-3.7130238616574968e-001
1207:-4.5069975517167521e-001
1208:2.4095332116097712e-002
1209:-8.4859068134441398e-002
1210:-1.8323598011337408e-001
1211:-2.4105161504107814e-001
1212:-4.1619882659319561e-002
1213:-7.7685431282679171e-002
1214:-1.3785562438359530e-001
1215:-2.0372717293982726e-001
1216:-6.9621252861898975e-001
1217:-7.3901952274801097e-001
1218:-7.6931918773247698e-001
1219:-7.7589280246366665e-001
1220:-4.7049526045963330e-001
1221:-5.1712322862822169e-001
1222:-5.8970774661130410e-001
1223:-6.3814964014872744e-001
1224:-2.7150651151634825e-001
1225:-3.4616225027252145e-001
1226:-4.5707056822449799e-001
1227:-5.2985194483831588e-001
1228:-2.4804476452202825e-001
1229:-3.3540528859755619e-001
1230:-4.4050159206147305e-001
1231:-5.0101945780900603e-001
1232:-7.7415908482322360e-001
1233:-7.5842352283685266e-001
1234:-7.1546809393373800e-001
1235:-6.6794235071139940e-001
1236:-6.5630360534885201e-001
1237:-6.6947423438345921e-001
1238:-6.5308552811064602e-001
1239:-6.2240484105791571e-001
1240:-5.5758592546883590e-001
1241:-5.8661957289633215e-001
1242:-5.8885066747553583e-001
1243:-5.7171419266619294e-001
1244:-5.2251159975751038e-001
1245:-5.4624555742191561e-001
1246:-5.5102768385808232e-001
1247:-5.3940011370590846e-001
1248:-6.3847588687470369e-001
1249:-5.8068000593582514e-001
1250:-5.0155061529945388e-001
1251:-4.3824964282362855e-001
1252:-6.0196344529610402e-001
1253:-5.5864467734292711e-001
1254:-4.9355754804066265e-001
1255:-4.3798557213023814e-001
1256:-5.5842599740856902e-001
1257:-5.2751373238127264e-001
1258:-4.7689397242245468e-001
1259:-4.3156161206478283e-001
1260:-5.2923554672172335e-001
1261:-5.0441515528684644e-001
1262:-4.6237177396360957e-001
1263:-4.2413260420202048e-001
1264:-4.0390481406512779e-001
1265:-3.4317878314725453e-001
1266:-2.7239581642467697e-001
1267:-2.2476086394274108e-001
1268:-4.0696225232973421e-001
1269:-3.5230022682872653e-001
1270:-2.8864784270288146e-001
1271:-2.4522329302693685e-001
1272:-4.0578616475998780e-001
1273:-3.5976456134167051e-001
1274:-3.0458068273376171e-001
1275:-2.6526266278373190e-001
1276:-4.0224494065967242e-001
1277:-3.6222228203961088e-001
1278:-3.1232531074399350e-001
1279:-2.7540936910657782e-001
1280:-2.0171125057086042e-001
1281:-1.6183783848687422e-001
1282:-1.1572276099057761e-001
1283:-8.4427684851243620e-002
1284:-2.2375948026735712e-001
1285:-1.8536674169076842e-001
1286:-1.3911622105826599e-001
1287:-1.0697430827721997e-001
1288:-2.4511886429874921e-001
1289:-2.0844122532860071e-001
1290:-1.6353346381967121e-001
1291:-1.3212245023404337e-001
1292:-2.5610180848356251e-001
1293:-2.2110150180306279e-001
1294:-1.7851395250865265e-001
1295:-1.4873507955070239e-001
1296:-6.9080516411587342e-002
1297:-4.3319980309381154e-002
1298:-1.5612295464984365e-002
1299:1.2799958987313356e-003
1300:-9.1180433467783720e-002
1301:-6.4951083115267344e-002
1302:-3.6880432654995798e-002
1303:-1.9415119825715275e-002
1304:-1.1670917813314537e-001
1305:-9.0885501594032969e-002
1306:-6.2510621696615656e-002
1307:-4.4030418643343804e-002
1308:-1.3404228769422011e-001
1309:-1.0887549868790052e-001
1310:-8.0201321269486425e-002
1311:-6.0871890048764171e-002
1312:8.8556721075549946e-003
1313:2.1539647030305129e-002
1314:3.5533294923602375e-002
1315:4.4508874729980205e-002
1316:-1.1291049380679725e-002
1317:2.7891791957475177e-003
1318:1.8935237941298429e-002
1319:2.9483178648324702e-002
1320:-3.5073941933633591e-002
1321:-1.9384930101965705e-002
1322:-1.2879721298453399e-003
1323:1.0518517031593153e-002
1324:-5.1345665514665011e-002
1325:-3.4799441778848868e-002
1326:-1.5927024158016535e-002
1327:-3.6470837577181566e-003
1328:4.8728923147679494e-002
1329:5.5551267739301503e-002
1330:6.2345538096207131e-002
1331:6.5996110170355310e-002
1332:3.4416079471220766e-002
1333:4.2336594598476704e-002
1334:5.0309313269769597e-002
1335:5.4859037568679540e-002
1336:1.6013450844710436e-002
1337:2.4987994009712685e-002
1338:3.4446808473244418e-002
1339:4.0281760944153526e-002
1340:2.1086314485040509e-003
1341:1.1755337735581710e-002
1342:2.2375298847312361e-002
1343:2.9220974041176684e-002
1344:6.7432905060853837e-002
1345:6.9656805763203614e-002
1346:7.1774435512187942e-002
1347:7.2839577441828909e-002
1348:5.6826426497556419e-002
1349:6.0086391188690885e-002
1350:6.3514560544266421e-002
1351:6.5457503801577166e-002
1352:4.2992880626681135e-002
1353:4.7564431971367768e-002
1354:5.2470276129154433e-002
1355:5.5342213400312250e-002
1356:3.2476609334161063e-002
1357:3.7932435737932785e-002
1358:4.3756629578324199e-002
1359:4.7209463011667480e-002
1360:7.3219707490067037e-002
1361:7.3544806140573321e-002
1362:7.3202651796570928e-002
1363:7.2357409159808997e-002
1364:6.6234403288294719e-002
1365:6.7204630210406180e-002
1366:6.7581840170287483e-002
1367:6.7252315281664712e-002
1368:5.6540524465877061e-002
1369:5.8266582842320815e-002
1370:5.9604849405305457e-002
1371:6.0012610182816825e-002
1372:4.8694492617890675e-002
1373:5.0985237148317292e-002
1374:5.3095188295098489e-002
1375:5.4093570885831610e-002
1376:7.1708776572565164e-002
1377:7.0246661869827851e-002
1378:6.7877481830072250e-002
1379:6.5701257756714510e-002
1380:6.6881713501843063e-002
1381:6.5926785857279416e-002
1382:6.4160220605316509e-002
1383:6.2378034468599811e-002
1384:6.0037407633405794e-002
1385:5.9766773167685201e-002
1386:5.8764466070729562e-002
1387:5.7467921458541064e-002
1388:5.4422263067475850e-002
1389:5.4659048057810779e-002
1390:5.4209203194679909e-002
1391:5.3272184324360004e-002
1392:6.4407731339917937e-002
1393:6.1651460680849972e-002
1394:5.7375761141800388e-002
1395:5.3560421925927991e-002
1396:6.1265024559324747e-002
1397:5.8814473496384669e-002
1398:5.4896226870564536e-002
1399:5.1339893253354071e-002
1400:5.6580316798552889e-002
1401:5.4537019720886142e-002
1402:5.1136463725083015e-002
1403:4.7973446228922537e-002
1404:5.2561079265687864e-002
1405:5.0851197651926590e-002
1406:4.7889023982638911e-002
1407:4.5058535200878179e-002
1408:5.1328453227363319e-002
1409:4.6707920951780335e-002
1410:3.9787699536008740e-002
1411:3.3769718547566163e-002
1412:4.9245517885462199e-002
1413:4.4882361759284846e-002
1414:3.8291685160753805e-002
1415:3.2517778279280450e-002
1416:4.6088856873585639e-002
1417:4.2109755610184124e-002
1418:3.6002767483389049e-002
1419:3.0589849898613856e-002
1420:4.3347874558450683e-002
1421:3.9685428470740317e-002
1422:3.3981808953799091e-002
1423:2.8879784482912264e-002
1424:3.0290989717401982e-002
1425:2.3067936896045756e-002
1426:1.2194525851123249e-002
1427:2.7038266527198603e-003
1428:2.9166425441687148e-002
1429:2.2204532314891265e-002
1430:1.1733313486877854e-002
1431:2.6095463435295879e-003
1432:2.7430875536621865e-002
1433:2.0874801652320165e-002
1434:1.1038438842978353e-002
1435:2.4899187199430759e-003
1436:2.5891467736233770e-002
1437:1.9695650249125559e-002
1438:1.0414315600354026e-002
1439:2.3568734554396909e-003
1440:-6.7453427725516935e-002
1441:-9.7928737068418537e-002
1442:-1.6586759142314300e-001
1443:-2.4230691111212133e-001
1444:-7.9879844930526356e-002
1445:-1.3057847054181052e-001
1446:-2.2575288123729723e-001
1447:-3.1406697519645932e-001
1448:-4.9461087329637610e-002
1449:-1.4224912755489971e-001
1450:-2.6583902534004761e-001
1451:-3.5169383243476265e-001
1452:-1.4664885288746002e-002
1453:-1.1912173337734069e-001
1454:-2.3868990124879083e-001
1455:-3.1034121505381440e-001
1456:-2.9121985060868594e-001
1457:-3.7512002155335272e-001
1458:-4.6006635590425127e-001
1459:-5.0247072292509720e-001
1460:-3.6301159702841562e-001
1461:-4.3195153901596250e-001
1462:-4.8125419990783264e-001
1463:-4.9680975890252016e-001
1464:-3.9033714304978018e-001
1465:-4.3714560369195854e-001
1466:-4.6042706007347500e-001
1467:-4.6320923354249938e-001
1468:-3.3931656876016153e-001
1469:-3.7720478043469680e-001
1470:-4.0400065625904169e-001
1471:-4.1589961769060807e-001
1472:-5.1622504607991526e-001
1473:-5.3160087651839849e-001
1474:-5.3421274943540209e-001
1475:-5.2433104364682437e-001
1476:-5.0022516299375874e-001
1477:-5.0472568627674097e-001
1478:-5.0481808569650233e-001
1479:-4.9749123654074262e-001
1480:-4.6360840417417432e-001
1481:-4.6594669912473657e-001
1482:-4.6741447844524270e-001
1483:-4.6275019456782918e-001
1484:-4.2168833485763807e-001
1485:-4.3104708618764459e-001
1486:-4.3709906771073059e-001
1487:-4.3443493174609610e-001
1488:-5.1535041466921994e-001
1489:-4.9303080876523520e-001
1490:-4.5480929305839651e-001
1491:-4.1984217753176900e-001
1492:-4.9018564171595291e-001
1493:-4.7165136965950660e-001
1494:-4.3959793031337979e-001
1495:-4.1007830328510209e-001
1496:-4.5701433966779514e-001
1497:-4.4239819368771105e-001
1498:-4.1717236589132378e-001
1499:-3.9381867703308537e-001
1500:-4.2984091606039498e-001
1501:-4.1813060870031937e-001
1502:-3.9785004979473604e-001
1503:-3.7880780616176285e-001
1504:-3.9974738972612728e-001
1505:-3.6239493669370637e-001
1506:-3.1478468509230922e-001
1507:-2.7900899598956086e-001
1508:-3.9300341551894152e-001
1509:-3.6030661101630956e-001
1510:-3.1702867598692624e-001
1511:-2.8369731422197925e-001
1512:-3.8018656264283091e-001
1513:-3.5316632868429071e-001
1514:-3.1586417931476485e-001
1515:-2.8631205636805213e-001
1516:-3.6753245086237385e-001
1517:-3.4466827001205363e-001
1518:-3.1219764525452071e-001
1519:-2.8588975815244277e-001
1520:-2.6020598526609262e-001
1521:-2.2636344869595437e-001
1522:-1.8545364736409717e-001
1523:-1.5678945746865722e-001
1524:-2.6604894797195916e-001
1525:-2.3455183542225450e-001
1526:-1.9667687528647798e-001
1527:-1.6989413352749760e-001
1528:-2.7048820613841046e-001
1529:-2.4218626108053520e-001
1530:-2.0783991158629198e-001
1531:-1.8307709950549442e-001
1532:-2.7162069893842067e-001
1533:-2.4576296718393872e-001
1534:-2.1378257729157552e-001
1535:-1.9033032352331791e-001
1536:-1.4253141970444719e-001
1537:-1.1771284262981262e-001
1538:-8.8825788924298640e-002
1539:-6.9078673452290962e-002
1540:-1.5634799524265158e-001
1541:-1.3220359652630187e-001
1542:-1.0328349999780674e-001
1543:-8.3180779614648023e-002
1544:-1.7031366840472026e-001
1545:-1.4721077985967124e-001
1546:-1.1904959903693257e-001
1547:-9.9261537899724056e-002
1548:-1.7813546189001786e-001
1549:-1.5604686044692032e-001
1550:-1.2906169926613936e-001
1551:-1.0998843122028600e-001
1552:-5.9324865470489152e-002
1553:-4.2513699121049957e-002
1554:-2.3481562396023739e-002
1555:-1.1074091458196844e-002
1556:-7.3237213376907417e-002
1557:-5.6216685158117362e-002
1558:-3.7000063630782148e-002
1559:-2.4317502199894769e-002
1560:-8.9445300653535315e-002
1561:-7.2552024102503027e-002
1562:-5.3190566022835020e-002
1563:-4.0086951135390486e-002
1564:-1.0045959094085459e-001
1565:-8.3838478391263183e-002
1566:-6.4389368315773424e-002
1567:-5.0970849512524764e-002
1568:-5.2023926061363305e-003
1569:4.7988650953734169e-003
1570:1.6052079202366318e-002
1571:2.3418366087113882e-002
1572:-1.8193834650306714e-002
1573:-7.5502409765098241e-003
1574:4.7177996904095715e-003
1575:1.2863995775286293e-002
1576:-3.3617415790809110e-002
1577:-2.2270393678611479e-002
1578:-9.0776454736024720e-003
1579:-2.7489451615671728e-004
1580:-4.4281039905175859e-002
1581:-3.2573187221374131e-002
1582:-1.8991947435908787e-002
1583:-9.9092685822844764e-003
1584:2.6933012035985946e-002
1585:3.2790105464902096e-002
1586:3.9022116563551090e-002
1587:4.2752445285362040e-002
1588:1.6754840790655333e-002
1589:2.3226862737281369e-002
1590:3.0161393135515493e-002
1591:3.4425907396930015e-002
1592:3.9341932780663615e-003
1593:1.1009521088605248e-002
1594:1.8784378996256304e-002
1595:2.3757485071535921e-002
1596:-5.5407106414941962e-003
1597:1.9099330092323496e-003
1598:1.0295546240641067e-002
1599:1.5793761997805390e-002
1600:4.4389605459334062e-002
1601:4.6990506614064925e-002
1602:4.9525347295903667e-002
1603:5.0837190208251330e-002
1604:3.6366390746483485e-002
1605:3.9552846487396730e-002
1606:4.2837744883634205e-002
1607:4.4676899867324482e-002
1608:2.6100966278593055e-002
1609:3.0012021926603023e-002
1610:3.4151859234659576e-002
1611:3.6566520969574842e-002
1612:1.8423257122628680e-002
1613:2.2820504425260908e-002
1614:2.7506473535371175e-002
1615:3.0293019069735343e-002
1616:5.1319838409985490e-002
1617:5.1810239297493878e-002
1618:5.1639146440483730e-002
1619:5.0892883766072386e-002
1620:4.5413308606843013e-002
1621:4.6337570595080327e-002
1622:4.6677341710483086e-002
1623:4.6303361867599979e-002
1624:3.7580580242737222e-002
1625:3.9012787351859146e-002
1626:4.0007220797328498e-002
1627:4.0136914787043988e-002
1628:3.1496495407466255e-002
1629:3.3297127477888065e-002
1630:3.4791621400521409e-002
1631:3.5308789175302557e-002
1632:5.0280782863331347e-002
1633:4.8760167332399670e-002
1634:4.6045731340499996e-002
1635:4.3399080453359648e-002
1636:4.5889419091969197e-002
1637:4.4737992486455637e-002
1638:4.2490253405292007e-002
1639:4.0181946174785176e-002
1640:3.9993156424569791e-002
1641:3.9330337394645691e-002
1642:3.7680319527696092e-002
1643:3.5800725247957334e-002
1644:3.5368968949903157e-002
1645:3.5068593164712204e-002
1646:3.3859090049112348e-002
1647:3.2301830578180583e-002
1648:4.1782427724585555e-002
1649:3.8292057943819062e-002
1650:3.2812629150814274e-002
1651:2.7889031300301140e-002
1652:3.8737298525648833e-002
1653:3.5570856979498681e-002
1654:3.0530622161100356e-002
1655:2.5966239637293935e-002
1656:3.4576166338813497e-002
1657:3.1839246568644085e-002
1658:2.7404599465038239e-002
1659:2.3344815107378951e-002
1660:3.1247632128448981e-002
1661:2.8850211976978738e-002
1662:2.4900571799971023e-002
1663:2.1243764914680146e-002
1664:2.5000781530173755e-002
1665:1.9013873030504853e-002
1666:1.0047268849856447e-002
1667:2.2620175014973053e-003
1668:2.3280993905739174e-002
1669:1.7709584532346327e-002
1670:9.3552736857345845e-003
1671:2.0932605846469719e-003
1672:2.0944864845069477e-002
1673:1.5947793182528387e-002
1674:8.4277957203921679e-003
1675:1.8770220526700030e-003
1676:1.9069717317262619e-002
1677:1.4526063309327954e-002
1678:7.6679998067158686e-003
1679:1.6885404085550068e-003
1680:2.5155395003957756e-004
1681:-9.4790722359493484e-002
1682:-1.9851155878761093e-001
1683:-2.5925557683893330e-001
1684:1.0935993028638987e-002
1685:-5.8323338805203281e-002
1686:-1.3120462990568876e-001
1687:-1.7605807371202073e-001
1688:1.6010802915633990e-003
1689:-3.6600751856144254e-002
1690:-8.0989124765081383e-002
1691:-1.1573052753614883e-001
1692:-1.2258623571855917e-002
1693:-4.0639695064432796e-002
1694:-7.9694066458807306e-002
1695:-1.1432263837530858e-001
1696:-2.8431063469882689e-001
1697:-3.2278468755257722e-001
1698:-3.6081234896140152e-001
1699:-3.8381992604970566e-001
1700:-1.9720654466428544e-001
1701:-2.3894475849295427e-001
1702:-2.9399631016541544e-001
1703:-3.3209411274180667e-001
1704:-1.3615059017344941e-001
1705:-1.8069220413222795e-001
1706:-2.4298403045646305e-001
1707:-2.8602823325382132e-001
1708:-1.3529741127895170e-001
1709:-1.7742918817111605e-001
1710:-2.3169476472814104e-001
1711:-2.6745352701269237e-001
1712:-3.9470049494933862e-001
1713:-4.1024419879802920e-001
1714:-4.1978484401297272e-001
1715:-4.1832812284587823e-001
1716:-3.4941396766030963e-001
1717:-3.7284022402045131e-001
1718:-3.8748455572611640e-001
1719:-3.8877390890250102e-001
1720:-3.0487740318694218e-001
1721:-3.3056620313064539e-001
1722:-3.4852459982785600e-001
1723:-3.5367487982961654e-001
1724:-2.8289521983462190e-001
1725:-3.0508923364105095e-001
1726:-3.2319994250145506e-001
1727:-3.3087263228710495e-001
1728:-4.1446004739247178e-001
1729:-4.0447791025970509e-001
1730:-3.8690354428051776e-001
1731:-3.7007251999996205e-001
1732:-3.8674121862335731e-001
1733:-3.8046419254761732e-001
1734:-3.6776141022573827e-001
1735:-3.5444494445075109e-001
1736:-3.5437959270167901e-001
1737:-3.5293835973639970e-001
1738:-3.4557836039999823e-001
1739:-3.3561081345135779e-001
1740:-3.3335265331209535e-001
1741:-3.3476786224427996e-001
1742:-3.3024457425079790e-001
1743:-3.2200893109298928e-001
1744:-3.5996356397151219e-001
1745:-3.3924077143143688e-001
1746:-3.0939277218851929e-001
1747:-2.8488593236258586e-001
1748:-3.4607756554211905e-001
1749:-3.2866044748639978e-001
1750:-3.0311282645262272e-001
1751:-2.8174518525184261e-001
1752:-3.2880003780102179e-001
1753:-3.1451658252240333e-001
1754:-2.9343174435071073e-001
1755:-2.7560568576250216e-001
1756:-3.1605376539323959e-001
1757:-3.0359133292789242e-001
1758:-2.8525205319729807e-001
1759:-2.6970672977330074e-001
1760:-2.7147104763527657e-001
1761:-2.4688720444098183e-001
1762:-2.1606311880579901e-001
1763:-1.9326360586603533e-001
1764:-2.6988530733622934e-001
1765:-2.4769088084193713e-001
1766:-2.1913842116739640e-001
1767:-1.9766589693204020e-001
1768:-2.6560379462939515e-001
1769:-2.4643408399919961e-001
1770:-2.2100751240069119e-001
1771:-2.0145504792625099e-001
1772:-2.6094030694013259e-001
1773:-2.4391727642322666e-001
1774:-2.2091671114548664e-001
1775:-2.0293685112558296e-001
1776:-1.8138506155809928e-001
1777:-1.5993132575880528e-001
1778:-1.3375528167641232e-001
1779:-1.1517951246621315e-001
1780:-1.8642509166374305e-001
1781:-1.6618299628236990e-001
1782:-1.4147104664972096e-001
1783:-1.2377129889183278e-001
1784:-1.9111922073814713e-001
1785:-1.7245051659697283e-001
1786:-1.4947708309912927e-001
1787:-1.3279060784603058e-001
1788:-1.9333711714367646e-001
1789:-1.7585824721587659e-001
1790:-1.5410038646220803e-001
1791:-1.3812403950181162e-001
1792:-1.0583807401455676e-001
1793:-8.9385290002660933e-002
1794:-6.9892509567398259e-002
1795:-5.6332605718920174e-002
1796:-1.1476189594171050e-001
1797:-9.8663250973537578e-002
1798:-7.9253915318287446e-002
1799:-6.5605155041135524e-002
1800:-1.2418762183109883e-001
1801:-1.0865472089932278e-001
1802:-8.9693971031238412e-002
1803:-7.6244752401760901e-002
1804:-1.2983541232094675e-001
1805:-1.1483826309339765e-001
1806:-9.6462944478038937e-002
1807:-8.3357038743034392e-002
1808:-4.9560172170091926e-002
1809:-3.7743630935107318e-002
1810:-2.4065367194098679e-002
1811:-1.4891209427879411e-002
1812:-5.8774386220063965e-002
1813:-4.6878467086289594e-002
1814:-3.3085350732476933e-002
1815:-2.3743851139217283e-002
1816:-6.9491060993801715e-002
1817:-5.7671426146758936e-002
1818:-4.3810575452558689e-002
1819:-3.4263423743308798e-002
1820:-7.6741577785716469e-002
1821:-6.5066683303287368e-002
1822:-5.1197595618578298e-002
1823:-4.1524592454342556e-002
1824:-1.0451842908621176e-002
1825:-2.8130241112351308e-003
1826:5.8895778317778098e-003
1827:1.1649964976742828e-002
1828:-1.9167333093141527e-002
1829:-1.1199902679167758e-002
1830:-1.9889501569855593e-003
1831:4.1718061515075367e-003
1832:-2.9519470355544482e-002
1833:-2.1205495687525382e-002
1834:-1.1520642120454883e-002
1835:-5.0034867748279845e-003
1836:-3.6683987526496521e-002
1837:-2.8196529800102080e-002
1838:-1.8297424268071925e-002
1839:-1.1611077754758600e-002
1840:1.4414342298016152e-002
1841:1.9034583013059138e-002
1842:2.3970669855985914e-002
1843:2.6937504416670702e-002
1844:7.1381497875399715e-003
1845:1.2108320459701793e-002
1846:1.7472868976389125e-002
1847:2.0773300325823991e-002
1848:-1.8550374653137733e-003
1849:3.4681252862371098e-003
1850:9.3308283268859465e-003
1851:1.3050495150061086e-002
1852:-8.3651900779815325e-003
1853:-2.8231763985164748e-003
1854:3.3853582107203034e-003
1855:7.4027542547140841e-003
1856:2.8239254829769866e-002
1857:3.0235527174226232e-002
1858:3.1996500857410015e-002
1859:3.2715738724697907e-002
1860:2.2262095709921270e-002
1861:2.4618996286374536e-002
1862:2.6851433313603120e-002
1863:2.7918387054847497e-002
1864:1.4776629247884978e-002
1865:1.7571776618602101e-002
1866:2.0350510292528150e-002
1867:2.1812577858950924e-002
1868:9.2936782131665986e-003
1869:1.2383506722443836e-002
1870:1.5522015950426390e-002
1871:1.7249044672091651e-002
1872:3.2879473628701125e-002
1873:3.2762633503336698e-002
1874:3.1779391936282902e-002
1875:3.0393097471832369e-002
1876:2.8258724099384690e-002
1877:2.8463906607132942e-002
1878:2.7895705927558922e-002
1879:2.6834198229312628e-002
1880:2.2355127893328230e-002
1881:2.2946170287503044e-002
1882:2.2903582460142902e-002
1883:2.2266528868958017e-002
1884:1.7932240069076774e-002
1885:1.8801960528293894e-002
1886:1.9151079977424941e-002
1887:1.8832257640707985e-002
1888:2.9431820372743080e-002
1889:2.7220235818639766e-002
1890:2.3534595820483849e-002
1891:2.0094472247208225e-002
1892:2.6051787487666671e-002
1893:2.4192902971155818e-002
1894:2.0999656891376388e-002
1895:1.7959674504100655e-002
1896:2.1719177247797459e-002
1897:2.0316520023889045e-002
1898:1.7750552911344732e-002
1899:1.5218579998759179e-002
1900:1.8459726459665177e-002
1901:1.7393841345658547e-002
1902:1.5290719926571437e-002
1903:1.3137529956575609e-002
1904:1.8040726459011464e-002
1905:1.3739906839388850e-002
1906:7.2411625720614856e-003
1907:1.5764853859401118e-003
1908:1.6127776982192116e-002
1909:1.2281326432249828e-002
1910:6.4655474346455074e-003
1911:1.4036670618961745e-003
1912:1.3669652017838764e-002
1913:1.0411235763821641e-002
1914:5.4892126771000698e-003
1915:1.2166317953533161e-003
1916:1.1802001516097151e-002
1917:8.9887370056322569e-003
1918:4.7406983820465895e-003
1919:1.0570511914160959e-003
1920:-1.8453721116823640e-002
1921:-4.9364067693045022e-002
1922:-9.2839362044004378e-002
1923:-1.2964837764143908e-001
1924:-2.2360082577001887e-002
1925:-6.0197332658520175e-002
1926:-1.1175147462359504e-001
1927:-1.5110630676861589e-001
1928:-1.6871841403692946e-002
1929:-6.0568319112109706e-002
1930:-1.1617329636535968e-001
1931:-1.5461555150415485e-001
1932:-9.4689427810712226e-003
1933:-5.1083768993687904e-002
1934:-1.0209815236042552e-001
1935:-1.3656064192519887e-001
1936:-1.5064193822599725e-001
1937:-1.8914039895934068e-001
1938:-2.3439960831237378e-001
1939:-2.6296636659452333e-001
1940:-1.7123845058690373e-001
1941:-2.0327080538426245e-001
1942:-2.3504572838869289e-001
1943:-2.5364149237583872e-001
1944:-1.7254360652516201e-001
1945:-1.9886548730070130e-001
1946:-2.2256938629987572e-001
1947:-2.3646191602956174e-001
1948:-1.5259446404460583e-001
1949:-1.7748287823213837e-001
1950:-2.0248173719762227e-001
1951:-2.1856178161148457e-001
1952:-2.7539605095733549e-001
1953:-2.9439118118972635e-001
1954:-3.1187021225813161e-001
1955:-3.2051787703360268e-001
1956:-2.6215714322844225e-001
1957:-2.7701360425851762e-001
1958:-2.9345336416891687e-001
1959:-3.0288554876140789e-001
1960:-2.4352467822788171e-001
1961:-2.5684105684526032e-001
1962:-2.7253497254633891e-001
1963:-2.8159380716684784e-001
1964:-2.2679428340425176e-001
1965:-2.4126593676417513e-001
1966:-2.5687947454557752e-001
1967:-2.6524034851369999e-001
1968:-3.2364423985345619e-001
1969:-3.2602908149707360e-001
1970:-3.2246020882029863e-001
1971:-3.1491742702889591e-001
1972:-3.0647439415464789e-001
1973:-3.0969112132452875e-001
1974:-3.0744658443277312e-001
1975:-3.0134532508117645e-001
1976:-2.8487739255403283e-001
1977:-2.8812370236763885e-001
1978:-2.8730455367995839e-001
1979:-2.8336449348657977e-001
1980:-2.6813825671442260e-001
1981:-2.7138627985707187e-001
1982:-2.7187404042624846e-001
1983:-2.6970118953173056e-001
1984:-3.0937680561370645e-001
1985:-2.9779650126672635e-001
1986:-2.8075669249994634e-001
1987:-2.6627279945588717e-001
1988:-2.9677592453311513e-001
1989:-2.8706548494863821e-001
1990:-2.7242684222307290e-001
1991:-2.5970470598962209e-001
1992:-2.8028258236122150e-001
1993:-2.7320096117436432e-001
1994:-2.6153406517077238e-001
1995:-2.5076148777917640e-001
1996:-2.6773391808747937e-001
1997:-2.6253238372035176e-001
1998:-2.5289242670007467e-001
1999:-2.4343121991726860e-001
2000:-2.5807939123304441e-001
2001:-2.4210353170289131e-001
2002:-2.2036831035537685e-001
2003:-2.0324382147122599e-001
2004:-2.5241276448491279e-001
2005:-2.3812633724085863e-001
2006:-2.1853643620062038e-001
2007:-2.0294415967027821e-001
2008:-2.4441215645119999e-001
2009:-2.3193809769244056e-001
2010:-2.1477268688737411e-001
2011:-2.0101756804414772e-001
2012:-2.3772705846529527e-001
2013:-2.2649642098730435e-001
2014:-2.1100363385578458e-001
2015:-1.9853330941220163e-001
2016:-1.9404656009250187e-001
2017:-1.7719533321171124e-001
2018:-1.5605466057421963e-001
2019:-1.4044648622214875e-001
2020:-1.9449842444397614e-001
2021:-1.7884416647986107e-001
2022:-1.5891358449211235e-001
2023:-1.4404148044474502e-001
2024:-1.9351544008858379e-001
2025:-1.7942230153742494e-001
2026:-1.6115138828048925e-001
2027:-1.4731945316838363e-001
2028:-1.9170201223895547e-001
2029:-1.7876228524234933e-001
2030:-1.6178478469758406e-001
2031:-1.4879167355024489e-001
2032:-1.3233350706121680e-001
2033:-1.1766152843729399e-001
2034:-9.9670635323305695e-002
2035:-8.6794816833564561e-002
2036:-1.3627878616947794e-001
2037:-1.2223571184338457e-001
2038:-1.0496399820276067e-001
2039:-9.2511972752040941e-002
2040:-1.4004767089090644e-001
2041:-1.2684333636101910e-001
2042:-1.1048290929763856e-001
2043:-9.8564172780382750e-002
2044:-1.4191571174581921e-001
2045:-1.2936245837437449e-001
2046:-1.1368443869816913e-001
2047:-1.0217227395359374e-001
2048:-8.0268295894603076e-002
2049:-6.8685957656230978e-002
2050:-5.4825411751015699e-002
2051:-4.5105472477170720e-002
2052:-8.6151271683686081e-002
2053:-7.4767649920359128e-002
2054:-6.0998982161108710e-002
2055:-5.1269329786925694e-002
2056:-9.2423195511262352e-002
2057:-8.1358856648681713e-002
2058:-6.7861654333060517e-002
2059:-5.8257688854852108e-002
2060:-9.6211700118152846e-002
2061:-8.5447017239204240e-002
2062:-7.2265863873165609e-002
2063:-6.2842759856827343e-002
2064:-4.0231856491810360e-002
2065:-3.1692383956176344e-002
2066:-2.1730119268577916e-002
2067:-1.4981487860279717e-002
2068:-4.6377490478740083e-002
2069:-3.7801163665034394e-002
2070:-2.7762779373351566e-002
2071:-2.0910483578800300e-002
2072:-5.3411840828074680e-002
2073:-4.4879285242111579e-002
2074:-3.4804401309413771e-002
2075:-2.7844567299500671e-002
2076:-5.8069701842983039e-002
2077:-4.9619435781457916e-002
2078:-3.9556046794175674e-002
2079:-3.2543396665157036e-002
2080:-1.1692017833150678e-002
2081:-6.0436198420869107e-003
2082:3.3811993169642385e-004
2083:4.5012691905616615e-003
2084:-1.7543106107532739e-002
2085:-1.1714531808155961e-002
2086:-5.0539517251365707e-003
2087:-6.6253634022923088e-004
2088:-2.4391112032715403e-002
2089:-1.8378906421839526e-002
2090:-1.1452013677807795e-002
2091:-6.8451836522234692e-003
2092:-2.9044893514582022e-002
2093:-2.2942746820615346e-002
2094:-1.5887608668450289e-002
2095:-1.1169219679661160e-002
2096:6.4700439872173885e-003
2097:9.6974735884748503e-003
2098:1.3005823085053892e-002
2099:1.4863339454061862e-002
2100:1.4272612139876804e-003
2101:4.8771535093527505e-003
2102:8.4778222189867362e-003
2103:1.0571412292313965e-002
2104:-4.6386915261930860e-003
2105:-9.5600249879886935e-004
2106:2.9816774069102154e-003
2107:5.3625235209077303e-003
2108:-8.8966010610839197e-003
2109:-5.0683753463064184e-003
2110:-9.0256002097908702e-004
2111:1.6773037924706063e-003
2112:1.5618717737018780e-002
2113:1.6633489850828135e-002
2114:1.7187046111509723e-002
2115:1.7032520120485686e-002
2116:1.1459898756419468e-002
2117:1.2737718013306743e-002
2118:1.3654433378599885e-002
2119:1.3788319982076152e-002
2120:6.4147494030678048e-003
2121:8.0089973672471792e-003
2122:9.3532079769430669e-003
2123:9.8250614956868852e-003
2124:2.8421212814683781e-003
2125:4.6509183210489040e-003
2126:6.2838958614896473e-003
2127:6.9876802521579087e-003
2128:1.6749122341434983e-002
2129:1.5855142560871286e-002
2130:1.3990624092744390e-002
2131:1.2035700177266902e-002
2132:1.3661090215796366e-002
2133:1.3073352235962546e-002
2134:1.1643036684074846e-002
2135:1.0053854876209771e-002
2136:9.8821933258437696e-003
2137:9.6645763796155467e-003
2138:8.7719501173319416e-003
2139:7.6406474441149614e-003
2140:7.1738980667543908e-003
2141:7.2198758141221540e-003
2142:6.7145553699883747e-003
2143:5.9127534517383774e-003
2144:1.0813071008876747e-002
2145:8.2342736002023569e-003
2146:4.3372026528560566e-003
2147:9.5616647598716195e-004
2148:9.0402286945390157e-003
2149:6.8903467217102509e-003
2150:3.6265100268176218e-003
2151:7.8699801684545322e-004
2152:6.8886290253221908e-003
2153:5.2686077283695502e-003
2154:2.7772106277149725e-003
2155:5.9535212169769592e-004
2156:5.3478816044688002e-003
2157:4.1046275496161352e-003
2158:2.1616780600091272e-003
2159:4.4928834745662993e-004
2160:-5.9760917039528060e-003
2161:-4.3303708785062192e-002
2162:-8.8747055935056621e-002
2163:-1.2007419085830028e-001
2164:-2.8830861567745157e-003
2165:-3.2516113301129433e-002
2166:-6.8675504404271975e-002
2167:-9.5052749768469794e-002
2168:-3.7319823821780722e-003
2169:-2.6639070835524845e-002
2170:-5.5342722736980487e-002
2171:-7.7751140752441217e-002
2172:-6.0186880178393770e-003
2173:-2.7390399772111461e-002
2174:-5.4697554026081827e-002
2175:-7.6039111437274473e-002
2176:-1.3521237106996090e-001
2177:-1.6048294652336839e-001
2178:-1.8851779213874986e-001
2179:-2.0737116617012233e-001
2180:-1.0882855814610261e-001
2181:-1.3440244844639326e-001
2182:-1.6619928350822769e-001
2183:-1.8837076837850200e-001
2184:-9.0241720432924791e-002
2185:-1.1474370591642900e-001
2186:-1.4660513357110386e-001
2187:-1.6891936051204132e-001
2188:-8.7802303668028589e-002
2189:-1.1027321361003864e-001
2190:-1.3872460681735305e-001
2191:-1.5841190713651704e-001
2192:-2.1677453385457249e-001
2193:-2.3239443261880993e-001
2194:-2.4812443909361306e-001
2195:-2.5618470804353644e-001
2196:-1.9905093679590244e-001
2197:-2.1583343509074368e-001
2198:-2.3169061068242269e-001
2199:-2.3972845982918398e-001
2200:-1.7942927866355241e-001
2201:-1.9580975316647312e-001
2202:-2.1154933255110045e-001
2203:-2.2023011247499408e-001
2204:-1.6771344790101525e-001
2205:-1.8270344059919788e-001
2206:-1.9811416287566783e-001
2207:-2.0738168720359007e-001
2208:-2.5899347328990424e-001
2209:-2.6246629165671165e-001
2210:-2.6383302574790923e-001
2211:-2.6258650380697468e-001
2212:-2.4275647604621620e-001
2213:-2.4705224858385180e-001
2214:-2.4997493481703520e-001
2215:-2.5002666000142443e-001
2216:-2.2394734250242740e-001
2217:-2.2955489647971158e-001
2218:-2.3398085191229526e-001
2219:-2.3493467515820315e-001
2220:-2.1159031495752734e-001
2221:-2.1790335315842477e-001
2222:-2.2285650086655662e-001
2223:-2.2403819256987884e-001
2224:-2.6113657733572176e-001
2225:-2.5679587043976509e-001
2226:-2.4810775083675152e-001
2227:-2.3930879591055673e-001
2228:-2.4923034242749748e-001
2229:-2.4606338956168486e-001
2230:-2.3889661782891775e-001
2231:-2.3132965822150831e-001
2232:-2.3452465061779884e-001
2233:-2.3226345967193252e-001
2234:-2.2669849802304592e-001
2235:-2.2066926733489539e-001
2236:-2.2373963252576848e-001
2237:-2.2194338389681847e-001
2238:-2.1744065646895813e-001
2239:-2.1248282847854572e-001
2240:-2.3395303864568165e-001
2241:-2.2338139452215733e-001
2242:-2.0874455121804697e-001
2243:-1.9691396018245638e-001
2244:-2.2666909499590146e-001
2245:-2.1736666739714983e-001
2246:-2.0427924269108094e-001
2247:-1.9354336350336049e-001
2248:-2.1691909649996424e-001
2249:-2.0922133473529905e-001
2250:-1.9798215109099959e-001
2251:-1.8848806755881151e-001
2252:-2.0935720865846483e-001
2253:-2.0273976759284892e-001
2254:-1.9272805503871887e-001
2255:-1.8406679333054365e-001
2256:-1.9041309731718700e-001
2257:-1.7805700301446931e-001
2258:-1.6176026534838034e-001
2259:-1.4922103206254189e-001
2260:-1.8759112694234134e-001
2261:-1.7622067883549705e-001
2262:-1.6111394506730733e-001
2263:-1.4939917550839549e-001
2264:-1.8314398023577841e-001
2265:-1.7289043566828033e-001
2266:-1.5918737650187595e-001
2267:-1.4848745836045227e-001
2268:-1.7914002307112581e-001
2269:-1.6966443665793421e-001
2270:-1.5695667069636948e-001
2271:-1.4698796362399189e-001
2272:-1.4256060188782860e-001
2273:-1.3035594679908588e-001
2274:-1.1503886227286950e-001
2275:-1.0374717427391500e-001
2276:-1.4314126997131199e-001
2277:-1.3159703193379707e-001
2278:-1.1697764099757936e-001
2279:-1.0612048208047911e-001
2280:-1.4274035541119473e-001
2281:-1.3205498927592813e-001
2282:-1.1837422974582425e-001
2283:-1.0811741966640313e-001
2284:-1.4161310979840397e-001
2285:-1.3156876949099319e-001
2286:-1.1861332545498812e-001
2287:-1.0883313392179231e-001
2288:-9.7889647907411129e-002
2289:-8.7305413770964457e-002
2290:-7.4325744856235762e-002
2291:-6.5020798716029657e-002
2292:-1.0046762388600547e-001
2293:-9.0237112729695229e-002
2294:-7.7646631188657889e-002
2295:-6.8569562166469894e-002
2296:-1.0274903039875946e-001
2297:-9.2999863126709756e-002
2298:-8.0928898630043586e-002
2299:-7.2159661736853828e-002
2300:-1.0369237847404848e-001
2301:-9.4323087898696811e-002
2302:-8.2659407538069787e-002
2303:-7.4138580960349976e-002
2304:-6.0294599104933323e-002
2305:-5.1899058437640429e-002
2306:-4.1854264758350052e-002
2307:-3.4827200333253323e-002
2308:-6.3935484197706116e-002
2309:-5.5660627896779273e-002
2310:-4.5690761070203312e-002
2311:-3.8675433176495716e-002
2312:-6.7656210534618511e-002
2313:-5.9578043849860825e-002
2314:-4.9784535072256442e-002
2315:-4.2853699928279913e-002
2316:-6.9746813821921508e-002
2317:-6.1852766161461570e-002
2318:-5.2251135818816921e-002
2319:-4.5429367949606989e-002
2320:-3.1314907468876607e-002
2321:-2.5185823183222260e-002
2322:-1.8088436519030224e-002
2323:-1.3325936708281435e-002
2324:-3.5158891515820231e-002
2325:-2.9011747401046426e-002
2326:-2.1863200921779923e-002
2327:-1.7031805955647239e-002
2328:-3.9367377080550610e-002
2329:-3.3249230761673389e-002
2330:-2.6080918399060578e-002
2331:-2.1187588845367124e-002
2332:-4.1987211896298574e-002
2333:-3.5922836564117315e-002
2334:-2.8771771191645586e-002
2335:-2.3855597414277910e-002
2336:-1.1023673440244566e-002
2337:-7.1263043136801018e-003
2338:-2.8490526559689974e-003
2339:-1.7263946534049233e-004
2340:-1.4679962226588433e-002
2341:-1.0668891521763780e-002
2342:-6.2115354243686824e-003
2343:-3.3800079550908350e-003
2344:-1.8786077436287255e-002
2345:-1.4663376944573621e-002
2346:-1.0030639948690105e-002
2347:-7.0453505940183828e-003
2348:-2.1431042120620924e-002
2349:-1.7255371246984657e-002
2350:-1.2534350819648769e-002
2351:-9.4647239727736372e-003
2352:1.0459040568129583e-003
2353:2.9569428568852036e-003
2354:4.7293544958647207e-003
2355:5.5480412750773239e-003
2356:-2.0749108221876367e-003
2357:5.5805292902441593e-006
2358:2.0180885577322063e-003
2359:3.0400397894918773e-003
2360:-5.6521831365242380e-003
2361:-3.3897962017021112e-003
2362:-1.1041765392596772e-003
2363:1.5637730647035015e-004
2364:-8.0198910767053048e-003
2365:-5.6439992012954918e-003
2366:-3.1790368094532944e-003
2367:-1.7589179228004485e-003
2368:5.7995507034184924e-003
2369:5.9795151903261016e-003
2370:5.6706713832508160e-003
2371:5.0346633075382249e-003
2372:3.4081978737163332e-003
2373:3.8252238469200272e-003
2374:3.8598441312828902e-003
2375:3.5115681377550006e-003
2376:6.6246004938771508e-004
2377:1.3561207278981917e-003
2378:1.7862594318844508e-003
2379:1.7678323042345403e-003
2380:-1.1606868090819455e-003
2381:-2.8374375414822481e-004
2382:4.0744317531099896e-004
2383:6.0789348210266083e-004
2384:4.5632764507770596e-003
2385:3.5084587002197861e-003
2386:1.8416542789930043e-003
2387:3.6791348220659555e-004
2388:3.2021500528155405e-003
2389:2.4765499994113395e-003
2390:1.2965873166479039e-003
2391:2.4534716313757082e-004
2392:1.6444182948688773e-003
2393:1.3002641108076965e-003
2394:6.8763956405064363e-004
2395:1.2779969964278606e-004
2396:6.0878953861391203e-004
2397:5.1985659014239011e-004
2398:2.8415757183678560e-004
2399:4.6311692061345552e-005
2400:-7.1352600087523530e-003
2401:-2.9113234501813412e-002
2402:-5.7228893154888834e-002
2403:-7.8642294323070558e-002
2404:-7.8614716674133781e-003
2405:-3.0599685358525665e-002
2406:-5.9668470281892039e-002
2407:-8.0989501864084823e-002
2408:-6.8533593921507501e-003
2409:-2.8999727161674267e-002
2410:-5.7278676395121624e-002
2411:-7.7631726850689919e-002
2412:-5.4144127865897139e-003
2413:-2.5735569742400679e-002
2414:-5.1683642289579855e-002
2415:-7.0546966003618233e-002
2416:-9.0071756519431834e-002
2417:-1.1107731032486660e-001
2418:-1.3673126764036159e-001
2419:-1.5431860650562376e-001
2420:-9.1830313437560512e-002
2421:-1.1058850786137082e-001
2422:-1.3218290884379907e-001
2423:-1.4684026570192291e-001
2424:-8.7722225577968230e-002
2425:-1.0464454693089421e-001
2426:-1.2358042389122016e-001
2427:-1.3652603977971220e-001
2428:-8.0030508399845227e-002
2429:-9.6249162653164425e-002
2430:-1.1487644736055479e-001
2431:-1.2781595103540072e-001
2432:-1.6274189909905071e-001
2433:-1.7677077112436701e-001
2434:-1.9192018326377058e-001
2435:-2.0139697248534125e-001
2436:-1.5408237793559645e-001
2437:-1.6677458609766982e-001
2438:-1.8136401273639485e-001
2439:-1.9081764079682162e-001
2440:-1.4311725427114350e-001
2441:-1.5492238757044685e-001
2442:-1.6870326087013149e-001
2443:-1.7756657971712875e-001
2444:-1.3440322643754579e-001
2445:-1.4597394886125434e-001
2446:-1.5911202285169171e-001
2447:-1.6736107211776854e-001
2448:-2.0574885005774432e-001
2449:-2.1219539921043720e-001
2450:-2.1716547294781816e-001
2451:-2.1836531425092406e-001
2452:-1.9515196261720427e-001
2453:-2.0150327026465700e-001
2454:-2.0641625790156470e-001
2455:-2.0779239286945114e-001
2456:-1.8154477442005390e-001
2457:-1.8745423270975070e-001
2458:-1.9236211606430850e-001
2459:-1.9422335577576813e-001
2460:-1.7102503036839486e-001
2461:-1.7665207986678100e-001
2462:-1.8175106760743334e-001
2463:-1.8409739976478237e-001
2464:-2.1811910807423573e-001
2465:-2.1656945289374449e-001
2466:-2.1261026510053885e-001
2467:-2.0816550780019732e-001
2468:-2.0776406705513634e-001
2469:-2.0678998194436030e-001
2470:-2.0378429100671647e-001
2471:-2.0012771547664721e-001
2472:-1.9462540904902767e-001
2473:-1.9448667262665154e-001
2474:-1.9252920439819329e-001
2475:-1.8961287478520022e-001
2476:-1.8483881686930612e-001
2477:-1.8526347919766828e-001
2478:-1.8390746204817029e-001
2479:-1.8139969562926325e-001
2480:-2.0532277724724793e-001
2481:-1.9919486397369096e-001
2482:-1.8975593086807482e-001
2483:-1.8150594026046543e-001
2484:-1.9769657167282689e-001
2485:-1.9231916368732846e-001
2486:-1.8384649525206528e-001
2487:-1.7635258054354264e-001
2488:-1.8755091775750518e-001
2489:-1.8292566502042723e-001
2490:-1.7556701349878459e-001
2491:-1.6902179793086788e-001
2492:-1.7955640323577104e-001
2493:-1.7542734919751771e-001
2494:-1.6886179096134474e-001
2495:-1.6300025744197072e-001
2496:-1.7679534757763044e-001
2497:-1.6772303125894836e-001
2498:-1.5552705506109263e-001
2499:-1.4593075740253153e-001
2500:-1.7205555394393565e-001
2501:-1.6373899445108941e-001
2502:-1.5246966537362003e-001
2503:-1.4352845845945630e-001
2504:-1.6525645294801247e-001
2505:-1.5788813585588241e-001
2506:-1.4774173701769461e-001
2507:-1.3957624718460768e-001
2508:-1.5961180236888836e-001
2509:-1.5290555033481451e-001
2510:-1.4353616125058977e-001
2511:-1.3591331025177911e-001
2512:-1.4074448601443174e-001
2513:-1.3103012042925358e-001
2514:-1.1845743011116819e-001
2515:-1.0893382966207905e-001
2516:-1.3866941667898250e-001
2517:-1.2953526790195835e-001
2518:-1.1765268995324477e-001
2519:-1.0860442460464620e-001
2520:-1.3510272001647755e-001
2521:-1.2666487569370444e-001
2522:-1.1563615863475031e-001
2523:-1.0719431048079320e-001
2524:-1.3171502134524005e-001
2525:-1.2378192307520740e-001
2526:-1.1338357678246219e-001
2527:-1.0539615395505190e-001
2528:-1.0391658109410694e-001
2529:-9.4752529657845086e-002
2530:-8.3309645356511516e-002
2531:-7.4927123050640254e-002
2532:-1.0382028992257354e-001
2533:-9.5048055419776178e-002
2534:-8.4034166471878016e-002
2535:-7.5925716199947854e-002
2536:-1.0271371675998879e-001
2537:-9.4460887694826134e-002
2538:-8.4031064420545531e-002
2539:-7.6305444753005144e-002
2540:-1.0114504739623248e-001
2541:-9.3291492824423422e-002
2542:-8.3322313427462713e-002
2543:-7.5905868652546421e-002
2544:-7.0599953078120281e-002
2545:-6.2816312671196195e-002
2546:-5.3335001605391508e-002
2547:-4.6583860635803463e-002
2548:-7.1728140872106799e-002
2549:-6.4165658291585950e-002
2550:-5.4925816515065617e-002
2551:-4.8318619797377123e-002
2552:-7.2291285452435128e-002
2553:-6.5040723682495291e-002
2554:-5.6142884704628339e-002
2555:-4.9745467600883650e-002
2556:-7.2041656520608732e-002
2557:-6.5046159055444933e-002
2558:-5.6430895952975131e-002
2559:-5.0212703733071733e-002
2560:-4.3170624424049897e-002
2561:-3.7143545189664964e-002
2562:-3.0012517223712450e-002
2563:-2.5094153445455160e-002
2564:-4.4966102139957935e-002
2565:-3.9025006726269157e-002
2566:-3.1958826839390699e-002
2567:-2.7060362558416495e-002
2568:-4.6485779014295250e-002
2569:-4.0689898295765990e-002
2570:-3.3761896269340251e-002
2571:-2.8933888748304104e-002
2572:-4.7035944533835645e-002
2573:-4.1377919333470098e-002
2574:-3.4595500991206354e-002
2575:-2.9852240339286729e-002
2576:-2.2663743975775870e-002
2577:-1.8472585203262025e-002
2578:-1.3720601090415275e-002
2579:-1.0616523989571601e-002
2580:-2.4632136474098967e-002
2581:-2.0433540182656328e-002
2582:-1.5646217823669192e-002
2583:-1.2492001281698108e-002
2584:-2.6531815075426540e-002
2585:-2.2361734991996448e-002
2586:-1.7570003014144683e-002
2587:-1.4379293624271820e-002
2588:-2.7485611122374475e-002
2589:-2.3363339208369114e-002
2590:-1.8598853772683881e-002
2591:-1.5403643666504006e-002
2592:-9.1487519218879810e-003
2593:-6.7203905444839958e-003
2594:-4.1705185667724335e-003
2595:-2.6746944418523295e-003
2596:-1.0988415213964290e-002
2597:-8.4773978963388723e-003
2598:-5.7928560514538948e-003
2599:-4.1760881926103397e-003
2600:-1.2844489011304637e-002
2601:-1.0258723442535976e-002
2602:-7.4476911210832513e-003
2603:-5.7131667558432382e-003
2604:-1.3858187170105993e-002
2605:-1.1242157979345762e-002
2606:-8.3717494731196142e-003
2607:-6.5757697588828467e-003
2608:-2.0329992161706640e-003
2609:-1.0696581760767827e-003
2610:-2.5467364939846590e-004
2611:5.0759499745964547e-005
2612:-3.4645140068329285e-003
2613:-2.3601436681564016e-003
2614:-1.3394530784356961e-003
2615:-8.5763173949366192e-004
2616:-4.9318242992610105e-003
2617:-3.6825547001556095e-003
2618:-2.4446373568423932e-003
2619:-1.7742355594964996e-003
2620:-5.7558265613369001e-003
2621:-4.4234817838197053e-003
2622:-3.0578138488394600e-003
2623:-2.2759935606128899e-003
2624:1.1177342268153477e-004
2625:1.4551529003293813e-004
2626:8.8253684675172335e-005
2627:1.3807686430804017e-008
2628:-6.9536927861655760e-004
2629:-4.5821852221663515e-004
2630:-2.2587139297489166e-004
2631:-7.5442099528034970e-005
2632:-1.5038060508454820e-003
2633:-1.0548489851062496e-003
2634:-5.3109726066473092e-004
2635:-1.4681783971318108e-004
2636:-1.9421270886299858e-003
2637:-1.3725440262375905e-003
2638:-6.8919470880187360e-004
2639:-1.8062161164821754e-004
2640:-4.6809193111913569e-003
2641:-2.3572745399313432e-002
2642:-4.7707852773107282e-002
2643:-6.5520646057577930e-002
2644:-3.8399107264458243e-003
2645:-2.0502701082165987e-002
2646:-4.1738447823424840e-002
2647:-5.7762082537884195e-002
2648:-3.5358858683980014e-003
2649:-1.8329894615843317e-002
2650:-3.7049308108563030e-002
2651:-5.1284660554471874e-002
2652:-3.6100867846200198e-003
2653:-1.7648956792970689e-002
2654:-3.5361748538053211e-002
2655:-4.8689875277234521e-002
2656:-7.4657379998307502e-002
2657:-9.0678196252652027e-002
2658:-1.0959010026405570e-001
2659:-1.2283899740392509e-001
2660:-6.6233115264208761e-002
2661:-8.1654178475208616e-002
2662:-1.0056349455419836e-001
2663:-1.1393763251203003e-001
2664:-5.8920158258109194e-002
2665:-7.3124721194154141e-002
2666:-9.0904560616018870e-002
2667:-1.0352776036049907e-001
2668:-5.5761616091822098e-002
2669:-6.8818373088770576e-002
2670:-8.5057023876736082e-002
2671:-9.6574224848538559e-002
2672:-1.2952246182085445e-001
2673:-1.4104448672081629e-001
2674:-1.5384419418059761e-001
2675:-1.6179458398806831e-001
2676:-1.2059122933495865e-001
2677:-1.3181381555810603e-001
2678:-1.4401350205347724e-001
2679:-1.5158962890177194e-001
2680:-1.0975751667675869e-001
2681:-1.2022894454617529e-001
2682:-1.3169016784472487e-001
2683:-1.3900486343466209e-001
2684:-1.0227967193426038e-001
2685:-1.1200388321611511e-001
2686:-1.2290659116501614e-001
2687:-1.3004931341954898e-001
2688:-1.6534107473940457e-001
2689:-1.7092094603330624e-001
2690:-1.7621787384133475e-001
2691:-1.7882740266592373e-001
2692:-1.5503977425021123e-001
2693:-1.6064243380391505e-001
2694:-1.6623212328238096e-001
2695:-1.6914698726525204e-001
2696:-1.4244828866181203e-001
2697:-1.4810420380272443e-001
2698:-1.5379863164053681e-001
2699:-1.5677260725449840e-001
2700:-1.3346413346312144e-001
2701:-1.3902322859872293e-001
2702:-1.4452565498065470e-001
2703:-1.4734891840075121e-001
2704:-1.7971891833214904e-001
2705:-1.8037299565254675e-001
2706:-1.7925482782663607e-001
2707:-1.7693118383937576e-001
2708:-1.7019382041212119e-001
2709:-1.7111406343524321e-001
2710:-1.7036411227240300e-001
2711:-1.6840265699170548e-001
2712:-1.5783621282083052e-001
2713:-1.5888155760016320e-001
2714:-1.5852068174932687e-001
2715:-1.5704477138960160e-001
2716:-1.4835062701242729e-001
2717:-1.4941653689218168e-001
2718:-1.4932516348111299e-001
2719:-1.4819971091811829e-001
2720:-1.7520214890589564e-001
2721:-1.7133713344981097e-001
2722:-1.6518550220899539e-001
2723:-1.5966628386120726e-001
2724:-1.6691217868720673e-001
2725:-1.6355126959451596e-001
2726:-1.5811952441540972e-001
2727:-1.5316209932663233e-001
2728:-1.5587761942394179e-001
2729:-1.5313637608363095e-001
2730:-1.4850225118475438e-001
2731:-1.4413525612625208e-001
2732:-1.4725338053630913e-001
2733:-1.4490798053210652e-001
2734:-1.4075820355916413e-001
2735:-1.3675615769535410e-001
2736:-1.5645971375691828e-001
2737:-1.5007236807344335e-001
2738:-1.4108313448554885e-001
2739:-1.3373470073172342e-001
2740:-1.5024729378718346e-001
2741:-1.4438920617775244e-001
2742:-1.3606814842435844e-001
2743:-1.2922660013642065e-001
2744:-1.4152600368198315e-001
2745:-1.3625808055425023e-001
2746:-1.2874429882701072e-001
2747:-1.2254703198809457e-001
2748:-1.3434608034120968e-001
2749:-1.2948653326329823e-001
2750:-1.2256051669344140e-001
2751:-1.1683932129610129e-001
2752:-1.2967977855830273e-001
2753:-1.2201103509716188e-001
2754:-1.1194344105819751e-001
2755:-1.0419425222342839e-001
2756:-1.2544259522019149e-001
2757:-1.1826880683633799e-001
2758:-1.0881132091490582e-001
2759:-1.0149697824286709e-001
2760:-1.1911255686277385e-001
2761:-1.1257050055255316e-001
2762:-1.0388193079252074e-001
2763:-9.7113887720262290e-002
2764:-1.1366138976266865e-001
2765:-1.0758078435195313e-001
2766:-9.9455355453013081e-002
2767:-9.3093552711741703e-002
2768:-1.0006333431138448e-001
2769:-9.2421154507247708e-002
2770:-8.2700117511131779e-002
2771:-7.5452902480449752e-002
2772:-9.7584798334265879e-002
2773:-9.0331788957711545e-002
2774:-8.1076838683096411e-002
2775:-7.4154178119301722e-002
2776:-9.3477943449089343e-002
2777:-8.6724414499053534e-002
2778:-7.8082741185928645e-002
2779:-7.1597593523926084e-002
2780:-8.9666698017266525e-002
2781:-8.3296414860002749e-002
2782:-7.5133446418376854e-002
2783:-6.8994848750541182e-002
2784:-7.1671477634233718e-002
2785:-6.4817183406608095e-002
2786:-5.6359992749534168e-002
2787:-5.0244472291552461e-002
2788:-7.0533760274307800e-002
2789:-6.3956893064178358e-002
2790:-5.5815343755659171e-002
2791:-4.9908671128615190e-002
2792:-6.8197638827833140e-002
2793:-6.2006203806028184e-002
2794:-5.4313092736612792e-002
2795:-4.8710088193822318e-002
2796:-6.5771054571289775e-002
2797:-5.9891523311846655e-002
2798:-5.2568547195670542e-002
2799:-4.7221180056395660e-002
2800:-4.7116496342098683e-002
2801:-4.1541605740583083e-002
2802:-3.4850166663288155e-002
2803:-3.0161825357045445e-002
2804:-4.6881212176630667e-002
2805:-4.1478612666738190e-002
2806:-3.4978269404364618e-002
2807:-3.0408334365742033e-002
2808:-4.5830934711931746e-002
2809:-4.0684182167861418e-002
2810:-3.4472452313184847e-002
2811:-3.0087487705070540e-002
2812:-4.4468408367484294e-002
2813:-3.9541115867604427e-002
2814:-3.3580935780344510e-002
2815:-2.9361895466884943e-002
2816:-2.7818797034072810e-002
2817:-2.3730310516389071e-002
2818:-1.8991065939065608e-002
2819:-1.5802342223967706e-002
2820:-2.8117874260909025e-002
2821:-2.4109747869086800e-002
2822:-1.9442300371054912e-002
2823:-1.6285554784483906e-002
2824:-2.7882473789363878e-002
2825:-2.4013469226455003e-002
2826:-1.9487957076749232e-002
2827:-1.6410859984538478e-002
2828:-2.7235882462629691e-002
2829:-2.3500318165872301e-002
2830:-1.9119998875867367e-002
2831:-1.6131582981257334e-002
2832:-1.4256380301823357e-002
2833:-1.1634298336795790e-002
2834:-8.7454225629341274e-003
2835:-6.9262714435685286e-003
2836:-1.4749305265899369e-002
2837:-1.2134743258530969e-002
2838:-9.2339143653916086e-003
2839:-7.3876978047272409e-003
2840:-1.4907208928660190e-002
2841:-1.2337705513456084e-002
2842:-9.4641663047181895e-003
2843:-7.6144131558447768e-003
2844:-1.4667128229391785e-002
2845:-1.2157562567861583e-002
2846:-9.3366422125267558e-003
2847:-7.5083575642759083e-003
2848:-6.0905667831690369e-003
2849:-4.7233282363115785e-003
2850:-3.3032903247904562e-003
2851:-2.4742703721799949e-003
2852:-6.5310716317631455e-003
2853:-5.1163876129696854e-003
2854:-3.6215303043672081e-003
2855:-2.7274024946077548e-003
2856:-6.7475617545222355e-003
2857:-5.3059039587268209e-003
2858:-3.7644677579873509e-003
2859:-2.8280401140305654e-003
2860:-6.6468511639421893e-003
2861:-5.2107045328407368e-003
2862:-3.6701794671355308e-003
2863:-2.7307607573930680e-003
2864:-2.1138330477959559e-003
2865:-1.4948847255187637e-003
2866:-7.4823241701862323e-004
2867:-1.9155052143901224e-004
2868:-2.3304491194580065e-003
2869:-1.6452623432280458e-003
2870:-8.1794218764726513e-004
2871:-2.0402440249252341e-004
2872:-2.4072760326027767e-003
2873:-1.6837406226550169e-003
2874:-8.2318098551384931e-004
2875:-1.9917937207181928e-004
2876:-2.3078906590071648e-003
2877:-1.5886474768054648e-003
2878:-7.5560865424092343e-004
2879:-1.7318349694729377e-004
2880:-3.6610630622364157e-003
2881:-1.7470221531560175e-002
2882:-3.4916978136714211e-002
2883:-4.7919584550959904e-002
2884:-3.5993232840873736e-003
2885:-1.6739738468055324e-002
2886:-3.3450184401892298e-002
2887:-4.5787910356743969e-002
2888:-3.2703225552928586e-003
2889:-1.5091324327751274e-002
2890:-3.0283591718739521e-002
2891:-4.1534074690383262e-002
2892:-2.9072293629442405e-003
2893:-1.3497358664991037e-002
2894:-2.7154574130894022e-002
2895:-3.7366007357614438e-002
2896:-5.4731121465298543e-002
2897:-6.7146046704516155e-002
2898:-8.2410704981204591e-002
2899:-9.3224402781622612e-002
2900:-5.2146700741543060e-002
2901:-6.3504027341202876e-002
2902:-7.7213509506447356e-002
2903:-8.6916895474072706e-002
2904:-4.7312801185485094e-002
2905:-5.7517407132160012e-002
2906:-6.9708602876531814e-002
2907:-7.8351863489768483e-002
2908:-4.2662421534239228e-002
2909:-5.2065338120308891e-002
2910:-6.3360573158265959e-002
2911:-7.1391657102200939e-002
2912:-9.8616485049948521e-002
2913:-1.0791914783193139e-001
2914:-1.1851647673989120e-001
2915:-1.2553133638284045e-001
2916:-9.1811894401409661e-002
2917:-1.0039827183039171e-001
2918:-1.1036185491006412e-001
2919:-1.1700578902786921e-001
2920:-8.2750791054120476e-002
2921:-9.0510783418845692e-002
2922:-9.9535225439009709e-002
2923:-1.0551319780606802e-001
2924:-7.5476528437011248e-002
2925:-8.2630894793735088e-002
2926:-9.0863809583257751e-002
2927:-9.6268976662986810e-002
2928:-1.2888865606558478e-001
2929:-1.3430582506406757e-001
2930:-1.3960215366689804e-001
2931:-1.4230189358414597e-001
2932:-1.2017134629559451e-001
2933:-1.2522750855128170e-001
2934:-1.3012607822382172e-001
2935:-1.3264609765674831e-001
2936:-1.0833235638016933e-001
2937:-1.1284128916995974e-001
2938:-1.1727350784957045e-001
2939:-1.1965024851980439e-001
2940:-9.8809616652795862e-002
2941:-1.0292319191832501e-001
2942:-1.0707014961921815e-001
2943:-1.0937331684205676e-001
2944:-1.4326656496720244e-001
2945:-1.4434576676727970e-001
2946:-1.4439719868868792e-001
2947:-1.4343892201549754e-001
2948:-1.3357918828664381e-001
2949:-1.3470847043317691e-001
2950:-1.3497885406421703e-001
2951:-1.3425361658567692e-001
2952:-1.2058532059794683e-001
2953:-1.2177953569676678e-001
2954:-1.2221501905381306e-001
2955:-1.2165814703661929e-001
2956:-1.1030743933946877e-001
2957:-1.1150399179117473e-001
2958:-1.1196150203370402e-001
2959:-1.1145824407411921e-001
2960:-1.4258935449786447e-001
2961:-1.4041285126806552e-001
2962:-1.3647386474401893e-001
2963:-1.3264419443558645e-001
2964:-1.3353553041642213e-001
2965:-1.3161122986884538e-001
2966:-1.2803635103537364e-001
2967:-1.2453502410045304e-001
2968:-1.2104099258446693e-001
2969:-1.1936424678393838e-001
2970:-1.1623572150727778e-001
2971:-1.1317177203174102e-001
2972:-1.1089107483967128e-001
2973:-1.0937975377049798e-001
2974:-1.0659054107355363e-001
2975:-1.0385999248799084e-001
2976:-1.3033543845043205e-001
2977:-1.2568829520982924e-001
2978:-1.1906944035874031e-001
2979:-1.1359364730029123e-001
2980:-1.2242454049470161e-001
2981:-1.1817845847490384e-001
2982:-1.1211675792494818e-001
2983:-1.0707601113600008e-001
2984:-1.1132599921904733e-001
2985:-1.0759254219505734e-001
2986:-1.0221375683453018e-001
2987:-9.7699571178778227e-002
2988:-1.0220989443389415e-001
2989:-9.8845470378919248e-002
2990:-9.3952721538267225e-002
2991:-8.9820769005871937e-002
2992:-1.1054577441410506e-001
2993:-1.0469966472147629e-001
2994:-9.6864301752159571e-002
2995:-9.0716417204656660e-002
2996:-1.0425747412386731e-001
2997:-9.8834478354907204e-002
2998:-9.1540833612521785e-002
2999:-8.5803640811074430e-002
3000:-9.5161177834827845e-002
3001:-9.0273239662605267e-002
3002:-8.3694224967361078e-002
3003:-7.8513371735183468e-002
3004:-8.7491819348521363e-002
3005:-8.3014886486762876e-002
3006:-7.6998423250116299e-002
3007:-7.2259271616606724e-002
3008:-8.7401693351884344e-002
3009:-8.1238221792638315e-002
3010:-7.3335078502232295e-002
3011:-6.7385349808466222e-002
3012:-8.2706848133539873e-002
3013:-7.6944218203609013e-002
3014:-6.9542708372074824e-002
3015:-6.3957319639156907e-002
3016:-7.5714154247714063e-002
3017:-7.0497427247922892e-002
3018:-6.3778374505745722e-002
3019:-5.8690901678950289e-002
3020:-6.9695819579754931e-002
3021:-6.4911799270922985e-002
3022:-5.8736766459672261e-002
3023:-5.4050731676701637e-002
3024:-6.4257786381794885e-002
3025:-5.8549963778673178e-002
3026:-5.1433289420927952e-002
3027:-4.6230142821029399e-002
3028:-6.1015761173136680e-002
3029:-5.5642605064811050e-002
3030:-4.8933432174422128e-002
3031:-4.4019040038986545e-002
3032:-5.6005290809103297e-002
3033:-5.1097494838370595e-002
3034:-4.4963820313302212e-002
3035:-4.0463368014565897e-002
3036:-5.1573698021984395e-002
3037:-4.7048147801752004e-002
3038:-4.1392061855054903e-002
3039:-3.7238280372286610e-002
3040:-4.3549207009984686e-002
3041:-3.8747250216422370e-002
3042:-3.2932247071373946e-002
3043:-2.8810610402225725e-002
3044:-4.1483220456864582e-002
3045:-3.6936238268893133e-002
3046:-3.1419942091127057e-002
3047:-2.7501381203365920e-002
3048:-3.8137582824816718e-002
3049:-3.3962948088512655e-002
3050:-2.8889071445464154e-002
3051:-2.5275987137344209e-002
3052:-3.5089387570859054e-002
3053:-3.1230563376296105e-002
3054:-2.6536188516708536e-002
3055:-2.3188316292624418e-002
3056:-2.6731730600257349e-002
3057:-2.3077013261445796e-002
3058:-1.8786836225069471e-002
3059:-1.5855084164125652e-002
3060:-2.5521728507460754e-002
3061:-2.2038377793589650e-002
3062:-1.7941896167568069e-002
3063:-1.5134551379475293e-002
3064:-2.3447215068103180e-002
3065:-2.0226337088464982e-002
3066:-1.6431016138769686e-002
3067:-1.3821768374239998e-002
3068:-2.1491617178417383e-002
3069:-1.8501775677807381e-002
3070:-1.4974549412627927e-002
3071:-1.2544714634220886e-002
3072:-1.4416276752322391e-002
3073:-1.1947287916242236e-002
3074:-9.1654755814860722e-003
3075:-7.3572666053936860e-003
3076:-1.3753308425393912e-002
3077:-1.1378319251379259e-002
3078:-8.6933766794450688e-003
3079:-6.9407839170221057e-003
3080:-1.2534379499049828e-002
3081:-1.0317229269303516e-002
3082:-7.8041551908893253e-003
3083:-6.1581030780912269e-003
3084:-1.1343710467605057e-002
3085:-9.2742796122839369e-003
3086:-6.9266612510965409e-003
3087:-5.3868065340883934e-003
3088:-6.5033524878670909e-003
3089:-5.0792822598574768e-003
3090:-3.5514481825523248e-003
3091:-2.6198492306275488e-003
3092:-6.1105794471632792e-003
3093:-4.7263368056912778e-003
3094:-3.2436075539767815e-003
3095:-2.3422710564731789e-003
3096:-5.3764285671885226e-003
3097:-4.0755229521798842e-003
3098:-2.6895696534577382e-003
3099:-1.8548009685746467e-003
3100:-4.6547948809387623e-003
3101:-3.4396078489175438e-003
3102:-2.1534839444114252e-003
3103:-1.3874630060327665e-003
3104:-2.2009184135125754e-003
3105:-1.4948995824685318e-003
3106:-6.9452036643134123e-004
3107:-1.5147772079038136e-004
3108:-1.9389487300878565e-003
3109:-1.2754505345306197e-003
3110:-5.6485123427221339e-004
3111:-1.2206648712288010e-004
3112:-1.4858290430196728e-003
3113:-9.0627253449060733e-004
3114:-3.5556240292291625e-004
3115:-8.1261407226832530e-005
3116:-1.0536867860417489e-003
3117:-5.5478270320458384e-004
3118:-1.4790663759696221e-004
3119:-1.9519773759412629e-005
3120:-2.6996665827287740e-003
3121:-1.2602301888181112e-002
3122:-2.5342929565618455e-002
3123:-3.4925097299093440e-002
3124:-2.3260201204445318e-003
3125:-1.1049857885603767e-002
3126:-2.2174701297105349e-002
3127:-3.0580430601601934e-002
3128:-1.8727414272098780e-003
3129:-9.1826004245316988e-003
3130:-1.8385374593658806e-002
3131:-2.5304864719695012e-002
3132:-1.5495569615451401e-003
3133:-7.7534800276317564e-003
3134:-1.5554342929880480e-002
3135:-2.1379880005130532e-002
3136:-3.9938376335549884e-002
3137:-4.8910352434524670e-002
3138:-5.9772145463820404e-002
3139:-6.7508610014853893e-002
3140:-3.5026720777611514e-002
3141:-4.3083167339073143e-002
3142:-5.2954504161403342e-002
3143:-6.0003935012904103e-002
3144:-2.8971941691888645e-002
3145:-3.5658896692390432e-002
3146:-4.3907072849670201e-002
3147:-4.9809172617225964e-002
3148:-2.4443878205111163e-002
3149:-2.9995503749323801e-002
3150:-3.6807154536683817e-002
3151:-4.1682863725512810e-002
3152:-7.1430824962871675e-002
3153:-7.8253297707416097e-002
3154:-8.6044428055273528e-002
3155:-9.1146050245708335e-002
3156:-6.3560344370598640e-002
3157:-6.9691686789942989e-002
3158:-7.6636920064216740e-002
3159:-8.1192021565814607e-002
3160:-5.2781291673182455e-002
3161:-5.7892103174923666e-002
3162:-6.3688678107408803e-002
3163:-6.7529591982014581e-002
3164:-4.4147750107945312e-002
3165:-4.8407435312731083e-002
3166:-5.3274496305311808e-002
3167:-5.6522607001738577e-002
3168:-9.3551097546368381e-002
3169:-9.7483429151209944e-002
3170:-1.0150666206341809e-001
3171:-1.0376930370316458e-001
3172:-8.3359449408331218e-002
3173:-8.6947625027733524e-002
3174:-9.0674004459458585e-002
3175:-9.2783188637109715e-002
3176:-6.9380410784931693e-002
3177:-7.2449099775168363e-002
3178:-7.5621636600125650e-002
3179:-7.7390039886601661e-002
3180:-5.8092236776830335e-002
3181:-6.0664659108041183e-002
3182:-6.3271882114047787e-002
3183:-6.4695254907626440e-002
3184:-1.0469040651882369e-001
3185:-1.0585786092567037e-001
3186:-1.0628977603267031e-001
3187:-1.0579944338809708e-001
3188:-9.3636071658782710e-002
3189:-9.4698940643690763e-002
3190:-9.5072174779568613e-002
3191:-9.4625175177252677e-002
3192:-7.8089765842644765e-002
3193:-7.8955000163113062e-002
3194:-7.9256039083205887e-002
3195:-7.8897497766684116e-002
3196:-6.5251470015761287e-002
3197:-6.5949875074009928e-002
3198:-6.6210714339797597e-002
3199:-6.5930967066370999e-002
3200:-1.0525796066141536e-001
3201:-1.0383761934667904e-001
3202:-1.0123263072783296e-001
3203:-9.8675604061198977e-002
3204:-9.4146060870435228e-002
3205:-9.2906370503475763e-002
3206:-9.0632776695279485e-002
3207:-8.8378749134426088e-002
3208:-7.8514890387859970e-002
3209:-7.7510810583280687e-002
3210:-7.5633886111158871e-002
3211:-7.3743094785558169e-002
3212:-6.5619956549408193e-002
3213:-6.4778575625171503e-002
3214:-6.3175899421142712e-002
3215:-6.1553035121820289e-002
3216:-9.7123623054329422e-002
3217:-9.3943492919075569e-002
3218:-8.9297439517612764e-002
3219:-8.5366216744854159e-002
3220:-8.6998332538507514e-002
3221:-8.4155548938341179e-002
3222:-7.9986993204380727e-002
3223:-7.6456806440910879e-002
3224:-7.2575328056570548e-002
3225:-7.0179100647476775e-002
3226:-6.6681820757466356e-002
3227:-6.3727093655780456e-002
3228:-6.0552068282576602e-002
3229:-5.8521277309911322e-002
3230:-5.5586595768413884e-002
3231:-5.3111708779030826e-002
3232:-8.3150435924244814e-002
3233:-7.8897695839500584e-002
3234:-7.3189210924077291e-002
3235:-6.8690896181893793e-002
3236:-7.4468644075451840e-002
3237:-7.0660320539484928e-002
3238:-6.5552602132506799e-002
3239:-6.1520489823972929e-002
3240:-6.2064112148814930e-002
3241:-5.8880042804304256e-002
3242:-5.4603800049055198e-002
3243:-5.1215762180173374e-002
3244:-5.1715923940060457e-002
3245:-4.9040195351148681e-002
3246:-4.5439327825012157e-002
3247:-4.2578962008419916e-002
3248:-6.6255243513660883e-002
3249:-6.1706435038054813e-002
3250:-5.5829514154021459e-002
3251:-5.1365892573270303e-002
3252:-5.9332258928660467e-002
3253:-5.5243898285498687e-002
3254:-4.9959337801108034e-002
3255:-4.5942430256180194e-002
3256:-4.9371551544159384e-002
3257:-4.5932101761084296e-002
3258:-4.1495233382644166e-002
3259:-3.8122981890867561e-002
3260:-4.1019817915952071e-002
3261:-3.8122616691862468e-002
3262:-3.4398987403919008e-002
3263:-3.1569695663405332e-002
3264:-4.9005404766885897e-002
3265:-4.4694171976912375e-002
3266:-3.9306858923520080e-002
3267:-3.5348784133103980e-002
3268:-4.3816982921342340e-002
3269:-3.9937249018993662e-002
3270:-3.5090060887931762e-002
3271:-3.1525275204452329e-002
3272:-3.6337198899221247e-002
3273:-3.3079807059055513e-002
3274:-2.9010741886134461e-002
3275:-2.6013548281941124e-002
3276:-3.0069313474590405e-002
3277:-2.7334435821431875e-002
3278:-2.3919448147927850e-002
3279:-2.1401175667117970e-002
3280:-3.3299947981307164e-002
3281:-2.9620460761611289e-002
3282:-2.5142973916788689e-002
3283:-2.1947692643561632e-002
3284:-2.9677788575960311e-002
3285:-2.6360507450126230e-002
3286:-2.2323612675270731e-002
3287:-1.9440150715572310e-002
3288:-2.4457545475214105e-002
3289:-2.1666735847470375e-002
3290:-1.8274079363859212e-002
3291:-1.5849239198468798e-002
3292:-2.0092104158979902e-002
3293:-1.7748470075617293e-002
3294:-1.4904862220030776e-002
3295:-1.2872071033941472e-002
3296:-2.0327325272491474e-002
3297:-1.7471423845060965e-002
3298:-1.4100568526743887e-002
3299:-1.1776321417863578e-002
3300:-1.7976379734774582e-002
3301:-1.5396036476419314e-002
3302:-1.2348451183440603e-002
3303:-1.0243845285747392e-002
3304:-1.4616660107311190e-002
3305:-1.2444451557995003e-002
3306:-9.8783332464630422e-003
3307:-8.1031145550912679e-003
3308:-1.1837493820840449e-002
3309:-1.0015630634063700e-002
3310:-7.8644988638428021e-003
3311:-6.3746136222349089e-003
3312:-1.0626563616787502e-002
3313:-8.6453542976070216e-003
3314:-6.3975964028679952e-003
3315:-4.9226171092022399e-003
3316:-9.2012078864575787e-003
3317:-7.4048806961156590e-003
3318:-5.3672816995490409e-003
3319:-4.0296175369365188e-003
3320:-7.2219532580126153e-003
3321:-5.7047672503259981e-003
3322:-3.9852188210186554e-003
3323:-2.8560752569302328e-003
3324:-5.6338402847598843e-003
3325:-4.3593578001488867e-003
3326:-2.9162076529869393e-003
3327:-1.9681939278281329e-003
3328:-4.2211998775069509e-003
3329:-3.0588023662416882e-003
3330:-1.8339774274682935e-003
3331:-1.1099838969507619e-003
3332:-3.3932406893431495e-003
3333:-2.3428579942886625e-003
3334:-1.2474174898932722e-003
3335:-6.1148048498875995e-004
3336:-2.3187046360611586e-003
3337:-1.4380103496826535e-003
3338:-5.3644119309052525e-004
3339:-3.0538353770393694e-005
3340:-1.5167549914030234e-003
3341:-7.8237555049042926e-004
3342:-4.5699461002597327e-005
3343:3.5160233051329497e-004
3344:-7.9755799306867271e-004
3345:-3.4575623407251350e-004
3346:-1.9530466910600817e-005
3347:2.8960308936474737e-005
3348:-3.4333531498190769e-004
3349:1.4954458864388917e-005
3350:1.8938330706131247e-004
3351:9.2790983726000071e-005
3352:1.7340763646126839e-004
3353:4.0597489437286849e-004
3354:3.9597234972634161e-004
3355:1.3563685409674134e-004
3356:5.0311212962364472e-004
3357:6.4217519608529062e-004
3358:5.1406643986785653e-004
3359:1.6174737060327908e-004
3360:-1.3852343988082260e-003
3361:-6.9520332923794269e-003
3362:-1.3997121190709005e-002
3363:-1.9249217060440502e-002
3364:-1.0769218760836273e-003
3365:-5.2734814318923058e-003
3366:-1.0658249124480337e-002
3367:-1.4691994041264110e-002
3368:-6.0704953381858940e-004
3369:-2.7870897290675615e-003
3370:-5.5553627930633618e-003
3371:-7.6651397309304608e-003
3372:-1.3395743595679972e-004
3373:-7.1250061287840311e-004
3374:-1.1946965304785247e-003
3375:-1.5529476243554595e-003
3376:-2.1994338538785151e-002
3377:-2.6924282410497113e-002
3378:-3.2924180913513776e-002
3379:-3.7217387291830759e-002
3380:-1.6793069621528760e-002
3381:-2.0508219159568061e-002
3382:-2.4961580176749577e-002
3383:-2.8148114683655030e-002
3384:-8.7894669150384332e-003
3385:-1.0753275391727038e-002
3386:-1.3076894082748293e-002
3387:-1.4750451259141548e-002
3388:-1.7906299952767293e-003
3389:-2.2220716457014280e-003
3390:-2.7550992000963267e-003
3391:-3.1675626903770707e-003
3392:-3.9398322881340764e-002
3393:-4.3185720094779001e-002
3394:-4.7532890469718085e-002
3395:-5.0434666285254344e-002
3396:-2.9782041874113829e-002
3397:-3.2631450449790565e-002
3398:-3.5905884695407848e-002
3399:-3.8080436439700112e-002
3400:-1.5620210815023010e-002
3401:-1.7113638005890351e-002
3402:-1.8793200547928893e-002
3403:-1.9899337820190727e-002
3404:-3.3902287879942427e-003
3405:-3.7182399660005325e-003
3406:-4.0307318600908918e-003
3407:-4.2587629868730730e-003
3408:-5.1831335226313953e-002
3409:-5.4094473565214359e-002
3410:-5.6352380436534157e-002
3411:-5.7572852377007551e-002
3412:-3.9117618099560179e-002
3413:-4.0770399396505716e-002
3414:-4.2385265064806291e-002
3415:-4.3253082721691795e-002
3416:-2.0429405564506006e-002
3417:-2.1275693999020101e-002
3418:-2.2107091626895756e-002
3419:-2.2560760625165804e-002
3420:-4.3966908660971723e-003
3421:-4.6506879215614302e-003
3422:-4.9329822337941852e-003
3423:-5.0843736898836638e-003
3424:-5.8051123005377771e-002
3425:-5.8664348908923046e-002
3426:-5.8910506899733484e-002
3427:-5.8671445510581378e-002
3428:-4.3599207791064923e-002
3429:-4.4056505788588204e-002
3430:-4.4251808410204353e-002
3431:-4.4067693677498847e-002
3432:-2.2744854117876172e-002
3433:-2.2980163506139888e-002
3434:-2.3055175679509838e-002
3435:-2.2921214877400800e-002
3436:-5.1335391490341152e-003
3437:-5.1616191803609572e-003
3438:-5.1028217200253870e-003
3439:-5.0132494814528940e-003
3440:-5.8393671112945467e-002
3441:-5.7629016651029034e-002
3442:-5.6164920887663568e-002
3443:-5.4688020786960979e-002
3444:-4.3845935050902958e-002
3445:-4.3238715183629345e-002
3446:-4.2089138059943645e-002
3447:-4.0941679286808419e-002
3448:-2.2781195655388737e-002
3449:-2.2441743944153911e-002
3450:-2.1838972842571688e-002
3451:-2.1234836043479473e-002
3452:-4.9613241840076611e-003
3453:-4.9018655636501934e-003
3454:-4.8372398049479747e-003
3455:-4.7317275618579515e-003
3456:-5.3781970246333966e-002
3457:-5.1960432787174209e-002
3458:-4.9346007634247784e-002
3459:-4.7140317074957604e-002
3460:-4.0243317497994348e-002
3461:-3.8858595414060816e-002
3462:-3.6887846677797195e-002
3463:-3.5217212522061746e-002
3464:-2.0860915106533255e-002
3465:-2.0126806326122376e-002
3466:-1.9083815005507834e-002
3467:-1.8185291495885218e-002
3468:-4.6400942659907745e-003
3469:-4.4583521003593429e-003
3470:-4.1973637440111036e-003
3471:-3.9608912300777271e-003
3472:-4.5892526953306992e-002
3473:-4.3498248330108714e-002
3474:-4.0273420429577468e-002
3475:-3.7709864240897867e-002
3476:-3.4264989032401307e-002
3477:-3.2442622813331969e-002
3478:-2.9994828530017278e-002
3479:-2.8047425456154851e-002
3480:-1.7666515244760667e-002
3481:-1.6698194153605225e-002
3482:-1.5424682631789637e-002
3483:-1.4404707026102104e-002
3484:-3.8214800118233868e-003
3485:-3.6063420504543931e-003
3486:-3.3671842157568486e-003
3487:-3.1541459610402831e-003
3488:-3.6312419831463598e-002
3489:-3.3723339656950492e-002
3490:-3.0404799780866028e-002
3491:-2.7883010562361449e-002
3492:-2.6984387438851197e-002
3493:-2.5026075774941460e-002
3494:-2.2527875820123267e-002
3495:-2.0625745126002140e-002
3496:-1.3839567142043693e-002
3497:-1.2809369194545032e-002
3498:-1.1505474568153240e-002
3499:-1.0503530126284957e-002
3500:-3.0163569563474604e-003
3501:-2.7770598720756518e-003
3502:-2.4868272791660232e-003
3503:-2.2511399006098997e-003
3504:-2.6543793385246494e-002
3505:-2.4104116437962064e-002
3506:-2.1059454016938876e-002
3507:-1.8813231044299859e-002
3508:-1.9611411560115966e-002
3509:-1.7769317085394667e-002
3510:-1.5477686899844481e-002
3511:-1.3785489156017187e-002
3512:-9.9627853817367638e-003
3513:-8.9955070753488121e-003
3514:-7.8094185379535691e-003
3515:-6.9292892570222801e-003
3516:-2.1157451246464820e-003
3517:-1.8985140996338298e-003
3518:-1.6593022439719191e-003
3519:-1.4713515050316108e-003
3520:-1.7644804200848737e-002
3521:-1.5556046016264206e-002
3522:-1.3025573316748642e-002
3523:-1.1216496550234911e-002
3524:-1.2903184412642531e-002
3525:-1.1331287722627294e-002
3526:-9.4333899723806312e-003
3527:-8.0752576516597251e-003
3528:-6.4647644851538793e-003
3529:-5.6444127062821809e-003
3530:-4.6622069770265390e-003
3531:-3.9555111035675435e-003
3532:-1.3610277276884821e-003
3533:-1.1758994868122064e-003
3534:-9.6562312639113419e-004
3535:-8.0781556337499068e-004
3536:-1.0294947538873328e-002
3537:-8.6733048098303935e-003
3538:-6.7598419913968959e-003
3539:-5.4338005522124753e-003
3540:-7.3814723115814369e-003
3541:-6.1636051117348236e-003
3542:-4.7302042857685000e-003
3543:-3.7358205612475401e-003
3544:-3.5908299883201629e-003
3545:-2.9566508501671098e-003
3546:-2.2178318027853963e-003
3547:-1.7039664918510028e-003
3548:-7.2069311028747978e-004
3549:-5.7868237902367395e-004
3550:-4.2524386534149600e-004
3551:-3.1619981132541850e-004
3552:-4.7737898150253272e-003
3553:-3.6388572178468570e-003
3554:-2.3543936727448748e-003
3555:-1.5101587908442832e-003
3556:-3.2395624152800531e-003
3557:-2.3875200542075666e-003
3558:-1.4241925312257141e-003
3559:-7.8921626604867303e-004
3560:-1.4452387595224611e-003
3561:-1.0036508185181422e-003
3562:-5.0580795114981781e-004
3563:-1.7318173113334536e-004
3564:-2.5757240518022967e-004
3565:-1.6201358294872469e-004
3566:-5.6776453493599897e-005
3567:2.1062682645115815e-005
3568:-1.1078514173087583e-003
3569:-4.5664066800698189e-004
3570:1.8749942128079577e-004
3571:5.2498173648967566e-004
3572:-4.8553794684119591e-004
3573:7.3831918221184083e-007
3574:4.6761829150847306e-004
3575:6.9761364169699028e-004
3576:-1.1316400104873044e-005
3577:2.4218770304608358e-004
3578:4.7246903221839385e-004
3579:5.7475973123148703e-004
3580:6.3757559946250492e-005
3581:1.2511018213594570e-004
3582:1.7076155206712944e-004
3583:1.8626428942733695e-004
3584:6.4824224201900688e-004
3585:7.4100612964499233e-004
3586:5.6331224409289808e-004
3587:1.7904416766577959e-004
3588:7.7377737204986912e-004
3589:8.0180475881091171e-004
3590:5.8032505911118169e-004
3591:1.8738054716564657e-004
3592:6.0334363068004638e-004
3593:5.9262132492513627e-004
3594:4.0857151066352751e-004
3595:9.8956518550176735e-005
3596:1.8995864936410055e-004
3597:1.8393135516093077e-004
3598:9.4892647039940113e-005
3599:-8.7096745958656032e-005
3600:0.0000000000000000e+000
3601:0.0000000000000000e+000
3602:0.0000000000000000e+000
3603:0.0000000000000000e+000
3604:0.0000000000000000e+000
3605:0.0000000000000000e+000
3606:0.0000000000000000e+000
3607:0.0000000000000000e+000
3608:0.0000000000000000e+000
3609:0.0000000000000000e+000
3610:0.0000000000000000e+000
3611:0.0000000000000000e+000
3612:0.0000000000000000e+000
3613:0.0000000000000000e+000
3614:0.0000000000000000e+000
3615:0.0000000000000000e+000
3616:0.0000000000000000e+000
3617:0.0000000000000000e+000
3618:0.0000000000000000e+000
3619:0.0000000000000000e+000
3620:0.0000000000000000e+000
3621:0.0000000000000000e+000
3622:0.0000000000000000e+000
3623:0.0000000000000000e+000
3624:0.0000000000000000e+000
3625:0.0000000000000000e+000
3626:0.0000000000000000e+000
3627:0.0000000000000000e+000
3628:0.0000000000000000e+000
3629:0.0000000000000000e+000
3630:0.0000000000000000e+000
3631:0.0000000000000000e+000
3632:0.0000000000000000e+000
3633:0.0000000000000000e+000
3634:0.0000000000000000e+000
3635:0.0000000000000000e+000
3636:0.0000000000000000e+000
3637:0.0000000000000000e+000
3638:0.0000000000000000e+000
3639:0.0000000000000000e+000
3640:0.0000000000000000e+000
3641:0.0000000000000000e+000
3642:0.0000000000000000e+000
3643:0.0000000000000000e+000
3644:0.0000000000000000e+000
3645:0.0000000000000000e+000
3646:0.0000000000000000e+000
3647:0.0000000000000000e+000
3648:0.0000000000000000e+000
3649:0.0000000000000000e+000
3650:0.0000000000000000e+000
3651:0.0000000000000000e+000
3652:0.0000000000000000e+000
3653:0.0000000000000000e+000
3654:0.0000000000000000e+000
3655:0.0000000000000000e+000
3656:0.0000000000000000e+000
3657:0.0000000000000000e+000
3658:0.0000000000000000e+000
3659:0.0000000000000000e+000
3660:0.0000000000000000e+000
3661:0.0000000000000000e+000
3662:0.0000000000000000e+000
3663:0.0000000000000000e+000
3664:0.0000000000000000e+000
3665:0.0000000000000000e+000
3666:0.0000000000000000e+000
3667:0.0000000000000000e+000
3668:0.0000000000000000e+000
3669:0.0000000000000000e+000
3670:0.0000000000000000e+000
3671:0.0000000000000000e+000
3672:0.0000000000000000e+000
3673:0.0000000000000000e+000
3674:0.0000000000000000e+000
3675:0.0000000000000000e+000
3676:0.0000000000000000e+000
3677:0.0000000000000000e+000
3678:0.0000000000000000e+000
3679:0.0000000000000000e+000
3680:0.0000000000000000e+000
3681:0.0000000000000000e+000
3682:0.0000000000000000e+000
3683:0.0000000000000000e+000
3684:0.0000000000000000e+000
3685:0.0000000000000000e+000
3686:0.0000000000000000e+000
3687:0.0000000000000000e+000
3688:0.0000000000000000e+000
3689:0.0000000000000000e+000
3690:0.0000000000000000e+000
3691:0.0000000000000000e+000
3692:0.0000000000000000e+000
3693:0.0000000000000000e+000
3694:0.0000000000000000e+000
3695:0.0000000000000000e+000
3696:0.0000000000000000e+000
3697:0.0000000000000000e+000
3698:0.0000000000000000e+000
3699:0.0000000000000000e+000
3700:0.0000000000000000e+000
3701:0.0000000000000000e+000
3702:0.0000000000000000e+000
3703:0.0000000000000000e+000
3704:0.0000000000000000e+000
3705:0.0000000000000000e+000
3706:0.0000000000000000e+000
3707:0.0000000000000000e+000
3708:0.0000000000000000e+000
3709:0.0000000000000000e+000
3710:0.0000000000000000e+000
3711:0.0000000000000000e+000
3712:0.0000000000000000e+000
3713:0.0000000000000000e+000
3714:0.0000000000000000e+000
3715:0.0000000000000000e+000
3716:0.0000000000000000e+000
3717:0.0000000000000000e+000
3718:0.0000000000000000e+000
3719:0.0000000000000000e+000
3720:0.0000000000000000e+000
3721:0.0000000000000000e+000
3722:0.0000000000000000e+000
3723:0.0000000000000000e+000
3724:0.0000000000000000e+000
3725:0.0000000000000000e+000
3726:0.0000000000000000e+000
3727:0.0000000000000000e+000
3728:0.0000000000000000e+000
3729:0.0000000000000000e+000
3730:0.0000000000000000e+000
3731:0.0000000000000000e+000
3732:0.0000000000000000e+000
3733:0.0000000000000000e+000
3734:0.0000000000000000e+000
3735:0.0000000000000000e+000
3736:0.0000000000000000e+000
3737:0.0000000000000000e+000
3738:0.0000000000000000e+000
3739:0.0000000000000000e+000
3740:0.0000000000000000e+000
3741:0.0000000000000000e+000
3742:0.0000000000000000e+000
3743:0.0000000000000000e+000
3744:0.0000000000000000e+000
3745:0.0000000000000000e+000
3746:0.0000000000000000e+000
3747:0.0000000000000000e+000
3748:0.0000000000000000e+000
3749:0.0000000000000000e+000
3750:0.0000000000000000e+000
3751:0.0000000000000000e+000
3752:0.0000000000000000e+000
3753:0.0000000000000000e+000
3754:0.0000000000000000e+000
3755:0.0000000000000000e+000
3756:0.0000000000000000e+000
3757:0.0000000000000000e+000
3758:0.0000000000000000e+000
3759:0.0000000000000000e+000
3760:0.0000000000000000e+000
3761:0.0000000000000000e+000
3762:0.0000000000000000e+000
3763:0.0000000000000000e+000
3764:0.0000000000000000e+000
3765:0.0000000000000000e+000
3766:0.0000000000000000e+000
3767:0.0000000000000000e+000
3768:0.0000000000000000e+000
3769:0.0000000000000000e+000
3770:0.0000000000000000e+000
3771:0.0000000000000000e+000
3772:0.0000000000000000e+000
3773:0.0000000000000000e+000
3774:0.0000000000000000e+000
3775:0.0000000000000000e+000
3776:0.0000000000000000e+000
3777:0.0000000000000000e+000
3778:0.0000000000000000e+000
3779:0.0000000000000000e+000
3780:0.0000000000000000e+000
3781:0.0000000000000000e+000
3782:0.0000000000000000e+000
3783:0.0000000000000000e+000
3784:0.0000000000000000e+000
3785:0.0000000000000000e+000
3786:0.0000000000000000e+000
3787:0.0000000000000000e+000
3788:0.0000000000000000e+000
3789:0.0000000000000000e+000
3790:0.0000000000000000e+000
3791:0.0000000000000000e+000
3792:0.0000000000000000e+000
3793:0.0000000000000000e+000
3794:0.0000000000000000e+000
3795:0.0000000000000000e+000
3796:0.0000000000000000e+000
3797:0.0000000000000000e+000
3798:0.0000000000000000e+000
3799:0.0000000000000000e+000
3800:0.0000000000000000e+000
3801:0.0000000000000000e+000
3802:0.0000000000000000e+000
3803:0.0000000000000000e+000
3804:0.0000000000000000e+000
3805:0.0000000000000000e+000
3806:0.0000000000000000e+000
3807:0.0000000000000000e+000
3808:0.0000000000000000e+000
3809:0.0000000000000000e+000
3810:0.0000000000000000e+000
3811:0.0000000000000000e+000
3812:0.0000000000000000e+000
3813:0.0000000000000000e+000
3814:0.0000000000000000e+000
3815:0.0000000000000000e+000
3816:0.0000000000000000e+000
3817:0.0000000000000000e+000
3818:0.0000000000000000e+000
3819:0.0000000000000000e+000
3820:0.0000000000000000e+000
3821:0.0000000000000000e+000
3822:0.0000000000000000e+000
3823:0.0000000000000000e+000
3824:0.0000000000000000e+000
3825:0.0000000000000000e+000
3826:0.0000000000000000e+000
3827:0.0000000000000000e+000
3828:0.0000000000000000e+000
3829:0.0000000000000000e+000
3830:0.0000000000000000e+000
3831:0.0000000000000000e+000
3832:0.0000000000000000e+000
3833:0.0000000000000000e+000
3834:0.0000000000000000e+000
3835:0.0000000000000000e+000
3836:0.0000000000000000e+000
3837:0.0000000000000000e+000
3838:0.0000000000000000e+000
3839:0.0000000000000000e+000
3840:0.0000000000000000e+000
3841:0.0000000000000000e+000
3842:0.0000000000000000e+000
3843:0.0000000000000000e+000
3844:0.0000000000000000e+000
3845:0.0000000000000000e+000
3846:0.0000000000000000e+000
3847:0.0000000000000000e+000
3848:0.0000000000000000e+000
3849:0.0000000000000000e+000
3850:0.0000000000000000e+000
3851:0.0000000000000000e+000
3852:0.0000000000000000e+000
3853:0.0000000000000000e+000
3854:0.0000000000000000e+000
3855:0.0000000000000000e+000
3856:0.0000000000000000e+000
3857:0.0000000000000000e+000
3858:0.0000000000000000e+000
3859:0.0000000000000000e+000
3860:0.0000000000000000e+000
3861:0.0000000000000000e+000
3862:0.0000000000000000e+000
3863:0.0000000000000000e+000
3864:0.0000000000000000e+000
3865:0.0000000000000000e+000
3866:0.0000000000000000e+000
3867:0.0000000000000000e+000
3868:0.0000000000000000e+000
3869:0.0000000000000000e+000
3870:0.0000000000000000e+000
3871:0.0000000000000000e+000
3872:0.0000000000000000e+000
3873:0.0000000000000000e+000
3874:0.0000000000000000e+000
3875:0.0000000000000000e+000
3876:0.0000000000000000e+000
3877:0.0000000000000000e+000
3878:0.0000000000000000e+000
3879:0.0000000000000000e+000
3880:0.0000000000000000e+000
3881:0.0000000000000000e+000
3882:0.0000000000000000e+000
3883:0.0000000000000000e+000
3884:0.0000000000000000e+000
3885:0.0000000000000000e+000
3886:0.0000000000000000e+000
3887:0.0000000000000000e+000
3888:0.0000000000000000e+000
3889:0.0000000000000000e+000
3890:0.0000000000000000e+000
3891:0.0000000000000000e+000
3892:0.0000000000000000e+000
3893:0.0000000000000000e+000
3894:0.0000000000000000e+000
3895:0.0000000000000000e+000
3896:0.0000000000000000e+000
3897:0.0000000000000000e+000
3898:0.0000000000000000e+000
3899:0.0000000000000000e+000
3900:0.0000000000000000e+000
3901:0.0000000000000000e+000
3902:0.0000000000000000e+000
3903:0.0000000000000000e+000
3904:0.0000000000000000e+000
3905:0.0000000000000000e+000
3906:0.0000000000000000e+000
3907:0.0000000000000000e+000
3908:0.0000000000000000e+000
3909:0.0000000000000000e+000
3910:0.0000000000000000e+000
3911:0.0000000000000000e+000
3912:0.0000000000000000e+000
3913:0.0000000000000000e+000
3914:0.0000000000000000e+000
3915:0.0000000000000000e+000
3916:0.0000000000000000e+000
3917:0.0000000000000000e+000
3918:0.0000000000000000e+000
3919:0.0000000000000000e+000
3920:0.0000000000000000e+000
3921:0.0000000000000000e+000
3922:0.0000000000000000e+000
3923:0.0000000000000000e+000
3924:0.0000000000000000e+000
3925:0.0000000000000000e+000
3926:0.0000000000000000e+000
3927:0.0000000000000000e+000
3928:0.0000000000000000e+000
3929:0.0000000000000000e+000
3930:0.0000000000000000e+000
3931:0.0000000000000000e+000
3932:0.0000000000000000e+000
3933:0.0000000000000000e+000
3934:0.0000000000000000e+000
3935:0.0000000000000000e+000
3936:0.0000000000000000e+000
3937:0.0000000000000000e+000
3938:0.0000000000000000e+000
3939:0.0000000000000000e+000
3940:0.0000000000000000e+000
3941:0.0000000000000000e+000
3942:0.0000000000000000e+000
3943:0.0000000000000000e+000
3944:0.0000000000000000e+000
3945:0.0000000000000000e+000
3946:0.0000000000000000e+000
3947:0.0000000000000000e+000
3948:0.0000000000000000e+000
3949:0.0000000000000000e+000
3950:0.0000000000000000e+000
3951:0.0000000000000000e+000
3952:0.0000000000000000e+000
3953:0.0000000000000000e+000
3954:0.0000000000000000e+000
3955:0.0000000000000000e+000
3956:0.0000000000000000e+000
3957:0.0000000000000000e+000
3958:0.0000000000000000e+000
3959:0.0000000000000000e+000
3960:0.0000000000000000e+000
3961:0.0000000000000000e+000
3962:0.0000000000000000e+000
3963:0.0000000000000000e+000
3964:0.0000000000000000e+000
3965:0.0000000000000000e+000
3966:0.0000000000000000e+000
3967:0.0000000000000000e+000
3968:0.0000000000000000e+000
3969:0.0000000000000000e+000
3970:0.0000000000000000e+000
3971:0.0000000000000000e+000
3972:0.0000000000000000e+000
3973:0.0000000000000000e+000
3974:0.0000000000000000e+000
3975:0.0000000000000000e+000
3976:0.0000000000000000e+000
3977:0.0000000000000000e+000
3978:0.0000000000000000e+000
3979:0.0000000000000000e+000
3980:0.0000000000000000e+000
3981:0.0000000000000000e+000
3982:0.0000000000000000e+000
3983:0.0000000000000000e+000
3984:0.0000000000000000e+000
3985:0.0000000000000000e+000
3986:0.0000000000000000e+000
3987:0.0000000000000000e+000
3988:0.0000000000000000e+000
3989:0.0000000000000000e+000
3990:0.0000000000000000e+000
3991:0.0000000000000000e+000
3992:0.0000000000000000e+000
3993:0.0000000000000000e+000
3994:0.0000000000000000e+000
3995:0.0000000000000000e+000
3996:0.0000000000000000e+000
3997:0.0000000000000000e+000
3998:0.0000000000000000e+000
3999:0.0000000000000000e+000
4000:0.0000000000000000e+000
4001:0.0000000000000000e+000
4002:0.0000000000000000e+000
4003:0.0000000000000000e+000
4004:0.0000000000000000e+000
4005:0.0000000000000000e+000
4006:0.0000000000000000e+000
4007:0.0000000000000000e+000
4008:0.0000000000000000e+000
4009:0.0000000000000000e+000
4010:0.0000000000000000e+000
4011:0.0000000000000000e+000
4012:0.0000000000000000e+000
4013:0.0000000000000000e+000
4014:0.0000000000000000e+000
4015:0.0000000000000000e+000
4016:0.0000000000000000e+000
4017:0.0000000000000000e+000
4018:0.0000000000000000e+000
4019:0.0000000000000000e+000
4020:0.0000000000000000e+000
4021:0.0000000000000000e+000
4022:0.0000000000000000e+000
4023:0.0000000000000000e+000
4024:0.0000000000000000e+000
4025:0.0000000000000000e+000
4026:0.0000000000000000e+000
4027:0.0000000000000000e+000
4028:0.0000000000000000e+000
4029:0.0000000000000000e+000
4030:0.0000000000000000e+000
4031:0.0000000000000000e+000
4032:0.0000000000000000e+000
4033:0.0000000000000000e+000
4034:0.0000000000000000e+000
4035:0.0000000000000000e+000
4036:0.0000000000000000e+000
4037:0.0000000000000000e+000
4038:0.0000000000000000e+000
4039:0.0000000000000000e+000
4040:0.0000000000000000e+000
4041:0.0000000000000000e+000
4042:0.0000000000000000e+000
4043:0.0000000000000000e+000
4044:0.0000000000000000e+000
4045:0.0000000000000000e+000
4046:0.0000000000000000e+000
4047:0.0000000000000000e+000
4048:0.0000000000000000e+000
4049:0.0000000000000000e+000
4050:0.0000000000000000e+000
4051:0.0000000000000000e+000
4052:0.0000000000000000e+000
4053:0.0000000000000000e+000
4054:0.0000000000000000e+000
4055:0.0000000000000000e+000
4056:0.0000000000000000e+000
4057:0.0000000000000000e+000
4058:0.0000000000000000e+000
4059:0.0000000000000000e+000
4060:0.0000000000000000e+000
4061:0.0000000000000000e+000
4062:0.0000000000000000e+000
4063:0.0000000000000000e+000
4064:0.0000000000000000e+000
4065:0.0000000000000000e+000
4066:0.0000000000000000e+000
4067:0.0000000000000000e+000
4068:0.0000000000000000e+000
4069:0.0000000000000000e+000
4070:0.0000000000000000e+000
4071:0.0000000000000000e+000
4072:0.0000000000000000e+000
4073:0.0000000000000000e+000
4074:0.0000000000000000e+000
4075:0.0000000000000000e+000
4076:0.0000000000000000e+000
4077:0.0000000000000000e+000
4078:0.0000000000000000e+000
4079:0.0000000000000000e+000
4080:0.0000000000000000e+000
4081:0.0000000000000000e+000
4082:0.0000000000000000e+000
4083:0.0000000000000000e+000
4084:0.0000000000000000e+000
4085:0.0000000000000000e+000
4086:0.0000000000000000e+000
4087:0.0000000000000000e+000
4088:0.0000000000000000e+000
4089:0.0000000000000000e+000
4090:0.0000000000000000e+000
4091:0.0000000000000000e+000
4092:0.0000000000000000e+000
4093:0.0000000000000000e+000
4094:0.0000000000000000e+000
4095:0.0000000000000000e+000
4096:0.0000000000000000e+000
4097:0.0000000000000000e+000
4098:0.0000000000000000e+000
4099:0.0000000000000000e+000
4100:0.0000000000000000e+000
4101:0.0000000000000000e+000
4102:0.0000000000000000e+000
4103:0.0000000000000000e+000
4104:0.0000000000000000e+000
4105:0.0000000000000000e+000
4106:0.0000000000000000e+000
4107:0.0000000000000000e+000
4108:0.0000000000000000e+000
4109:0.0000000000000000e+000
4110:0.0000000000000000e+000
4111:0.0000000000000000e+000
4112:0.0000000000000000e+000
4113:0.0000000000000000e+000
4114:0.0000000000000000e+000
4115:0.0000000000000000e+000
4116:0.0000000000000000e+000
4117:0.0000000000000000e+000
4118:0.0000000000000000e+000
4119:0.0000000000000000e+000
4120:0.0000000000000000e+000
4121:0.0000000000000000e+000
4122:0.0000000000000000e+000
4123:0.0000000000000000e+000
4124:0.0000000000000000e+000
4125:0.0000000000000000e+000
4126:0.0000000000000000e+000
4127:0.0000000000000000e+000
4128:0.0000000000000000e+000
4129:0.0000000000000000e+000
4130:0.0000000000000000e+000
4131:0.0000000000000000e+000
4132:0.0000000000000000e+000
4133:0.0000000000000000e+000
4134:0.0000000000000000e+000
4135:0.0000000000000000e+000
4136:0.0000000000000000e+000
4137:0.0000000000000000e+000
4138:0.0000000000000000e+000
4139:0.0000000000000000e+000
4140:0.0000000000000000e+000
4141:0.0000000000000000e+000
4142:0.0000000000000000e+000
4143:0.0000000000000000e+000
4144:0.0000000000000000e+000
4145:0.0000000000000000e+000
4146:0.0000000000000000e+000
4147:0.0000000000000000e+000
4148:0.0000000000000000e+000
4149:0.0000000000000000e+000
4150:0.0000000000000000e+000
4151:0.0000000000000000e+000
4152:0.0000000000000000e+000
4153:0.0000000000000000e+000
4154:0.0000000000000000e+000
4155:0.0000000000000000e+000
4156:0.0000000000000000e+000
4157:0.0000000000000000e+000
4158:0.0000000000000000e+000
4159:0.0000000000000000e+000
4160:0.0000000000000000e+000
4161:0.0000000000000000e+000
4162:0.0000000000000000e+000
4163:0.0000000000000000e+000
4164:0.0000000000000000e+000
4165:0.0000000000000000e+000
4166:0.0000000000000000e+000
4167:0.0000000000000000e+000
4168:0.0000000000000000e+000
4169:0.0000000000000000e+000
4170:0.0000000000000000e+000
4171:0.0000000000000000e+000
4172:0.0000000000000000e+000
4173:0.0000000000000000e+000
4174:0.0000000000000000e+000
4175:0.0000000000000000e+000
4176:0.0000000000000000e+000
4177:0.0000000000000000e+000
4178:0.0000000000000000e+000
4179:0.0000000000000000e+000
4180:0.0000000000000000e+000
4181:0.0000000000000000e+000
4182:0.0000000000000000e+000
4183:0.0000000000000000e+000
4184:0.0000000000000000e+000
4185:0.0000000000000000e+000
4186:0.0000000000000000e+000
4187:0.0000000000000000e+000
4188:0.0000000000000000e+000
4189:0.0000000000000000e+000
4190:0.0000000000000000e+000
4191:0.0000000000000000e+000
4192:0.0000000000000000e+000
4193:0.0000000000000000e+000
4194:0.0000000000000000e+000
4195:0.0000000000000000e+000
4196:0.0000000000000000e+000
4197:0.0000000000000000e+000
4198:0.0000000000000000e+000
4199:0.0000000000000000e+000
4200:0.0000000000000000e+000
4201:0.0000000000000000e+000
4202:0.0000000000000000e+000
4203:0.0000000000000000e+000
4204:0.0000000000000000e+000
4205:0.0000000000000000e+000
4206:0.0000000000000000e+000
4207:0.0000000000000000e+000
4208:0.0000000000000000e+000
4209:0.0000000000000000e+000
4210:0.0000000000000000e+000
4211:0.0000000000000000e+000
4212:0.0000000000000000e+000
4213:0.0000000000000000e+000
4214:0.0000000000000000e+000
4215:0.0000000000000000e+000
4216:0.0000000000000000e+000
4217:0.0000000000000000e+000
4218:0.0000000000000000e+000
4219:0.0000000000000000e+000
4220:0.0000000000000000e+000
4221:0.0000000000000000e+000
4222:0.0000000000000000e+000
4223:0.0000000000000000e+000
4224:0.0000000000000000e+000
4225:0.0000000000000000e+000
4226:0.0000000000000000e+000
4227:0.0000000000000000e+000
4228:0.0000000000000000e+000
4229:0.0000000000000000e+000
4230:0.0000000000000000e+000
4231:0.0000000000000000e+000
4232:0.0000000000000000e+000
4233:0.0000000000000000e+000
4234:0.0000000000000000e+000
4235:0.0000000000000000e+000
4236:0.0000000000000000e+000
4237:0.0000000000000000e+000
4238:0.0000000000000000e+000
4239:0.0000000000000000e+000
4240:0.0000000000000000e+000
4241:0.0000000000000000e+000
4242:0.0000000000000000e+000
4243:0.0000000000000000e+000
4244:0.0000000000000000e+000
4245:0.0000000000000000e+000
4246:0.0000000000000000e+000
4247:0.0000000000000000e+000
4248:0.0000000000000000e+000
4249:0.0000000000000000e+000
4250:0.0000000000000000e+000
4251:0.0000000000000000e+000
4252:0.0000000000000000e+000
4253:0.0000000000000000e+000
4254:0.0000000000000000e+000
4255:0.0000000000000000e+000
4256:0.0000000000000000e+000
4257:0.0000000000000000e+000
4258:0.0000000000000000e+000
4259:0.0000000000000000e+000
4260:0.0000000000000000e+000
4261:0.0000000000000000e+000
4262:0.0000000000000000e+000
4263:0.0000000000000000e+000
4264:0.0000000000000000e+000
4265:0.0000000000000000e+000
4266:0.0000000000000000e+000
4267:0.0000000000000000e+000
4268:0.0000000000000000e+000
4269:0.0000000000000000e+000
4270:0.0000000000000000e+000
4271:0.0000000000000000e+000
4272:0.0000000000000000e+000
4273:0.0000000000000000e+000
4274:0.0000000000000000e+000
4275:0.0000000000000000e+000
4276:0.0000000000000000e+000
4277:0.0000000000000000e+000
4278:0.0000000000000000e+000
4279:0.0000000000000000e+000
4280:0.0000000000000000e+000
4281:0.0000000000000000e+000
4282:0.0000000000000000e+000
4283:0.0000000000000000e+000
4284:0.0000000000000000e+000
4285:0.0000000000000000e+000
4286:0.0000000000000000e+000
4287:0.0000000000000000e+000
4288:0.0000000000000000e+000
4289:0.0000000000000000e+000
4290:0.0000000000000000e+000
4291:0.0000000000000000e+000
4292:0.0000000000000000e+000
4293:0.0000000000000000e+000
4294:0.0000000000000000e+000
4295:0.0000000000000000e+000
4296:0.0000000000000000e+000
4297:0.0000000000000000e+000
4298:0.0000000000000000e+000
4299:0.0000000000000000e+000
4300:0.0000000000000000e+000
4301:0.0000000000000000e+000
4302:0.0000000000000000e+000
4303:0.0000000000000000e+000
4304:0.0000000000000000e+000
4305:0.0000000000000000e+000
4306:0.0000000000000000e+000
4307:0.0000000000000000e+000
4308:0.0000000000000000e+000
4309:0.0000000000000000e+000
4310:0.0000000000000000e+000
4311:0.0000000000000000e+000
4312:0.0000000000000000e+000
4313:0.0000000000000000e+000
4314:0.0000000000000000e+000
4315:0.0000000000000000e+000
4316:0.0000000000000000e+000
4317:0.0000000000000000e+000
4318:0.0000000000000000e+000
4319:0.0000000000000000e+000
4320:0.0000000000000000e+000
4321:0.0000000000000000e+000
4322:0.0000000000000000e+000
4323:0.0000000000000000e+000
4324:0.0000000000000000e+000
4325:0.0000000000000000e+000
4326:0.0000000000000000e+000
4327:0.0000000000000000e+000
4328:0.0000000000000000e+000
4329:0.0000000000000000e+000
4330:0.0000000000000000e+000
4331:0.0000000000000000e+000
4332:0.0000000000000000e+000
4333:0.0000000000000000e+000
4334:0.0000000000000000e+000
4335:0.0000000000000000e+000
4336:0.0000000000000000e+000
4337:0.0000000000000000e+000
4338:0.0000000000000000e+000
4339:0.0000000000000000e+000
4340:0.0000000000000000e+000
4341:0.0000000000000000e+000
4342:0.0000000000000000e+000
4343:0.0000000000000000e+000
4344:0.0000000000000000e+000
4345:0.0000000000000000e+000
4346:0.0000000000000000e+000
4347:0.0000000000000000e+000
4348:0.0000000000000000e+000
4349:0.0000000000000000e+000
4350:0.0000000000000000e+000
4351:0.0000000000000000e+000
4352:0.0000000000000000e+000
4353:0.0000000000000000e+000
4354:0.0000000000000000e+000
4355:0.0000000000000000e+000
4356:0.0000000000000000e+000
4357:0.0000000000000000e+000
4358:0.0000000000000000e+000
4359:0.0000000000000000e+000
4360:0.0000000000000000e+000
4361:0.0000000000000000e+000
4362:0.0000000000000000e+000
4363:0.0000000000000000e+000
4364:0.0000000000000000e+000
4365:0.0000000000000000e+000
4366:0.0000000000000000e+000
4367:0.0000000000000000e+000
4368:0.0000000000000000e+000
4369:0.0000000000000000e+000
4370:0.0000000000000000e+000
4371:0.0000000000000000e+000
4372:0.0000000000000000e+000
4373:0.0000000000000000e+000
4374:0.0000000000000000e+000
4375:0.0000000000000000e+000
4376:0.0000000000000000e+000
4377:0.0000000000000000e+000
4378:0.0000000000000000e+000
4379:0.0000000000000000e+000
4380:0.0000000000000000e+000
4381:0.0000000000000000e+000
4382:0.0000000000000000e+000
4383:0.0000000000000000e+000
4384:0.0000000000000000e+000
4385:0.0000000000000000e+000
4386:0.0000000000000000e+000
4387:0.0000000000000000e+000
4388:0.0000000000000000e+000
4389:0.0000000000000000e+000
4390:0.0000000000000000e+000
4391:0.0000000000000000e+000
4392:0.0000000000000000e+000
4393:0.0000000000000000e+000
4394:0.0000000000000000e+000
4395:0.0000000000000000e+000
4396:0.0000000000000000e+000
4397:0.0000000000000000e+000
4398:0.0000000000000000e+000
4399:0.0000000000000000e+000
4400:0.0000000000000000e+000
4401:0.0000000000000000e+000
4402:0.0000000000000000e+000
4403:0.0000000000000000e+000
4404:0.0000000000000000e+000
4405:0.0000000000000000e+000
4406:0.0000000000000000e+000
4407:0.0000000000000000e+000
4408:0.0000000000000000e+000
4409:0.0000000000000000e+000
4410:0.0000000000000000e+000
4411:0.0000000000000000e+000
4412:0.0000000000000000e+000
4413:0.0000000000000000e+000
4414:0.0000000000000000e+000
4415:0.0000000000000000e+000
4416:0.0000000000000000e+000
4417:0.0000000000000000e+000
4418:0.0000000000000000e+000
4419:0.0000000000000000e+000
4420:0.0000000000000000e+000
4421:0.0000000000000000e+000
4422:0.0000000000000000e+000
4423:0.0000000000000000e+000
4424:0.0000000000000000e+000
4425:0.0000000000000000e+000
4426:0.0000000000000000e+000
4427:0.0000000000000000e+000
4428:0.0000000000000000e+000
4429:0.0000000000000000e+000
4430:0.0000000000000000e+000
4431:0.0000000000000000e+000
4432:0.0000000000000000e+000
4433:0.0000000000000000e+000
4434:0.0000000000000000e+000
4435:0.0000000000000000e+000
4436:0.0000000000000000e+000
4437:0.0000000000000000e+000
4438:0.0000000000000000e+000
4439:0.0000000000000000e+000
4440:0.0000000000000000e+000
4441:0.0000000000000000e+000
4442:0.0000000000000000e+000
4443:0.0000000000000000e+000
4444:0.0000000000000000e+000
4445:0.0000000000000000e+000
4446:0.0000000000000000e+000
4447:0.0000000000000000e+000
4448:0.0000000000000000e+000
4449:0.0000000000000000e+000
4450:0.0000000000000000e+000
4451:0.0000000000000000e+000
4452:0.0000000000000000e+000
4453:0.0000000000000000e+000
4454:0.0000000000000000e+000
4455:0.0000000000000000e+000
4456:0.0000000000000000e+000
4457:0.0000000000000000e+000
4458:0.0000000000000000e+000
4459:0.0000000000000000e+000
4460:0.0000000000000000e+000
4461:0.0000000000000000e+000
4462:0.0000000000000000e+000
4463:0.0000000000000000e+000
4464:0.0000000000000000e+000
4465:0.0000000000000000e+000
4466:0.0000000000000000e+000
4467:0.0000000000000000e+000
4468:0.0000000000000000e+000
4469:0.0000000000000000e+000
4470:0.0000000000000000e+000
4471:0.0000000000000000e+000
4472:0.0000000000000000e+000
4473:0.0000000000000000e+000
4474:0.0000000000000000e+000
4475:0.0000000000000000e+000
4476:0.0000000000000000e+000
4477:0.0000000000000000e+000
4478:0.0000000000000000e+000
4479:0.0000000000000000e+000
4480:0.0000000000000000e+000
4481:0.0000000000000000e+000
4482:0.0000000000000000e+000
4483:0.0000000000000000e+000
4484:0.0000000000000000e+000
4485:0.0000000000000000e+000
4486:0.0000000000000000e+000
4487:0.0000000000000000e+000
4488:0.0000000000000000e+000
4489:0.0000000000000000e+000
4490:0.0000000000000000e+000
4491:0.0000000000000000e+000
4492:0.0000000000000000e+000
4493:0.0000000000000000e+000
4494:0.0000000000000000e+000
4495:0.0000000000000000e+000
4496:0.0000000000000000e+000
4497:0.0000000000000000e+000
4498:0.0000000000000000e+000
4499:0.0000000000000000e+000
4500:0.0000000000000000e+000
4501:0.0000000000000000e+000
4502:0.0000000000000000e+000
4503:0.0000000000000000e+000
4504:0.0000000000000000e+000
4505:0.0000000000000000e+000
4506:0.0000000000000000e+000
4507:0.0000000000000000e+000
4508:0.0000000000000000e+000
4509:0.0000000000000000e+000
4510:0.0000000000000000e+000
4511:0.0000000000000000e+000
4512:0.0000000000000000e+000
4513:0.0000000000000000e+000
4514:0.0000000000000000e+000
4515:0.0000000000000000e+000
4516:0.0000000000000000e+000
4517:0.0000000000000000e+000
4518:0.0000000000000000e+000
4519:0.0000000000000000e+000
4520:0.0000000000000000e+000
4521:0.0000000000000000e+000
4522:0.0000000000000000e+000
4523:0.0000000000000000e+000
4524:0.0000000000000000e+000
4525:0.0000000000000000e+000
4526:0.0000000000000000e+000
4527:0.0000000000000000e+000
4528:0.0000000000000000e+000
4529:0.0000000000000000e+000
4530:0.0000000000000000e+000
4531:0.0000000000000000e+000
4532:0.0000000000000000e+000
4533:0.0000000000000000e+000
4534:0.0000000000000000e+000
4535:0.0000000000000000e+000
4536:0.0000000000000000e+000
4537:0.0000000000000000e+000
4538:0.0000000000000000e+000
4539:0.0000000000000000e+000
4540:0.0000000000000000e+000
4541:0.0000000000000000e+000
4542:0.0000000000000000e+000
4543:0.0000000000000000e+000
4544:0.0000000000000000e+000
4545:0.0000000000000000e+000
4546:0.0000000000000000e+000
4547:0.0000000000000000e+000
4548:0.0000000000000000e+000
4549:0.0000000000000000e+000
4550:0.0000000000000000e+000
4551:0.0000000000000000e+000
4552:0.0000000000000000e+000
4553:0.0000000000000000e+000
4554:0.0000000000000000e+000
4555:0.0000000000000000e+000
4556:0.0000000000000000e+000
4557:0.0000000000000000e+000
4558:0.0000000000000000e+000
4559:0.0000000000000000e+000
4560:0.0000000000000000e+000
4561:0.0000000000000000e+000
4562:0.0000000000000000e+000
4563:0.0000000000000000e+000
4564:0.0000000000000000e+000
4565:0.0000000000000000e+000
4566:0.0000000000000000e+000
4567:0.0000000000000000e+000
4568:0.0000000000000000e+000
4569:0.0000000000000000e+000
4570:0.0000000000000000e+000
4571:0.0000000000000000e+000
4572:0.0000000000000000e+000
4573:0.0000000000000000e+000
4574:0.0000000000000000e+000
4575:0.0000000000000000e+000
4576:0.0000000000000000e+000
4577:0.0000000000000000e+000
4578:0.0000000000000000e+000
4579:0.0000000000000000e+000
4580:0.0000000000000000e+000
4581:0.0000000000000000e+000
4582:0.0000000000000000e+000
4583:0.0000000000000000e+000
4584:0.0000000000000000e+000
4585:0.0000000000000000e+000
4586:0.0000000000000000e+000
4587:0.0000000000000000e+000
4588:0.0000000000000000e+000
4589:0.0000000000000000e+000
4590:0.0000000000000000e+000
4591:0.0000000000000000e+000
4592:0.0000000000000000e+000
4593:0.0000000000000000e+000
4594:0.0000000000000000e+000
4595:0.0000000000000000e+000
4596:0.0000000000000000e+000
4597:0.0000000000000000e+000
4598:0.0000000000000000e+000
4599:0.0000000000000000e+000
4600:0.0000000000000000e+000
4601:0.0000000000000000e+000
4602:0.0000000000000000e+000
4603:0.0000000000000000e+000
4604:0.0000000000000000e+000
4605:0.0000000000000000e+000
4606:0.0000000000000000e+000
4607:0.0000000000000000e+000
4608:0.0000000000000000e+000
4609:0.0000000000000000e+000
4610:0.0000000000000000e+000
4611:0.0000000000000000e+000
4612:0.0000000000000000e+000
4613:0.0000000000000000e+000
4614:0.0000000000000000e+000
4615:0.0000000000000000e+000
4616:0.0000000000000000e+000
4617:0.0000000000000000e+000
4618:0.0000000000000000e+000
4619:0.0000000000000000e+000
4620:0.0000000000000000e+000
4621:0.0000000000000000e+000
4622:0.0000000000000000e+000
4623:0.0000000000000000e+000
4624:0.0000000000000000e+000
4625:0.0000000000000000e+000
4626:0.0000000000000000e+000
4627:0.0000000000000000e+000
4628:0.0000000000000000e+000
4629:0.0000000000000000e+000
4630:0.0000000000000000e+000
4631:0.0000000000000000e+000
4632:0.0000000000000000e+000
4633:0.0000000000000000e+000
4634:0.0000000000000000e+000
4635:0.0000000000000000e+000
4636:0.0000000000000000e+000
4637:0.0000000000000000e+000
4638:0.0000000000000000e+000
4639:0.0000000000000000e+000
4640:0.0000000000000000e+000
4641:0.0000000000000000e+000
4642:0.0000000000000000e+000
4643:0.0000000000000000e+000
4644:0.0000000000000000e+000
4645:0.0000000000000000e+000
4646:0.0000000000000000e+000
4647:0.0000000000000000e+000
4648:0.0000000000000000e+000
4649:0.0000000000000000e+000
4650:0.0000000000000000e+000
4651:0.0000000000000000e+000
4652:0.0000000000000000e+000
4653:0.0000000000000000e+000
4654:0.0000000000000000e+000
4655:0.0000000000000000e+000
4656:0.0000000000000000e+000
4657:0.0000000000000000e+000
4658:0.0000000000000000e+000
4659:0.0000000000000000e+000
4660:0.0000000000000000e+000
4661:0.0000000000000000e+000
4662:0.0000000000000000e+000
4663:0.0000000000000000e+000
4664:0.0000000000000000e+000
4665:0.0000000000000000e+000
4666:0.0000000000000000e+000
4667:0.0000000000000000e+000
4668:0.0000000000000000e+000
4669:0.0000000000000000e+000
4670:0.0000000000000000e+000
4671:0.0000000000000000e+000
4672:0.0000000000000000e+000
4673:0.0000000000000000e+000
4674:0.0000000000000000e+000
4675:0.0000000000000000e+000
4676:0.0000000000000000e+000
4677:0.0000000000000000e+000
4678:0.0000000000000000e+000
4679:0.0000000000000000e+000
4680:0.0000000000000000e+000
4681:0.0000000000000000e+000
4682:0.0000000000000000e+000
4683:0.0000000000000000e+000
4684:0.0000000000000000e+000
4685:0.0000000000000000e+000
4686:0.0000000000000000e+000
4687:0.0000000000000000e+000
4688:0.0000000000000000e+000
4689:0.0000000000000000e+000
4690:0.0000000000000000e+000
4691:0.0000000000000000e+000
4692:0.0000000000000000e+000
4693:0.0000000000000000e+000
4694:0.0000000000000000e+000
4695:0.0000000000000000e+000
4696:0.0000000000000000e+000
4697:0.0000000000000000e+000
4698:0.0000000000000000e+000
4699:0.0000000000000000e+000
4700:0.0000000000000000e+000
4701:0.0000000000000000e+000
4702:0.0000000000000000e+000
4703:0.0000000000000000e+000
4704:0.0000000000000000e+000
4705:0.0000000000000000e+000
4706:0.0000000000000000e+000
4707:0.0000000000000000e+000
4708:0.0000000000000000e+000
4709:0.0000000000000000e+000
4710:0.0000000000000000e+000
4711:0.0000000000000000e+000
4712:0.0000000000000000e+000
4713:0.0000000000000000e+000
4714:0.0000000000000000e+000
4715:0.0000000000000000e+000
4716:0.0000000000000000e+000
4717:0.0000000000000000e+000
4718:0.0000000000000000e+000
4719:0.0000000000000000e+000
4720:0.0000000000000000e+000
4721:0.0000000000000000e+000
4722:0.0000000000000000e+000
4723:0.0000000000000000e+000
4724:0.0000000000000000e+000
4725:0.0000000000000000e+000
4726:0.0000000000000000e+000
4727:0.0000000000000000e+000
4728:0.0000000000000000e+000
4729:0.0000000000000000e+000
4730:0.0000000000000000e+000
4731:0.0000000000000000e+000
4732:0.0000000000000000e+000
4733:0.0000000000000000e+000
4734:0.0000000000000000e+000
4735:0.0000000000000000e+000
4736:0.0000000000000000e+000
4737:0.0000000000000000e+000
4738:0.0000000000000000e+000
4739:0.0000000000000000e+000
4740:0.0000000000000000e+000
4741:0.0000000000000000e+000
4742:0.0000000000000000e+000
4743:0.0000000000000000e+000
4744:0.0000000000000000e+000
4745:0.0000000000000000e+000
4746:0.0000000000000000e+000
4747:0.0000000000000000e+000
4748:0.0000000000000000e+000
4749:0.0000000000000000e+000
4750:0.0000000000000000e+000
4751:0.0000000000000000e+000
4752:0.0000000000000000e+000
4753:0.0000000000000000e+000
4754:0.0000000000000000e+000
4755:0.0000000000000000e+000
4756:0.0000000000000000e+000
4757:0.0000000000000000e+000
4758:0.0000000000000000e+000
4759:0.0000000000000000e+000
4760:0.0000000000000000e+000
4761:0.0000000000000000e+000
4762:0.0000000000000000e+000
4763:0.0000000000000000e+000
4764:0.0000000000000000e+000
4765:0.0000000000000000e+000
4766:0.0000000000000000e+000
4767:0.0000000000000000e+000
4768:0.0000000000000000e+000
4769:0.0000000000000000e+000
4770:0.0000000000000000e+000
4771:0.0000000000000000e+000
4772:0.0000000000000000e+000
4773:0.0000000000000000e+000
4774:0.0000000000000000e+000
4775:0.0000000000000000e+000
4776:0.0000000000000000e+000
4777:0.0000000000000000e+000
4778:0.0000000000000000e+000
4779:0.0000000000000000e+000
4780:0.0000000000000000e+000
4781:0.0000000000000000e+000
4782:0.0000000000000000e+000
4783:0.0000000000000000e+000
4784:0.0000000000000000e+000
4785:0.0000000000000000e+000
4786:0.0000000000000000e+000
4787:0.0000000000000000e+000
4788:0.0000000000000000e+000
4789:0.0000000000000000e+000
4790:0.0000000000000000e+000
4791:0.0000000000000000e+000
4792:0.0000000000000000e+000
4793:0.0000000000000000e+000
4794:0.0000000000000000e+000
4795:0.0000000000000000e+000
4796:0.0000000000000000e+000
4797:0.0000000000000000e+000
4798:0.0000000000000000e+000
4799:0.0000000000000000e+000
4800:0.0000000000000000e+000
4801:0.0000000000000000e+000
4802:0.0000000000000000e+000
4803:0.0000000000000000e+000
4804:0.0000000000000000e+000
4805:0.0000000000000000e+000
4806:0.0000000000000000e+000
4807:0.0000000000000000e+000
4808:0.0000000000000000e+000
4809:0.0000000000000000e+000
4810:0.0000000000000000e+000
4811:0.0000000000000000e+000
4812:0.0000000000000000e+000
4813:0.0000000000000000e+000
4814:0.0000000000000000e+000
4815:0.0000000000000000e+000
4816:0.0000000000000000e+000
4817:0.0000000000000000e+000
4818:0.0000000000000000e+000
4819:0.0000000000000000e+000
4820:0.0000000000000000e+000
4821:0.0000000000000000e+000
4822:0.0000000000000000e+000
4823:0.0000000000000000e+000
4824:0.0000000000000000e+000
4825:0.0000000000000000e+000
4826:0.0000000000000000e+000
4827:0.0000000000000000e+000
4828:0.0000000000000000e+000
4829:0.0000000000000000e+000
4830:0.0000000000000000e+000
4831:0.0000000000000000e+000
4832:0.0000000000000000e+000
4833:0.0000000000000000e+000
4834:0.0000000000000000e+000
4835:0.0000000000000000e+000
4836:0.0000000000000000e+000
4837:0.0000000000000000e+000
4838:0.0000000000000000e+000
4839:0.0000000000000000e+000
4840:0.0000000000000000e+000
4841:0.0000000000000000e+000
4842:0.0000000000000000e+000
4843:0.0000000000000000e+000
4844:0.0000000000000000e+000
4845:0.0000000000000000e+000
4846:0.0000000000000000e+000
4847:0.0000000000000000e+000
4848:0.0000000000000000e+000
4849:0.0000000000000000e+000
4850:0.0000000000000000e+000
4851:0.0000000000000000e+000
4852:0.0000000000000000e+000
4853:0.0000000000000000e+000
4854:0.0000000000000000e+000
4855:0.0000000000000000e+000
4856:0.0000000000000000e+000
4857:0.0000000000000000e+000
4858:0.0000000000000000e+000
4859:0.0000000000000000e+000
4860:0.0000000000000000e+000
4861:0.0000000000000000e+000
4862:0.0000000000000000e+000
4863:0.0000000000000000e+000
4864:0.0000000000000000e+000
4865:0.0000000000000000e+000
4866:0.0000000000000000e+000
4867:0.0000000000000000e+000
4868:0.0000000000000000e+000
4869:0.0000000000000000e+000
4870:0.0000000000000000e+000
4871:0.0000000000000000e+000
4872:0.0000000000000000e+000
4873:0.0000000000000000e+000
4874:0.0000000000000000e+000
4875:0.0000000000000000e+000
4876:0.0000000000000000e+000
4877:0.0000000000000000e+000
4878:0.0000000000000000e+000
4879:0.0000000000000000e+000
4880:0.0000000000000000e+000
4881:0.0000000000000000e+000
4882:0.0000000000000000e+000
4883:0.0000000000000000e+000
4884:0.0000000000000000e+000
4885:0.0000000000000000e+000
4886:0.0000000000000000e+000
4887:0.0000000000000000e+000
4888:0.0000000000000000e+000
4889:0.0000000000000000e+000
4890:0.0000000000000000e+000
4891:0.0000000000000000e+000
4892:0.0000000000000000e+000
4893:0.0000000000000000e+000
4894:0.0000000000000000e+000
4895:0.0000000000000000e+000
4896:0.0000000000000000e+000
4897:0.0000000000000000e+000
4898:0.0000000000000000e+000
4899:0.0000000000000000e+000
4900:0.0000000000000000e+000
4901:0.0000000000000000e+000
4902:0.0000000000000000e+000
4903:0.0000000000000000e+000
4904:0.0000000000000000e+000
4905:0.0000000000000000e+000
4906:0.0000000000000000e+000
4907:0.0000000000000000e+000
4908:0.0000000000000000e+000
4909:0.0000000000000000e+000
4910:0.0000000000000000e+000
4911:0.0000000000000000e+000
4912:0.0000000000000000e+000
4913:0.0000000000000000e+000
4914:0.0000000000000000e+000
4915:0.0000000000000000e+000
4916:0.0000000000000000e+000
4917:0.0000000000000000e+000
4918:0.0000000000000000e+000
4919:0.0000000000000000e+000
4920:0.0000000000000000e+000
4921:0.0000000000000000e+000
4922:0.0000000000000000e+000
4923:0.0000000000000000e+000
4924:0.0000000000000000e+000
4925:0.0000000000000000e+000
4926:0.0000000000000000e+000
4927:0.0000000000000000e+000
4928:0.0000000000000000e+000
4929:0.0000000000000000e+000
4930:0.0000000000000000e+000
4931:0.0000000000000000e+000
4932:0.0000000000000000e+000
4933:0.0000000000000000e+000
4934:0.0000000000000000e+000
4935:0.0000000000000000e+000
4936:0.0000000000000000e+000
4937:0.0000000000000000e+000
4938:0.0000000000000000e+000
4939:0.0000000000000000e+000
4940:0.0000000000000000e+000
4941:0.0000000000000000e+000
4942:0.0000000000000000e+000
4943:0.0000000000000000e+000
4944:0.0000000000000000e+000
4945:0.0000000000000000e+000
4946:0.0000000000000000e+000
4947:0.0000000000000000e+000
4948:0.0000000000000000e+000
4949:0.0000000000000000e+000
4950:0.0000000000000000e+000
4951:0.0000000000000000e+000
4952:0.0000000000000000e+000
4953:0.0000000000000000e+000
4954:0.0000000000000000e+000
4955:0.0000000000000000e+000
4956:0.0000000000000000e+000
4957:0.0000000000000000e+000
4958:0.0000000000000000e+000
4959:0.0000000000000000e+000
4960:0.0000000000000000e+000
4961:0.0000000000000000e+000
4962:0.0000000000000000e+000
4963:0.0000000000000000e+000
4964:0.0000000000000000e+000
4965:0.0000000000000000e+000
4966:0.0000000000000000e+000
4967:0.0000000000000000e+000
4968:0.0000000000000000e+000
4969:0.0000000000000000e+000
4970:0.0000000000000000e+000
4971:0.0000000000000000e+000
4972:0.0000000000000000e+000
4973:0.0000000000000000e+000
4974:0.0000000000000000e+000
4975:0.0000000000000000e+000
4976:0.0000000000000000e+000
4977:0.0000000000000000e+000
4978:0.0000000000000000e+000
4979:0.0000000000000000e+000
4980:0.0000000000000000e+000
4981:0.0000000000000000e+000
4982:0.0000000000000000e+000
4983:0.0000000000000000e+000
4984:0.0000000000000000e+000
4985:0.0000000000000000e+000
4986:0.0000000000000000e+000
4987:0.0000000000000000e+000
4988:0.0000000000000000e+000
4989:0.0000000000000000e+000
4990:0.0000000000000000e+000
4991:0.0000000000000000e+000
4992:0.0000000000000000e+000
4993:0.0000000000000000e+000
4994:0.0000000000000000e+000
4995:0.0000000000000000e+000
4996:0.0000000000000000e+000
4997:0.0000000000000000e+000
4998:0.0000000000000000e+000
4999:0.0000000000000000e+000
5000:0.0000000000000000e+000
5001:0.0000000000000000e+000
5002:0.0000000000000000e+000
5003:0.0000000000000000e+000
5004:0.0000000000000000e+000
5005:0.0000000000000000e+000
5006:0.0000000000000000e+000
5007:0.0000000000000000e+000
5008:0.0000000000000000e+000
5009:0.0000000000000000e+000
5010:0.0000000000000000e+000
5011:0.0000000000000000e+000
5012:0.0000000000000000e+000
5013:0.0000000000000000e+000
5014:0.0000000000000000e+000
5015:0.0000000000000000e+000
5016:0.0000000000000000e+000
5017:0.0000000000000000e+000
5018:0.0000000000000000e+000
5019:0.0000000000000000e+000
5020:0.0000000000000000e+000
5021:0.0000000000000000e+000
5022:0.0000000000000000e+000
5023:0.0000000000000000e+000
5024:0.0000000000000000e+000
5025:0.0000000000000000e+000
5026:0.0000000000000000e+000
5027:0.0000000000000000e+000
5028:0.0000000000000000e+000
5029:0.0000000000000000e+000
5030:0.0000000000000000e+000
5031:0.0000000000000000e+000
5032:0.0000000000000000e+000
5033:0.0000000000000000e+000
5034:0.0000000000000000e+000
5035:0.0000000000000000e+000
5036:0.0000000000000000e+000
5037:0.0000000000000000e+000
5038:0.0000000000000000e+000
5039:0.0000000000000000e+000
5040:0.0000000000000000e+000
5041:0.0000000000000000e+000
5042:0.0000000000000000e+000
5043:0.0000000000000000e+000
5044:0.0000000000000000e+000
5045:0.0000000000000000e+000
5046:0.0000000000000000e+000
5047:0.0000000000000000e+000
5048:0.0000000000000000e+000
5049:0.0000000000000000e+000
5050:0.0000000000000000e+000
5051:0.0000000000000000e+000
5052:0.0000000000000000e+000
5053:0.0000000000000000e+000
5054:0.0000000000000000e+000
5055:0.0000000000000000e+000
5056:0.0000000000000000e+000
5057:0.0000000000000000e+000
5058:0.0000000000000000e+000
5059:0.0000000000000000e+000
5060:0.0000000000000000e+000
5061:0.0000000000000000e+000
5062:0.0000000000000000e+000
5063:0.0000000000000000e+000
5064:0.0000000000000000e+000
5065:0.0000000000000000e+000
5066:0.0000000000000000e+000
5067:0.0000000000000000e+000
5068:0.0000000000000000e+000
5069:0.0000000000000000e+000
5070:0.0000000000000000e+000
5071:0.0000000000000000e+000
5072:0.0000000000000000e+000
5073:0.0000000000000000e+000
5074:0.0000000000000000e+000
5075:0.0000000000000000e+000
5076:0.0000000000000000e+000
5077:0.0000000000000000e+000
5078:0.0000000000000000e+000
5079:0.0000000000000000e+000
5080:0.0000000000000000e+000
5081:0.0000000000000000e+000
5082:0.0000000000000000e+000
5083:0.0000000000000000e+000
5084:0.0000000000000000e+000
5085:0.0000000000000000e+000
5086:0.0000000000000000e+000
5087:0.0000000000000000e+000
5088:0.0000000000000000e+000
5089:0.0000000000000000e+000
5090:0.0000000000000000e+000
5091:0.0000000000000000e+000
5092:0.0000000000000000e+000
5093:0.0000000000000000e+000
5094:0.0000000000000000e+000
5095:0.0000000000000000e+000
5096:0.0000000000000000e+000
5097:0.0000000000000000e+000
5098:0.0000000000000000e+000
5099:0.0000000000000000e+000
5100:0.0000000000000000e+000
5101:0.0000000000000000e+000
5102:0.0000000000000000e+000
5103:0.0000000000000000e+000
5104:0.0000000000000000e+000
5105:0.0000000000000000e+000
5106:0.0000000000000000e+000
5107:0.0000000000000000e+000
5108:0.0000000000000000e+000
5109:0.0000000000000000e+000
5110:0.0000000000000000e+000
5111:0.0000000000000000e+000
5112:0.0000000000000000e+000
5113:0.0000000000000000e+000
5114:0.0000000000000000e+000
5115:0.0000000000000000e+000
5116:0.0000000000000000e+000
5117:0.0000000000000000e+000
5118:0.0000000000000000e+000
5119:0.0000000000000000e+000
5120:0.0000000000000000e+000
5121:0.0000000000000000e+000
5122:0.0000000000000000e+000
5123:0.0000000000000000e+000
5124:0.0000000000000000e+000
5125:0.0000000000000000e+000
5126:0.0000000000000000e+000
5127:0.0000000000000000e+000
5128:0.0000000000000000e+000
5129:0.0000000000000000e+000
5130:0.0000000000000000e+000
5131:0.0000000000000000e+000
5132:0.0000000000000000e+000
5133:0.0000000000000000e+000
5134:0.0000000000000000e+000
5135:0.0000000000000000e+000
5136:0.0000000000000000e+000
5137:0.0000000000000000e+000
5138:0.0000000000000000e+000
5139:0.0000000000000000e+000
5140:0.0000000000000000e+000
5141:0.0000000000000000e+000
5142:0.0000000000000000e+000
5143:0.0000000000000000e+000
5144:0.0000000000000000e+000
5145:0.0000000000000000e+000
5146:0.0000000000000000e+000
5147:0.0000000000000000e+000
5148:0.0000000000000000e+000
5149:0.0000000000000000e+000
5150:0.0000000000000000e+000
5151:0.0000000000000000e+000
5152:0.0000000000000000e+000
5153:0.0000000000000000e+000
5154:0.0000000000000000e+000
5155:0.0000000000000000e+000
5156:0.0000000000000000e+000
5157:0.0000000000000000e+000
5158:0.0000000000000000e+000
5159:0.0000000000000000e+000
5160:0.0000000000000000e+000
5161:0.0000000000000000e+000
5162:0.0000000000000000e+000
5163:0.0000000000000000e+000
5164:0.0000000000000000e+000
5165:0.0000000000000000e+000
5166:0.0000000000000000e+000
5167:0.0000000000000000e+000
5168:0.0000000000000000e+000
5169:0.0000000000000000e+000
5170:0.0000000000000000e+000
5171:0.0000000000000000e+000
5172:0.0000000000000000e+000
5173:0.0000000000000000e+000
5174:0.0000000000000000e+000
5175:0.0000000000000000e+000
5176:0.0000000000000000e+000
5177:0.0000000000000000e+000
5178:0.0000000000000000e+000
5179:0.0000000000000000e+000
5180:0.0000000000000000e+000
5181:0.0000000000000000e+000
5182:0.0000000000000000e+000
5183:0.0000000000000000e+000
5184:0.0000000000000000e+000
5185:0.0000000000000000e+000
5186:0.0000000000000000e+000
5187:0.0000000000000000e+000
5188:0.0000000000000000e+000
5189:0.0000000000000000e+000
5190:0.0000000000000000e+000
5191:0.0000000000000000e+000
5192:0.0000000000000000e+000
5193:0.0000000000000000e+000
5194:0.0000000000000000e+000
5195:0.0000000000000000e+000
5196:0.0000000000000000e+000
5197:0.0000000000000000e+000
5198:0.0000000000000000e+000
5199:0.0000000000000000e+000
5200:0.0000000000000000e+000
5201:0.0000000000000000e+000
5202:0.0000000000000000e+000
5203:0.0000000000000000e+000
5204:0.0000000000000000e+000
5205:0.0000000000000000e+000
5206:0.0000000000000000e+000
5207:0.0000000000000000e+000
5208:0.0000000000000000e+000
5209:0.0000000000000000e+000
5210:0.0000000000000000e+000
5211:0.0000000000000000e+000
5212:0.0000000000000000e+000
5213:0.0000000000000000e+000
5214:0.0000000000000000e+000
5215:0.0000000000000000e+000
5216:0.0000000000000000e+000
5217:0.0000000000000000e+000
5218:0.0000000000000000e+000
5219:0.0000000000000000e+000
5220:0.0000000000000000e+000
5221:0.0000000000000000e+000
5222:0.0000000000000000e+000
5223:0.0000000000000000e+000
5224:0.0000000000000000e+000
5225:0.0000000000000000e+000
5226:0.0000000000000000e+000
5227:0.0000000000000000e+000
5228:0.0000000000000000e+000
5229:0.0000000000000000e+000
5230:0.0000000000000000e+000
5231:0.0000000000000000e+000
5232:0.0000000000000000e+000
5233:0.0000000000000000e+000
5234:0.0000000000000000e+000
5235:0.0000000000000000e+000
5236:0.0000000000000000e+000
5237:0.0000000000000000e+000
5238:0.0000000000000000e+000
5239:0.0000000000000000e+000
5240:0.0000000000000000e+000
5241:0.0000000000000000e+000
5242:0.0000000000000000e+000
5243:0.0000000000000000e+000
5244:0.0000000000000000e+000
5245:0.0000000000000000e+000
5246:0.0000000000000000e+000
5247:0.0000000000000000e+000
5248:0.0000000000000000e+000
5249:0.0000000000000000e+000
5250:0.0000000000000000e+000
5251:0.0000000000000000e+000
5252:0.0000000000000000e+000
5253:0.0000000000000000e+000
5254:0.0000000000000000e+000
5255:0.0000000000000000e+000
5256:0.0000000000000000e+000
5257:0.0000000000000000e+000
5258:0.0000000000000000e+000
5259:0.0000000000000000e+000
5260:0.0000000000000000e+000
5261:0.0000000000000000e+000
5262:0.0000000000000000e+000
5263:0.0000000000000000e+000
5264:0.0000000000000000e+000
5265:0.0000000000000000e+000
5266:0.0000000000000000e+000
5267:0.0000000000000000e+000
5268:0.0000000000000000e+000
5269:0.0000000000000000e+000
5270:0.0000000000000000e+000
5271:0.0000000000000000e+000
5272:0.0000000000000000e+000
5273:0.0000000000000000e+000
5274:0.0000000000000000e+000
5275:0.0000000000000000e+000
5276:0.0000000000000000e+000
5277:0.0000000000000000e+000
5278:0.0000000000000000e+000
5279:0.0000000000000000e+000
5280:0.0000000000000000e+000
5281:0.0000000000000000e+000
5282:0.0000000000000000e+000
5283:0.0000000000000000e+000
5284:0.0000000000000000e+000
5285:0.0000000000000000e+000
5286:0.0000000000000000e+000
5287:0.0000000000000000e+000
5288:0.0000000000000000e+000
5289:0.0000000000000000e+000
5290:0.0000000000000000e+000
5291:0.0000000000000000e+000
5292:0.0000000000000000e+000
5293:0.0000000000000000e+000
5294:0.0000000000000000e+000
5295:0.0000000000000000e+000
5296:0.0000000000000000e+000
5297:0.0000000000000000e+000
5298:0.0000000000000000e+000
5299:0.0000000000000000e+000
5300:0.0000000000000000e+000
5301:0.0000000000000000e+000
5302:0.0000000000000000e+000
5303:0.0000000000000000e+000
5304:0.0000000000000000e+000
5305:0.0000000000000000e+000
5306:0.0000000000000000e+000
5307:0.0000000000000000e+000
5308:0.0000000000000000e+000
5309:0.0000000000000000e+000
5310:0.0000000000000000e+000
5311:0.0000000000000000e+000
5312:0.0000000000000000e+000
5313:0.0000000000000000e+000
5314:0.0000000000000000e+000
5315:0.0000000000000000e+000
5316:0.0000000000000000e+000
5317:0.0000000000000000e+000
5318:0.0000000000000000e+000
5319:0.0000000000000000e+000
5320:0.0000000000000000e+000
5321:0.0000000000000000e+000
5322:0.0000000000000000e+000
5323:0.0000000000000000e+000
5324:0.0000000000000000e+000
5325:0.0000000000000000e+000
5326:0.0000000000000000e+000
5327:0.0000000000000000e+000
5328:0.0000000000000000e+000
5329:0.0000000000000000e+000
5330:0.0000000000000000e+000
5331:0.0000000000000000e+000
5332:0.0000000000000000e+000
5333:0.0000000000000000e+000
5334:0.0000000000000000e+000
5335:0.0000000000000000e+000
5336:0.0000000000000000e+000
5337:0.0000000000000000e+000
5338:0.0000000000000000e+000
5339:0.0000000000000000e+000
5340:0.0000000000000000e+000
5341:0.0000000000000000e+000
5342:0.0000000000000000e+000
5343:0.0000000000000000e+000
5344:0.0000000000000000e+000
5345:0.0000000000000000e+000
5346:0.0000000000000000e+000
5347:0.0000000000000000e+000
5348:0.0000000000000000e+000
5349:0.0000000000000000e+000
5350:0.0000000000000000e+000
5351:0.0000000000000000e+000
5352:0.0000000000000000e+000
5353:0.0000000000000000e+000
5354:0.0000000000000000e+000
5355:0.0000000000000000e+000
5356:0.0000000000000000e+000
5357:0.0000000000000000e+000
5358:0.0000000000000000e+000
5359:0.0000000000000000e+000
5360:0.0000000000000000e+000
5361:0.0000000000000000e+000
5362:0.0000000000000000e+000
5363:0.0000000000000000e+000
5364:0.0000000000000000e+000
5365:0.0000000000000000e+000
5366:0.0000000000000000e+000
5367:0.0000000000000000e+000
5368:0.0000000000000000e+000
5369:0.0000000000000000e+000
5370:0.0000000000000000e+000
5371:0.0000000000000000e+000
5372:0.0000000000000000e+000
5373:0.0000000000000000e+000
5374:0.0000000000000000e+000
5375:0.0000000000000000e+000
5376:0.0000000000000000e+000
5377:0.0000000000000000e+000
5378:0.0000000000000000e+000
5379:0.0000000000000000e+000
5380:0.0000000000000000e+000
5381:0.0000000000000000e+000
5382:0.0000000000000000e+000
5383:0.0000000000000000e+000
5384:0.0000000000000000e+000
5385:0.0000000000000000e+000
5386:0.0000000000000000e+000
5387:0.0000000000000000e+000
5388:0.0000000000000000e+000
5389:0.0000000000000000e+000
5390:0.0000000000000000e+000
5391:0.0000000000000000e+000
5392:0.0000000000000000e+000
5393:0.0000000000000000e+000
5394:0.0000000000000000e+000
5395:0.0000000000000000e+000
5396:0.0000000000000000e+000
5397:0.0000000000000000e+000
5398:0.0000000000000000e+000
5399:0.0000000000000000e+000
5400:0.0000000000000000e+000
5401:0.0000000000000000e+000
5402:0.0000000000000000e+000
5403:0.0000000000000000e+000
5404:0.0000000000000000e+000
5405:0.0000000000000000e+000
5406:0.0000000000000000e+000
5407:0.0000000000000000e+000
5408:0.0000000000000000e+000
5409:0.0000000000000000e+000
5410:0.0000000000000000e+000
5411:0.0000000000000000e+000
5412:0.0000000000000000e+000
5413:0.0000000000000000e+000
5414:0.0000000000000000e+000
5415:0.0000000000000000e+000
5416:0.0000000000000000e+000
5417:0.0000000000000000e+000
5418:0.0000000000000000e+000
5419:0.0000000000000000e+000
5420:0.0000000000000000e+000
5421:0.0000000000000000e+000
5422:0.0000000000000000e+000
5423:0.0000000000000000e+000
5424:0.0000000000000000e+000
5425:0.0000000000000000e+000
5426:0.0000000000000000e+000
5427:0.0000000000000000e+000
5428:0.0000000000000000e+000
5429:0.0000000000000000e+000
5430:0.0000000000000000e+000
5431:0.0000000000000000e+000
5432:0.0000000000000000e+000
5433:0.0000000000000000e+000
5434:0.0000000000000000e+000
5435:0.0000000000000000e+000
5436:0.0000000000000000e+000
5437:0.0000000000000000e+000
5438:0.0000000000000000e+000
5439:0.0000000000000000e+000
5440:0.0000000000000000e+000
5441:0.0000000000000000e+000
5442:0.0000000000000000e+000
5443:0.0000000000000000e+000
5444:0.0000000000000000e+000
5445:0.0000000000000000e+000
5446:0.0000000000000000e+000
5447:0.0000000000000000e+000
5448:0.0000000000000000e+000
5449:0.0000000000000000e+000
5450:0.0000000000000000e+000
5451:0.0000000000000000e+000
5452:0.0000000000000000e+000
5453:0.0000000000000000e+000
5454:0.0000000000000000e+000
5455:0.0000000000000000e+000
5456:0.0000000000000000e+000
5457:0.0000000000000000e+000
5458:0.0000000000000000e+000
5459:0.0000000000000000e+000
5460:0.0000000000000000e+000
5461:0.0000000000000000e+000
5462:0.0000000000000000e+000
5463:0.0000000000000000e+000
5464:0.0000000000000000e+000
5465:0.0000000000000000e+000
5466:0.0000000000000000e+000
5467:0.0000000000000000e+000
5468:0.0000000000000000e+000
5469:0.0000000000000000e+000
5470:0.0000000000000000e+000
5471:0.0000000000000000e+000
5472:0.0000000000000000e+000
5473:0.0000000000000000e+000
5474:0.0000000000000000e+000
5475:0.0000000000000000e+000
5476:0.0000000000000000e+000
5477:0.0000000000000000e+000
5478:0.0000000000000000e+000
5479:0.0000000000000000e+000
5480:0.0000000000000000e+000
5481:0.0000000000000000e+000
5482:0.0000000000000000e+000
5483:0.0000000000000000e+000
5484:0.0000000000000000e+000
5485:0.0000000000000000e+000
5486:0.0000000000000000e+000
5487:0.0000000000000000e+000
5488:0.0000000000000000e+000
5489:0.0000000000000000e+000
5490:0.0000000000000000e+000
5491:0.0000000000000000e+000
5492:0.0000000000000000e+000
5493:0.0000000000000000e+000
5494:0.0000000000000000e+000
5495:0.0000000000000000e+000
5496:0.0000000000000000e+000
5497:0.0000000000000000e+000
5498:0.0000000000000000e+000
5499:0.0000000000000000e+000
5500:0.0000000000000000e+000
5501:0.0000000000000000e+000
5502:0.0000000000000000e+000
5503:0.0000000000000000e+000
5504:0.0000000000000000e+000
5505:0.0000000000000000e+000
5506:0.0000000000000000e+000
5507:0.0000000000000000e+000
5508:0.0000000000000000e+000
5509:0.0000000000000000e+000
5510:0.0000000000000000e+000
5511:0.0000000000000000e+000
5512:0.0000000000000000e+000
5513:0.0000000000000000e+000
5514:0.0000000000000000e+000
5515:0.0000000000000000e+000
5516:0.0000000000000000e+000
5517:0.0000000000000000e+000
5518:0.0000000000000000e+000
5519:0.0000000000000000e+000
5520:0.0000000000000000e+000
5521:0.0000000000000000e+000
5522:0.0000000000000000e+000
5523:0.0000000000000000e+000
5524:0.0000000000000000e+000
5525:0.0000000000000000e+000
5526:0.0000000000000000e+000
5527:0.0000000000000000e+000
5528:0.0000000000000000e+000
5529:0.0000000000000000e+000
5530:0.0000000000000000e+000
5531:0.0000000000000000e+000
5532:0.0000000000000000e+000
5533:0.0000000000000000e+000
5534:0.0000000000000000e+000
5535:0.0000000000000000e+000
5536:0.0000000000000000e+000
5537:0.0000000000000000e+000
5538:0.0000000000000000e+000
5539:0.0000000000000000e+000
5540:0.0000000000000000e+000
5541:0.0000000000000000e+000
5542:0.0000000000000000e+000
5543:0.0000000000000000e+000
5544:0.0000000000000000e+000
5545:0.0000000000000000e+000
5546:0.0000000000000000e+000
5547:0.0000000000000000e+000
5548:0.0000000000000000e+000
5549:0.0000000000000000e+000
5550:0.0000000000000000e+000
5551:0.0000000000000000e+000
5552:0.0000000000000000e+000
5553:0.0000000000000000e+000
5554:0.0000000000000000e+000
5555:0.0000000000000000e+000
5556:0.0000000000000000e+000
5557:0.0000000000000000e+000
5558:0.0000000000000000e+000
5559:0.0000000000000000e+000
5560:0.0000000000000000e+000
5561:0.0000000000000000e+000
5562:0.0000000000000000e+000
5563:0.0000000000000000e+000
5564:0.0000000000000000e+000
5565:0.0000000000000000e+000
5566:0.0000000000000000e+000
5567:0.0000000000000000e+000
5568:0.0000000000000000e+000
5569:0.0000000000000000e+000
5570:0.0000000000000000e+000
5571:0.0000000000000000e+000
5572:0.0000000000000000e+000
5573:0.0000000000000000e+000
5574:0.0000000000000000e+000
5575:0.0000000000000000e+000
5576:0.0000000000000000e+000
5577:0.0000000000000000e+000
5578:0.0000000000000000e+000
5579:0.0000000000000000e+000
5580:0.0000000000000000e+000
5581:0.0000000000000000e+000
5582:0.0000000000000000e+000
5583:0.0000000000000000e+000
5584:0.0000000000000000e+000
5585:0.0000000000000000e+000
5586:0.0000000000000000e+000
5587:0.0000000000000000e+000
5588:0.0000000000000000e+000
5589:0.0000000000000000e+000
5590:0.0000000000000000e+000
5591:0.0000000000000000e+000
5592:0.0000000000000000e+000
5593:0.0000000000000000e+000
5594:0.0000000000000000e+000
5595:0.0000000000000000e+000
5596:0.0000000000000000e+000
5597:0.0000000000000000e+000
5598:0.0000000000000000e+000
5599:0.0000000000000000e+000
5600:0.0000000000000000e+000
5601:0.0000000000000000e+000
5602:0.0000000000000000e+000
5603:0.0000000000000000e+000
5604:0.0000000000000000e+000
5605:0.0000000000000000e+000
5606:0.0000000000000000e+000
5607:0.0000000000000000e+000
5608:0.0000000000000000e+000
5609:0.0000000000000000e+000
5610:0.0000000000000000e+000
5611:0.0000000000000000e+000
5612:0.0000000000000000e+000
5613:0.0000000000000000e+000
5614:0.0000000000000000e+000
5615:0.0000000000000000e+000
5616:0.0000000000000000e+000
5617:0.0000000000000000e+000
5618:0.0000000000000000e+000
5619:0.0000000000000000e+000
5620:0.0000000000000000e+000
5621:0.0000000000000000e+000
5622:0.0000000000000000e+000
5623:0.0000000000000000e+000
5624:0.0000000000000000e+000
5625:0.0000000000000000e+000
5626:0.0000000000000000e+000
5627:0.0000000000000000e+000
5628:0.0000000000000000e+000
5629:0.0000000000000000e+000
5630:0.0000000000000000e+000
5631:0.0000000000000000e+000
5632:0.0000000000000000e+000
5633:0.0000000000000000e+000
5634:0.0000000000000000e+000
5635:0.0000000000000000e+000
5636:0.0000000000000000e+000
5637:0.0000000000000000e+000
5638:0.0000000000000000e+000
5639:0.0000000000000000e+000
5640:0.0000000000000000e+000
5641:0.0000000000000000e+000
5642:0.0000000000000000e+000
5643:0.0000000000000000e+000
5644:0.0000000000000000e+000
5645:0.0000000000000000e+000
5646:0.0000000000000000e+000
5647:0.0000000000000000e+000
5648:0.0000000000000000e+000
5649:0.0000000000000000e+000
5650:0.0000000000000000e+000
5651:0.0000000000000000e+000
5652:0.0000000000000000e+000
5653:0.0000000000000000e+000
5654:0.0000000000000000e+000
5655:0.0000000000000000e+000
5656:0.0000000000000000e+000
5657:0.0000000000000000e+000
5658:0.0000000000000000e+000
5659:0.0000000000000000e+000
5660:0.0000000000000000e+000
5661:0.0000000000000000e+000
5662:0.0000000000000000e+000
5663:0.0000000000000000e+000
5664:0.0000000000000000e+000
5665:0.0000000000000000e+000
5666:0.0000000000000000e+000
5667:0.0000000000000000e+000
5668:0.0000000000000000e+000
5669:0.0000000000000000e+000
5670:0.0000000000000000e+000
5671:0.0000000000000000e+000
5672:0.0000000000000000e+000
5673:0.0000000000000000e+000
5674:0.0000000000000000e+000
5675:0.0000000000000000e+000
5676:0.0000000000000000e+000
5677:0.0000000000000000e+000
5678:0.0000000000000000e+000
5679:0.0000000000000000e+000
5680:0.0000000000000000e+000
5681:0.0000000000000000e+000
5682:0.0000000000000000e+000
5683:0.0000000000000000e+000
5684:0.0000000000000000e+000
5685:0.0000000000000000e+000
5686:0.0000000000000000e+000
5687:0.0000000000000000e+000
5688:0.0000000000000000e+000
5689:0.0000000000000000e+000
5690:0.0000000000000000e+000
5691:0.0000000000000000e+000
5692:0.0000000000000000e+000
5693:0.0000000000000000e+000
5694:0.0000000000000000e+000
5695:0.0000000000000000e+000
5696:0.0000000000000000e+000
5697:0.0000000000000000e+000
5698:0.0000000000000000e+000
5699:0.0000000000000000e+000
5700:0.0000000000000000e+000
5701:0.0000000000000000e+000
5702:0.0000000000000000e+000
5703:0.0000000000000000e+000
5704:0.0000000000000000e+000
5705:0.0000000000000000e+000
5706:0.0000000000000000e+000
5707:0.0000000000000000e+000
5708:0.0000000000000000e+000
5709:0.0000000000000000e+000
5710:0.0000000000000000e+000
5711:0.0000000000000000e+000
5712:0.0000000000000000e+000
5713:0.0000000000000000e+000
5714:0.0000000000000000e+000
5715:0.0000000000000000e+000
5716:0.0000000000000000e+000
5717:0.0000000000000000e+000
5718:0.0000000000000000e+000
5719:0.0000000000000000e+000
5720:0.0000000000000000e+000
5721:0.0000000000000000e+000
5722:0.0000000000000000e+000
5723:0.0000000000000000e+000
5724:0.0000000000000000e+000
5725:0.0000000000000000e+000
5726:0.0000000000000000e+000
5727:0.0000000000000000e+000
5728:0.0000000000000000e+000
5729:0.0000000000000000e+000
5730:0.0000000000000000e+000
5731:0.0000000000000000e+000
5732:0.0000000000000000e+000
5733:0.0000000000000000e+000
5734:0.0000000000000000e+000
5735:0.0000000000000000e+000
5736:0.0000000000000000e+000
5737:0.0000000000000000e+000
5738:0.0000000000000000e+000
5739:0.0000000000000000e+000
5740:0.0000000000000000e+000
5741:0.0000000000000000e+000
5742:0.0000000000000000e+000
5743:0.0000000000000000e+000
5744:0.0000000000000000e+000
5745:0.0000000000000000e+000
5746:0.0000000000000000e+000
5747:0.0000000000000000e+000
5748:0.0000000000000000e+000
5749:0.0000000000000000e+000
5750:0.0000000000000000e+000
5751:0.0000000000000000e+000
5752:0.0000000000000000e+000
5753:0.0000000000000000e+000
5754:0.0000000000000000e+000
5755:0.0000000000000000e+000
5756:0.0000000000000000e+000
5757:0.0000000000000000e+000
5758:0.0000000000000000e+000
5759:0.0000000000000000e+000
5760:0.0000000000000000e+000
5761:0.0000000000000000e+000
5762:0.0000000000000000e+000
5763:0.0000000000000000e+000
5764:0.0000000000000000e+000
5765:0.0000000000000000e+000
5766:0.0000000000000000e+000
5767:0.0000000000000000e+000
5768:0.0000000000000000e+000
5769:0.0000000000000000e+000
5770:0.0000000000000000e+000
5771:0.0000000000000000e+000
5772:0.0000000000000000e+000
5773:0.0000000000000000e+000
5774:0.0000000000000000e+000
5775:0.0000000000000000e+000
5776:0.0000000000000000e+000
5777:0.0000000000000000e+000
5778:0.0000000000000000e+000
5779:0.0000000000000000e+000
5780:0.0000000000000000e+000
5781:0.0000000000000000e+000
5782:0.0000000000000000e+000
5783:0.0000000000000000e+000
5784:0.0000000000000000e+000
5785:0.0000000000000000e+000
5786:0.0000000000000000e+000
5787:0.0000000000000000e+000
5788:0.0000000000000000e+000
5789:0.0000000000000000e+000
5790:0.0000000000000000e+000
5791:0.0000000000000000e+000
5792:0.0000000000000000e+000
5793:0.0000000000000000e+000
5794:0.0000000000000000e+000
5795:0.0000000000000000e+000
5796:0.0000000000000000e+000
5797:0.0000000000000000e+000
5798:0.0000000000000000e+000
5799:0.0000000000000000e+000
5800:0.0000000000000000e+000
5801:0.0000000000000000e+000
5802:0.0000000000000000e+000
5803:0.0000000000000000e+000
5804:0.0000000000000000e+000
5805:0.0000000000000000e+000
5806:0.0000000000000000e+000
5807:0.0000000000000000e+000
5808:0.0000000000000000e+000
5809:0.0000000000000000e+000
5810:0.0000000000000000e+000
5811:0.0000000000000000e+000
5812:0.0000000000000000e+000
5813:0.0000000000000000e+000
5814:0.0000000000000000e+000
5815:0.0000000000000000e+000
5816:0.0000000000000000e+000
5817:0.0000000000000000e+000
5818:0.0000000000000000e+000
5819:0.0000000000000000e+000
5820:0.0000000000000000e+000
5821:0.0000000000000000e+000
5822:0.0000000000000000e+000
5823:0.0000000000000000e+000
5824:0.0000000000000000e+000
5825:0.0000000000000000e+000
5826:0.0000000000000000e+000
5827:0.0000000000000000e+000
5828:0.0000000000000000e+000
5829:0.0000000000000000e+000
5830:0.0000000000000000e+000
5831:0.0000000000000000e+000
5832:0.0000000000000000e+000
5833:0.0000000000000000e+000
5834:0.0000000000000000e+000
5835:0.0000000000000000e+000
5836:0.0000000000000000e+000
5837:0.0000000000000000e+000
5838:0.0000000000000000e+000
5839:0.0000000000000000e+000
5840:0.0000000000000000e+000
5841:0.0000000000000000e+000
5842:0.0000000000000000e+000
5843:0.0000000000000000e+000
5844:0.0000000000000000e+000
5845:0.0000000000000000e+000
5846:0.0000000000000000e+000
5847:0.0000000000000000e+000
5848:0.0000000000000000e+000
5849:0.0000000000000000e+000
5850:0.0000000000000000e+000
5851:0.0000000000000000e+000
5852:0.0000000000000000e+000
5853:0.0000000000000000e+000
5854:0.0000000000000000e+000
5855:0.0000000000000000e+000
5856:0.0000000000000000e+000
5857:0.0000000000000000e+000
5858:0.0000000000000000e+000
5859:0.0000000000000000e+000
5860:0.0000000000000000e+000
5861:0.0000000000000000e+000
5862:0.0000000000000000e+000
5863:0.0000000000000000e+000
5864:0.0000000000000000e+000
5865:0.0000000000000000e+000
5866:0.0000000000000000e+000
5867:0.0000000000000000e+000
5868:0.0000000000000000e+000
5869:0.0000000000000000e+000
5870:0.0000000000000000e+000
5871:0.0000000000000000e+000
5872:0.0000000000000000e+000
5873:0.0000000000000000e+000
5874:0.0000000000000000e+000
5875:0.0000000000000000e+000
5876:0.0000000000000000e+000
5877:0.0000000000000000e+000
5878:0.0000000000000000e+000
5879:0.0000000000000000e+000
5880:0.0000000000000000e+000
5881:0.0000000000000000e+000
5882:0.0000000000000000e+000
5883:0.0000000000000000e+000
5884:0.0000000000000000e+000
5885:0.0000000000000000e+000
5886:0.0000000000000000e+000
5887:0.0000000000000000e+000
5888:0.0000000000000000e+000
5889:0.0000000000000000e+000
5890:0.0000000000000000e+000
5891:0.0000000000000000e+000
5892:0.0000000000000000e+000
5893:0.0000000000000000e+000
5894:0.0000000000000000e+000
5895:0.0000000000000000e+000
5896:0.0000000000000000e+000
5897:0.0000000000000000e+000
5898:0.0000000000000000e+000
5899:0.0000000000000000e+000
5900:0.0000000000000000e+000
5901:0.0000000000000000e+000
5902:0.0000000000000000e+000
5903:0.0000000000000000e+000
5904:0.0000000000000000e+000
5905:0.0000000000000000e+000
5906:0.0000000000000000e+000
5907:0.0000000000000000e+000
5908:0.0000000000000000e+000
5909:0.0000000000000000e+000
5910:0.0000000000000000e+000
5911:0.0000000000000000e+000
5912:0.0000000000000000e+000
5913:0.0000000000000000e+000
5914:0.0000000000000000e+000
5915:0.0000000000000000e+000
5916:0.0000000000000000e+000
5917:0.0000000000000000e+000
5918:0.0000000000000000e+000
5919:0.0000000000000000e+000
5920:0.0000000000000000e+000
5921:0.0000000000000000e+000
5922:0.0000000000000000e+000
5923:0.0000000000000000e+000
5924:0.0000000000000000e+000
5925:0.0000000000000000e+000
5926:0.0000000000000000e+000
5927:0.0000000000000000e+000
5928:0.0000000000000000e+000
5929:0.0000000000000000e+000
5930:0.0000000000000000e+000
5931:0.0000000000000000e+000
5932:0.0000000000000000e+000
5933:0.0000000000000000e+000
5934:0.0000000000000000e+000
5935:0.0000000000000000e+000
5936:0.0000000000000000e+000
5937:0.0000000000000000e+000
5938:0.0000000000000000e+000
5939:0.0000000000000000e+000
5940:0.0000000000000000e+000
5941:0.0000000000000000e+000
5942:0.0000000000000000e+000
5943:0.0000000000000000e+000
5944:0.0000000000000000e+000
5945:0.0000000000000000e+000
5946:0.0000000000000000e+000
5947:0.0000000000000000e+000
5948:0.0000000000000000e+000
5949:0.0000000000000000e+000
5950:0.0000000000000000e+000
5951:0.0000000000000000e+000
5952:0.0000000000000000e+000
5953:0.0000000000000000e+000
5954:0.0000000000000000e+000
5955:0.0000000000000000e+000
5956:0.0000000000000000e+000
5957:0.0000000000000000e+000
5958:0.0000000000000000e+000
5959:0.0000000000000000e+000
5960:0.0000000000000000e+000
5961:0.0000000000000000e+000
5962:0.0000000000000000e+000
5963:0.0000000000000000e+000
5964:0.0000000000000000e+000
5965:0.0000000000000000e+000
5966:0.0000000000000000e+000
5967:0.0000000000000000e+000
5968:0.0000000000000000e+000
5969:0.0000000000000000e+000
5970:0.0000000000000000e+000
5971:0.0000000000000000e+000
5972:0.0000000000000000e+000
5973:0.0000000000000000e+000
5974:0.0000000000000000e+000
5975:0.0000000000000000e+000
5976:0.0000000000000000e+000
5977:0.0000000000000000e+000
5978:0.0000000000000000e+000
5979:0.0000000000000000e+000
5980:0.0000000000000000e+000
5981:0.0000000000000000e+000
5982:0.0000000000000000e+000
5983:0.0000000000000000e+000
5984:0.0000000000000000e+000
5985:0.0000000000000000e+000
5986:0.0000000000000000e+000
5987:0.0000000000000000e+000
5988:0.0000000000000000e+000
5989:0.0000000000000000e+000
5990:0.0000000000000000e+000
5991:0.0000000000000000e+000
5992:0.0000000000000000e+000
5993:0.0000000000000000e+000
5994:0.0000000000000000e+000
5995:0.0000000000000000e+000
5996:0.0000000000000000e+000
5997:0.0000000000000000e+000
5998:0.0000000000000000e+000
5999:0.0000000000000000e+000
6000:0.0000000000000000e+000
6001:0.0000000000000000e+000
6002:0.0000000000000000e+000
6003:0.0000000000000000e+000
6004:0.0000000000000000e+000
6005:0.0000000000000000e+000
6006:0.0000000000000000e+000
6007:0.0000000000000000e+000
6008:0.0000000000000000e+000
6009:0.0000000000000000e+000
6010:0.0000000000000000e+000
6011:0.0000000000000000e+000
6012:0.0000000000000000e+000
6013:0.0000000000000000e+000
6014:0.0000000000000000e+000
6015:0.0000000000000000e+000
6016:0.0000000000000000e+000
6017:0.0000000000000000e+000
6018:0.0000000000000000e+000
6019:0.0000000000000000e+000
6020:0.0000000000000000e+000
6021:0.0000000000000000e+000
6022:0.0000000000000000e+000
6023:0.0000000000000000e+000
6024:0.0000000000000000e+000
6025:0.0000000000000000e+000
6026:0.0000000000000000e+000
6027:0.0000000000000000e+000
6028:0.0000000000000000e+000
6029:0.0000000000000000e+000
6030:0.0000000000000000e+000
6031:0.0000000000000000e+000
6032:0.0000000000000000e+000
6033:0.0000000000000000e+000
6034:0.0000000000000000e+000
6035:0.0000000000000000e+000
6036:0.0000000000000000e+000
6037:0.0000000000000000e+000
6038:0.0000000000000000e+000
6039:0.0000000000000000e+000
6040:0.0000000000000000e+000
6041:0.0000000000000000e+000
6042:0.0000000000000000e+000
6043:0.0000000000000000e+000
6044:0.0000000000000000e+000
6045:0.0000000000000000e+000
6046:0.0000000000000000e+000
6047:0.0000000000000000e+000
6048:0.0000000000000000e+000
6049:0.0000000000000000e+000
6050:0.0000000000000000e+000
6051:0.0000000000000000e+000
6052:0.0000000000000000e+000
6053:0.0000000000000000e+000
6054:0.0000000000000000e+000
6055:0.0000000000000000e+000
6056:0.0000000000000000e+000
6057:0.0000000000000000e+000
6058:0.0000000000000000e+000
6059:0.0000000000000000e+000
6060:0.0000000000000000e+000
6061:0.0000000000000000e+000
6062:0.0000000000000000e+000
6063:0.0000000000000000e+000
6064:0.0000000000000000e+000
6065:0.0000000000000000e+000
6066:0.0000000000000000e+000
6067:0.0000000000000000e+000
6068:0.0000000000000000e+000
6069:0.0000000000000000e+000
6070:0.0000000000000000e+000
6071:0.0000000000000000e+000
6072:0.0000000000000000e+000
6073:0.0000000000000000e+000
6074:0.0000000000000000e+000
6075:0.0000000000000000e+000
6076:0.0000000000000000e+000
6077:0.0000000000000000e+000
6078:0.0000000000000000e+000
6079:0.0000000000000000e+000
6080:0.0000000000000000e+000
6081:0.0000000000000000e+000
6082:0.0000000000000000e+000
6083:0.0000000000000000e+000
6084:0.0000000000000000e+000
6085:0.0000000000000000e+000
6086:0.0000000000000000e+000
6087:0.0000000000000000e+000
6088:0.0000000000000000e+000
6089:0.0000000000000000e+000
6090:0.0000000000000000e+000
6091:0.0000000000000000e+000
6092:0.0000000000000000e+000
6093:0.0000000000000000e+000
6094:0.0000000000000000e+000
6095:0.0000000000000000e+000
6096:0.0000000000000000e+000
6097:0.0000000000000000e+000
6098:0.0000000000000000e+000
6099:0.0000000000000000e+000
6100:0.0000000000000000e+000
6101:0.0000000000000000e+000
6102:0.0000000000000000e+000
6103:0.0000000000000000e+000
6104:0.0000000000000000e+000
6105:0.0000000000000000e+000
6106:0.0000000000000000e+000
6107:0.0000000000000000e+000
6108:0.0000000000000000e+000
6109:0.0000000000000000e+000
6110:0.0000000000000000e+000
6111:0.0000000000000000e+000
6112:0.0000000000000000e+000
6113:0.0000000000000000e+000
6114:0.0000000000000000e+000
6115:0.0000000000000000e+000
6116:0.0000000000000000e+000
6117:0.0000000000000000e+000
6118:0.0000000000000000e+000
6119:0.0000000000000000e+000
6120:0.0000000000000000e+000
6121:0.0000000000000000e+000
6122:0.0000000000000000e+000
6123:0.0000000000000000e+000
6124:0.0000000000000000e+000
6125:0.0000000000000000e+000
6126:0.0000000000000000e+000
6127:0.0000000000000000e+000
6128:0.0000000000000000e+000
6129:0.0000000000000000e+000
6130:0.0000000000000000e+000
6131:0.0000000000000000e+000
6132:0.0000000000000000e+000
6133:0.0000000000000000e+000
6134:0.0000000000000000e+000
6135:0.0000000000000000e+000
6136:0.0000000000000000e+000
6137:0.0000000000000000e+000
6138:0.0000000000000000e+000
6139:0.0000000000000000e+000
6140:0.0000000000000000e+000
6141:0.0000000000000000e+000
6142:0.0000000000000000e+000
6143:0.0000000000000000e+000
6144:0.0000000000000000e+000
6145:0.0000000000000000e+000
6146:0.0000000000000000e+000
6147:0.0000000000000000e+000
6148:0.0000000000000000e+000
6149:0.0000000000000000e+000
6150:0.0000000000000000e+000
6151:0.0000000000000000e+000
6152:0.0000000000000000e+000
6153:0.0000000000000000e+000
6154:0.0000000000000000e+000
6155:0.0000000000000000e+000
6156:0.0000000000000000e+000
6157:0.0000000000000000e+000
6158:0.0000000000000000e+000
6159:0.0000000000000000e+000
6160:0.0000000000000000e+000
6161:0.0000000000000000e+000
6162:0.0000000000000000e+000
6163:0.0000000000000000e+000
6164:0.0000000000000000e+000
6165:0.0000000000000000e+000
6166:0.0000000000000000e+000
6167:0.0000000000000000e+000
6168:0.0000000000000000e+000
6169:0.0000000000000000e+000
6170:0.0000000000000000e+000
6171:0.0000000000000000e+000
6172:0.0000000000000000e+000
6173:0.0000000000000000e+000
6174:0.0000000000000000e+000
6175:0.0000000000000000e+000
6176:0.0000000000000000e+000
6177:0.0000000000000000e+000
6178:0.0000000000000000e+000
6179:0.0000000000000000e+000
6180:0.0000000000000000e+000
6181:0.0000000000000000e+000
6182:0.0000000000000000e+000
6183:0.0000000000000000e+000
6184:0.0000000000000000e+000
6185:0.0000000000000000e+000
6186:0.0000000000000000e+000
6187:0.0000000000000000e+000
6188:0.0000000000000000e+000
6189:0.0000000000000000e+000
6190:0.0000000000000000e+000
6191:0.0000000000000000e+000
6192:0.0000000000000000e+000
6193:0.0000000000000000e+000
6194:0.0000000000000000e+000
6195:0.0000000000000000e+000
6196:0.0000000000000000e+000
6197:0.0000000000000000e+000
6198:0.0000000000000000e+000
6199:0.0000000000000000e+000
6200:0.0000000000000000e+000
6201:0.0000000000000000e+000
6202:0.0000000000000000e+000
6203:0.0000000000000000e+000
6204:0.0000000000000000e+000
6205:0.0000000000000000e+000
6206:0.0000000000000000e+000
6207:0.0000000000000000e+000
6208:0.0000000000000000e+000
6209:0.0000000000000000e+000
6210:0.0000000000000000e+000
6211:0.0000000000000000e+000
6212:0.0000000000000000e+000
6213:0.0000000000000000e+000
6214:0.0000000000000000e+000
6215:0.0000000000000000e+000
6216:0.0000000000000000e+000
6217:0.0000000000000000e+000
6218:0.0000000000000000e+000
6219:0.0000000000000000e+000
6220:0.0000000000000000e+000
6221:0.0000000000000000e+000
6222:0.0000000000000000e+000
6223:0.0000000000000000e+000
6224:0.0000000000000000e+000
6225:0.0000000000000000e+000
6226:0.0000000000000000e+000
6227:0.0000000000000000e+000
6228:0.0000000000000000e+000
6229:0.0000000000000000e+000
6230:0.0000000000000000e+000
6231:0.0000000000000000e+000
6232:0.0000000000000000e+000
6233:0.0000000000000000e+000
6234:0.0000000000000000e+000
6235:0.0000000000000000e+000
6236:0.0000000000000000e+000
6237:0.0000000000000000e+000
6238:0.0000000000000000e+000
6239:0.0000000000000000e+000
6240:0.0000000000000000e+000
6241:0.0000000000000000e+000
6242:0.0000000000000000e+000
6243:0.0000000000000000e+000
6244:0.0000000000000000e+000
6245:0.0000000000000000e+000
6246:0.0000000000000000e+000
6247:0.0000000000000000e+000
6248:0.0000000000000000e+000
6249:0.0000000000000000e+000
6250:0.0000000000000000e+000
6251:0.0000000000000000e+000
6252:0.0000000000000000e+000
6253:0.0000000000000000e+000
6254:0.0000000000000000e+000
6255:0.0000000000000000e+000
6256:0.0000000000000000e+000
6257:0.0000000000000000e+000
6258:0.0000000000000000e+000
6259:0.0000000000000000e+000
6260:0.0000000000000000e+000
6261:0.0000000000000000e+000
6262:0.0000000000000000e+000
6263:0.0000000000000000e+000
6264:0.0000000000000000e+000
6265:0.0000000000000000e+000
6266:0.0000000000000000e+000
6267:0.0000000000000000e+000
6268:0.0000000000000000e+000
6269:0.0000000000000000e+000
6270:0.0000000000000000e+000
6271:0.0000000000000000e+000
6272:0.0000000000000000e+000
6273:0.0000000000000000e+000
6274:0.0000000000000000e+000
6275:0.0000000000000000e+000
6276:0.0000000000000000e+000
6277:0.0000000000000000e+000
6278:0.0000000000000000e+000
6279:0.0000000000000000e+000
6280:0.0000000000000000e+000
6281:0.0000000000000000e+000
6282:0.0000000000000000e+000
6283:0.0000000000000000e+000
6284:0.0000000000000000e+000
6285:0.0000000000000000e+000
6286:0.0000000000000000e+000
6287:0.0000000000000000e+000
6288:0.0000000000000000e+000
6289:0.0000000000000000e+000
6290:0.0000000000000000e+000
6291:0.0000000000000000e+000
6292:0.0000000000000000e+000
6293:0.0000000000000000e+000
6294:0.0000000000000000e+000
6295:0.0000000000000000e+000
6296:0.0000000000000000e+000
6297:0.0000000000000000e+000
6298:0.0000000000000000e+000
6299:0.0000000000000000e+000
6300:0.0000000000000000e+000
6301:0.0000000000000000e+000
6302:0.0000000000000000e+000
6303:0.0000000000000000e+000
6304:0.0000000000000000e+000
6305:0.0000000000000000e+000
6306:0.0000000000000000e+000
6307:0.0000000000000000e+000
6308:0.0000000000000000e+000
6309:0.0000000000000000e+000
6310:0.0000000000000000e+000
6311:0.0000000000000000e+000
6312:0.0000000000000000e+000
6313:0.0000000000000000e+000
6314:0.0000000000000000e+000
6315:0.0000000000000000e+000
6316:0.0000000000000000e+000
6317:0.0000000000000000e+000
6318:0.0000000000000000e+000
6319:0.0000000000000000e+000
6320:0.0000000000000000e+000
6321:0.0000000000000000e+000
6322:0.0000000000000000e+000
6323:0.0000000000000000e+000
6324:0.0000000000000000e+000
6325:0.0000000000000000e+000
6326:0.0000000000000000e+000
6327:0.0000000000000000e+000
6328:0.0000000000000000e+000
6329:0.0000000000000000e+000
6330:0.0000000000000000e+000
6331:0.0000000000000000e+000
6332:0.0000000000000000e+000
6333:0.0000000000000000e+000
6334:0.0000000000000000e+000
6335:0.0000000000000000e+000
6336:0.0000000000000000e+000
6337:0.0000000000000000e+000
6338:0.0000000000000000e+000
6339:0.0000000000000000e+000
6340:0.0000000000000000e+000
6341:0.0000000000000000e+000
6342:0.0000000000000000e+000
6343:0.0000000000000000e+000
6344:0.0000000000000000e+000
6345:0.0000000000000000e+000
6346:0.0000000000000000e+000
6347:0.0000000000000000e+000
6348:0.0000000000000000e+000
6349:0.0000000000000000e+000
6350:0.0000000000000000e+000
6351:0.0000000000000000e+000
6352:0.0000000000000000e+000
6353:0.0000000000000000e+000
6354:0.0000000000000000e+000
6355:0.0000000000000000e+000
6356:0.0000000000000000e+000
6357:0.0000000000000000e+000
6358:0.0000000000000000e+000
6359:0.0000000000000000e+000
6360:0.0000000000000000e+000
6361:0.0000000000000000e+000
6362:0.0000000000000000e+000
6363:0.0000000000000000e+000
6364:0.0000000000000000e+000
6365:0.0000000000000000e+000
6366:0.0000000000000000e+000
6367:0.0000000000000000e+000
6368:0.0000000000000000e+000
6369:0.0000000000000000e+000
6370:0.0000000000000000e+000
6371:0.0000000000000000e+000
6372:0.0000000000000000e+000
6373:0.0000000000000000e+000
6374:0.0000000000000000e+000
6375:0.0000000000000000e+000
6376:0.0000000000000000e+000
6377:0.0000000000000000e+000
6378:0.0000000000000000e+000
6379:0.0000000000000000e+000
6380:0.0000000000000000e+000
6381:0.0000000000000000e+000
6382:0.0000000000000000e+000
6383:0.0000000000000000e+000
6384:0.0000000000000000e+000
6385:0.0000000000000000e+000
6386:0.0000000000000000e+000
6387:0.0000000000000000e+000
6388:0.0000000000000000e+000
6389:0.0000000000000000e+000
6390:0.0000000000000000e+000
6391:0.0000000000000000e+000
6392:0.0000000000000000e+000
6393:0.0000000000000000e+000
6394:0.0000000000000000e+000
6395:0.0000000000000000e+000
6396:0.0000000000000000e+000
6397:0.0000000000000000e+000
6398:0.0000000000000000e+000
6399:0.0000000000000000e+000
6400:0.0000000000000000e+000
6401:0.0000000000000000e+000
6402:0.0000000000000000e+000
6403:0.0000000000000000e+000
6404:0.0000000000000000e+000
6405:0.0000000000000000e+000
6406:0.0000000000000000e+000
6407:0.0000000000000000e+000
6408:0.0000000000000000e+000
6409:0.0000000000000000e+000
6410:0.0000000000000000e+000
6411:0.0000000000000000e+000
6412:0.0000000000000000e+000
6413:0.0000000000000000e+000
6414:0.0000000000000000e+000
6415:0.0000000000000000e+000
6416:0.0000000000000000e+000
6417:0.0000000000000000e+000
6418:0.0000000000000000e+000
6419:0.0000000000000000e+000
6420:0.0000000000000000e+000
6421:0.0000000000000000e+000
6422:0.0000000000000000e+000
6423:0.0000000000000000e+000
6424:0.0000000000000000e+000
6425:0.0000000000000000e+000
6426:0.0000000000000000e+000
6427:0.0000000000000000e+000
6428:0.0000000000000000e+000
6429:0.0000000000000000e+000
6430:0.0000000000000000e+000
6431:0.0000000000000000e+000
6432:0.0000000000000000e+000
6433:0.0000000000000000e+000
6434:0.0000000000000000e+000
6435:0.0000000000000000e+000
6436:0.0000000000000000e+000
6437:0.0000000000000000e+000
6438:0.0000000000000000e+000
6439:0.0000000000000000e+000
6440:0.0000000000000000e+000
6441:0.0000000000000000e+000
6442:0.0000000000000000e+000
6443:0.0000000000000000e+000
6444:0.0000000000000000e+000
6445:0.0000000000000000e+000
6446:0.0000000000000000e+000
6447:0.0000000000000000e+000
6448:0.0000000000000000e+000
6449:0.0000000000000000e+000
6450:0.0000000000000000e+000
6451:0.0000000000000000e+000
6452:0.0000000000000000e+000
6453:0.0000000000000000e+000
6454:0.0000000000000000e+000
6455:0.0000000000000000e+000
6456:0.0000000000000000e+000
6457:0.0000000000000000e+000
6458:0.0000000000000000e+000
6459:0.0000000000000000e+000
6460:0.0000000000000000e+000
6461:0.0000000000000000e+000
6462:0.0000000000000000e+000
6463:0.0000000000000000e+000
6464:0.0000000000000000e+000
6465:0.0000000000000000e+000
6466:0.0000000000000000e+000
6467:0.0000000000000000e+000
6468:0.0000000000000000e+000
6469:0.0000000000000000e+000
6470:0.0000000000000000e+000
6471:0.0000000000000000e+000
6472:0.0000000000000000e+000
6473:0.0000000000000000e+000
6474:0.0000000000000000e+000
6475:0.0000000000000000e+000
6476:0.0000000000000000e+000
6477:0.0000000000000000e+000
6478:0.0000000000000000e+000
6479:0.0000000000000000e+000
6480:0.0000000000000000e+000
6481:0.0000000000000000e+000
6482:0.0000000000000000e+000
6483:0.0000000000000000e+000
6484:0.0000000000000000e+000
6485:0.0000000000000000e+000
6486:0.0000000000000000e+000
6487:0.0000000000000000e+000
6488:0.0000000000000000e+000
6489:0.0000000000000000e+000
6490:0.0000000000000000e+000
6491:0.0000000000000000e+000
6492:0.0000000000000000e+000
6493:0.0000000000000000e+000
6494:0.0000000000000000e+000
6495:0.0000000000000000e+000
6496:0.0000000000000000e+000
6497:0.0000000000000000e+000
6498:0.0000000000000000e+000
6499:0.0000000000000000e+000
6500:0.0000000000000000e+000
6501:0.0000000000000000e+000
6502:0.0000000000000000e+000
6503:0.0000000000000000e+000
6504:0.0000000000000000e+000
6505:0.0000000000000000e+000
6506:0.0000000000000000e+000
6507:0.0000000000000000e+000
6508:0.0000000000000000e+000
6509:0.0000000000000000e+000
6510:0.0000000000000000e+000
6511:0.0000000000000000e+000
6512:0.0000000000000000e+000
6513:0.0000000000000000e+000
6514:0.0000000000000000e+000
6515:0.0000000000000000e+000
6516:0.0000000000000000e+000
6517:0.0000000000000000e+000
6518:0.0000000000000000e+000
6519:0.0000000000000000e+000
6520:0.0000000000000000e+000
6521:0.0000000000000000e+000
6522:0.0000000000000000e+000
6523:0.0000000000000000e+000
6524:0.0000000000000000e+000
6525:0.0000000000000000e+000
6526:0.0000000000000000e+000
6527:0.0000000000000000e+000
6528:0.0000000000000000e+000
6529:0.0000000000000000e+000
6530:0.0000000000000000e+000
6531:0.0000000000000000e+000
6532:0.0000000000000000e+000
6533:0.0000000000000000e+000
6534:0.0000000000000000e+000
6535:0.0000000000000000e+000
6536:0.0000000000000000e+000
6537:0.0000000000000000e+000
6538:0.0000000000000000e+000
6539:0.0000000000000000e+000
6540:0.0000000000000000e+000
6541:0.0000000000000000e+000
6542:0.0000000000000000e+000
6543:0.0000000000000000e+000
6544:0.0000000000000000e+000
6545:0.0000000000000000e+000
6546:0.0000000000000000e+000
6547:0.0000000000000000e+000
6548:0.0000000000000000e+000
6549:0.0000000000000000e+000
6550:0.0000000000000000e+000
6551:0.0000000000000000e+000
6552:0.0000000000000000e+000
6553:0.0000000000000000e+000
6554:0.0000000000000000e+000
6555:0.0000000000000000e+000
6556:0.0000000000000000e+000
6557:0.0000000000000000e+000
6558:0.0000000000000000e+000
6559:0.0000000000000000e+000
6560:0.0000000000000000e+000
6561:0.0000000000000000e+000
6562:0.0000000000000000e+000
6563:0.0000000000000000e+000
6564:0.0000000000000000e+000
6565:0.0000000000000000e+000
6566:0.0000000000000000e+000
6567:0.0000000000000000e+000
6568:0.0000000000000000e+000
6569:0.0000000000000000e+000
6570:0.0000000000000000e+000
6571:0.0000000000000000e+000
6572:0.0000000000000000e+000
6573:0.0000000000000000e+000
6574:0.0000000000000000e+000
6575:0.0000000000000000e+000
6576:0.0000000000000000e+000
6577:0.0000000000000000e+000
6578:0.0000000000000000e+000
6579:0.0000000000000000e+000
6580:0.0000000000000000e+000
6581:0.0000000000000000e+000
6582:0.0000000000000000e+000
6583:0.0000000000000000e+000
6584:0.0000000000000000e+000
6585:0.0000000000000000e+000
6586:0.0000000000000000e+000
6587:0.0000000000000000e+000
6588:0.0000000000000000e+000
6589:0.0000000000000000e+000
6590:0.0000000000000000e+000
6591:0.0000000000000000e+000
6592:0.0000000000000000e+000
6593:0.0000000000000000e+000
6594:0.0000000000000000e+000
6595:0.0000000000000000e+000
6596:0.0000000000000000e+000
6597:0.0000000000000000e+000
6598:0.0000000000000000e+000
6599:0.0000000000000000e+000
6600:0.0000000000000000e+000
6601:0.0000000000000000e+000
6602:0.0000000000000000e+000
6603:0.0000000000000000e+000
6604:0.0000000000000000e+000
6605:0.0000000000000000e+000
6606:0.0000000000000000e+000
6607:0.0000000000000000e+000
6608:0.0000000000000000e+000
6609:0.0000000000000000e+000
6610:0.0000000000000000e+000
6611:0.0000000000000000e+000
6612:0.0000000000000000e+000
6613:0.0000000000000000e+000
6614:0.0000000000000000e+000
6615:0.0000000000000000e+000
6616:0.0000000000000000e+000
6617:0.0000000000000000e+000
6618:0.0000000000000000e+000
6619:0.0000000000000000e+000
6620:0.0000000000000000e+000
6621:0.0000000000000000e+000
6622:0.0000000000000000e+000
6623:0.0000000000000000e+000
6624:0.0000000000000000e+000
6625:0.0000000000000000e+000
6626:0.0000000000000000e+000
6627:0.0000000000000000e+000
6628:0.0000000000000000e+000
6629:0.0000000000000000e+000
6630:0.0000000000000000e+000
6631:0.0000000000000000e+000
6632:0.0000000000000000e+000
6633:0.0000000000000000e+000
6634:0.0000000000000000e+000
6635:0.0000000000000000e+000
6636:0.0000000000000000e+000
6637:0.0000000000000000e+000
6638:0.0000000000000000e+000
6639:0.0000000000000000e+000
6640:0.0000000000000000e+000
6641:0.0000000000000000e+000
6642:0.0000000000000000e+000
6643:0.0000000000000000e+000
6644:0.0000000000000000e+000
6645:0.0000000000000000e+000
6646:0.0000000000000000e+000
6647:0.0000000000000000e+000
6648:0.0000000000000000e+000
6649:0.0000000000000000e+000
6650:0.0000000000000000e+000
6651:0.0000000000000000e+000
6652:0.0000000000000000e+000
6653:0.0000000000000000e+000
6654:0.0000000000000000e+000
6655:0.0000000000000000e+000
6656:0.0000000000000000e+000
6657:0.0000000000000000e+000
6658:0.0000000000000000e+000
6659:0.0000000000000000e+000
6660:0.0000000000000000e+000
6661:0.0000000000000000e+000
6662:0.0000000000000000e+000
6663:0.0000000000000000e+000
6664:0.0000000000000000e+000
6665:0.0000000000000000e+000
6666:0.0000000000000000e+000
6667:0.0000000000000000e+000
6668:0.0000000000000000e+000
6669:0.0000000000000000e+000
6670:0.0000000000000000e+000
6671:0.0000000000000000e+000
6672:0.0000000000000000e+000
6673:0.0000000000000000e+000
6674:0.0000000000000000e+000
6675:0.0000000000000000e+000
6676:0.0000000000000000e+000
6677:0.0000000000000000e+000
6678:0.0000000000000000e+000
6679:0.0000000000000000e+000
6680:0.0000000000000000e+000
6681:0.0000000000000000e+000
6682:0.0000000000000000e+000
6683:0.0000000000000000e+000
6684:0.0000000000000000e+000
6685:0.0000000000000000e+000
6686:0.0000000000000000e+000
6687:0.0000000000000000e+000
6688:0.0000000000000000e+000
6689:0.0000000000000000e+000
6690:0.0000000000000000e+000
6691:0.0000000000000000e+000
6692:0.0000000000000000e+000
6693:0.0000000000000000e+000
6694:0.0000000000000000e+000
6695:0.0000000000000000e+000
6696:0.0000000000000000e+000
6697:0.0000000000000000e+000
6698:0.0000000000000000e+000
6699:0.0000000000000000e+000
6700:0.0000000000000000e+000
6701:0.0000000000000000e+000
6702:0.0000000000000000e+000
6703:0.0000000000000000e+000
6704:0.0000000000000000e+000
6705:0.0000000000000000e+000
6706:0.0000000000000000e+000
6707:0.0000000000000000e+000
6708:0.0000000000000000e+000
6709:0.0000000000000000e+000
6710:0.0000000000000000e+000
6711:0.0000000000000000e+000
6712:0.0000000000000000e+000
6713:0.0000000000000000e+000
6714:0.0000000000000000e+000
6715:0.0000000000000000e+000
6716:0.0000000000000000e+000
6717:0.0000000000000000e+000
6718:0.0000000000000000e+000
6719:0.0000000000000000e+000
6720:0.0000000000000000e+000
6721:0.0000000000000000e+000
6722:0.0000000000000000e+000
6723:0.0000000000000000e+000
6724:0.0000000000000000e+000
6725:0.0000000000000000e+000
6726:0.0000000000000000e+000
6727:0.0000000000000000e+000
6728:0.0000000000000000e+000
6729:0.0000000000000000e+000
6730:0.0000000000000000e+000
6731:0.0000000000000000e+000
6732:0.0000000000000000e+000
6733:0.0000000000000000e+000
6734:0.0000000000000000e+000
6735:0.0000000000000000e+000
6736:0.0000000000000000e+000
6737:0.0000000000000000e+000
6738:0.0000000000000000e+000
6739:0.0000000000000000e+000
6740:0.0000000000000000e+000
6741:0.0000000000000000e+000
6742:0.0000000000000000e+000
6743:0.0000000000000000e+000
6744:0.0000000000000000e+000
6745:0.0000000000000000e+000
6746:0.0000000000000000e+000
6747:0.0000000000000000e+000
6748:0.0000000000000000e+000
6749:0.0000000000000000e+000
6750:0.0000000000000000e+000
6751:0.0000000000000000e+000
6752:0.0000000000000000e+000
6753:0.0000000000000000e+000
6754:0.0000000000000000e+000
6755:0.0000000000000000e+000
6756:0.0000000000000000e+000
6757:0.0000000000000000e+000
6758:0.0000000000000000e+000
6759:0.0000000000000000e+000
6760:0.0000000000000000e+000
6761:0.0000000000000000e+000
6762:0.0000000000000000e+000
6763:0.0000000000000000e+000
6764:0.0000000000000000e+000
6765:0.0000000000000000e+000
6766:0.0000000000000000e+000
6767:0.0000000000000000e+000
6768:0.0000000000000000e+000
6769:0.0000000000000000e+000
6770:0.0000000000000000e+000
6771:0.0000000000000000e+000
6772:0.0000000000000000e+000
6773:0.0000000000000000e+000
6774:0.0000000000000000e+000
6775:0.0000000000000000e+000
6776:0.0000000000000000e+000
6777:0.0000000000000000e+000
6778:0.0000000000000000e+000
6779:0.0000000000000000e+000
6780:0.0000000000000000e+000
6781:0.0000000000000000e+000
6782:0.0000000000000000e+000
6783:0.0000000000000000e+000
6784:0.0000000000000000e+000
6785:0.0000000000000000e+000
6786:0.0000000000000000e+000
6787:0.0000000000000000e+000
6788:0.0000000000000000e+000
6789:0.0000000000000000e+000
6790:0.0000000000000000e+000
6791:0.0000000000000000e+000
6792:0.0000000000000000e+000
6793:0.0000000000000000e+000
6794:0.0000000000000000e+000
6795:0.0000000000000000e+000
6796:0.0000000000000000e+000
6797:0.0000000000000000e+000
6798:0.0000000000000000e+000
6799:0.0000000000000000e+000
6800:0.0000000000000000e+000
6801:0.0000000000000000e+000
6802:0.0000000000000000e+000
6803:0.0000000000000000e+000
6804:0.0000000000000000e+000
6805:0.0000000000000000e+000
6806:0.0000000000000000e+000
6807:0.0000000000000000e+000
6808:0.0000000000000000e+000
6809:0.0000000000000000e+000
6810:0.0000000000000000e+000
6811:0.0000000000000000e+000
6812:0.0000000000000000e+000
6813:0.0000000000000000e+000
6814:0.0000000000000000e+000
6815:0.0000000000000000e+000
6816:0.0000000000000000e+000
6817:0.0000000000000000e+000
6818:0.0000000000000000e+000
6819:0.0000000000000000e+000
6820:0.0000000000000000e+000
6821:0.0000000000000000e+000
6822:0.0000000000000000e+000
6823:0.0000000000000000e+000
6824:0.0000000000000000e+000
6825:0.0000000000000000e+000
6826:0.0000000000000000e+000
6827:0.0000000000000000e+000
6828:0.0000000000000000e+000
6829:0.0000000000000000e+000
6830:0.0000000000000000e+000
6831:0.0000000000000000e+000
6832:0.0000000000000000e+000
6833:0.0000000000000000e+000
6834:0.0000000000000000e+000
6835:0.0000000000000000e+000
6836:0.0000000000000000e+000
6837:0.0000000000000000e+000
6838:0.0000000000000000e+000
6839:0.0000000000000000e+000
6840:0.0000000000000000e+000
6841:0.0000000000000000e+000
6842:0.0000000000000000e+000
6843:0.0000000000000000e+000
6844:0.0000000000000000e+000
6845:0.0000000000000000e+000
6846:0.0000000000000000e+000
6847:0.0000000000000000e+000
6848:0.0000000000000000e+000
6849:0.0000000000000000e+000
6850:0.0000000000000000e+000
6851:0.0000000000000000e+000
6852:0.0000000000000000e+000
6853:0.0000000000000000e+000
6854:0.0000000000000000e+000
6855:0.0000000000000000e+000
6856:0.0000000000000000e+000
6857:0.0000000000000000e+000
6858:0.0000000000000000e+000
6859:0.0000000000000000e+000
6860:0.0000000000000000e+000
6861:0.0000000000000000e+000
6862:0.0000000000000000e+000
6863:0.0000000000000000e+000
6864:0.0000000000000000e+000
6865:0.0000000000000000e+000
6866:0.0000000000000000e+000
6867:0.0000000000000000e+000
6868:0.0000000000000000e+000
6869:0.0000000000000000e+000
6870:0.0000000000000000e+000
6871:0.0000000000000000e+000
6872:0.0000000000000000e+000
6873:0.0000000000000000e+000
6874:0.0000000000000000e+000
6875:0.0000000000000000e+000
6876:0.0000000000000000e+000
6877:0.0000000000000000e+000
6878:0.0000000000000000e+000
6879:0.0000000000000000e+000
6880:0.0000000000000000e+000
6881:0.0000000000000000e+000
6882:0.0000000000000000e+000
6883:0.0000000000000000e+000
6884:0.0000000000000000e+000
6885:0.0000000000000000e+000
6886:0.0000000000000000e+000
6887:0.0000000000000000e+000
6888:0.0000000000000000e+000
6889:0.0000000000000000e+000
6890:0.0000000000000000e+000
6891:0.0000000000000000e+000
6892:0.0000000000000000e+000
6893:0.0000000000000000e+000
6894:0.0000000000000000e+000
6895:0.0000000000000000e+000
6896:0.0000000000000000e+000
6897:0.0000000000000000e+000
6898:0.0000000000000000e+000
6899:0.0000000000000000e+000
6900:0.0000000000000000e+000
6901:0.0000000000000000e+000
6902:0.0000000000000000e+000
6903:0.0000000000000000e+000
6904:0.0000000000000000e+000
6905:0.0000000000000000e+000
6906:0.0000000000000000e+000
6907:0.0000000000000000e+000
6908:0.0000000000000000e+000
6909:0.0000000000000000e+000
6910:0.0000000000000000e+000
6911:0.0000000000000000e+000
6912:0.0000000000000000e+000
6913:0.0000000000000000e+000
6914:0.0000000000000000e+000
6915:0.0000000000000000e+000
6916:0.0000000000000000e+000
6917:0.0000000000000000e+000
6918:0.0000000000000000e+000
6919:0.0000000000000000e+000
6920:0.0000000000000000e+000
6921:0.0000000000000000e+000
6922:0.0000000000000000e+000
6923:0.0000000000000000e+000
6924:0.0000000000000000e+000
6925:0.0000000000000000e+000
6926:0.0000000000000000e+000
6927:0.0000000000000000e+000
6928:0.0000000000000000e+000
6929:0.0000000000000000e+000
6930:0.0000000000000000e+000
6931:0.0000000000000000e+000
6932:0.0000000000000000e+000
6933:0.0000000000000000e+000
6934:0.0000000000000000e+000
6935:0.0000000000000000e+000
6936:0.0000000000000000e+000
6937:0.0000000000000000e+000
6938:0.0000000000000000e+000
6939:0.0000000000000000e+000
6940:0.0000000000000000e+000
6941:0.0000000000000000e+000
6942:0.0000000000000000e+000
6943:0.0000000000000000e+000
6944:0.0000000000000000e+000
6945:0.0000000000000000e+000
6946:0.0000000000000000e+000
6947:0.0000000000000000e+000
6948:0.0000000000000000e+000
6949:0.0000000000000000e+000
6950:0.0000000000000000e+000
6951:0.0000000000000000e+000
6952:0.0000000000000000e+000
6953:0.0000000000000000e+000
6954:0.0000000000000000e+000
6955:0.0000000000000000e+000
6956:0.0000000000000000e+000
6957:0.0000000000000000e+000
6958:0.0000000000000000e+000
6959:0.0000000000000000e+000
6960:0.0000000000000000e+000
6961:0.0000000000000000e+000
6962:0.0000000000000000e+000
6963:0.0000000000000000e+000
6964:0.0000000000000000e+000
6965:0.0000000000000000e+000
6966:0.0000000000000000e+000
6967:0.0000000000000000e+000
6968:0.0000000000000000e+000
6969:0.0000000000000000e+000
6970:0.0000000000000000e+000
6971:0.0000000000000000e+000
6972:0.0000000000000000e+000
6973:0.0000000000000000e+000
6974:0.0000000000000000e+000
6975:0.0000000000000000e+000
6976:0.0000000000000000e+000
6977:0.0000000000000000e+000
6978:0.0000000000000000e+000
6979:0.0000000000000000e+000
6980:0.0000000000000000e+000
6981:0.0000000000000000e+000
6982:0.0000000000000000e+000
6983:0.0000000000000000e+000
6984:0.0000000000000000e+000
6985:0.0000000000000000e+000
6986:0.0000000000000000e+000
6987:0.0000000000000000e+000
6988:0.0000000000000000e+000
6989:0.0000000000000000e+000
6990:0.0000000000000000e+000
6991:0.0000000000000000e+000
6992:0.0000000000000000e+000
6993:0.0000000000000000e+000
6994:0.0000000000000000e+000
6995:0.0000000000000000e+000
6996:0.0000000000000000e+000
6997:0.0000000000000000e+000
6998:0.0000000000000000e+000
6999:0.0000000000000000e+000
7000:0.0000000000000000e+000
7001:0.0000000000000000e+000
7002:0.0000000000000000e+000
7003:0.0000000000000000e+000
7004:0.0000000000000000e+000
7005:0.0000000000000000e+000
7006:0.0000000000000000e+000
7007:0.0000000000000000e+000
7008:0.0000000000000000e+000
7009:0.0000000000000000e+000
7010:0.0000000000000000e+000
7011:0.0000000000000000e+000
7012:0.0000000000000000e+000
7013:0.0000000000000000e+000
7014:0.0000000000000000e+000
7015:0.0000000000000000e+000
7016:0.0000000000000000e+000
7017:0.0000000000000000e+000
7018:0.0000000000000000e+000
7019:0.0000000000000000e+000
7020:0.0000000000000000e+000
7021:0.0000000000000000e+000
7022:0.0000000000000000e+000
7023:0.0000000000000000e+000
7024:0.0000000000000000e+000
7025:0.0000000000000000e+000
7026:0.0000000000000000e+000
7027:0.0000000000000000e+000
7028:0.0000000000000000e+000
7029:0.0000000000000000e+000
7030:0.0000000000000000e+000
7031:0.0000000000000000e+000
7032:0.0000000000000000e+000
7033:0.0000000000000000e+000
7034:0.0000000000000000e+000
7035:0.0000000000000000e+000
7036:0.0000000000000000e+000
7037:0.0000000000000000e+000
7038:0.0000000000000000e+000
7039:0.0000000000000000e+000
7040:0.0000000000000000e+000
7041:0.0000000000000000e+000
7042:0.0000000000000000e+000
7043:0.0000000000000000e+000
7044:0.0000000000000000e+000
7045:0.0000000000000000e+000
7046:0.0000000000000000e+000
7047:0.0000000000000000e+000
7048:0.0000000000000000e+000
7049:0.0000000000000000e+000
7050:0.0000000000000000e+000
7051:0.0000000000000000e+000
7052:0.0000000000000000e+000
7053:0.0000000000000000e+000
7054:0.0000000000000000e+000
7055:0.0000000000000000e+000
7056:0.0000000000000000e+000
7057:0.0000000000000000e+000
7058:0.0000000000000000e+000
7059:0.0000000000000000e+000
7060:0.0000000000000000e+000
7061:0.0000000000000000e+000
7062:0.0000000000000000e+000
7063:0.0000000000000000e+000
7064:0.0000000000000000e+000
7065:0.0000000000000000e+000
7066:0.0000000000000000e+000
7067:0.0000000000000000e+000
7068:0.0000000000000000e+000
7069:0.0000000000000000e+000
7070:0.0000000000000000e+000
7071:0.0000000000000000e+000
7072:0.0000000000000000e+000
7073:0.0000000000000000e+000
7074:0.0000000000000000e+000
7075:0.0000000000000000e+000
7076:0.0000000000000000e+000
7077:0.0000000000000000e+000
7078:0.0000000000000000e+000
7079:0.0000000000000000e+000
7080:0.0000000000000000e+000
7081:0.0000000000000000e+000
7082:0.0000000000000000e+000
7083:0.0000000000000000e+000
7084:0.0000000000000000e+000
7085:0.0000000000000000e+000
7086:0.0000000000000000e+000
7087:0.0000000000000000e+000
7088:0.0000000000000000e+000
7089:0.0000000000000000e+000
7090:0.0000000000000000e+000
7091:0.0000000000000000e+000
7092:0.0000000000000000e+000
7093:0.0000000000000000e+000
7094:0.0000000000000000e+000
7095:0.0000000000000000e+000
7096:0.0000000000000000e+000
7097:0.0000000000000000e+000
7098:0.0000000000000000e+000
7099:0.0000000000000000e+000
7100:0.0000000000000000e+000
7101:0.0000000000000000e+000
7102:0.0000000000000000e+000
7103:0.0000000000000000e+000
7104:0.0000000000000000e+000
7105:0.0000000000000000e+000
7106:0.0000000000000000e+000
7107:0.0000000000000000e+000
7108:0.0000000000000000e+000
7109:0.0000000000000000e+000
7110:0.0000000000000000e+000
7111:0.0000000000000000e+000
7112:0.0000000000000000e+000
7113:0.0000000000000000e+000
7114:0.0000000000000000e+000
7115:0.0000000000000000e+000
7116:0.0000000000000000e+000
7117:0.0000000000000000e+000
7118:0.0000000000000000e+000
7119:0.0000000000000000e+000
7120:0.0000000000000000e+000
7121:0.0000000000000000e+000
7122:0.0000000000000000e+000
7123:0.0000000000000000e+000
7124:0.0000000000000000e+000
7125:0.0000000000000000e+000
7126:0.0000000000000000e+000
7127:0.0000000000000000e+000
7128:0.0000000000000000e+000
7129:0.0000000000000000e+000
7130:0.0000000000000000e+000
7131:0.0000000000000000e+000
7132:0.0000000000000000e+000
7133:0.0000000000000000e+000
7134:0.0000000000000000e+000
7135:0.0000000000000000e+000
7136:0.0000000000000000e+000
7137:0.0000000000000000e+000
7138:0.0000000000000000e+000
7139:0.0000000000000000e+000
7140:0.0000000000000000e+000
7141:0.0000000000000000e+000
7142:0.0000000000000000e+000
7143:0.0000000000000000e+000
7144:0.0000000000000000e+000
7145:0.0000000000000000e+000
7146:0.0000000000000000e+000
7147:0.0000000000000000e+000
7148:0.0000000000000000e+000
7149:0.0000000000000000e+000
7150:0.0000000000000000e+000
7151:0.0000000000000000e+000
7152:0.0000000000000000e+000
7153:0.0000000000000000e+000
7154:0.0000000000000000e+000
7155:0.0000000000000000e+000
7156:0.0000000000000000e+000
7157:0.0000000000000000e+000
7158:0.0000000000000000e+000
7159:0.0000000000000000e+000
7160:0.0000000000000000e+000
7161:0.0000000000000000e+000
7162:0.0000000000000000e+000
7163:0.0000000000000000e+000
7164:0.0000000000000000e+000
7165:0.0000000000000000e+000
7166:0.0000000000000000e+000
7167:0.0000000000000000e+000
7168:0.0000000000000000e+000
7169:0.0000000000000000e+000
7170:0.0000000000000000e+000
7171:0.0000000000000000e+000
7172:0.0000000000000000e+000
7173:0.0000000000000000e+000
7174:0.0000000000000000e+000
7175:0.0000000000000000e+000
7176:0.0000000000000000e+000
7177:0.0000000000000000e+000
7178:0.0000000000000000e+000
7179:0.0000000000000000e+000
7180:0.0000000000000000e+000
7181:0.0000000000000000e+000
7182:0.0000000000000000e+000
7183:0.0000000000000000e+000
7184:0.0000000000000000e+000
7185:0.0000000000000000e+000
7186:0.0000000000000000e+000
7187:0.0000000000000000e+000
7188:0.0000000000000000e+000
7189:0.0000000000000000e+000
7190:0.0000000000000000e+000
7191:0.0000000000000000e+000
7192:0.0000000000000000e+000
7193:0.0000000000000000e+000
7194:0.0000000000000000e+000
7195:0.0000000000000000e+000
7196:0.0000000000000000e+000
7197:0.0000000000000000e+000
7198:0.0000000000000000e+000
7199:0.0000000000000000e+000
