x	y	stress_xx
 1.0000000000e+000	 0.0000000000e+000	 3.0067611580e-001
 9.9995537907e-001	 9.4463922618e-003	 2.9918871548e-001
 9.9982082766e-001	 1.8928670806e-002	 3.0258019121e-001
 9.9959532214e-001	 2.8445738363e-002	 3.1105253229e-001
 9.9927785191e-001	 3.7996469419e-002	 3.2480478360e-001
 9.9886742018e-001	 4.7579710273e-002	 3.4403258416e-001
 9.9836304482e-001	 5.7194279111e-002	 3.6892768217e-001
 9.9776375910e-001	 6.6838966101e-002	 3.9967742673e-001
 9.9706861257e-001	 7.6512533521e-002	 4.3646423671e-001
 9.9627667181e-001	 8.6213715910e-002	 4.7946504708e-001
 9.9538702132e-001	 9.5941220239e-002	 5.2885073341e-001
 1.0266668589e+000	 0.0000000000e+000	 7.9369829649e-001
 1.0266210481e+000	 9.6982978697e-003	 7.9515380345e-001
 1.0264829086e+000	 1.9433438997e-002	 8.0029886519e-001
 1.0262513896e+000	 2.9204296851e-002	 8.0923950818e-001
 1.0259254534e+000	 3.9009715904e-002	 8.2207948735e-001
 1.0255040767e+000	 4.8848511690e-002	 8.3892042615e-001
 1.0249862513e+000	 5.8719470879e-002	 8.5986147742e-001
 1.0243709845e+000	 6.8621351376e-002	 8.8499896107e-001
 1.0236573006e+000	 7.8552882455e-002	 9.1442597864e-001
 1.0228442412e+000	 8.8512764906e-002	 9.4823200507e-001
 1.0219308666e+000	 9.8499671221e-002	 9.8650245799e-001
 1.0533340711e+000	 0.0000000000e+000	 1.2858165357e+000
 1.0532870704e+000	 9.9502068155e-003	 1.2887300431e+000
 1.0531453428e+000	 1.9938213876e-002	 1.2943882680e+000
 1.0529078102e+000	 2.9962865390e-002	 1.3028134965e+000
 1.0525734079e+000	 4.0022975815e-002	 1.3140268221e+000
 1.0521410862e+000	 5.0117329919e-002	 1.3280482514e+000
 1.0516098105e+000	 6.0244682856e-002	 1.3448964873e+000
 1.0509785624e+000	 7.0403760268e-002	 1.3645886875e+000
 1.0502463409e+000	 8.0593258423e-002	 1.3871402007e+000
 1.0494121627e+000	 9.0811844365e-002	 1.4125642776e+000
 1.0484750635e+000	 1.0105815610e-001	 1.4408717594e+000
 1.0800015900e+000	 0.0000000000e+000	 1.7623953814e+000
 1.0799533994e+000	 1.0202118658e-002	 1.7655482687e+000
 1.0798080836e+000	 2.0442994561e-002	 1.7707056494e+000
 1.0795645373e+000	 3.0721442652e-002	 1.7778180352e+000
 1.0792216689e+000	 4.1036247378e-002	 1.7868356065e+000
 1.0787784020e+000	 5.1386162739e-002	 1.7977082966e+000
 1.0782336758e+000	 6.1769912372e-002	 1.8103856738e+000
 1.0775864463e+000	 7.2186189658e-002	 1.8248167983e+000
 1.0768356869e+000	 8.2633657856e-002	 1.8409500549e+000
 1.0759803897e+000	 9.3110950263e-002	 1.8587329589e+000
 1.0750195657e+000	 1.0361667041e-001	 1.8781119389e+000
 1.1066693690e+000	 0.0000000000e+000	 2.2100541106e+000
 1.1066199883e+000	 1.0454032957e-002	 2.2124785250e+000
 1.1064710844e+000	 2.0947780166e-002	 2.2163357145e+000
 1.1062215244e+000	 3.1480027311e-002	 2.2215155725e+000
 1.1058701898e+000	 4.2049528821e-002	 2.2279083302e+000
 1.1054159776e+000	 5.2655007930e-002	 2.2354046309e+000
 1.1048578008e+000	 6.3295156760e-002	 2.2438954888e+000
 1.1041945896e+000	 7.3968636427e-002	 2.2532722219e+000
 1.1034252923e+000	 8.4674077182e-002	 2.2634263574e+000
 1.1025488757e+000	 9.5410078577e-002	 2.2742495096e+000
 1.1015643267e+000	 1.0617520966e-001	 2.2856332307e+000
 1.1333373612e+000	 0.0000000000e+000	 2.6165184648e+000
 1.1332867906e+000	 1.0705949271e-002	 2.6174846759e+000
 1.1331342985e+000	 2.1452569810e-002	 2.6194470522e+000
 1.1328787247e+000	 3.2238618038e-002	 2.6222452996e+000
 1.1325189238e+000	 4.3062818369e-002	 2.6257199649e+000
 1.1320537662e+000	 5.3923863272e-002	 2.6297125090e+000
 1.1314821387e+000	 6.4820413349e-002	 2.6340653226e+000
 1.1308029458e+000	 7.5751097454e-002	 2.6386217115e+000
 1.1300151103e+000	 8.6714512831e-002	 2.6432258530e+000
 1.1291175742e+000	 9.7709225283e-002	 2.6477227217e+000
 1.1281093001e+000	 1.0873376937e-001	 2.6519579846e+000
 1.1600055201e+000	 0.0000000000e+000	 2.9704933838e+000
 1.1599537596e+000	 1.0957867160e-002	 2.9694990572e+000
 1.1597976792e+000	 2.1957362609e-002	 2.9691683561e+000
 1.1595360916e+000	 3.2997213506e-002	 2.9693005795e+000
 1.1591678243e+000	 4.4076114251e-002	 2.9696962320e+000
 1.1586917213e+000	 5.5192726543e-002	 2.9701571019e+000
 1.1581066431e+000	 6.6345679470e-002	 2.9704863120e+000
 1.1574114683e+000	 7.7533569621e-002	 2.9704883372e+000
 1.1566050945e+000	 8.8754961232e-002	 2.9699689888e+000
 1.1556864388e+000	 1.0000838636e-001	 2.9687353650e+000
 1.1546544394e+000	 1.1129234508e-001	 2.9665957677e+000
 1.1866737990e+000	 0.0000000000e+000	 3.2615528934e+000
 1.1866208486e+000	 1.1209786182e-002	 3.2583140237e+000
 1.1864611799e+000	 2.2462157679e-002	 3.2554813263e+000
 1.1861935784e+000	 3.3755812387e-002	 3.2528228914e+000
 1.1858168448e+000	 4.5089414691e-002	 3.2501082704e+000
 1.1853297962e+000	 5.6461595524e-002	 3.2471085593e+000
 1.1847312672e+000	 6.7870952455e-002	 3.2435964642e+000
 1.1840201105e+000	 7.9316049809e-002	 3.2393463296e+000
 1.1831951983e+000	 9.0795418814e-002	 3.2341341296e+000
 1.1822554230e+000	 1.0230755778e-001	 3.2277374200e+000
 1.1811996981e+000	 1.1385093230e-001	 3.2199352531e+000
 1.2133421513e+000	 0.0000000000e+000	 3.4800445076e+000
 1.2132880108e+000	 1.1461705896e-002	 3.4744877930e+000
 1.2131247539e+000	 2.2966954137e-002	 3.4691276874e+000
 1.2128511386e+000	 3.4514413354e-002	 3.4637097506e+000
 1.2124659385e+000	 4.6102717918e-002	 3.4579811801e+000
 1.2119679444e+000	 5.7730467994e-002	 3.4516908933e+000
 1.2113559645e+000	 6.9396229633e-002	 3.4445895884e+000
 1.2106288259e+000	 8.1098534898e-002	 3.4364297629e+000
 1.2097853753e+000	 9.2835882007e-002	 3.4269656894e+000
 1.2088244802e+000	 1.0460673552e-001	 3.4159533479e+000
 1.2077450298e+000	 1.1640952656e-001	 3.4031503147e+000
 1.2400105302e+000	 0.0000000000e+000	 3.6170059643e+000
 1.2399551998e+000	 1.1713625863e-002	 3.6092624338e+000
 1.2397883546e+000	 2.3471751099e-002	 3.6015281981e+000
 1.2395087254e+000	 3.5273015080e-002	 3.5935345019e+000
 1.2391150589e+000	 4.7116022158e-002	 3.5850143552e+000
 1.2386061193e+000	 5.8999341732e-002	 3.5757026018e+000
 1.2379806885e+000	 7.0921508337e-002	 3.5653359563e+000
 1.2372375679e+000	 8.2881021769e-002	 3.5536529923e+000
 1.2363755789e+000	 9.4876347240e-002	 3.5403940818e+000
 1.2353935640e+000	 1.0690591556e-001	 3.5253012851e+000
 1.2342903880e+000	 1.1896812337e-001	 3.5081181912e+000
 1.2666788891e+000	 0.0000000000e+000	 3.6640924749e+000
 1.2666223687e+000	 1.1965545641e-002	 3.6544922117e+000
 1.2664519353e+000	 2.3976547683e-002	 3.6447118868e+000
 1.2661662922e+000	 3.6031616237e-002	 3.6344762370e+000
 1.2657641593e+000	 4.8129325638e-002	 3.6235118700e+000
 1.2652442741e+000	 6.0268214518e-002	 3.6115473050e+000
 1.2646053925e+000	 7.2446785896e-002	 3.5983129654e+000
 1.2638462899e+000	 8.4663507302e-002	 3.5835411173e+000
 1.2629657625e+000	 9.6916810941e-002	 3.5669657507e+000
 1.2619626278e+000	 1.0920509388e-001	 3.5483224054e+000
 1.2608357263e+000	 1.2152671826e-001	 3.5273479392e+000
 9.9538702132e-001	 9.5941220239e-002	 5.2885073341e-001
 9.9439891999e-001	 1.0569226494e-001	 5.8460299357e-001
 9.9331136502e-001	 1.1546697758e-001	 6.4646684556e-001
 9.9212350004e-001	 1.2526400575e-001	 7.1422748236e-001
 9.9083448984e-001	 1.3508197105e-001	 7.8766739442e-001
 9.8944352116e-001	 1.4491946945e-001	 8.6656645179e-001
 9.8794980354e-001	 1.5477507159e-001	 9.5070198186e-001
 9.8635257014e-001	 1.6464732318e-001	 1.0398488432e+000
 9.8465107850e-001	 1.7453474535e-001	 1.1337794965e+000
 9.8284461142e-001	 1.8443583512e-001	 1.2322640724e+000
 9.8093247774e-001	 1.9434906582e-001	 1.3350704390e+000
 1.0219308666e+000	 9.8499671221e-002	 9.8650245799e-001
 1.0209164157e+000	 1.0851074566e-001	 1.0294388847e+000
 1.0197998590e+000	 1.1854611918e-001	 1.0770703638e+000
 1.0185803174e+000	 1.2860440331e-001	 1.1292007953e+000
 1.0172569334e+000	 1.3868418291e-001	 1.1856324338e+000
 1.0158288719e+000	 1.4878401649e-001	 1.2461659330e+000
 1.0142953215e+000	 1.5890243659e-001	 1.3106003811e+000
 1.0126554949e+000	 1.6903795012e-001	 1.3787333298e+000
 1.0109086299e+000	 1.7918903878e-001	 1.4503608152e+000
 1.0090539900e+000	 1.8935415951e-001	 1.5252773739e+000
 1.0070908657e+000	 1.9953174493e-001	 1.6032760538e+000
 1.0484750635e+000	 1.0105815610e-001	 1.4408717594e+000
 1.0474342627e+000	 1.1132926372e-001	 1.4724154932e+000
 1.0462887040e+000	 1.2162530158e-001	 1.5074285151e+000
 1.0450374853e+000	 1.3194484514e-001	 1.5457260027e+000
 1.0436797270e+000	 1.4228644250e-001	 1.5871224117e+000
 1.0422145723e+000	 1.5264861474e-001	 1.6314314862e+000
 1.0406411886e+000	 1.6302985627e-001	 1.6784662557e+000
 1.0389587683e+000	 1.7342863523e-001	 1.7280390213e+000
 1.0371665291e+000	 1.8384339388e-001	 1.7799613322e+000
 1.0352637158e+000	 1.9427254907e-001	 1.8340439525e+000
 1.0332496003e+000	 2.0471449272e-001	 1.8900968194e+000
 1.0750195657e+000	 1.0361667041e-001	 1.8781119389e+000
 1.0739524147e+000	 1.1414781419e-001	 1.8995400556e+000
 1.0727778536e+000	 1.2470451939e-001	 1.9233925691e+000
 1.0714949575e+000	 1.3528532538e-001	 1.9494892464e+000
 1.0701028245e+000	 1.4588874352e-001	 1.9776499405e+000
 1.0686005761e+000	 1.5651325743e-001	 2.0076945679e+000
 1.0669873587e+000	 1.6715732342e-001	 2.0394430702e+000
 1.0652623441e+000	 1.7781937083e-001	 2.0727153605e+000
 1.0634247304e+000	 1.8849780250e-001	 2.1073312567e+000
 1.0614737431e+000	 1.9919099519e-001	 2.1431104020e+000
 1.0594086357e+000	 2.0989730011e-001	 2.1798721744e+000
 1.1015643267e+000	 1.0617520966e-001	 2.2856332307e+000
 1.1004708253e+000	 1.1696639215e-001	 2.2980955113e+000
 1.0992672615e+000	 1.2778376722e-001	 2.3121087263e+000
 1.0979526877e+000	 1.3862583819e-001	 2.3274912400e+000
 1.0965261796e+000	 1.4949107966e-001	 2.3440622115e+000
 1.0949868371e+000	 1.6037793781e-001	 2.3616415412e+000
 1.0933337856e+000	 1.7128483081e-001	 2.3800497976e+000
 1.0915661763e+000	 1.8221014925e-001	 2.3991081261e+000
 1.0896831877e+000	 1.9315225650e-001	 2.4186381399e+000
 1.0876840259e+000	 2.0410948927e-001	 2.4384617959e+000
 1.0855679261e+000	 2.1508015803e-001	 2.4584012568e+000
 1.1281093001e+000	 1.0873376937e-001	 2.6519579846e+000
 1.1269894479e+000	 1.1978499265e-001	 2.6564936169e+000
 1.1257568813e+000	 1.3086303968e-001	 2.6618690856e+000
 1.1244106295e+000	 1.4196637773e-001	 2.6678960178e+000
 1.1229497461e+000	 1.5309344462e-001	 2.6743874618e+000
 1.1213733093e+000	 1.6424264910e-001	 2.6811578034e+000
 1.1196804233e+000	 1.7541237123e-001	 2.6880226581e+000
 1.1178702190e+000	 1.8660096279e-001	 2.6947987423e+000
 1.1159418550e+000	 1.9780674774e-001	 2.7013037225e+000
 1.1138945184e+000	 2.0902802269e-001	 2.7073560466e+000
 1.1117274258e+000	 2.2026305741e-001	 2.7127747576e+000
 1.1546544394e+000	 1.1129234508e-001	 2.9665957677e+000
 1.1535082364e+000	 1.2260361077e-001	 2.9641482562e+000
 1.1522466666e+000	 1.3394233139e-001	 2.9619830942e+000
 1.1508687367e+000	 1.4530693814e-001	 2.9599004625e+000
 1.1493734777e+000	 1.5669583209e-001	 2.9577025242e+000
 1.1477599464e+000	 1.6810738454e-001	 2.9551933096e+000
 1.1460272257e+000	 1.7953993743e-001	 2.9521785740e+000
 1.1441744261e+000	 1.9099180377e-001	 2.9484656295e+000
 1.1422006864e+000	 2.0246126806e-001	 2.9438631523e+000
 1.1401051746e+000	 2.1394658685e-001	 2.9381809672e+000
 1.1378870890e+000	 2.2544598918e-001	 2.9312298133e+000
 1.1811996981e+000	 1.1385093230e-001	 3.2199352531e+000
 1.1800271441e+000	 1.2542224157e-001	 3.2113657706e+000
 1.1787365711e+000	 1.3702163695e-001	 3.2026662597e+000
 1.1773269629e+000	 1.4864751358e-001	 3.1936213453e+000
 1.1757973282e+000	 1.6029823577e-001	 3.1840181464e+000
 1.1741467021e+000	 1.7197213737e-001	 3.1736461287e+000
 1.1723741466e+000	 1.8366752221e-001	 3.1622969258e+000
 1.1704787516e+000	 1.9538266450e-001	 3.1497641299e+000
 1.1684596360e+000	 2.0711580933e-001	 3.1358430537e+000
 1.1663159489e+000	 2.1886517314e-001	 3.1203304679e+000
 1.1640468699e+000	 2.3062894428e-001	 3.1030243146e+000
 1.2077450298e+000	 1.1640952656e-001	 3.4031503147e+000
 1.2065461248e+000	 1.2824088012e-001	 3.3892496923e+000
 1.2052265485e+000	 1.4010095098e-001	 3.3749434698e+000
 1.2037852618e+000	 1.5198809821e-001	 3.3599971845e+000
 1.2022212514e+000	 1.6390064935e-001	 3.3441793469e+000
 1.2005335305e+000	 1.7583690083e-001	 3.3272612592e+000
 1.1987211399e+000	 1.8779511834e-001	 3.3090167961e+000
 1.1967831493e+000	 1.9977353732e-001	 3.2892221514e+000
 1.1947186578e+000	 2.1177036340e-001	 3.2676555520e+000
 1.1925267952e+000	 2.2378377296e-001	 3.2440969430e+000
 1.1902067228e+000	 2.3581191362e-001	 3.2183276459e+000
 1.2342903880e+000	 1.1896812337e-001	 3.5081181912e+000
 1.2330651319e+000	 1.3105952148e-001	 3.4896177138e+000
 1.2317165523e+000	 1.4318026809e-001	 3.4705647221e+000
 1.2302435872e+000	 1.5532868618e-001	 3.4507026940e+000
 1.2286452010e+000	 1.6750306654e-001	 3.4297785453e+000
 1.2269203852e+000	 1.7970166815e-001	 3.4075424084e+000
 1.2250681596e+000	 1.9192271859e-001	 3.3837473695e+000
 1.2230875734e+000	 2.0416441451e-001	 3.3581491667e+000
 1.2209777059e+000	 2.1642492212e-001	 3.3305058507e+000
 1.2187376677e+000	 2.2870237769e-001	 3.3005774134e+000
 1.2163666018e+000	 2.4099488815e-001	 3.2681253844e+000
 1.2608357263e+000	 1.2152671826e-001	 3.5273479392e+000
 1.2595841192e+000	 1.3387816074e-001	 3.5049290911e+000
 1.2582065363e+000	 1.4625958289e-001	 3.4819314351e+000
 1.2567018928e+000	 1.5866927164e-001	 3.4580739669e+000
 1.2550691308e+000	 1.7110548102e-001	 3.4330795849e+000
 1.2533072201e+000	 1.8356643257e-001	 3.4066748258e+000
 1.2514151596e+000	 1.9605031575e-001	 3.3785895526e+000
 1.2493919777e+000	 2.0855528842e-001	 3.3485565979e+000
 1.2472367342e+000	 2.2107947735e-001	 3.3163113662e+000
 1.2449485205e+000	 2.3362097874e-001	 3.2815913981e+000
 1.2425264611e+000	 2.4617785878e-001	 3.2441359002e+000
 9.8093247774e-001	 1.9434906582e-001	 1.3350704390e+000
 9.7891370242e-001	 2.0427437664e-001	 1.4423808417e+000
 9.7678792810e-001	 2.1420870614e-001	 1.5542842871e+000
 9.7455454705e-001	 2.2415045650e-001	 1.6704516444e+000
 9.7221298076e-001	 2.3409800832e-001	 1.7905503558e+000
 9.6976268070e-001	 2.4404972108e-001	 1.9142446403e+000
 9.6720312906e-001	 2.5400393389e-001	 2.0411957074e+000
 9.6453383948e-001	 2.6395896607e-001	 2.1710619827e+000
 9.6175435779e-001	 2.7391311782e-001	 2.3034993453e+000
 9.5886426270e-001	 2.8386467101e-001	 2.4381613809e+000
 9.5586316651e-001	 2.9381188981e-001	 2.5746996492e+000
 1.0070908657e+000	 1.9953174493e-001	 1.6032760538e+000
 1.0050182560e+000	 2.0972173262e-001	 1.6845694994e+000
 1.0028357939e+000	 2.1992097947e-001	 1.7693031761e+000
 1.0005428556e+000	 2.3012784510e-001	 1.8572024993e+000
 9.9813884713e-001	 2.4034066687e-001	 1.9479909494e+000
 9.9562320526e-001	 2.5055776055e-001	 2.0413901852e+000
 9.9299539842e-001	 2.6077742095e-001	 2.1371201649e+000
 9.9025492727e-001	 2.7099792256e-001	 2.2348992747e+000
 9.8740132554e-001	 2.8121752028e-001	 2.3344444672e+000
 9.8443416069e-001	 2.9143445013e-001	 2.4354714109e+000
 9.8135303469e-001	 3.0164693001e-001	 2.5376946535e+000
 1.0332496003e+000	 2.0471449272e-001	 1.8900968194e+000
 1.0311231554e+000	 2.1516916078e-001	 1.9483758990e+000
 1.0288840049e+000	 2.2563332850e-001	 2.0090930664e+000
 1.0265315086e+000	 2.3610531289e-001	 2.0720166345e+000
 1.0240650570e+000	 2.4658340814e-001	 2.1369142977e+000
 1.0214840725e+000	 2.5706588626e-001	 2.2035531641e+000
 1.0187880095e+000	 2.6755099776e-001	 2.2716997905e+000
 1.0159763559e+000	 2.7803697233e-001	 2.3411202229e+000
 1.0130486331e+000	 2.8852201952e-001	 2.4115800442e+000
 1.0100043975e+000	 2.9900432955e-001	 2.4828444303e+000
 1.0068432406e+000	 3.0948207403e-001	 2.5546782191e+000
 1.0594086357e+000	 2.0989730011e-001	 2.1798721744e+000
 1.0572283551e+000	 2.2061665158e-001	 2.2179275595e+000
 1.0549325155e+000	 2.3134574322e-001	 2.2575637850e+000
 1.0525204604e+000	 2.4208284943e-001	 2.2985814994e+000
 1.0499915651e+000	 2.5282622120e-001	 2.3407818860e+000
 1.0473452371e+000	 2.6357408681e-001	 2.3839666186e+000
 1.0445809173e+000	 2.7432465247e-001	 2.4279378177e+000
 1.0416980803e+000	 2.8507610305e-001	 2.4724980091e+000
 1.0386962356e+000	 2.9582660277e-001	 2.5174500879e+000
 1.0355749283e+000	 3.0657429603e-001	 2.5625972894e+000
 1.0323337397e+000	 3.1731730815e-001	 2.6077431715e+000
 1.0855679261e+000	 2.1508015803e-001	 2.4584012568e+000
 1.0833338093e+000	 2.2606419549e-001	 2.4788331531e+000
 1.0809812800e+000	 2.3705821364e-001	 2.5001281294e+000
 1.0785096656e+000	 2.4806044425e-001	 2.5221096248e+000
 1.0759183259e+000	 2.5906909513e-001	 2.5446026125e+000
 1.0732066539e+000	 2.7008235081e-001	 2.5674334830e+000
 1.0703740765e+000	 2.8109837322e-001	 2.5904299262e+000
 1.0674200555e+000	 2.9211530239e-001	 2.6134208134e+000
 1.0643440882e+000	 3.0313125724e-001	 2.6362360828e+000
 1.0611457085e+000	 3.1414433632e-001	 2.6587066318e+000
 1.0578244873e+000	 3.2515261867e-001	 2.6806642180e+000
 1.1117274258e+000	 2.2026305741e-001	 2.7127747576e+000
 1.1094394723e+000	 2.3151178299e-001	 2.7180118196e+000
 1.1070302529e+000	 2.4277072976e-001	 2.7235285980e+000
 1.1044990787e+000	 2.5403808688e-001	 2.7291627335e+000
 1.1018452941e+000	 2.6531201900e-001	 2.7347542547e+000
 1.0990682775e+000	 2.7659066688e-001	 2.7401453922e+000
 1.0961674420e+000	 2.8787214816e-001	 2.7451803888e+000
 1.0931422364e+000	 2.9915455805e-001	 2.7497053086e+000
 1.0899921460e+000	 3.1043597014e-001	 2.7535678481e+000
 1.0867166932e+000	 3.2171443716e-001	 2.7566171532e+000
 1.0833154388e+000	 3.3298799187e-001	 2.7587036456e+000
 1.1378870890e+000	 2.2544598918e-001	 2.9312298133e+000
 1.1355452985e+000	 2.3695940452e-001	 2.9235458612e+000
 1.1330793886e+000	 2.4848328157e-001	 2.9156878475e+000
 1.1304886542e+000	 2.6001576688e-001	 2.9074999300e+000
 1.1277724244e+000	 2.7155498189e-001	 2.8988293714e+000
 1.1249300628e+000	 2.8309902363e-001	 2.8895262848e+000
 1.1219609688e+000	 2.9464596544e-001	 2.8794433735e+000
 1.1188645781e+000	 3.0619385771e-001	 2.8684356691e+000
 1.1156403640e+000	 3.1774072869e-001	 2.8563602702e+000
 1.1122878377e+000	 3.2928458532e-001	 2.8430760866e+000
 1.1088065496e+000	 3.4082341404e-001	 2.8284435936e+000
 1.1640468699e+000	 2.3062894428e-001	 3.1030243146e+000
 1.1616512422e+000	 2.4240705058e-001	 3.0845531405e+000
 1.1591286415e+000	 2.5419585909e-001	 3.0655791458e+000
 1.1564783467e+000	 2.6599347377e-001	 3.0459461834e+000
 1.1536996713e+000	 2.7779797287e-001	 3.0255017974e+000
 1.1507919644e+000	 2.8960740966e-001	 3.0040969007e+000
 1.1477546116e+000	 3.0141981319e-001	 2.9815854438e+000
 1.1445870356e+000	 3.1323318903e-001	 2.9578240817e+000
 1.1412886975e+000	 3.2504552012e-001	 2.9326718401e+000
 1.1378590973e+000	 3.3685476754e-001	 2.9059897888e+000
 1.1342977751e+000	 3.4865887146e-001	 2.8776407246e+000
 1.1902067228e+000	 2.3581191362e-001	 3.2183276459e+000
 1.1877572576e+000	 2.4785471161e-001	 3.1910761514e+000
 1.1851779660e+000	 2.5990845232e-001	 3.1631137468e+000
 1.1824681106e+000	 2.7197119710e-001	 3.1342779830e+000
 1.1796269895e+000	 2.8404098101e-001	 3.1044105661e+000
 1.1766539372e+000	 2.9611581358e-001	 3.0733569634e+000
 1.1735483253e+000	 3.0819367957e-001	 3.0409660000e+000
 1.1703095637e+000	 3.2027253972e-001	 3.0070894522e+000
 1.1669371014e+000	 3.3235033162e-001	 2.9715816408e+000
 1.1634304272e+000	 3.4442497057e-001	 2.9342990318e+000
 1.1597890707e+000	 3.5649435043e-001	 2.8950998478e+000
 1.2163666018e+000	 2.4099488815e-001	 3.2681253844e+000
 1.2138632991e+000	 2.5330237808e-001	 3.2339852562e+000
 1.2112273166e+000	 2.6562105126e-001	 3.1990426396e+000
 1.2084579005e+000	 2.7794892640e-001	 3.1631235829e+000
 1.2055543337e+000	 2.9028399540e-001	 3.1260586365e+000
 1.2025159358e+000	 3.0262422402e-001	 3.0876823833e+000
 1.1993420648e+000	 3.1496755272e-001	 3.0478329596e+000
 1.1960321176e+000	 3.2731189744e-001	 3.0063515712e+000
 1.1925855311e+000	 3.3965515044e-001	 2.9630820110e+000
 1.1890017827e+000	 3.5199518117e-001	 2.9178701835e+000
 1.1852803918e+000	 3.6432983724e-001	 2.8705636435e+000
 1.2425264611e+000	 2.4617785878e-001	 3.2441359002e+000
 1.2399693210e+000	 2.5875004047e-001	 3.2048940006e+000
 1.2372766476e+000	 2.7133364591e-001	 3.1648705570e+000
 1.2344476710e+000	 2.8392665122e-001	 3.1238756869e+000
 1.2314816584e+000	 2.9652700510e-001	 3.0817242445e+000
 1.2283779150e+000	 3.0913262957e-001	 3.0382352712e+000
 1.2251357850e+000	 3.2174142079e-001	 2.9932314342e+000
 1.2217546522e+000	 3.3435124988e-001	 2.9465384605e+000
 1.2182339414e+000	 3.4695996377e-001	 2.8979845735e+000
 1.2145731190e+000	 3.5956538610e-001	 2.8473999375e+000
 1.2107716938e+000	 3.7216531816e-001	 2.7946161189e+000
 9.5586316651e-001	 2.9381188981e-001	 2.5746996492e+000
 9.5275071551e-001	 3.0375302140e-001	 2.7127784166e+000
 9.4952658997e-001	 3.1368629624e-001	 2.8520070077e+000
 9.4619050544e-001	 3.2360992937e-001	 2.9919565747e+000
 9.4274221361e-001	 3.3352212132e-001	 3.1322032011e+000
 9.3918150291e-001	 3.4342105900e-001	 3.2723284868e+000
 9.3550819912e-001	 3.5330491665e-001	 3.4119201499e+000
 9.3172216582e-001	 3.6317185667e-001	 3.5505726450e+000
 9.2782330500e-001	 3.7302003062e-001	 3.6878878001e+000
 9.2381155749e-001	 3.8284758015e-001	 3.8234754712e+000
 9.1968690347e-001	 3.9265263800e-001	 3.9569542145e+000
 9.8135303469e-001	 3.0164693001e-001	 2.5376946535e+000
 9.7815758441e-001	 3.1185316035e-001	 2.6410055865e+000
 9.7484748157e-001	 3.2205132444e-001	 2.7452561246e+000
 9.7142243413e-001	 3.3223958969e-001	 2.8501033709e+000
 9.6788218719e-001	 3.4241610866e-001	 2.9552080873e+000
 9.6422652353e-001	 3.5257901993e-001	 3.0602351067e+000
 9.6045526426e-001	 3.6272644901e-001	 3.1648537636e+000
 9.5656826934e-001	 3.7285650933e-001	 3.2687383453e+000
 9.5256543815e-001	 3.8296730315e-001	 3.3715685631e+000
 9.4844670994e-001	 3.9305692255e-001	 3.4730300458e+000
 9.4421206435e-001	 4.0312345050e-001	 3.5728148558e+000
 1.0068432406e+000	 3.0948207403e-001	 2.5546782191e+000
 1.0035647899e+000	 3.1995340664e-001	 2.6271367045e+000
 1.0001687087e+000	 3.3041646348e-001	 2.7002529053e+000
 9.9665469716e-001	 3.4086936436e-001	 2.7737598756e+000
 9.9302249388e-001	 3.5131021386e-001	 2.8473933062e+000
 9.8927187599e-001	 3.6173710219e-001	 2.9208917758e+000
 9.8540265995e-001	 3.7214810621e-001	 2.9939970231e+000
 9.8141470208e-001	 3.8254129032e-001	 3.0664542420e+000
 9.7730789914e-001	 3.9291470747e-001	 3.1380124001e+000
 9.7308218881e-001	 4.0326640023e-001	 3.2084245840e+000
 9.6873755019e-001	 4.1359440173e-001	 3.2774483710e+000
 1.0323337397e+000	 3.1731730815e-001	 2.6077431715e+000
 1.0289722877e+000	 3.2805374608e-001	 2.6530545505e+000
 1.0254902270e+000	 3.3878169871e-001	 2.6986947887e+000
 1.0218872503e+000	 3.4949923827e-001	 2.7444638285e+000
 1.0181630897e+000	 3.6020442133e-001	 2.7901634524e+000
 1.0143175165e+000	 3.7089528978e-001	 2.8355973831e+000
 1.0103503425e+000	 3.8156987176e-001	 2.8805714081e+000
 1.0062614206e+000	 3.9222618267e-001	 2.9248935284e+000
 1.0020506447e+000	 4.0286222620e-001	 2.9683741365e+000
 9.9771795098e-001	 4.1347599532e-001	 3.0108262230e+000
 9.9326331808e-001	 4.2406547339e-001	 3.0520656155e+000
 1.0578244873e+000	 3.2515261867e-001	 2.6806642180e+000
 1.0543800331e+000	 3.3615416449e-001	 2.7023446266e+000
 1.0508119921e+000	 3.4714701551e-001	 2.7240005242e+000
 1.0471200496e+000	 3.5812919632e-001	 2.7454905527e+000
 1.0433039306e+000	 3.6909871553e-001	 2.7666745988e+000
 1.0393634012e+000	 3.8005356666e-001	 2.7874137521e+000
 1.0352982684e+000	 3.9099172917e-001	 2.8075702899e+000
 1.0311083813e+000	 4.0191116946e-001	 2.8270076894e+000
 1.0267936314e+000	 4.1280984191e-001	 2.8455906727e+000
 1.0223539533e+000	 4.2368568994e-001	 2.8631852855e+000
 1.0177893251e+000	 4.3453664713e-001	 2.8796590125e+000
 1.0833154388e+000	 3.3298799187e-001	 2.7587036456e+000
 1.0797879818e+000	 3.4425464771e-001	 2.7600984576e+000
 1.0761339599e+000	 3.5551239922e-001	 2.7611113572e+000
 1.0723530506e+000	 3.6675922341e-001	 2.7616523170e+000
 1.0684449726e+000	 3.7799308087e-001	 2.7616321375e+000
 1.0644094862e+000	 3.8921191680e-001	 2.7609622700e+000
 1.0602463938e+000	 4.0041366195e-001	 2.7595546678e+000
 1.0559555408e+000	 4.1159623372e-001	 2.7573216699e+000
 1.0515368161e+000	 4.2275753719e-001	 2.7541759204e+000
 1.0469901528e+000	 4.3389546624e-001	 2.7500303264e+000
 1.0423155283e+000	 4.4500790464e-001	 2.7447980591e+000
 1.1088065496e+000	 3.4082341404e-001	 2.8284435936e+000
 1.1051960893e+000	 3.5235518156e-001	 2.8127437935e+000
 1.1014560858e+000	 3.6387783522e-001	 2.7963194069e+000
 1.0975862094e+000	 3.7538930443e-001	 2.7791251425e+000
 1.0935861718e+000	 3.8688750181e-001	 2.7611162758e+000
 1.0894557277e+000	 3.9837032417e-001	 2.7422483412e+000
 1.0851946751e+000	 4.0983565361e-001	 2.7224768556e+000
 1.0808028555e+000	 4.2128135850e-001	 2.7017570786e+000
 1.0762801555e+000	 4.3270529465e-001	 2.6800438120e+000
 1.0716265062e+000	 4.4410530635e-001	 2.6572912445e+000
 1.0668418848e+000	 4.5547922759e-001	 2.6334528434e+000
 1.1342977751e+000	 3.4865887146e-001	 2.8776407246e+000
 1.1306043111e+000	 3.6045575185e-001	 2.8478974873e+000
 1.1267783258e+000	 3.7224330886e-001	 2.8171189637e+000
 1.1228194817e+000	 3.8401942429e-001	 2.7852987396e+000
 1.1187274841e+000	 3.9578196276e-001	 2.7524308393e+000
 1.1145020820e+000	 4.0752877276e-001	 2.7185092907e+000
 1.1101430686e+000	 4.1925768767e-001	 2.6835277252e+000
 1.1056502821e+000	 4.3096652687e-001	 2.6474790170e+000
 1.1010236061e+000	 4.4265309687e-001	 2.6103549686e+000
 1.0962629705e+000	 4.5431519240e-001	 2.5721460458e+000
 1.0913683516e+000	 4.6595059765e-001	 2.5328411671e+000
 1.1597890707e+000	 3.5649435043e-001	 2.8950998478e+000
 1.1560126028e+000	 3.6855634442e-001	 2.8542375584e+000
 1.1521006353e+000	 3.8060880550e-001	 2.8120771797e+000
 1.1480528233e+000	 3.9264956787e-001	 2.7686460172e+000
 1.1438688655e+000	 4.0467644817e-001	 2.7239717987e+000
 1.1395485051e+000	 4.1668724653e-001	 2.6780821123e+000
 1.1350915308e+000	 4.2867974763e-001	 2.6310038847e+000
 1.1304977770e+000	 4.4065172187e-001	 2.5827629031e+000
 1.1257671249e+000	 4.5260092644e-001	 2.5333833882e+000
 1.1208995025e+000	 4.6452510652e-001	 2.4828876235e+000
 1.1158948859e+000	 4.7642199651e-001	 2.4312956459e+000
 1.1852803918e+000	 3.6432983724e-001	 2.8705636435e+000
 1.1814209198e+000	 3.7665694509e-001	 2.8213915574e+000
 1.1774229702e+000	 3.8897431050e-001	 2.7707212357e+000
 1.1732861903e+000	 4.0127972008e-001	 2.7186092215e+000
 1.1690102721e+000	 4.1357094248e-001	 2.6651125527e+000
 1.1645949533e+000	 4.2584572945e-001	 2.6102880738e+000
 1.1600400179e+000	 4.3810181702e-001	 2.5541917914e+000
 1.1553452968e+000	 4.5033692655e-001	 2.4968782799e+000
 1.1505106683e+000	 4.6254876595e-001	 2.4384001431e+000
 1.1455360592e+000	 4.7473503085e-001	 2.3788075401e+000
 1.1404214447e+000	 4.8689340584e-001	 2.3181477794e+000
 1.2107716938e+000	 3.7216531816e-001	 2.7946161189e+000
 1.2068292178e+000	 3.8475753968e-001	 2.7398388303e+000
 1.2027452861e+000	 3.9733980923e-001	 2.6834395577e+000
 1.1985195382e+000	 4.0990986582e-001	 2.6255002520e+000
 1.1941516598e+000	 4.2246543011e-001	 2.5661034984e+000
 1.1896413827e+000	 4.3500420550e-001	 2.5053316991e+000
 1.1849884863e+000	 4.4752387933e-001	 2.4432663058e+000
 1.1801927979e+000	 4.6002212396e-001	 2.3799871073e+000
 1.1752541932e+000	 4.7249659800e-001	 2.3155715800e+000
 1.1701725973e+000	 4.8494494752e-001	 2.2500943103e+000
 1.1649479851e+000	 4.9736480731e-001	 2.1836264935e+000
 9.1968690347e-001	 3.9265263800e-001	 3.9569542145e+000
 9.1545000704e-001	 4.0243186398e-001	 4.0883045536e+000
 9.1110031866e-001	 4.1218484971e-001	 4.2174342456e+000
 9.0663793965e-001	 4.2190970867e-001	 4.3438000368e+000
 9.0206301214e-001	 4.3160454958e-001	 4.4668593072e+000
 8.9737571948e-001	 4.4126747746e-001	 4.5860710049e+000
 8.9257628643e-001	 4.5089659477e-001	 4.7008966189e+000
 8.8766497944e-001	 4.6049000248e-001	 4.8108011881e+000
 8.8264210687e-001	 4.7004580118e-001	 4.9152543446e+000
 8.7750801914e-001	 4.7956209226e-001	 5.0137313924e+000
 8.7226310887e-001	 4.8903697900e-001	 5.1057144163e+000
 9.4421206435e-001	 4.0312345050e-001	 3.5728148558e+000
 9.3986218320e-001	 4.1316345771e-001	 3.6707509970e+000
 9.3539650230e-001	 4.2317652494e-001	 3.7666740145e+000
 9.3081512565e-001	 4.3316071535e-001	 3.8602478041e+000
 9.2611819920e-001	 4.4311408720e-001	 3.9511365192e+000
 9.2130591116e-001	 4.5303469502e-001	 4.0390051643e+000
 9.1637849231e-001	 4.6292059064e-001	 4.1235202275e+000
 9.1133621619e-001	 4.7276982440e-001	 4.2043503504e+000
 9.0617939939e-001	 4.8258044624e-001	 4.2811670349e+000
 9.0090840166e-001	 4.9235050691e-001	 4.3536453858e+000
 8.9552362611e-001	 5.0207805912e-001	 4.4214648900e+000
 9.6873755019e-001	 4.1359440173e-001	 3.2774483710e+000
 9.6427468282e-001	 4.2389519365e-001	 3.3447931668e+000
 9.5969300786e-001	 4.3416834581e-001	 3.4102378732e+000
 9.5499263200e-001	 4.4441187110e-001	 3.4736169593e+000
 9.5017370499e-001	 4.5462377733e-001	 3.5347647869e+000
 9.4523641993e-001	 4.6480206850e-001	 3.5935159185e+000
 9.4018101357e-001	 4.7494474584e-001	 3.6497054647e+000
 9.3500776659e-001	 4.8504980903e-001	 3.7031694712e+000
 9.2971700378e-001	 4.9511525738e-001	 3.7537453458e+000
 9.2430909425e-001	 5.0513909100e-001	 3.8012723254e+000
 9.1878445156e-001	 5.1511931203e-001	 3.8455919830e+000
 9.9326331808e-001	 4.2406547339e-001	 3.0520656155e+000
 9.8868746319e-001	 4.3462705299e-001	 3.0917110600e+000
 9.8398979283e-001	 4.4516029309e-001	 3.1294958191e+000
 9.7917041640e-001	 4.5566315623e-001	 3.1653911466e+000
 9.7422948742e-001	 4.6613359982e-001	 3.1993678207e+000
 9.6916720389e-001	 4.7656957730e-001	 3.2313962163e+000
 9.6398380856e-001	 4.8696903931e-001	 3.2614464199e+000
 9.5867958921e-001	 4.9732993488e-001	 3.2894883874e+000
 9.5325487885e-001	 5.0765021267e-001	 3.3154921464e+000
 9.4771005594e-001	 5.1792782216e-001	 3.3394280431e+000
 9.4204554451e-001	 5.2816071491e-001	 3.3612670330e+000
 1.0177893251e+000	 4.3453664713e-001	 2.8796590125e+000
 1.0131004816e+000	 4.4535901697e-001	 2.8945624836e+000
 1.0082868147e+000	 4.5615234754e-001	 2.9075902110e+000
 1.0033484365e+000	 4.6691455107e-001	 2.9188189721e+000
 9.9828550439e-001	 4.7764353453e-001	 2.9283246789e+000
 9.9309822118e-001	 4.8833720083e-001	 2.9361822626e+000
 9.8778683563e-001	 4.9899345001e-001	 2.9424656059e+000
 9.8235164262e-001	 5.0961018045e-001	 2.9472475230e+000
 9.7679298341e-001	 5.2018529017e-001	 2.9505997885e+000
 9.7111124578e-001	 5.3071667801e-001	 2.9525932173e+000
 9.6530686424e-001	 5.4120224495e-001	 2.9532977951e+000
 1.0423155283e+000	 4.4500790464e-001	 2.7447980591e+000
 1.0375136953e+000	 4.5609106680e-001	 2.7379793012e+000
 1.0325840309e+000	 4.6714448992e-001	 2.7292329856e+000
 1.0275266501e+000	 4.7816603591e-001	 2.7187124488e+000
 1.0223417138e+000	 4.8915356131e-001	 2.7065697318e+000
 1.0170294299e+000	 5.0010491850e-001	 2.6929553240e+000
 1.0115900531e+000	 5.1101795690e-001	 2.6780179591e+000
 1.0060238854e+000	 5.2189052427e-001	 2.6619044653e+000
 1.0003312763e+000	 5.3272046795e-001	 2.6447596720e+000
 9.9451262283e-001	 5.4350563617e-001	 2.6267263731e+000
 9.8856837007e-001	 5.5424387931e-001	 2.6079453486e+000
 1.0668418848e+000	 4.5547922759e-001	 2.6334528434e+000
 1.0619270615e+000	 4.6682318370e-001	 2.6079915987e+000
 1.0568813990e+000	 4.7813670099e-001	 2.5805306702e+000
 1.0517050147e+000	 4.8941759107e-001	 2.5512730817e+000
 1.0463980736e+000	 5.0066366003e-001	 2.5204200725e+000
 1.0409607882e+000	 5.1187270971e-001	 2.4881707435e+000
 1.0353934194e+000	 5.2304253894e-001	 2.4547217620e+000
 1.0296962761e+000	 5.3417094483e-001	 2.4202671286e+000
 1.0238697162e+000	 5.4525572408e-001	 2.3849980081e+000
 1.0179141461e+000	 5.5629467426e-001	 2.3491026267e+000
 1.0118300213e+000	 5.6728559518e-001	 2.3127662344e+000
 1.0913683516e+000	 4.6595059765e-001	 2.5328411671e+000
 1.0863405376e+000	 4.7755534890e-001	 2.4918753791e+000
 1.0811788764e+000	 4.8912896153e-001	 2.4488328226e+000
 1.0758834882e+000	 5.0066919685e-001	 2.4039412494e+000
 1.0704545416e+000	 5.1217381054e-001	 2.3574260586e+000
 1.0648922542e+000	 5.2364055388e-001	 2.3095098855e+000
 1.0591968927e+000	 5.3506717509e-001	 2.2604122583e+000
 1.0533687734e+000	 5.4645142066e-001	 2.2103493258e+000
 1.0474082621e+000	 5.5779103660e-001	 2.1595336592e+000
 1.0413157747e+000	 5.6908376989e-001	 2.1081741283e+000
 1.0350917771e+000	 5.8032736974e-001	 2.0564758554e+000
 1.1158948859e+000	 4.7642199651e-001	 2.4312956459e+000
 1.1107540809e+000	 4.8828754360e-001	 2.3780201685e+000
 1.1054764206e+000	 5.0012125229e-001	 2.3226002950e+000
 1.1000620281e+000	 5.1192083358e-001	 2.2652652980e+000
 1.0945110757e+000	 5.2368399270e-001	 2.2062414284e+000
 1.0888237859e+000	 5.3540843040e-001	 2.1457514859e+000
 1.0830004315e+000	 5.4709184431e-001	 2.0840144684e+000
 1.0770413357e+000	 5.5873193024e-001	 2.0212453030e+000
 1.0709468727e+000	 5.7032638360e-001	 1.9576546621e+000
 1.0647174677e+000	 5.8187290068e-001	 1.8934488653e+000
 1.0583535970e+000	 5.9336918015e-001	 1.8288298701e+000
 1.1404214447e+000	 4.8689340584e-001	 2.3181477794e+000
 1.1351676485e+000	 4.9901974903e-001	 2.2558135372e+000
 1.1297739892e+000	 5.1111355404e-001	 2.1912903393e+000
 1.1242405922e+000	 5.2317248155e-001	 2.1247873818e+000
 1.1185676339e+000	 5.3519418636e-001	 2.0565100459e+000
 1.1127553416e+000	 5.4717631868e-001	 1.9866594875e+000
 1.1068039941e+000	 5.5911652554e-001	 1.9154323186e+000
 1.1007139217e+000	 5.7101245211e-001	 1.8430203817e+000
 1.0944855069e+000	 5.8286174312e-001	 1.7696106230e+000
 1.0881191840e+000	 5.9466204427e-001	 1.6953850635e+000
 1.0816154401e+000	 6.0641100360e-001	 1.6205208724e+000
 1.1649479851e+000	 4.9736480731e-001	 2.1836264935e+000
 1.1595811979e+000	 5.0975194641e-001	 2.1155400449e+000
 1.1540715394e+000	 5.2210584754e-001	 2.0452560740e+000
 1.1484191381e+000	 5.3442412108e-001	 1.9729435847e+000
 1.1426241741e+000	 5.4670437139e-001	 1.8987668249e+000
 1.1366868794e+000	 5.5894419814e-001	 1.8228849313e+000
 1.1306075389e+000	 5.7114119775e-001	 1.7454516785e+000
 1.1243864900e+000	 5.8329296476e-001	 1.6666153376e+000
 1.1180241233e+000	 5.9539709325e-001	 1.5865186454e+000
 1.1115208828e+000	 6.0745117825e-001	 1.5052988891e+000
 1.1048772657e+000	 6.1945281727e-001	 1.4230881048e+000
 8.7226310887e-001	 4.8903697900e-001	 5.1057144163e+000
 8.6690699948e-001	 4.9846997940e-001	 5.1901849512e+000
 8.6144094757e-001	 5.0785777912e-001	 5.2665919287e+000
 8.5586547377e-001	 5.1719849384e-001	 5.3351741433e+000
 8.5018114112e-001	 5.2649024586e-001	 5.3961836389e+000
 8.4438855498e-001	 5.3573116523e-001	 5.4498856234e+000
 8.3848836297e-001	 5.4491939094e-001	 5.4965583853e+000
 8.3248125485e-001	 5.5405307210e-001	 5.5364932096e+000
 8.2636796230e-001	 5.6313036914e-001	 5.5699942929e+000
 8.2014925879e-001	 5.7214945494e-001	 5.5973786564e+000
 8.1382595926e-001	 5.8110851606e-001	 5.6189760561e+000
 8.9552362611e-001	 5.0207805912e-001	 4.4214648900e+000
 8.9002468611e-001	 5.1176260801e-001	 4.4837427600e+000
 8.8441287176e-001	 5.2140075085e-001	 4.5397846089e+000
 8.7868871760e-001	 5.3099055310e-001	 4.5895935998e+000
 8.7285280165e-001	 5.4053008696e-001	 4.6331836756e+000
 8.6690574543e-001	 5.5001743262e-001	 4.6705799130e+000
 8.6084821383e-001	 5.5945067945e-001	 4.7018188889e+000
 8.5468091501e-001	 5.6882792720e-001	 4.7269490586e+000
 8.4840460015e-001	 5.7814728723e-001	 4.7460311418e+000
 8.4202006336e-001	 5.8740688373e-001	 4.7591385152e+000
 8.3552814128e-001	 5.9660485487e-001	 4.7663576098e+000
 9.1878445156e-001	 5.1511931203e-001	 3.8455919830e+000
 9.1314267905e-001	 5.2505541274e-001	 3.8859914428e+000
 9.0738510034e-001	 5.3494390203e-001	 3.9217259812e+000
 9.0151226383e-001	 5.4478279510e-001	 3.9526167047e+000
 8.9552476258e-001	 5.5457011409e-001	 3.9784933168e+000
 8.8942323424e-001	 5.6430388931e-001	 3.9991948355e+000
 8.8320836097e-001	 5.7398216050e-001	 4.0145703349e+000
 8.7688086931e-001	 5.8360297806e-001	 4.0244797080e+000
 8.7044152999e-001	 5.9316440431e-001	 4.0287944473e+000
 8.6389115771e-001	 6.0266451468e-001	 4.0273984405e+000
 8.5723061087e-001	 6.1210139900e-001	 4.0201887779e+000
 9.4204554451e-001	 5.2816071491e-001	 3.3612670330e+000
 9.3626093785e-001	 5.3834837034e-001	 3.3804865434e+000
 9.3035759310e-001	 5.4848720896e-001	 3.3963661448e+000
 9.2433607253e-001	 5.5857519572e-001	 3.4085944281e+000
 9.1819698423e-001	 5.6861030267e-001	 3.4168666513e+000
 9.1194098199e-001	 5.7859051029e-001	 3.4208857492e+000
 9.0556876524e-001	 5.8851380866e-001	 3.4203633789e+000
 8.9908107892e-001	 5.9837819884e-001	 3.4150209956e+000
 8.9247871325e-001	 6.0818169408e-001	 3.4045909556e+000
 8.8576250357e-001	 6.1792232109e-001	 3.3888176435e+000
 8.7893333002e-001	 6.2759812135e-001	 3.3674586171e+000
 9.6530686424e-001	 5.4120224495e-001	 2.9532977951e+000
 9.5937942204e-001	 5.5164145755e-001	 2.9523891216e+000
 9.5333030983e-001	 5.6203064793e-001	 2.9492290948e+000
 9.4716010376e-001	 5.7236773080e-001	 2.9434196680e+000
 9.4086942694e-001	 5.8265062815e-001	 2.9345677511e+000
 9.3445894929e-001	 5.9287727056e-001	 2.9222864470e+000
 9.2792938752e-001	 6.0304559850e-001	 2.9061963316e+000
 9.2128150497e-001	 6.1315356367e-001	 2.8859267762e+000
 9.1451611137e-001	 6.2319913026e-001	 2.8611173057e+000
 9.0763406268e-001	 6.3318027626e-001	 2.8314189892e+000
 9.0063626078e-001	 6.4309499478e-001	 2.7964958559e+000
 9.8856837007e-001	 5.5424387931e-001	 2.6079453486e+000
 9.8249809118e-001	 5.6493465109e-001	 2.5882868855e+000
 9.7630321034e-001	 5.7557419525e-001	 2.5672381887e+000
 9.6998431758e-001	 5.8616037623e-001	 2.5443571151e+000
 9.6354205101e-001	 5.9669106594e-001	 2.5192049556e+000
 9.5697709672e-001	 6.0716414512e-001	 2.4913478331e+000
 9.5029018868e-001	 6.1757750460e-001	 2.4603581561e+000
 9.4348210862e-001	 6.2792904671e-001	 2.4258161227e+000
 9.3655368578e-001	 6.3821668658e-001	 2.3873112710e+000
 9.2950579675e-001	 6.4843835349e-001	 2.3444440697e+000
 9.2233936515e-001	 6.5859199218e-001	 2.2968275426e+000
 1.0118300213e+000	 5.6728559518e-001	 2.3127662344e+000
 1.0056169048e+000	 5.7822792772e-001	 2.2760399950e+000
 9.9927625442e-001	 5.8911782720e-001	 2.2385657130e+000
 9.9280867404e-001	 5.9995310785e-001	 2.1998966403e+000
 9.8621481679e-001	 6.1073159149e-001	 2.1595880955e+000
 9.7949538489e-001	 6.2145110897e-001	 2.1171989644e+000
 9.7265112959e-001	 6.3210950151e-001	 2.0722932660e+000
 9.6568285101e-001	 6.4270462208e-001	 2.0244417797e+000
 9.5859139792e-001	 6.5323433675e-001	 1.9732237282e+000
 9.5137766752e-001	 6.6369652607e-001	 1.9182285087e+000
 9.4404260515e-001	 6.7408908643e-001	 1.8594218859e+000
 1.0350917771e+000	 5.8032736974e-001	 2.0564758554e+000
 1.0287358225e+000	 5.9152126415e-001	 2.0046476598e+000
 1.0222494019e+000	 6.0266152010e-001	 1.9525027622e+000
 1.0156331332e+000	 6.1374590153e-001	 1.8996265049e+000
 1.0088876846e+000	 6.2477218021e-001	 1.8456050530e+000
 1.0020137744e+000	 6.3573813710e-001	 1.7900269409e+000
 9.9501217112e-001	 6.4664156381e-001	 1.7324846949e+000
 9.8788369330e-001	 6.5748026394e-001	 1.6725765273e+000
 9.8062920921e-001	 6.6825205450e-001	 1.6099234876e+000
 9.7324963670e-001	 6.7895476732e-001	 1.5450420794e+000
 9.6574594281e-001	 6.8958625042e-001	 1.4780403475e+000
 1.0583535970e+000	 5.9336918015e-001	 1.8288298701e+000
 1.0518548037e+000	 6.0481463715e-001	 1.7641323317e+000
 1.0452226125e+000	 6.1620525025e-001	 1.6993463051e+000
 1.0384576551e+000	 6.2753873314e-001	 1.6341233459e+000
 1.0315606147e+000	 6.3881280753e-001	 1.5681146807e+000
 1.0245322258e+000	 6.5002520452e-001	 1.5009727459e+000
 1.0173732741e+000	 6.6117366607e-001	 1.4323528140e+000
 1.0100845966e+000	 6.7225594642e-001	 1.3620992249e+000
 1.0026670811e+000	 6.8326981354e-001	 1.2909446183e+000
 9.9512166602e-001	 6.9421305052e-001	 1.2186758213e+000
 9.8744934015e-001	 7.0508345701e-001	 1.1449211513e+000
 1.0816154401e+000	 6.0641100360e-001	 1.6205208724e+000
 1.0749738080e+000	 6.1810802343e-001	 1.5454388463e+000
 1.0681958461e+000	 6.2974899393e-001	 1.4703008533e+000
 1.0612821999e+000	 6.4133157855e-001	 1.3948564121e+000
 1.0542335675e+000	 6.5285344890e-001	 1.3188536204e+000
 1.0470506997e+000	 6.6431228622e-001	 1.2420406360e+000
 1.0397343995e+000	 6.7570578286e-001	 1.1646168685e+000
 1.0322855222e+000	 6.8703164368e-001	 1.0872398305e+000
 1.0247049750e+000	 6.9828758759e-001	 1.0096168526e+000
 1.0169937172e+000	 7.0947134897e-001	 9.3144959288e-001
 1.0091527592e+000	 7.2058067910e-001	 8.5246717271e-001
 1.1048772657e+000	 6.1945281727e-001	 1.4230881048e+000
 1.0980927950e+000	 6.3140139974e-001	 1.3403463090e+000
 1.0911690624e+000	 6.4329272745e-001	 1.2573925794e+000
 1.0841067275e+000	 6.5512441360e-001	 1.1741039509e+000
 1.0769065033e+000	 6.6689407973e-001	 1.0903551745e+000
 1.0695691567e+000	 6.7859935721e-001	 1.0067388654e+000
 1.0620955081e+000	 6.9023788874e-001	 9.2372348601e-001
 1.0544864310e+000	 7.0180732985e-001	 8.4108719117e-001
 1.0467428524e+000	 7.1330535038e-001	 7.5863507027e-001
 1.0388657520e+000	 7.2472963597e-001	 6.7620006840e-001
 1.0308561619e+000	 7.3607788956e-001	 5.9364382870e-001
 8.1382595926e-001	 5.8110851606e-001	 5.6189760561e+000
 8.0739891962e-001	 5.9000575367e-001	 5.6352267751e+000
 8.0086903579e-001	 5.9883938412e-001	 5.6457836497e+000
 7.9423724396e-001	 6.0760764065e-001	 5.6498184846e+000
 7.8750452048e-001	 6.1630877477e-001	 5.6465230909e+000
 7.8067188138e-001	 6.2494105736e-001	 5.6351114098e+000
 7.7374038194e-001	 6.3350277976e-001	 5.6148216184e+000
 7.6671111609e-001	 6.4199225496e-001	 5.5849182112e+000
 7.5958521594e-001	 6.5040781861e-001	 5.5446940499e+000
 7.5236385116e-001	 6.5874783014e-001	 5.4934723748e+000
 7.4504822833e-001	 6.6701067379e-001	 5.4306094880e+000
 8.3552814128e-001	 5.9660485487e-001	 4.7663576098e+000
 8.2892971269e-001	 6.0573935386e-001	 4.7681465858e+000
 8.2222569736e-001	 6.1480854948e-001	 4.7644695519e+000
 8.1541705648e-001	 6.2381062787e-001	 4.7546958644e+000
 8.0850479241e-001	 6.3274379391e-001	 4.7382150285e+000
 8.0148994829e-001	 6.4160627235e-001	 4.7144385853e+000
 7.9437360752e-001	 6.5039630900e-001	 4.6828019818e+000
 7.8715689323e-001	 6.5911217184e-001	 4.6427664161e+000
 7.7984096771e-001	 6.6775215214e-001	 4.5938289027e+000
 7.7242703182e-001	 6.7631456557e-001	 4.5361656691e+000
 7.6491632430e-001	 6.8479775331e-001	 4.4697109516e+000
 8.5723061087e-001	 6.1210139900e-001	 4.0201887779e+000
 8.5046079104e-001	 6.2147316252e-001	 4.0076232394e+000
 8.4358264192e-001	 6.3077792643e-001	 3.9899084453e+000
 8.3659714963e-001	 6.4001382979e-001	 3.9665890119e+000
 8.2950534259e-001	 6.4917903082e-001	 3.9372294157e+000
 8.2230829104e-001	 6.5827170817e-001	 3.9014156828e+000
 8.1500710650e-001	 6.6729006209e-001	 3.8587596751e+000
 8.0760294129e-001	 6.7623231556e-001	 3.8095613418e+000
 8.0009698788e-001	 6.8509671548e-001	 3.7539686573e+000
 7.9249047831e-001	 6.9388153377e-001	 3.6916297996e+000
 7.8478468353e-001	 7.0258506851e-001	 3.6222240122e+000
 8.7893333002e-001	 6.2759812135e-001	 3.3674586171e+000
 8.7199211700e-001	 6.3720715211e-001	 3.3409531909e+000
 8.6493983207e-001	 6.4674748704e-001	 3.3096856278e+000
 8.5777748635e-001	 6.5621721804e-001	 3.2733549275e+000
 8.5050613428e-001	 6.6561445672e-001	 3.2316792440e+000
 8.4312687320e-001	 6.7493733563e-001	 3.1848957901e+000
 8.3564084277e-001	 6.8418400945e-001	 3.1335083736e+000
 8.2804922448e-001	 6.9335265616e-001	 3.0772705441e+000
 8.2035324099e-001	 7.0244147828e-001	 3.0159554755e+000
 8.1255415554e-001	 7.1144870399e-001	 2.9493653335e+000
 8.0465327125e-001	 7.2037258827e-001	 2.8773319432e+000
 9.0063626078e-001	 6.4309499478e-001	 2.7964958559e+000
 8.9352365288e-001	 6.5294129511e-001	 2.7567507905e+000
 8.8629723046e-001	 6.6271720334e-001	 2.7126843127e+000
 8.7895802958e-001	 6.7242076426e-001	 2.6643656900e+000
 8.7150713073e-001	 6.8205004287e-001	 2.6126289584e+000
 8.6394565833e-001	 6.9160312559e-001	 2.5574179095e+000
 8.5627478021e-001	 7.0107812152e-001	 2.4985880023e+000
 8.4849570701e-001	 7.1047316368e-001	 2.4360213474e+000
 8.4060969159e-001	 7.1978641019e-001	 2.3696272597e+000
 8.3261802838e-001	 7.2901604548e-001	 2.2993427459e+000
 8.2452205268e-001	 7.3816028145e-001	 2.2251329250e+000
 9.2233936515e-001	 6.5859199218e-001	 2.2968275426e+000
 9.1505536101e-001	 6.6867556397e-001	 2.2448375576e+000
 9.0765479969e-001	 6.7868704739e-001	 2.1899486986e+000
 9.0013874224e-001	 6.8862444011e-001	 2.1325239489e+000
 8.9250829517e-001	 6.9848576050e-001	 2.0724895934e+000
 8.8476461001e-001	 7.0826904886e-001	 2.0097966942e+000
 8.7690888272e-001	 7.1797236874e-001	 1.9444215562e+000
 8.6894235311e-001	 7.2759380816e-001	 1.8763661261e+000
 8.6086630424e-001	 7.3713148085e-001	 1.8056583258e+000
 8.5268206173e-001	 7.4658352751e-001	 1.7323523179e+000
 8.4439099306e-001	 7.5594811693e-001	 1.6565287027e+000
 9.4404260515e-001	 6.7408908643e-001	 1.8594218859e+000
 9.3658720370e-001	 6.8440993117e-001	 1.7980670275e+000
 9.2901250240e-001	 6.9465699125e-001	 1.7347364341e+000
 9.2131958727e-001	 7.0482821723e-001	 1.6694395167e+000
 9.1350959087e-001	 7.1492158085e-001	 1.6022093252e+000
 9.0558369180e-001	 7.2493507629e-001	 1.5331028863e+000
 8.9754311418e-001	 7.3486672154e-001	 1.4622014752e+000
 8.8938912699e-001	 7.4471455963e-001	 1.3896108192e+000
 8.8112304349e-001	 7.5447665992e-001	 1.3154612330e+000
 8.7274622048e-001	 7.6415111933e-001	 1.2399076844e+000
 8.6426005761e-001	 7.7373606358e-001	 1.1631297912e+000
 9.6574594281e-001	 6.8958625042e-001	 1.4780403475e+000
 9.5811914328e-001	 7.0014436917e-001	 1.4090531093e+000
 9.5037030122e-001	 7.1062700697e-001	 1.3385517856e+000
 9.4250052761e-001	 7.2103206726e-001	 1.2666390778e+000
 9.3451098106e-001	 7.3135747515e-001	 1.1934404900e+000
 9.2640286727e-001	 7.4160117871e-001	 1.1191044975e+000
 9.1817743849e-001	 7.5176115036e-001	 1.0438026455e+000
 9.0983599288e-001	 7.6183538815e-001	 9.6772957795e-001
 9.0137987388e-001	 7.7182191703e-001	 8.9110299550e-001
 8.9281046950e-001	 7.8171879020e-001	 8.1416354332e-001
 8.8412921157e-001	 7.9152409026e-001	 7.3717462785e-001
 9.8744934015e-001	 7.0508345701e-001	 1.1449211513e+000
 9.7965114206e-001	 7.1587885043e-001	 1.0697182056e+000
 9.7172815876e-001	 7.2659706660e-001	 9.9344989491e-001
 9.6368152620e-001	 7.3723596185e-001	 9.1629914553e-001
 9.5551242900e-001	 7.4779341464e-001	 8.3847064444e-001
 9.4722209999e-001	 7.5826732696e-001	 7.6019085704e-001
 9.3881181954e-001	 7.6865562564e-001	 6.8170797313e-001
 9.3028291499e-001	 7.7895626374e-001	 6.0329178071e-001
 9.2163675998e-001	 7.8916722184e-001	 5.2523346731e-001
 9.1287477370e-001	 7.9928650937e-001	 4.4784534908e-001
 9.0399842016e-001	 8.0931216586e-001	 3.7146052802e-001
 1.0091527592e+000	 7.2058067910e-001	 8.5246717271e-001
 1.0011831624e+000	 7.3161334743e-001	 7.7259486849e-001
 9.9308603765e-001	 7.4256714220e-001	 6.9208148004e-001
 9.8486254595e-001	 7.5343987263e-001	 6.1117802485e-001
 9.7651389794e-001	 7.6422937057e-001	 5.3015605110e-001
 9.6804135352e-001	 7.7493349187e-001	 4.4930752401e-001
 9.5944622121e-001	 7.8555011781e-001	 3.6894463805e-001
 9.5072985754e-001	 7.9607715645e-001	 2.8939955496e-001
 9.4189366633e-001	 8.0651254399e-001	 2.1102406725e-001
 9.3293909795e-001	 8.1685424611e-001	 1.3418918796e-001
 9.2386764861e-001	 8.2710025924e-001	 5.9284667258e-002
 1.0308561619e+000	 7.3607788956e-001	 5.9364382870e-001
 1.0227151665e+000	 7.4734783261e-001	 5.1076439308e-001
 1.0144439005e+000	 7.5853720581e-001	 4.2763296926e-001
 1.0060435498e+000	 7.6964377126e-001	 3.4455738372e-001
 9.9751535112e-001	 7.8066531416e-001	 2.6186459435e-001
 9.8886059143e-001	 7.9159964427e-001	 1.7990046374e-001
 9.8008060741e-001	 8.0244459730e-001	 9.9029456122e-002
 9.7117678475e-001	 8.1319803631e-001	 1.9634257844e-002
 9.6215055747e-001	 8.2385785312e-001	-5.7884678459e-002
 9.5300340716e-001	 8.3442196966e-001	-1.3310966527e-001
 9.4373686216e-001	 8.4488833928e-001	-2.0560638616e-001
 7.4504822833e-001	 6.6701067379e-001	 5.4306094880e+000
 7.3764070856e-001	 6.7519353820e-001	 5.3568528816e+000
 7.3014148001e-001	 6.8329610677e-001	 5.2732230217e+000
 7.2255185597e-001	 6.9131684565e-001	 5.1796698936e+000
 7.1487318379e-001	 6.9925424984e-001	 5.0761692251e+000
 7.0710684408e-001	 7.0710684408e-001	 4.9627228474e+000
 6.9925424984e-001	 7.1487318379e-001	 4.8393590027e+000
 6.9131684565e-001	 7.2255185597e-001	 4.7061325990e+000
 6.8329610677e-001	 7.3014148001e-001	 4.5631254109e+000
 6.7519353820e-001	 7.3764070856e-001	 4.4104462274e+000
 6.6701067379e-001	 7.4504822833e-001	 4.2482309459e+000
 7.6491632430e-001	 6.8479775331e-001	 4.4697109516e+000
 7.5731126925e-001	 6.9319882901e-001	 4.3944913947e+000
 7.4961205982e-001	 7.0151746763e-001	 4.3108820949e+000
 7.4182004435e-001	 7.0975209443e-001	 4.2189842001e+000
 7.3393660611e-001	 7.1790116425e-001	 4.1189200403e+000
 7.2596316251e-001	 7.2596316251e-001	 4.0108332054e+000
 7.1790116425e-001	 7.3393660611e-001	 3.8948885764e+000
 7.0975209443e-001	 7.4182004435e-001	 3.7712723112e+000
 7.0151746763e-001	 7.4961205982e-001	 3.6401917840e+000
 6.9319882901e-001	 7.5731126925e-001	 3.5018754801e+000
 6.8479775331e-001	 7.6491632430e-001	 3.3565728468e+000
 7.8478468353e-001	 7.0258506851e-001	 3.6222240122e+000
 7.7698209058e-001	 7.1120435840e-001	 3.5455521989e+000
 7.6908289763e-001	 7.1973906993e-001	 3.4617345915e+000
 7.6108848804e-001	 7.2818758747e-001	 3.3709992297e+000
 7.5300028102e-001	 7.3654832574e-001	 3.2735915236e+000
 7.4481973079e-001	 7.4481973079e-001	 3.1697740822e+000
 7.3654832574e-001	 7.5300028102e-001	 3.0598265000e+000
 7.2818758747e-001	 7.6108848804e-001	 2.9440451041e+000
 7.1973906993e-001	 7.6908289763e-001	 2.8227426612e+000
 7.1120435840e-001	 7.7698209058e-001	 2.6962480470e+000
 7.0258506851e-001	 7.8478468353e-001	 2.5649058792e+000
 8.0465327125e-001	 7.2037258827e-001	 2.8773319432e+000
 7.9665313812e-001	 7.2921009484e-001	 2.7993822002e+000
 7.8855395935e-001	 7.3796088178e-001	 2.7153320585e+000
 7.8035715332e-001	 7.4662329252e-001	 2.6255141206e+000
 7.7206417516e-001	 7.5519570166e-001	 2.5302752614e+000
 7.6367651593e-001	 7.6367651593e-001	 2.4299762386e+000
 7.5519570166e-001	 7.7206417516e-001	 2.3249912648e+000
 7.4662329252e-001	 7.8035715332e-001	 2.2157075442e+000
 7.3796088178e-001	 7.8855395935e-001	 2.1025247742e+000
 7.2921009484e-001	 7.9665313812e-001	 1.9858546144e+000
 7.2037258827e-001	 8.0465327125e-001	 1.8661201253e+000
 8.2452205268e-001	 7.3816028145e-001	 2.2251329250e+000
 8.1632437745e-001	 7.4721600684e-001	 2.1462232787e+000
 8.0802521092e-001	 7.5618287128e-001	 2.0620970763e+000
 7.9962600647e-001	 7.6505917732e-001	 1.9731709209e+000
 7.9112825518e-001	 7.7384325940e-001	 1.8798732729e+000
 7.8253348491e-001	 7.8253348491e-001	 1.7826438716e+000
 7.7384325940e-001	 7.9112825518e-001	 1.6819331210e+000
 7.6505917732e-001	 7.9962600647e-001	 1.5782014423e+000
 7.5618287128e-001	 8.0802521092e-001	 1.4719185948e+000
 7.4721600684e-001	 8.1632437745e-001	 1.3635629687e+000
 7.3816028145e-001	 8.2452205268e-001	 1.2536208504e+000
 8.4439099306e-001	 7.5594811693e-001	 1.6565287027e+000
 8.3599577415e-001	 7.6522206289e-001	 1.5771030506e+000
 8.2749661825e-001	 7.7440500656e-001	 1.4932165791e+000
 8.1889501376e-001	 7.8349520960e-001	 1.4053509425e+000
 8.1019248770e-001	 7.9249096632e-001	 1.3139978932e+000
 8.0139060475e-001	 8.0139060475e-001	 1.2196585421e+000
 7.9249096632e-001	 8.1019248770e-001	 1.1228425843e+000
 7.8349520960e-001	 8.1889501376e-001	 1.0240674922e+000
 7.7440500656e-001	 8.2749661825e-001	 9.2385767879e-001
 7.6522206289e-001	 8.3599577415e-001	 8.2274363560e-001
 7.5594811693e-001	 8.4439099306e-001	 7.2126104560e-001
 8.6426005761e-001	 7.7373606358e-001	 1.1631297912e+000
 8.5566729379e-001	 7.8322823146e-001	 1.0837418952e+000
 8.4696814727e-001	 7.9262725572e-001	 1.0005510944e+000
 8.3816414148e-001	 8.0193135710e-001	 9.1408662110e-001
 8.2925683937e-001	 8.1113878977e-001	 8.2488667932e-001
 8.2024784244e-001	 8.2024784244e-001	 7.3349756993e-001
 8.1113878977e-001	 8.2925683937e-001	 6.4047278008e-001
 8.0193135710e-001	 8.3816414148e-001	 5.4637204033e-001
 7.9262725572e-001	 8.4696814727e-001	 4.5176035258e-001
 7.8322823146e-001	 8.5566729379e-001	 3.5720699202e-001
 7.7373606358e-001	 8.6426005761e-001	 2.6328448678e-001
 8.8412921157e-001	 7.9152409026e-001	 7.3717462785e-001
 8.7533890194e-001	 8.0123448106e-001	 6.5847369188e-001
 8.6643976390e-001	 8.1084958688e-001	 5.7655740015e-001
 8.5743335591e-001	 8.2036758756e-001	 4.9198644568e-001
 8.4832127683e-001	 8.2978669714e-001	 4.0532997943e-001
 8.3910516497e-001	 8.3910516497e-001	 3.1716462417e-001
 8.2978669714e-001	 8.4832127683e-001	 2.2807345105e-001
 8.2036758756e-001	 8.5743335591e-001	 1.3864492214e-001
 8.1084958688e-001	 8.6643976390e-001	 4.9471802523e-002
 8.0123448106e-001	 8.7533890194e-001	-3.8849954320e-002
 7.9152409026e-001	 8.8412921157e-001	-1.2572234394e-001
 9.0399842016e-001	 8.0931216586e-001	 3.7146052802e-001
 8.9501056419e-001	 8.1924078017e-001	 2.9417815808e-001
 8.8591143408e-001	 8.2907196814e-001	 2.1422253618e-001
 8.7670262332e-001	 8.3880386871e-001	 1.3217094747e-001
 8.6738576670e-001	 8.4843465578e-001	 4.8609216368e-002
 8.5796253937e-001	 8.5796253937e-001	-3.5869367601e-002
 8.4843465578e-001	 8.6738576670e-001	-1.2066516468e-001
 8.3880386871e-001	 8.7670262332e-001	-2.0517333684e-001
 8.2907196814e-001	 8.8591143408e-001	-2.8878503290e-001
 8.1924078017e-001	 8.9501056419e-001	-3.7088860274e-001
 8.0931216586e-001	 9.0399842016e-001	-4.5087083620e-001
 9.2386764861e-001	 8.2710025924e-001	 5.9284667258e-002
 9.1468224610e-001	 8.3724709728e-001	-1.5776957095e-002
 9.0538312372e-001	 8.4729436762e-001	-9.2992538535e-002
 8.9597190999e-001	 8.5724016829e-001	-1.7178191546e-001
 8.8645027563e-001	 8.6708263307e-001	-2.5155572487e-001
 8.7681993261e-001	 8.7681993261e-001	-3.3171654285e-001
 8.6708263307e-001	 8.8645027563e-001	-4.1166007077e-001
 8.5724016829e-001	 8.9597190999e-001	-4.9077636296e-001
 8.4729436762e-001	 9.0538312372e-001	-5.6845109191e-001
 8.3724709728e-001	 9.1468224610e-001	-6.4406684631e-001
 8.2710025924e-001	 9.2386764861e-001	-7.1700445727e-001
 9.4373686216e-001	 8.4488833928e-001	-2.0560638616e-001
 9.3435391325e-001	 8.5525340088e-001	-2.7758527479e-001
 9.2485479875e-001	 8.6551675343e-001	-3.5120106325e-001
 9.1524118220e-001	 8.7567645404e-001	-4.2588336160e-001
 9.0551477026e-001	 8.8573059636e-001	-5.0105134733e-001
 8.9567731170e-001	 8.9567731170e-001	-5.7611495194e-001
 8.8573059636e-001	 9.0551477026e-001	-6.5047609941e-001
 8.7567645404e-001	 9.1524118220e-001	-7.2352999228e-001
 8.6551675343e-001	 9.2485479875e-001	-7.9466644091e-001
 8.5525340088e-001	 9.3435391325e-001	-8.6327123101e-001
 8.4488833928e-001	 9.4373686216e-001	-9.2872752433e-001
 6.6701067379e-001	 7.4504822833e-001	 4.2482309459e+000
 6.5874783014e-001	 7.5236385116e-001	 4.0763789385e+000
 6.5040781861e-001	 7.5958521594e-001	 3.8948399101e+000
 6.4199225496e-001	 7.6671111609e-001	 3.7036526664e+000
 6.3350277976e-001	 7.7374038194e-001	 3.5028672316e+000
 6.2494105736e-001	 7.8067188138e-001	 3.2925461618e+000
 6.1630877477e-001	 7.8750452048e-001	 3.0727650043e+000
 6.0760764065e-001	 7.9423724396e-001	 2.8436127339e+000
 5.9883938412e-001	 8.0086903579e-001	 2.6051921642e+000
 5.9000575367e-001	 8.0739891962e-001	 2.3576203315e+000
 5.8110851606e-001	 8.1382595926e-001	 2.1010288483e+000
 6.8479775331e-001	 7.6491632430e-001	 3.3565728468e+000
 6.7631456557e-001	 7.7242703182e-001	 3.2034163129e+000
 6.6775215214e-001	 7.7984096771e-001	 3.0414986572e+000
 6.5911217184e-001	 7.8715689323e-001	 2.8714879717e+000
 6.5039630900e-001	 7.9437360752e-001	 2.6944024794e+000
 6.4160627235e-001	 8.0148994829e-001	 2.5104788602e+000
 6.3274379391e-001	 8.0850479241e-001	 2.3199488700e+000
 6.2381062787e-001	 8.1541705648e-001	 2.1230495745e+000
 6.1480854948e-001	 8.2222569736e-001	 1.9200235391e+000
 6.0573935386e-001	 8.2892971269e-001	 1.7111190080e+000
 5.9660485487e-001	 8.3552814128e-001	 1.4965900672e+000
 7.0258506851e-001	 7.8478468353e-001	 2.5649058792e+000
 6.9388153377e-001	 7.9249047831e-001	 2.4276181973e+000
 6.8509671548e-001	 8.0009698788e-001	 2.2832778497e+000
 6.7623231556e-001	 8.0760294129e-001	 2.1321697512e+000
 6.6729006209e-001	 8.1500710650e-001	 1.9745820853e+000
 6.5827170817e-001	 8.2230829104e-001	 1.8114808182e+000
 6.4917903082e-001	 8.2950534259e-001	 1.6440679567e+000
 6.4001382979e-001	 8.3659714963e-001	 1.4727033491e+000
 6.3077792643e-001	 8.4358264192e-001	 1.2977421830e+000
 6.2147316252e-001	 8.5046079104e-001	 1.1195383247e+000
 6.1210139900e-001	 8.5723061087e-001	 9.3844433370e-001
 7.2037258827e-001	 8.0465327125e-001	 1.8661201253e+000
 7.1144870399e-001	 8.1255415554e-001	 1.7419956075e+000
 7.0244147828e-001	 8.2035324099e-001	 1.6121668700e+000
 6.9335265616e-001	 8.2804922448e-001	 1.4770275049e+000
 6.8418400945e-001	 8.3564084277e-001	 1.3369700669e+000
 6.7493733563e-001	 8.4312687320e-001	 1.1923854788e+000
 6.6561445672e-001	 8.5050613428e-001	 1.0436739304e+000
 6.5621721804e-001	 8.5777748635e-001	 8.9226760604e-001
 6.4674748704e-001	 8.6493983207e-001	 7.3927212447e-001
 6.3720715211e-001	 8.7199211700e-001	 5.8512360615e-001
 6.2759812135e-001	 8.7893333002e-001	 4.3025121911e-001
 7.3816028145e-001	 8.2452205268e-001	 1.2536208504e+000
 7.2901604548e-001	 8.3261802838e-001	 1.1405486447e+000
 7.1978641019e-001	 8.4060969159e-001	 1.0228258185e+000
 7.1047316368e-001	 8.4849570701e-001	 9.0092634028e-001
 7.0107812152e-001	 8.5627478021e-001	 7.7532004436e-001
 6.9160312559e-001	 8.6394565833e-001	 6.4647183547e-001
 6.8205004287e-001	 8.7150713073e-001	 5.1484090244e-001
 6.7242076426e-001	 8.7895802958e-001	 3.8087994407e-001
 6.6271720334e-001	 8.8629723046e-001	 2.4519387082e-001
 6.5294129511e-001	 8.9352365288e-001	 1.0965182447e-001
 6.4309499478e-001	 9.0063626078e-001	-2.4931552675e-002
 7.5594811693e-001	 8.4439099306e-001	 7.2126104560e-001
 7.4658352751e-001	 8.5268206173e-001	 6.1766479460e-001
 7.3713148085e-001	 8.6086630424e-001	 5.1023579667e-001
 7.2759380816e-001	 8.6894235311e-001	 3.9950247710e-001
 7.1797236874e-001	 8.7690888272e-001	 2.8598718259e-001
 7.0826904886e-001	 8.8476461001e-001	 1.7020522103e-001
 6.9848576050e-001	 8.9250829517e-001	 5.2663914059e-002
 6.8862444011e-001	 9.0013874224e-001	-6.6138333994e-002
 6.7868704739e-001	 9.0765479969e-001	-1.8571294735e-001
 6.6867556397e-001	 9.1505536101e-001	-3.0558206670e-001
 6.5859199218e-001	 9.2233936515e-001	-4.2460558414e-001
 7.7373606358e-001	 8.6426005761e-001	 2.6328448678e-001
 7.6415111933e-001	 8.7274622048e-001	 1.6806853277e-001
 7.5447665992e-001	 8.8112304349e-001	 6.9655740874e-002
 7.4471455963e-001	 8.8938912699e-001	-3.1394743068e-002
 7.3486672154e-001	 8.9754311418e-001	-1.3453069517e-001
 7.2493507629e-001	 9.0558369180e-001	-2.3920790478e-001
 7.1492158085e-001	 9.1350959087e-001	-3.4489125173e-001
 7.0482821723e-001	 9.2131958727e-001	-4.5105576530e-001
 6.9465699125e-001	 9.2901250240e-001	-5.5718766112e-001
 6.8440993117e-001	 9.3658720370e-001	-6.6278535190e-001
 6.7408908643e-001	 9.4404260515e-001	-7.6736042830e-001
 7.9152409026e-001	 8.8412921157e-001	-1.2572234394e-001
 7.8171879020e-001	 8.9281046950e-001	-2.1322109525e-001
 7.7182191703e-001	 9.0137987388e-001	-3.0341374955e-001
 7.6183538815e-001	 9.0983599288e-001	-3.9573216854e-001
 7.5176115036e-001	 9.1817743849e-001	-4.8961492396e-001
 7.4160117871e-001	 9.2640286727e-001	-5.8450848867e-001
 7.3135747515e-001	 9.3451098106e-001	-6.7986841454e-001
 7.2103206726e-001	 9.4250052761e-001	-7.7516049259e-001
 7.1062700697e-001	 9.5037030122e-001	-8.6986189092e-001
 7.0014436917e-001	 9.5811914328e-001	-9.6346226600e-001
 6.8958625042e-001	 9.6574594281e-001	-1.0554648430e+000
 8.0931216586e-001	 9.0399842016e-001	-4.5087083620e-001
 7.9928650937e-001	 9.1287477370e-001	-5.3092614417e-001
 7.8916722184e-001	 9.2163675998e-001	-6.1326066485e-001
 7.7895626374e-001	 9.3028291499e-001	-6.9731714196e-001
 7.6865562564e-001	 9.3881181954e-001	-7.8254380329e-001
 7.5826732696e-001	 9.4722209999e-001	-8.6839562248e-001
 7.4779341464e-001	 9.5551242900e-001	-9.5433557057e-001
 7.3723596185e-001	 9.6368152620e-001	-1.0398358525e+000
 7.2659706660e-001	 9.7172815876e-001	-1.1243791237e+000
 7.1587885043e-001	 9.7965114206e-001	-1.2074596814e+000
 7.0508345701e-001	 9.8744934015e-001	-1.2885846266e+000
 8.2710025924e-001	 9.2386764861e-001	-7.1700445727e-001
 8.1685424611e-001	 9.3293909795e-001	-7.8953970538e-001
 8.0651254399e-001	 9.4189366633e-001	-8.6398680860e-001
 7.9607715645e-001	 9.5072985754e-001	-9.3981755061e-001
 7.8555011781e-001	 9.5944622121e-001	-1.0165069961e+000
 7.7493349187e-001	 9.6804135352e-001	-1.0935347961e+000
 7.6422937057e-001	 9.7651389794e-001	-1.1703864885e+000
 7.5343987263e-001	 9.8486254595e-001	-1.2465547877e+000
 7.4256714220e-001	 9.9308603765e-001	-1.3215408598e+000
 7.3161334743e-001	 1.0011831624e+000	-1.3948555750e+000
 7.2058067910e-001	 1.0091527592e+000	-1.4660207355e+000
 8.4488833928e-001	 9.4373686216e-001	-9.2872752433e-001
 8.3442196966e-001	 9.5300340716e-001	-9.9335095379e-001
 8.2385785312e-001	 9.6215055747e-001	-1.0595287332e+000
 8.1319803631e-001	 9.7117678475e-001	-1.1267782491e+000
 8.0244459730e-001	 9.8008060741e-001	-1.1946170222e+000
 7.9159964427e-001	 9.8886059143e-001	-1.2625640307e+000
 7.8066531416e-001	 9.9751535112e-001	-1.3301410367e+000
 7.6964377126e-001	 1.0060435498e+000	-1.3968739093e+000
 7.5853720581e-001	 1.0144439005e+000	-1.4622939377e+000
 7.4734783261e-001	 1.0227151665e+000	-1.5259391303e+000
 7.3607788956e-001	 1.0308561619e+000	-1.5873554921e+000
 5.8110851606e-001	 8.1382595926e-001	 2.1010288483e+000
 5.7214945494e-001	 8.2014925879e-001	 1.8352172211e+000
 5.6313036914e-001	 8.2636796230e-001	 1.5607140876e+000
 5.5405307210e-001	 8.3248125485e-001	 1.2787361041e+000
 5.4491939094e-001	 8.3848836297e-001	 9.9047241842e-001
 5.3573116523e-001	 8.4438855498e-001	 6.9708330007e-001
 5.2649024586e-001	 8.5018114112e-001	 3.9969882466e-001
 5.1719849384e-001	 8.5586547377e-001	 9.9417615121e-002
 5.0785777912e-001	 8.6144094757e-001	-2.0269435995e-001
 4.9846997940e-001	 8.6690699948e-001	-5.0560492916e-001
 4.8903697900e-001	 8.7226310887e-001	-8.0831680152e-001
 5.9660485487e-001	 8.3552814128e-001	 1.4965900672e+000
 5.8740688373e-001	 8.4202006336e-001	 1.2754639023e+000
 5.7814728723e-001	 8.4840460015e-001	 1.0471826664e+000
 5.6882792720e-001	 8.5468091501e-001	 8.1261289354e-001
 5.5945067945e-001	 8.6084821383e-001	 5.7260109284e-001
 5.5001743262e-001	 8.6690574543e-001	 3.2797287167e-001
 5.4053008696e-001	 8.7285280165e-001	 7.9532092393e-002
 5.3099055310e-001	 8.7868871760e-001	-1.7193993562e-001
 5.2140075085e-001	 8.8441287176e-001	-4.2568522880e-001
 5.1176260801e-001	 8.9002468611e-001	-6.8096986637e-001
 5.0207805912e-001	 8.9552362611e-001	-9.3708469114e-001
 6.1210139900e-001	 8.5723061087e-001	 9.3844433370e-001
 6.0266451468e-001	 8.6389115771e-001	 7.5304338196e-001
 5.9316440431e-001	 8.7044152999e-001	 5.6208382580e-001
 5.8360297806e-001	 8.7688086931e-001	 3.6615460179e-001
 5.7398216050e-001	 8.8320836097e-001	 1.6583035553e-001
 5.6430388931e-001	 8.8942323424e-001	-3.8329030844e-002
 5.5457011409e-001	 8.9552476258e-001	-2.4577889349e-001
 5.4478279510e-001	 9.0151226383e-001	-4.5599022461e-001
 5.3494390203e-001	 9.0738510034e-001	-6.6845009323e-001
 5.2505541274e-001	 9.1314267905e-001	-8.8266204924e-001
 5.1511931203e-001	 9.1878445156e-001	-1.0981465109e+000
 6.2759812135e-001	 8.7893333002e-001	 4.3025121911e-001
 6.1792232109e-001	 8.8576250357e-001	 2.7304084809e-001
 6.0818169408e-001	 8.9247871325e-001	 1.1185346529e-001
 5.9837819884e-001	 8.9908107892e-001	-5.2931957699e-002
 5.8851380866e-001	 9.0556876524e-001	-2.2094665200e-001
 5.7859051029e-001	 9.1194098199e-001	-3.9183220181e-001
 5.6861030267e-001	 9.1819698423e-001	-5.6524069100e-001
 5.5857519572e-001	 9.2433607253e-001	-7.4083484667e-001
 5.4848720896e-001	 9.3035759310e-001	-9.1828818085e-001
 5.3834837034e-001	 9.3626093785e-001	-1.0972851309e+000
 5.2816071491e-001	 9.4204554451e-001	-1.2775211990e+000
 6.4309499478e-001	 9.0063626078e-001	-2.4931552675e-002
 6.3318027626e-001	 9.0763406268e-001	-1.6019466943e-001
 6.2319913026e-001	 9.1451611137e-001	-2.9793549751e-001
 6.1315356367e-001	 9.2128150497e-001	-4.3792183203e-001
 6.0304559850e-001	 9.2792938752e-001	-5.7992913144e-001
 5.9287727056e-001	 9.3445894929e-001	-7.2374042468e-001
 5.8265062815e-001	 9.4086942694e-001	-8.6914622487e-001
 5.7236773080e-001	 9.4716010376e-001	-1.0159444513e+000
 5.6203064793e-001	 9.5333030983e-001	-1.1639403613e+000
 5.5164145755e-001	 9.5937942204e-001	-1.3129464924e+000
 5.4120224495e-001	 9.6530686424e-001	-1.4627826172e+000
 6.5859199218e-001	 9.2233936515e-001	-4.2460558414e-001
 6.4843835349e-001	 9.2950579675e-001	-5.4299156425e-001
 6.3821668658e-001	 9.3655368578e-001	-6.6249906597e-001
 6.2792904671e-001	 9.4348210862e-001	-7.8298348279e-001
 6.1757750460e-001	 9.5029018868e-001	-9.0430679283e-001
 6.0716414512e-001	 9.5697709672e-001	-1.0263372972e+000
 5.9669106594e-001	 9.6354205101e-001	-1.1489493728e+000
 5.8616037623e-001	 9.6998431758e-001	-1.2720232413e+000
 5.7557419525e-001	 9.7630321034e-001	-1.3954447572e+000
 5.6493465109e-001	 9.8249809118e-001	-1.5191052147e+000
 5.5424387931e-001	 9.8856837007e-001	-1.6429011766e+000
 6.7408908643e-001	 9.4404260515e-001	-7.6736042830e-001
 6.6369652607e-001	 9.5137766752e-001	-8.7230460673e-001
 6.5323433675e-001	 9.5859139792e-001	-9.7777787687e-001
 6.4270462208e-001	 9.6568285101e-001	-1.0831020716e+000
 6.3210950151e-001	 9.7265112959e-001	-1.1881715734e+000
 6.2145110897e-001	 9.7949538489e-001	-1.2928872901e+000
 6.1073159149e-001	 9.8621481679e-001	-1.3971563144e+000
 5.9995310785e-001	 9.9280867404e-001	-1.5008916065e+000
 5.8911782720e-001	 9.9927625442e-001	-1.6040116998e+000
 5.7822792772e-001	 1.0056169048e+000	-1.7064404329e+000
 5.6728559518e-001	 1.0118300213e+000	-1.8081067098e+000
 6.8958625042e-001	 9.6574594281e-001	-1.0554648430e+000
 6.7895476732e-001	 9.7324963670e-001	-1.1472353121e+000
 6.6825205450e-001	 9.8062920921e-001	-1.2404063551e+000
 6.5748026394e-001	 9.8788369330e-001	-1.3340126317e+000
 6.4664156381e-001	 9.9501217112e-001	-1.4264407787e+000
 6.3573813710e-001	 1.0020137744e+000	-1.5175496427e+000
 6.2477218021e-001	 1.0088876846e+000	-1.6072310068e+000
 6.1374590153e-001	 1.0156331332e+000	-1.6953840407e+000
 6.0266152010e-001	 1.0222494019e+000	-1.7819149856e+000
 5.9152126415e-001	 1.0287358225e+000	-1.8667368681e+000
 5.8032736974e-001	 1.0350917771e+000	-1.9497692451e+000
 7.0508345701e-001	 9.8744934015e-001	-1.2885846266e+000
 6.9421305052e-001	 9.9512166602e-001	-1.3690586621e+000
 6.8326981354e-001	 1.0026670811e+000	-1.4504018418e+000
 6.7225594642e-001	 1.0100845966e+000	-1.5324641436e+000
 6.6117366607e-001	 1.0173732741e+000	-1.6147898872e+000
 6.5002520452e-001	 1.0245322258e+000	-1.6953031215e+000
 6.3881280753e-001	 1.0315606147e+000	-1.7735126126e+000
 6.2753873314e-001	 1.0384576551e+000	-1.8492599903e+000
 6.1620525025e-001	 1.0452226125e+000	-1.9223969281e+000
 6.0481463715e-001	 1.0518548037e+000	-1.9927848939e+000
 5.9336918015e-001	 1.0583535970e+000	-2.0602949322e+000
 7.2058067910e-001	 1.0091527592e+000	-1.4660207355e+000
 7.0947134897e-001	 1.0169937172e+000	-1.5363842388e+000
 6.9828758759e-001	 1.0247049750e+000	-1.6074183647e+000
 6.8703164368e-001	 1.0322855222e+000	-1.6788534785e+000
 6.7570578286e-001	 1.0397343995e+000	-1.7504380216e+000
 6.6431228622e-001	 1.0470506997e+000	-1.8218800047e+000
 6.5285344890e-001	 1.0542335675e+000	-1.8911430822e+000
 6.4133157855e-001	 1.0612821999e+000	-1.9571256885e+000
 6.2974899393e-001	 1.0681958461e+000	-2.0195851263e+000
 6.1810802343e-001	 1.0749738080e+000	-2.0782929503e+000
 6.0641100360e-001	 1.0816154401e+000	-2.1330348365e+000
 7.3607788956e-001	 1.0308561619e+000	-1.5873554921e+000
 7.2472963597e-001	 1.0388657520e+000	-1.6480802100e+000
 7.1330535038e-001	 1.0467428524e+000	-1.7096469826e+000
 7.0180732985e-001	 1.0544864310e+000	-1.7716207960e+000
 6.9023788874e-001	 1.0620955081e+000	-1.8335908366e+000
 6.7859935721e-001	 1.0695691567e+000	-1.8951715782e+000
 6.6689407973e-001	 1.0769065033e+000	-1.9560037937e+000
 6.5512441360e-001	 1.0841067275e+000	-2.0143653555e+000
 6.4329272745e-001	 1.0911690624e+000	-2.0684192250e+000
 6.3140139974e-001	 1.0980927950e+000	-2.1178104850e+000
 6.1945281727e-001	 1.1048772657e+000	-2.1622047067e+000
 4.8903697900e-001	 8.7226310887e-001	-8.0831680152e-001
 4.7956209226e-001	 8.7750801914e-001	-1.1113339544e+000
 4.7004580118e-001	 8.8264210687e-001	-1.4156946883e+000
 4.6049000248e-001	 8.8766497944e-001	-1.7210971092e+000
 4.5089659477e-001	 8.9257628643e-001	-2.0272436802e+000
 4.4126747746e-001	 8.9737571948e-001	-2.3338414114e+000
 4.3160454958e-001	 9.0206301214e-001	-2.6406020532e+000
 4.2190970867e-001	 9.0663793965e-001	-2.9472422913e+000
 4.1218484971e-001	 9.1110031866e-001	-3.2534839439e+000
 4.0243186398e-001	 9.1545000704e-001	-3.5590541598e+000
 3.9265263800e-001	 9.1968690347e-001	-3.8636856163e+000
 5.0207805912e-001	 8.9552362611e-001	-9.3708469114e-001
 4.9235050691e-001	 9.0090840166e-001	-1.1941519669e+000
 4.8258044624e-001	 9.0617939939e-001	-1.4525907054e+000
 4.7276982440e-001	 9.1133621619e-001	-1.7120462645e+000
 4.6292059064e-001	 9.1637849231e-001	-1.9721718800e+000
 4.5303469502e-001	 9.2130591116e-001	-2.2326289328e+000
 4.4311408720e-001	 9.2611819920e-001	-2.4930872132e+000
 4.3316071535e-001	 9.3081512565e-001	-2.7532251828e+000
 4.2317652494e-001	 9.3539650230e-001	-3.0127302325e+000
 4.1316345771e-001	 9.3986218320e-001	-3.2712989362e+000
 4.0312345050e-001	 9.4421206435e-001	-3.5286372988e+000
 5.1511931203e-001	 9.1878445156e-001	-1.0981465109e+000
 5.0513909100e-001	 9.2430909425e-001	-1.3149077741e+000
 4.9511525738e-001	 9.2971700378e-001	-1.5330560052e+000
 4.8504980903e-001	 9.3500776659e-001	-1.7521944240e+000
 4.7494474584e-001	 9.4018101357e-001	-1.9719375844e+000
 4.6480206850e-001	 9.4523641993e-001	-2.1919117027e+000
 4.5462377733e-001	 9.5017370499e-001	-2.4117549792e+000
 4.4441187110e-001	 9.5499263200e-001	-2.6311179130e+000
 4.3416834581e-001	 9.5969300786e-001	-2.8496636082e+000
 4.2389519365e-001	 9.6427468282e-001	-3.0670680704e+000
 4.1359440173e-001	 9.6873755019e-001	-3.2830204941e+000
 5.2816071491e-001	 9.4204554451e-001	-1.2775211990e+000
 5.1792782216e-001	 9.4771005594e-001	-1.4590893248e+000
 5.0765021267e-001	 9.5325487885e-001	-1.6420407376e+000
 4.9732993488e-001	 9.5867958921e-001	-1.8259462363e+000
 4.8696903931e-001	 9.6398380856e-001	-2.0103913485e+000
 4.7656957730e-001	 9.6916720389e-001	-2.1949767051e+000
 4.6613359982e-001	 9.7422948742e-001	-2.3793184069e+000
 4.5566315623e-001	 9.7917041640e-001	-2.5630483784e+000
 4.4516029309e-001	 9.8398979283e-001	-2.7458147102e+000
 4.3462705299e-001	 9.8868746319e-001	-2.9272819883e+000
 4.2406547339e-001	 9.9326331808e-001	-3.1071316089e+000
 5.4120224495e-001	 9.6530686424e-001	-1.4627826172e+000
 5.3071667801e-001	 9.7111124578e-001	-1.6137853038e+000
 5.2018529017e-001	 9.7679298341e-001	-1.7661420515e+000
 5.0961018045e-001	 9.8235164262e-001	-1.9194001463e+000
 4.9899345001e-001	 9.8778683563e-001	-2.0731249364e+000
 4.8833720083e-001	 9.9309822118e-001	-2.2269002422e+000
 4.7764353453e-001	 9.9828550439e-001	-2.3803287525e+000
 4.6691455107e-001	 1.0033484365e+000	-2.5330324068e+000
 4.5615234754e-001	 1.0082868147e+000	-2.6846527631e+000
 4.4535901697e-001	 1.0131004816e+000	-2.8348513483e+000
 4.3453664713e-001	 1.0177893251e+000	-2.9833099925e+000
 5.5424387931e-001	 9.8856837007e-001	-1.6429011766e+000
 5.4350563617e-001	 9.9451262283e-001	-1.7675210597e+000
 5.3272046795e-001	 1.0003312763e+000	-1.8934342849e+000
 5.2189052427e-001	 1.0060238854e+000	-2.0201727971e+000
 5.1101795690e-001	 1.0115900531e+000	-2.1472898777e+000
 5.0010491850e-001	 1.0170294299e+000	-2.2743605750e+000
 4.8915356131e-001	 1.0223417138e+000	-2.4009821192e+000
 4.7816603591e-001	 1.0275266501e+000	-2.5267743226e+000
 4.6714448992e-001	 1.0325840309e+000	-2.6513799613e+000
 4.5609106680e-001	 1.0375136953e+000	-2.7744651395e+000
 4.4500790464e-001	 1.0423155283e+000	-2.8957196323e+000
 5.6728559518e-001	 1.0118300213e+000	-1.8081067098e+000
 5.5629467426e-001	 1.0179141461e+000	-1.9101165523e+000
 5.4525572408e-001	 1.0238697162e+000	-2.0133219556e+000
 5.3417094483e-001	 1.0296962761e+000	-2.1172470257e+000
 5.2304253894e-001	 1.0353934194e+000	-2.2214404166e+000
 5.1187270971e-001	 1.0409607882e+000	-2.3254757691e+000
 5.0066366003e-001	 1.0463980736e+000	-2.4289521342e+000
 4.8941759107e-001	 1.0517050147e+000	-2.5314943799e+000
 4.7813670099e-001	 1.0568813990e+000	-2.6327535782e+000
 4.6682318370e-001	 1.0619270615e+000	-2.7324073741e+000
 4.5547922759e-001	 1.0668418848e+000	-2.8301603311e+000
 5.8032736974e-001	 1.0350917771e+000	-1.9497692451e+000
 5.6908376989e-001	 1.0413157747e+000	-2.0325628570e+000
 5.5779103660e-001	 1.0474082621e+000	-2.1164119697e+000
 5.4645142066e-001	 1.0533687734e+000	-2.2008397405e+000
 5.3506717509e-001	 1.0591968927e+000	-2.2853970190e+000
 5.2364055388e-001	 1.0648922542e+000	-2.3696627839e+000
 5.1217381054e-001	 1.0704545416e+000	-2.4532445641e+000
 5.0066919685e-001	 1.0758834882e+000	-2.5357788419e+000
 4.8912896153e-001	 1.0811788764e+000	-2.6169314384e+000
 4.7755534890e-001	 1.0863405376e+000	-2.6963978782e+000
 4.6595059765e-001	 1.0913683516e+000	-2.7739037320e+000
 5.9336918015e-001	 1.0583535970e+000	-2.0602949322e+000
 5.8187290068e-001	 1.0647174677e+000	-2.1269143715e+000
 5.7032638360e-001	 1.0709468727e+000	-2.1944020895e+000
 5.5873193024e-001	 1.0770413357e+000	-2.2622866234e+000
 5.4709184431e-001	 1.0830004315e+000	-2.3301272755e+000
 5.3540843040e-001	 1.0888237859e+000	-2.3975145361e+000
 5.2368399270e-001	 1.0945110757e+000	-2.4640704924e+000
 5.1192083358e-001	 1.1000620281e+000	-2.5294492207e+000
 5.0012125229e-001	 1.1054764206e+000	-2.5933371612e+000
 4.8828754360e-001	 1.1107540809e+000	-2.6554534729e+000
 4.7642199651e-001	 1.1158948859e+000	-2.7155503673e+000
 6.0641100360e-001	 1.0816154401e+000	-2.1330348365e+000
 5.9466204427e-001	 1.0881191840e+000	-2.1861943624e+000
 5.8286174312e-001	 1.0944855069e+000	-2.2399832145e+000
 5.7101245211e-001	 1.1007139217e+000	-2.2939411245e+000
 5.5911652554e-001	 1.1068039941e+000	-2.3476415817e+000
 5.4717631868e-001	 1.1127553416e+000	-2.4006922324e+000
 5.3519418636e-001	 1.1185676339e+000	-2.4527352673e+000
 5.2317248155e-001	 1.1242405922e+000	-2.5034477950e+000
 5.1111355404e-001	 1.1297739892e+000	-2.5525421994e+000
 4.9901974903e-001	 1.1351676485e+000	-2.5997664795e+000
 4.8689340584e-001	 1.1404214447e+000	-2.6449045687e+000
 6.1945281727e-001	 1.1048772657e+000	-2.1622047067e+000
 6.0745117825e-001	 1.1115208828e+000	-2.2043118838e+000
 5.9539709325e-001	 1.1180241233e+000	-2.2467534402e+000
 5.8329296476e-001	 1.1243864900e+000	-2.2890856426e+000
 5.7114119775e-001	 1.1306075389e+000	-2.3309014185e+000
 5.5894419814e-001	 1.1366868794e+000	-2.3718307228e+000
 5.4670437139e-001	 1.1426241741e+000	-2.4115408952e+000
 5.3442412108e-001	 1.1484191381e+000	-2.4497370075e+000
 5.2210584754e-001	 1.1540715394e+000	-2.4861621988e+000
 5.0975194641e-001	 1.1595811979e+000	-2.5205979941e+000
 4.9736480731e-001	 1.1649479851e+000	-2.5528646071e+000
 3.9265263800e-001	 9.1968690347e-001	-3.8636856163e+000
 3.8284758015e-001	 9.2381155749e-001	-4.1661795543e+000
 3.7302003062e-001	 9.2782330500e-001	-4.4651128142e+000
 3.6317185667e-001	 9.3172216582e-001	-4.7600488213e+000
 3.5330491665e-001	 9.3550819912e-001	-5.0505860296e+000
 3.4342105900e-001	 9.3918150291e-001	-5.3363579362e+000
 3.3352212132e-001	 9.4274221361e-001	-5.6170330452e+000
 3.2360992937e-001	 9.4619050544e-001	-5.8923147795e+000
 3.1368629624e-001	 9.4952658997e-001	-6.1619413432e+000
 3.0375302140e-001	 9.5275071551e-001	-6.4256855322e+000
 2.9381188981e-001	 9.5586316651e-001	-6.6833544960e+000
 4.0312345050e-001	 9.4421206435e-001	-3.5286372988e+000
 3.9305692255e-001	 9.4844670994e-001	-3.7841816929e+000
 3.8296730315e-001	 9.5256543815e-001	-4.0372236119e+000
 3.7285650933e-001	 9.5656826934e-001	-4.2873970368e+000
 3.6272644901e-001	 9.6045526426e-001	-4.5343661178e+000
 3.5257901993e-001	 9.6422652353e-001	-4.7778252147e+000
 3.4241610866e-001	 9.6788218719e-001	-5.0174988949e+000
 3.3223958969e-001	 9.7142243413e-001	-5.2531418875e+000
 3.2205132444e-001	 9.7484748157e-001	-5.4845389955e+000
 3.1185316035e-001	 9.7815758441e-001	-5.7115049636e+000
 3.0164693001e-001	 9.8135303469e-001	-5.9338843051e+000
 4.1359440173e-001	 9.6873755019e-001	-3.2830204941e+000
 4.0326640023e-001	 9.7308218881e-001	-3.4973882861e+000
 3.9291470747e-001	 9.7730789914e-001	-3.7099614198e+000
 3.8254129032e-001	 9.8141470208e-001	-3.9204396959e+000
 3.7214810621e-001	 9.8540265995e-001	-4.1285494934e+000
 3.6173710219e-001	 9.8927187599e-001	-4.3340438244e+000
 3.5131021386e-001	 9.9302249388e-001	-4.5367023539e+000
 3.4086936436e-001	 9.9665469716e-001	-4.7363313827e+000
 3.3041646348e-001	 1.0001687087e+000	-4.9327637933e+000
 3.1995340664e-001	 1.0035647899e+000	-5.1258589591e+000
 3.0948207403e-001	 1.0068432406e+000	-5.3155026161e+000
 4.2406547339e-001	 9.9326331808e-001	-3.1071316089e+000
 4.1347599532e-001	 9.9771795098e-001	-3.2854983858e+000
 4.0286222620e-001	 1.0020506447e+000	-3.4624959619e+000
 3.9222618267e-001	 1.0062614206e+000	-3.6378853840e+000
 3.8156987176e-001	 1.0103503425e+000	-3.8114518838e+000
 3.7089528978e-001	 1.0143175165e+000	-3.9830049395e+000
 3.6020442133e-001	 1.0181630897e+000	-4.1523783051e+000
 3.4949923827e-001	 1.0218872503e+000	-4.3194300100e+000
 3.3878169871e-001	 1.0254902270e+000	-4.4840423254e+000
 3.2805374608e-001	 1.0289722877e+000	-4.6461216985e+000
 3.1731730815e-001	 1.0323337397e+000	-4.8055986531e+000
 4.3453664713e-001	 1.0177893251e+000	-2.9833099925e+000
 4.2368568994e-001	 1.0223539533e+000	-3.1303038433e+000
 4.1280984191e-001	 1.0267936314e+000	-3.2761327654e+000
 4.0191116946e-001	 1.0311083813e+000	-3.4206146068e+000
 3.9099172917e-001	 1.0352982684e+000	-3.5635901427e+000
 3.8005356666e-001	 1.0393634012e+000	-3.7049231338e+000
 3.6909871553e-001	 1.0433039306e+000	-3.8445003574e+000
 3.5812919632e-001	 1.0471200496e+000	-3.9822316113e+000
 3.4714701551e-001	 1.0508119921e+000	-4.1180496888e+000
 3.3615416449e-001	 1.0543800331e+000	-4.2519103243e+000
 3.2515261867e-001	 1.0578244873e+000	-4.3837921075e+000
 4.4500790464e-001	 1.0423155283e+000	-2.8957196323e+000
 4.3389546624e-001	 1.0469901528e+000	-3.0154649452e+000
 4.2275753719e-001	 1.0515368161e+000	-3.1340835479e+000
 4.1159623372e-001	 1.0559555408e+000	-3.2514457451e+000
 4.0041366195e-001	 1.0602463938e+000	-3.3674445870e+000
 3.8921191680e-001	 1.0644094862e+000	-3.4819959175e+000
 3.7799308087e-001	 1.0684449726e+000	-3.5950383985e+000
 3.6675922341e-001	 1.0723530506e+000	-3.7065335091e+000
 3.5551239922e-001	 1.0761339599e+000	-3.8164655178e+000
 3.4425464771e-001	 1.0797879818e+000	-3.9248414275e+000
 3.3298799187e-001	 1.0833154388e+000	-4.0316908901e+000
 4.5547922759e-001	 1.0668418848e+000	-2.8301603311e+000
 4.4410530635e-001	 1.0716265062e+000	-2.9263163734e+000
 4.3270529465e-001	 1.0762801555e+000	-3.0212676628e+000
 4.2128135850e-001	 1.0808028555e+000	-3.1149326880e+000
 4.0983565361e-001	 1.0851946751e+000	-3.2072535235e+000
 3.9837032417e-001	 1.0894557277e+000	-3.2981958616e+000
 3.8688750181e-001	 1.0935861718e+000	-3.3877490228e+000
 3.7538930443e-001	 1.0975862094e+000	-3.4759259424e+000
 3.6387783522e-001	 1.1014560858e+000	-3.5627631307e+000
 3.5235518156e-001	 1.1051960893e+000	-3.6483206064e+000
 3.4082341404e-001	 1.1088065496e+000	-3.7326818000e+000
 4.6595059765e-001	 1.0913683516e+000	-2.7739037320e+000
 4.5431519240e-001	 1.0962629705e+000	-2.8496987229e+000
 4.4265309687e-001	 1.1010236061e+000	-2.9241397178e+000
 4.3096652687e-001	 1.1056502821e+000	-2.9971891634e+000
 4.1925768767e-001	 1.1101430686e+000	-3.0688349024e+000
 4.0752877276e-001	 1.1145020820e+000	-3.1390901862e+000
 3.9578196276e-001	 1.1187274841e+000	-3.2079936657e+000
 3.8401942429e-001	 1.1228194817e+000	-3.2756093581e+000
 3.7224330886e-001	 1.1267783258e+000	-3.3420265874e+000
 3.6045575185e-001	 1.1306043111e+000	-3.4073598975e+000
 3.4865887146e-001	 1.1342977751e+000	-3.4717489338e+000
 4.7642199651e-001	 1.1158948859e+000	-2.7155503673e+000
 4.6452510652e-001	 1.1208995025e+000	-2.7738116441e+000
 4.5260092644e-001	 1.1257671249e+000	-2.8305393420e+000
 4.4065172187e-001	 1.1304977770e+000	-2.8857356598e+000
 4.2867974763e-001	 1.1350915308e+000	-2.9394309261e+000
 4.1668724653e-001	 1.1395485051e+000	-2.9916835893e+000
 4.0467644817e-001	 1.1438688655e+000	-3.0425801840e+000
 3.9264956787e-001	 1.1480528233e+000	-3.0922352737e+000
 3.8060880550e-001	 1.1521006353e+000	-3.1407913649e+000
 3.6855634442e-001	 1.1560126028e+000	-3.1884187919e+000
 3.5649435043e-001	 1.1597890707e+000	-3.2353155695e+000
 4.8689340584e-001	 1.1404214447e+000	-2.6449045687e+000
 4.7473503085e-001	 1.1455360592e+000	-2.6880853578e+000
 4.6254876595e-001	 1.1505106683e+000	-2.7295597674e+000
 4.5033692655e-001	 1.1553452968e+000	-2.7693655397e+000
 4.3810181702e-001	 1.1600400179e+000	-2.8075721592e+000
 4.2584572945e-001	 1.1645949533e+000	-2.8442808171e+000
 4.1357094248e-001	 1.1690102721e+000	-2.8796243521e+000
 4.0127972008e-001	 1.1732861903e+000	-2.9137671638e+000
 3.8897431050e-001	 1.1774229702e+000	-2.9469050961e+000
 3.7665694509e-001	 1.1814209198e+000	-2.9792652887e+000
 3.6432983724e-001	 1.1852803918e+000	-3.0111059923e+000
 4.9736480731e-001	 1.1649479851e+000	-2.5528646071e+000
 4.8494494752e-001	 1.1701725973e+000	-2.5830678343e+000
 4.7249659800e-001	 1.1752541932e+000	-2.6114324540e+000
 4.6002212396e-001	 1.1801927979e+000	-2.6380275174e+000
 4.4752387933e-001	 1.1849884863e+000	-2.6629582658e+000
 4.3500420550e-001	 1.1896413827e+000	-2.6863660699e+000
 4.2246543011e-001	 1.1941516598e+000	-2.7084283424e+000
 4.0990986582e-001	 1.1985195382e+000	-2.7293584210e+000
 3.9733980923e-001	 1.2027452861e+000	-2.7494054176e+000
 3.8475753968e-001	 1.2068292178e+000	-2.7688540317e+000
 3.7216531816e-001	 1.2107716938e+000	-2.7880243242e+000
 2.9381188981e-001	 9.5586316651e-001	-6.6833544960e+000
 2.8386467101e-001	 9.5886426270e-001	-6.9345107432e+000
 2.7391311782e-001	 9.6175435779e-001	-7.1787655880e+000
 2.6395896607e-001	 9.6453383948e-001	-7.4160389549e+000
 2.5400393389e-001	 9.6720312906e-001	-7.6462692539e+000
 2.4404972108e-001	 9.6976268070e-001	-7.8694131823e+000
 2.3409800832e-001	 9.7221298076e-001	-8.0854455004e+000
 2.2415045650e-001	 9.7455454705e-001	-8.2943587821e+000
 2.1420870614e-001	 9.7678792810e-001	-8.4961631391e+000
 2.0427437664e-001	 9.7891370242e-001	-8.6908859213e+000
 1.9434906582e-001	 9.8093247774e-001	-8.8785713914e+000
 3.0164693001e-001	 9.8135303469e-001	-5.9338843051e+000
 2.9143445013e-001	 9.8443416069e-001	-6.1508928157e+000
 2.8121752028e-001	 9.8740132554e-001	-6.3617902186e+000
 2.7099792256e-001	 9.9025492727e-001	-6.5665234405e+000
 2.6077742095e-001	 9.9299539842e-001	-6.7650583578e+000
 2.5055776055e-001	 9.9562320526e-001	-6.9573795895e+000
 2.4034066687e-001	 9.9813884713e-001	-7.1434902626e+000
 2.3012784510e-001	 1.0005428556e+000	-7.3234117508e+000
 2.1992097947e-001	 1.0028357939e+000	-7.4971833854e+000
 2.0972173262e-001	 1.0050182560e+000	-7.6648621403e+000
 1.9953174493e-001	 1.0070908657e+000	-7.8265222906e+000
 3.0948207403e-001	 1.0068432406e+000	-5.3155026161e+000
 2.9900432955e-001	 1.0100043975e+000	-5.5006991258e+000
 2.8852201952e-001	 1.0130486331e+000	-5.6804964051e+000
 2.7803697233e-001	 1.0159763559e+000	-5.8548798372e+000
 2.6755099776e-001	 1.0187880095e+000	-6.0238541604e+000
 2.5706588626e-001	 1.0214840725e+000	-6.1874432425e+000
 2.4658340814e-001	 1.0240650570e+000	-6.3456898263e+000
 2.3610531289e-001	 1.0265315086e+000	-6.4986552466e+000
 2.2563332850e-001	 1.0288840049e+000	-6.6464191194e+000
 2.1516916078e-001	 1.0311231554e+000	-6.7890790033e+000
 2.0471449272e-001	 1.0332496003e+000	-6.9267500321e+000
 3.1731730815e-001	 1.0323337397e+000	-4.8055986531e+000
 3.0657429603e-001	 1.0355749283e+000	-4.9613660639e+000
 2.9582660277e-001	 1.0386962356e+000	-5.1123642649e+000
 2.8507610305e-001	 1.0416980803e+000	-5.2586278712e+000
 2.7432465247e-001	 1.0445809173e+000	-5.4002112093e+000
 2.6357408681e-001	 1.0473452371e+000	-5.5371880635e+000
 2.5282622120e-001	 1.0499915651e+000	-5.6696513934e+000
 2.4208284943e-001	 1.0525204604e+000	-5.7977130214e+000
 2.3134574322e-001	 1.0549325155e+000	-5.9215032921e+000
 2.2061665158e-001	 1.0572283551e+000	-6.0411707016e+000
 2.0989730011e-001	 1.0594086357e+000	-6.1568814980e+000
 3.2515261867e-001	 1.0578244873e+000	-4.3837921075e+000
 3.1414433632e-001	 1.0611457085e+000	-4.5125444280e+000
 3.0313125724e-001	 1.0643440882e+000	-4.6370721057e+000
 2.9211530239e-001	 1.0674200555e+000	-4.7574691292e+000
 2.8109837322e-001	 1.0703740765e+000	-4.8738495140e+000
 2.7008235081e-001	 1.0732066539e+000	-4.9863470134e+000
 2.5906909513e-001	 1.0759183259e+000	-5.0951148007e+000
 2.4806044425e-001	 1.0785096656e+000	-5.2003251198e+000
 2.3705821364e-001	 1.0809812800e+000	-5.3021689078e+000
 2.2606419549e-001	 1.0833338093e+000	-5.4008553863e+000
 2.1508015803e-001	 1.0855679261e+000	-5.4966116227e+000
 3.3298799187e-001	 1.0833154388e+000	-4.0316908901e+000
 3.2171443716e-001	 1.0867166932e+000	-4.1358588503e+000
 3.1043597014e-001	 1.0899921460e+000	-4.2362575321e+000
 2.9915455805e-001	 1.0931422364e+000	-4.3330498430e+000
 2.8787214816e-001	 1.0961674420e+000	-4.4264190001e+000
 2.7659066688e-001	 1.0990682775e+000	-4.5165681995e+000
 2.6531201900e-001	 1.1018452941e+000	-4.6037202560e+000
 2.5403808688e-001	 1.1044990787e+000	-4.6881172123e+000
 2.4277072976e-001	 1.1070302529e+000	-4.7700199177e+000
 2.3151178299e-001	 1.1094394723e+000	-4.8497075764e+000
 2.2026305741e-001	 1.1117274258e+000	-4.9274772633e+000
 3.4082341404e-001	 1.1088065496e+000	-3.7326818000e+000
 3.2928458532e-001	 1.1122878377e+000	-3.8146999291e+000
 3.1774072869e-001	 1.1156403640e+000	-3.8933110462e+000
 3.0619385771e-001	 1.1188645781e+000	-3.9687559581e+000
 2.9464596544e-001	 1.1219609688e+000	-4.0412960382e+000
 2.8309902363e-001	 1.1249300628e+000	-4.1112128499e+000
 2.7155498189e-001	 1.1277724244e+000	-4.1788077391e+000
 2.6001576688e-001	 1.1304886542e+000	-4.2444013963e+000
 2.4848328157e-001	 1.1330793886e+000	-4.3083333875e+000
 2.3695940452e-001	 1.1355452985e+000	-4.3709616538e+000
 2.2544598918e-001	 1.1378870890e+000	-4.4326619787e+000
 3.4865887146e-001	 1.1342977751e+000	-3.4717489338e+000
 3.3685476754e-001	 1.1378590973e+000	-3.5340439228e+000
 3.2504552012e-001	 1.1412886975e+000	-3.5931970324e+000
 3.1323318903e-001	 1.1445870356e+000	-3.6495354081e+000
 3.0141981319e-001	 1.1477546116e+000	-3.7034070021e+000
 2.8960740966e-001	 1.1507919644e+000	-3.7551801453e+000
 2.7779797287e-001	 1.1536996713e+000	-3.8052430889e+000
 2.6599347377e-001	 1.1564783467e+000	-3.8540035161e+000
 2.5419585909e-001	 1.1591286415e+000	-3.9018880218e+000
 2.4240705058e-001	 1.1616512422e+000	-3.9493415595e+000
 2.3062894428e-001	 1.1640468699e+000	-3.9968268566e+000
 3.5649435043e-001	 1.1597890707e+000	-3.2353155695e+000
 3.4442497057e-001	 1.1634304272e+000	-3.2802957680e+000
 3.3235033162e-001	 1.1669371014e+000	-3.3222979140e+000
 3.2027253972e-001	 1.1703095637e+000	-3.3617434123e+000
 3.0819367957e-001	 1.1735483253e+000	-3.3990747024e+000
 2.9611581358e-001	 1.1766539372e+000	-3.4347547775e+000
 2.8404098101e-001	 1.1796269895e+000	-3.4692666729e+000
 2.7197119710e-001	 1.1824681106e+000	-3.5031129240e+000
 2.5990845232e-001	 1.1851779660e+000	-3.5368149925e+000
 2.4785471161e-001	 1.1877572576e+000	-3.5709126591e+000
 2.3581191362e-001	 1.1902067228e+000	-3.6059633833e+000
 3.6432983724e-001	 1.1852803918e+000	-3.0111059923e+000
 3.5199518117e-001	 1.1890017827e+000	-3.0411519110e+000
 3.3965515044e-001	 1.1925855311e+000	-3.0682779973e+000
 3.2731189744e-001	 1.1960321176e+000	-3.0930073310e+000
 3.1496755272e-001	 1.1993420648e+000	-3.1158842500e+000
 3.0262422402e-001	 1.2025159358e+000	-3.1374738144e+000
 2.9028399540e-001	 1.2055543337e+000	-3.1583612405e+000
 2.7794892640e-001	 1.2084579005e+000	-3.1791513044e+000
 2.6562105126e-001	 1.2112273166e+000	-3.2004677133e+000
 2.5330237808e-001	 1.2138632991e+000	-3.2229524426e+000
 2.4099488815e-001	 1.2163666018e+000	-3.2472650388e+000
 3.7216531816e-001	 1.2107716938e+000	-2.7880243242e+000
 3.5956538610e-001	 1.2145731190e+000	-2.8054800339e+000
 3.4695996377e-001	 1.2182339414e+000	-2.8199640991e+000
 3.3435124988e-001	 1.2217546522e+000	-2.8321081974e+000
 3.2174142079e-001	 1.2251357850e+000	-2.8425654893e+000
 3.0913262957e-001	 1.2283779150e+000	-2.8520100268e+000
 2.9652700510e-001	 1.2314816584e+000	-2.8611361337e+000
 2.8392665122e-001	 1.2344476710e+000	-2.8706577546e+000
 2.7133364591e-001	 1.2372766476e+000	-2.8813077710e+000
 2.5875004047e-001	 1.2399693210e+000	-2.8938372837e+000
 2.4617785878e-001	 1.2425264611e+000	-2.9090148585e+000
 1.9434906582e-001	 9.8093247774e-001	-8.8785713914e+000
 1.8443583512e-001	 9.8284461142e-001	-9.0579749577e+000
 1.7453474535e-001	 9.8465107850e-001	-9.2279044190e+000
 1.6464732318e-001	 9.8635257014e-001	-9.3884252043e+000
 1.5477507159e-001	 9.8794980354e-001	-9.5396197316e+000
 1.4491946945e-001	 9.8944352116e-001	-9.6815869873e+000
 1.3508197105e-001	 9.9083448984e-001	-9.8144420836e+000
 1.2526400575e-001	 9.9212350004e-001	-9.9383157949e+000
 1.1546697758e-001	 9.9331136502e-001	-1.0053354072e+001
 1.0569226494e-001	 9.9439891999e-001	-1.0159717542e+001
 9.5941220239e-002	 9.9538702132e-001	-1.0257580983e+001
 1.9953174493e-001	 1.0070908657e+000	-7.8265222906e+000
 1.8935415951e-001	 1.0090539900e+000	-7.9809251342e+000
 1.7918903878e-001	 1.0109086299e+000	-8.1268887836e+000
 1.6903795012e-001	 1.0126554949e+000	-8.2645255331e+000
 1.5890243659e-001	 1.0142953215e+000	-8.3939626177e+000
 1.4878401649e-001	 1.0158288719e+000	-8.5153417991e+000
 1.3868418291e-001	 1.0172569334e+000	-8.6288189313e+000
 1.2860440331e-001	 1.0185803174e+000	-8.7345635053e+000
 1.1854611918e-001	 1.0197998590e+000	-8.8327581753e+000
 1.0851074566e-001	 1.0209164157e+000	-8.9235982656e+000
 9.8499671221e-002	 1.0219308666e+000	-9.0072912617e+000
 2.0471449272e-001	 1.0332496003e+000	-6.9267500321e+000
 1.9427254907e-001	 1.0352637158e+000	-7.0581424595e+000
 1.8384339388e-001	 1.0371665291e+000	-7.1820277268e+000
 1.7342863523e-001	 1.0389587683e+000	-7.2985747394e+000
 1.6302985627e-001	 1.0406411886e+000	-7.4079652670e+000
 1.5264861474e-001	 1.0422145723e+000	-7.5103935281e+000
 1.4228644250e-001	 1.0436797270e+000	-7.6060657543e+000
 1.3194484514e-001	 1.0450374853e+000	-7.6951997355e+000
 1.2162530158e-001	 1.0462887040e+000	-7.7780243469e+000
 1.1132926372e-001	 1.0474342627e+000	-7.8547790586e+000
 1.0105815610e-001	 1.0484750635e+000	-7.9257134295e+000
 2.0989730011e-001	 1.0594086357e+000	-6.1568814980e+000
 1.9919099519e-001	 1.0614737431e+000	-6.2672423614e+000
 1.8849780250e-001	 1.0634247304e+000	-6.3709255353e+000
 1.7781937083e-001	 1.0652623441e+000	-6.4681657936e+000
 1.6715732342e-001	 1.0669873587e+000	-6.5592086812e+000
 1.5651325743e-001	 1.0686005761e+000	-6.6443100875e+000
 1.4588874352e-001	 1.0701028245e+000	-6.7237358020e+000
 1.3528532538e-001	 1.0714949575e+000	-6.7977610513e+000
 1.2470451939e-001	 1.0727778536e+000	-6.8666700195e+000
 1.1414781419e-001	 1.0739524147e+000	-6.9307553516e+000
 1.0361667041e-001	 1.0750195657e+000	-6.9903176427e+000
 2.1508015803e-001	 1.0855679261e+000	-5.4966116227e+000
 2.0410948927e-001	 1.0876840259e+000	-5.5878921623e+000
 1.9315225650e-001	 1.0896831877e+000	-5.6732215364e+000
 1.8221014925e-001	 1.0915661763e+000	-5.7529091924e+000
 1.7128483081e-001	 1.0933337856e+000	-5.8272732477e+000
 1.6037793781e-001	 1.0949868371e+000	-5.8966400453e+000
 1.4949107966e-001	 1.0965261796e+000	-5.9613436929e+000
 1.3862583819e-001	 1.0979526877e+000	-6.0217255847e+000
 1.2778376722e-001	 1.0992672615e+000	-6.0781339069e+000
 1.1696639215e-001	 1.1004708253e+000	-6.1309231285e+000
 1.0617520966e-001	 1.1015643267e+000	-6.1804534769e+000
 2.2026305741e-001	 1.1117274258e+000	-4.9274772633e+000
 2.0902802269e-001	 1.1138945184e+000	-5.0015864097e+000
 1.9780674774e-001	 1.1159418550e+000	-5.0703669371e+000
 1.8660096279e-001	 1.1178702190e+000	-5.1342113469e+000
 1.7541237123e-001	 1.1196804233e+000	-5.1935187129e+000
 1.6424264910e-001	 1.1213733093e+000	-5.2486942125e+000
 1.5309344462e-001	 1.1229497461e+000	-5.3001486425e+000
 1.4196637773e-001	 1.1244106295e+000	-5.3482979186e+000
 1.3086303968e-001	 1.1257568813e+000	-5.3935625598e+000
 1.1978499265e-001	 1.1269894479e+000	-5.4363671585e+000
 1.0873376937e-001	 1.1281093001e+000	-5.4771398368e+000
 2.2544598918e-001	 1.1378870890e+000	-4.4326619787e+000
 2.1394658685e-001	 1.1401051746e+000	-4.4914529356e+000
 2.0246126806e-001	 1.1422006864e+000	-4.5454322044e+000
 1.9099180377e-001	 1.1441744261e+000	-4.5950833200e+000
 1.7953993743e-001	 1.1460272257e+000	-4.6408943071e+000
 1.6810738454e-001	 1.1477599464e+000	-4.6833571811e+000
 1.5669583209e-001	 1.1493734777e+000	-4.7229674339e+000
 1.4530693814e-001	 1.1508687367e+000	-4.7602235058e+000
 1.3394233139e-001	 1.1522466666e+000	-4.7956262417e+000
 1.2260361077e-001	 1.1535082364e+000	-4.8296783350e+000
 1.1129234508e-001	 1.1546544394e+000	-4.8628837576e+000
 2.3062894428e-001	 1.1640468699e+000	-3.9968268566e+000
 2.1886517314e-001	 1.1663159489e+000	-4.0420848134e+000
 2.0711580933e-001	 1.1684596360e+000	-4.0829401865e+000
 1.9538266450e-001	 1.1704787516e+000	-4.1199751427e+000
 1.8366752221e-001	 1.1723741466e+000	-4.1537742819e+000
 1.7197213737e-001	 1.1741467021e+000	-4.1849241031e+000
 1.6029823577e-001	 1.1757973282e+000	-4.2140124556e+000
 1.4864751358e-001	 1.1773269629e+000	-4.2416279767e+000
 1.3702163695e-001	 1.1787365711e+000	-4.2683595157e+000
 1.2542224157e-001	 1.1800271441e+000	-4.2947955440e+000
 1.1385093230e-001	 1.1811996981e+000	-4.3215235537e+000
 2.3581191362e-001	 1.1902067228e+000	-3.6059633833e+000
 2.2378377296e-001	 1.1925267952e+000	-3.6393942289e+000
 2.1177036340e-001	 1.1947186578e+000	-3.6687210166e+000
 1.9977353732e-001	 1.1967831493e+000	-3.6946317756e+000
 1.8779511834e-001	 1.1987211399e+000	-3.7178149508e+000
 1.7583690083e-001	 1.2005335305e+000	-3.7389588288e+000
 1.6390064935e-001	 1.2022212514e+000	-3.7587509508e+000
 1.5198809821e-001	 1.2037852618e+000	-3.7778775108e+000
 1.4010095098e-001	 1.2052265485e+000	-3.7970227424e+000
 1.2824088012e-001	 1.2065461248e+000	-3.8168682907e+000
 1.1640952656e-001	 1.2077450298e+000	-3.8380925726e+000
 2.4099488815e-001	 1.2163666018e+000	-3.2472650388e+000
 2.2870237769e-001	 1.2187376677e+000	-3.2704849689e+000
 2.1642492212e-001	 1.2209777059e+000	-3.2897855192e+000
 2.0416441451e-001	 1.2230875734e+000	-3.3059674564e+000
 1.9192271859e-001	 1.2250681596e+000	-3.3198299969e+000
 1.7970166815e-001	 1.2269203852e+000	-3.3321701897e+000
 1.6750306654e-001	 1.2286452010e+000	-3.3437822868e+000
 1.5532868618e-001	 1.2302435872e+000	-3.3554570994e+000
 1.4318026809e-001	 1.2317165523e+000	-3.3679813416e+000
 1.3105952148e-001	 1.2330651319e+000	-3.3821369601e+000
 1.1896812337e-001	 1.2342903880e+000	-3.3987004521e+000
 2.4617785878e-001	 1.2425264611e+000	-2.9090148585e+000
 2.3362097874e-001	 1.2449485205e+000	-2.9235407828e+000
 2.2107947735e-001	 1.2472367342e+000	-2.9342143955e+000
 2.0855528842e-001	 1.2493919777e+000	-2.9419557276e+000
 1.9605031575e-001	 1.2514151596e+000	-2.9476813583e+000
 1.8356643257e-001	 1.2533072201e+000	-2.9523037534e+000
 1.7110548102e-001	 1.2550691308e+000	-2.9567305896e+000
 1.5866927164e-001	 1.2567018928e+000	-2.9618640659e+000
 1.4625958289e-001	 1.2582065363e+000	-2.9686002005e+000
 1.3387816074e-001	 1.2595841192e+000	-2.9778281146e+000
 1.2152671826e-001	 1.2608357263e+000	-2.9904293026e+000
 9.5941220239e-002	 9.9538702132e-001	-1.0257580983e+001
 8.6213715910e-002	 9.9627667181e-001	-1.0347457086e+001
 7.6512533521e-002	 9.9706861257e-001	-1.0429703816e+001
 6.6838966101e-002	 9.9776375910e-001	-1.0504304057e+001
 5.7194279111e-002	 9.9836304482e-001	-1.0571224764e+001
 4.7579710273e-002	 9.9886742018e-001	-1.0630417510e+001
 3.7996469419e-002	 9.9927785191e-001	-1.0681819006e+001
 2.8445738363e-002	 9.9959532214e-001	-1.0725351649e+001
 1.8928670806e-002	 9.9982082766e-001	-1.0760924044e+001
 9.4463922618e-003	 9.9995537907e-001	-1.0788431542e+001
 0.0000000000e+000	 1.0000000000e+000	-1.0807756768e+001
 9.8499671221e-002	 1.0219308666e+000	-9.0072912617e+000
 8.8512764906e-002	 1.0228442412e+000	-9.0834225284e+000
 7.8552882455e-002	 1.0236573006e+000	-9.1514668402e+000
 6.8621351376e-002	 1.0243709845e+000	-9.2115027826e+000
 5.8719470879e-002	 1.0249862513e+000	-9.2635985965e+000
 4.8848511690e-002	 1.0255040767e+000	-9.3078124336e+000
 3.9009715904e-002	 1.0259254534e+000	-9.3441926095e+000
 2.9204296851e-002	 1.0262513896e+000	-9.3727778549e+000
 1.9433438997e-002	 1.0264829086e+000	-9.3935975650e+000
 9.6982978697e-003	 1.0266210481e+000	-9.4066720467e+000
 0.0000000000e+000	 1.0266668589e+000	-9.4120151865e+000
 1.0105815610e-001	 1.0484750635e+000	-7.9257134295e+000
 9.0811844365e-002	 1.0494121627e+000	-7.9897624853e+000
 8.0593258423e-002	 1.0502463409e+000	-8.0457864322e+000
 7.0403760268e-002	 1.0509785624e+000	-8.0939556949e+000
 6.0244682856e-002	 1.0516098105e+000	-8.1344343034e+000
 5.0117329919e-002	 1.0521410862e+000	-8.1673799168e+000
 4.0022975815e-002	 1.0525734079e+000	-8.1929438449e+000
 2.9962865390e-002	 1.0529078102e+000	-8.2112710660e+000
 1.9938213876e-002	 1.0531453428e+000	-8.2225002423e+000
 9.9502068155e-003	 1.0532870704e+000	-8.2267637334e+000
 0.0000000000e+000	 1.0533340711e+000	-8.2241899236e+000
 1.0361667041e-001	 1.0750195657e+000	-6.9903176427e+000
 9.3110950263e-002	 1.0759803897e+000	-7.0438550248e+000
 8.2633657856e-002	 1.0768356869e+000	-7.0898190092e+000
 7.2186189658e-002	 1.0775864463e+000	-7.1284688513e+000
 6.1769912372e-002	 1.0782336758e+000	-7.1600598262e+000
 5.1386162739e-002	 1.0787784020e+000	-7.1848430683e+000
 4.1036247378e-002	 1.0792216689e+000	-7.2030654067e+000
 3.0721442652e-002	 1.0795645373e+000	-7.2149691967e+000
 2.0442994561e-002	 1.0798080836e+000	-7.2207921490e+000
 1.0202118658e-002	 1.0799533994e+000	-7.2207671563e+000
 0.0000000000e+000	 1.0800015900e+000	-7.2151242187e+000
 1.0617520966e-001	 1.1015643267e+000	-6.1804534769e+000
 9.5410078577e-002	 1.1025488757e+000	-6.2249422152e+000
 8.4674077182e-002	 1.1034252923e+000	-6.2625813379e+000
 7.3968636427e-002	 1.1041945896e+000	-6.2937166992e+000
 6.3295156760e-002	 1.1048578008e+000	-6.3186911405e+000
 5.2655007930e-002	 1.1054159776e+000	-6.3378441890e+000
 4.2049528821e-002	 1.1058701898e+000	-6.3515117508e+000
 3.1480027311e-002	 1.1062215244e+000	-6.3600258005e+000
 2.0947780166e-002	 1.1064710844e+000	-6.3637140692e+000
 1.0454032957e-002	 1.1066199883e+000	-6.3628997293e+000
 0.0000000000e+000	 1.1066693690e+000	-6.3579028841e+000
 1.0873376937e-001	 1.1281093001e+000	-5.4771398368e+000
 9.7709225283e-002	 1.1291175742e+000	-5.5139209929e+000
 8.6714512831e-002	 1.1300151103e+000	-5.5447409275e+000
 7.5751097454e-002	 1.1308029458e+000	-5.5700305690e+000
 6.4820413349e-002	 1.1314821387e+000	-5.5902174352e+000
 5.3923863272e-002	 1.1320537662e+000	-5.6057252309e+000
 4.3062818369e-002	 1.1325189238e+000	-5.6169734409e+000
 3.2238618038e-002	 1.1328787247e+000	-5.6243769210e+000
 2.1452569810e-002	 1.1331342985e+000	-5.6283454856e+000
 1.0705949271e-002	 1.1332867906e+000	-5.6292834948e+000
 0.0000000000e+000	 1.1333373612e+000	-5.6275909052e+000
 1.1129234508e-001	 1.1546544394e+000	-4.8628837576e+000
 1.0000838636e-001	 1.1556864388e+000	-4.8931628039e+000
 8.8754961232e-002	 1.1566050945e+000	-4.9184352751e+000
 7.7533569621e-002	 1.1574114683e+000	-4.9392162944e+000
 6.6345679470e-002	 1.1581066431e+000	-4.9560158856e+000
 5.5192726543e-002	 1.1586917213e+000	-4.9693385098e+000
 4.4076114251e-002	 1.1591678243e+000	-4.9796825992e+000
 3.2997213506e-002	 1.1595360916e+000	-4.9875400871e+000
 2.1957362609e-002	 1.1597976792e+000	-4.9933959377e+000
 1.0957867160e-002	 1.1599537596e+000	-4.9977276759e+000
 0.0000000000e+000	 1.1600055201e+000	-5.0010060268e+000
 1.1385093230e-001	 1.1811996981e+000	-4.3215235537e+000
 1.0230755778e-001	 1.1822554230e+000	-4.3463574940e+000
 9.0795418814e-002	 1.1831951983e+000	-4.3671154270e+000
 7.9316049809e-002	 1.1840201105e+000	-4.3843963784e+000
 6.7870952455e-002	 1.1847312672e+000	-4.3987913667e+000
 5.6461595524e-002	 1.1853297962e+000	-4.4108829167e+000
 4.5089414691e-002	 1.1858168448e+000	-4.4212445708e+000
 3.3755812387e-002	 1.1861935784e+000	-4.4304403983e+000
 2.2462157679e-002	 1.1864611799e+000	-4.4390245047e+000
 1.1209786182e-002	 1.1866208486e+000	-4.4475405422e+000
 0.0000000000e+000	 1.1866737990e+000	-4.4565219977e+000
 1.1640952656e-001	 1.2077450298e+000	-3.8380925726e+000
 1.0460673552e-001	 1.2088244802e+000	-3.8583777212e+000
 9.2835882007e-002	 1.2097853753e+000	-3.8754101168e+000
 8.1098534898e-002	 1.2106288259e+000	-3.8898729325e+000
 6.9396229633e-002	 1.2113559645e+000	-3.9024372734e+000
 5.7730467994e-002	 1.2119679444e+000	-3.9137617038e+000
 4.6102717918e-002	 1.2124659385e+000	-3.9244917720e+000
 3.4514413354e-002	 1.2128511386e+000	-3.9352595357e+000
 2.2966954137e-002	 1.2131247539e+000	-3.9466830875e+000
 1.1461705896e-002	 1.2132880108e+000	-3.9593660831e+000
 0.0000000000e+000	 1.2133421513e+000	-3.9738977593e+000
 1.1896812337e-001	 1.2342903880e+000	-3.3987004521e+000
 1.0690591556e-001	 1.2353935640e+000	-3.4151607984e+000
 9.4876347240e-002	 1.2363755789e+000	-3.4290073837e+000
 8.2881021769e-002	 1.2372375679e+000	-3.4410082621e+000
 7.0921508337e-002	 1.2379806885e+000	-3.4519142705e+000
 5.8999341732e-002	 1.2386061193e+000	-3.4624586027e+000
 4.7116022158e-002	 1.2391150589e+000	-3.4733563843e+000
 3.5273015080e-002	 1.2395087254e+000	-3.4853042480e+000
 2.3471751099e-002	 1.2397883546e+000	-3.4989799108e+000
 1.1713625863e-002	 1.2399551998e+000	-3.5150417551e+000
 0.0000000000e+000	 1.2400105302e+000	-3.5341286762e+000
 1.2152671826e-001	 1.2608357263e+000	-2.9904293026e+000
 1.0920509388e-001	 1.2619626278e+000	-3.0036054030e+000
 9.6916810941e-002	 1.2629657625e+000	-3.0145510967e+000
 8.4663507302e-002	 1.2638462899e+000	-3.0241204993e+000
 7.2446785896e-002	 1.2646053925e+000	-3.0331443308e+000
 6.0268214518e-002	 1.2652442741e+000	-3.0424295711e+000
 4.8129325638e-002	 1.2657641593e+000	-3.0527591176e+000
 3.6031616237e-002	 1.2661662922e+000	-3.0648914444e+000
 2.3976547683e-002	 1.2664519353e+000	-3.0795602653e+000
 1.1965545641e-002	 1.2666223687e+000	-3.0974742002e+000
 0.0000000000e+000	 1.2666788891e+000	-3.1193165606e+000
 1.2666788891e+000	 0.0000000000e+000	 3.6640924749e+000
 1.2666223687e+000	 1.1965545641e-002	 3.6544922117e+000
 1.2664519353e+000	 2.3976547683e-002	 3.6447118868e+000
 1.2661662922e+000	 3.6031616237e-002	 3.6344762370e+000
 1.2657641593e+000	 4.8129325638e-002	 3.6235118700e+000
 1.2652442741e+000	 6.0268214518e-002	 3.6115473050e+000
 1.2646053925e+000	 7.2446785896e-002	 3.5983129654e+000
 1.2638462899e+000	 8.4663507302e-002	 3.5835411173e+000
 1.2629657625e+000	 9.6916810941e-002	 3.5669657507e+000
 1.2619626278e+000	 1.0920509388e-001	 3.5483224054e+000
 1.2608357263e+000	 1.2152671826e-001	 3.5273479392e+000
 1.2933431901e+000	 0.0000000000e+000	 3.6680469835e+000
 1.2932854800e+000	 1.2217427086e-002	 3.6583318036e+000
 1.2931114588e+000	 2.4481267458e-002	 3.6481619101e+000
 1.2928198028e+000	 3.6790101965e-002	 3.6372528255e+000
 1.2924092048e+000	 4.9142474935e-002	 3.6253222807e+000
 1.2918783757e+000	 6.1536894235e-002	 3.6120902266e+000
 1.2912260453e+000	 7.3971831370e-002	 3.5972787861e+000
 1.2904509632e+000	 8.6445721615e-002	 3.5806121427e+000
 1.2895519001e+000	 9.8956964168e-002	 3.5618163654e+000
 1.2885276489e+000	 1.1150392235e-001	 3.5406191689e+000
 1.2873770255e+000	 1.2408492384e-001	 3.5167496087e+000
 1.3200074312e+000	 0.0000000000e+000	 3.6774778184e+000
 1.3199485313e+000	 1.2469307965e-002	 3.6705562536e+000
 1.3197709224e+000	 2.4985986097e-002	 3.6627645606e+000
 1.3194732534e+000	 3.7548585987e-002	 3.6537966597e+000
 1.3190541903e+000	 5.0155621952e-002	 3.6433494871e+000
 1.3185124174e+000	 6.2805571096e-002	 3.6311229986e+000
 1.3178466382e+000	 7.5496873414e-002	 3.6168201026e+000
 1.3170555766e+000	 8.8227931917e-002	 3.6001465216e+000
 1.3161379780e+000	 1.0099711281e-001	 3.5808105801e+000
 1.3150926103e+000	 1.1380274566e-001	 3.5585229199e+000
 1.3139182650e+000	 1.2664312367e-001	 3.5329961413e+000
 1.3466716190e+000	 0.0000000000e+000	 3.6882262177e+000
 1.3466115292e+000	 1.2721188341e-002	 3.6864280149e+000
 1.3464303327e+000	 2.5490703727e-002	 3.6832522902e+000
 1.3461266508e+000	 3.8307068493e-002	 3.6783788944e+000
 1.3456991226e+000	 5.1168766943e-002	 3.6714882964e+000
 1.3451464058e+000	 6.4074245421e-002	 3.6622608869e+000
 1.3444671778e+000	 7.7021912407e-002	 3.6503763483e+000
 1.3436601368e+000	 9.0010138656e-002	 3.6355130952e+000
 1.3427240027e+000	 1.0303725736e-001	 3.6173477841e+000
 1.3416575185e+000	 1.1610156436e-001	 3.5955548946e+000
 1.3404594514e+000	 1.2920131837e-001	 3.5698063805e+000
 1.3733357600e+000	 0.0000000000e+000	 3.7013479890e+000
 1.3732744805e+000	 1.2973068276e-002	 3.7042324594e+000
 1.3730896963e+000	 2.5995420473e-002	 3.7053003826e+000
 1.3727800015e+000	 3.9065549671e-002	 3.7042284172e+000
 1.3723440082e+000	 5.2181910162e-002	 3.7006904979e+000
 1.3717803477e+000	 6.5342917526e-002	 3.6943571237e+000
 1.3710876709e+000	 7.8546948732e-002	 3.6848947348e+000
 1.3702646504e+000	 9.1792342276e-002	 3.6719651788e+000
 1.3693099808e+000	 1.0507739835e-001	 3.6552252676e+000
 1.3682223803e+000	 1.1840037905e-001	 3.6343264243e+000
 1.3670005914e+000	 1.3175950861e-001	 3.6089144217e+000
 1.3999998611e+000	 0.0000000000e+000	 3.7162467053e+000
 1.3999373918e+000	 1.3224947833e-002	 3.7225683749e+000
 1.3997490199e+000	 2.6500136463e-002	 3.7267525986e+000
 1.3994333122e+000	 3.9824029712e-002	 3.7284642891e+000
 1.3989888539e+000	 5.3195051861e-002	 3.7273619608e+000
 1.3984142495e+000	 6.6611587728e-002	 3.7230970324e+000
 1.3977081241e+000	 8.0071982770e-002	 3.7153132403e+000
 1.3968691242e+000	 9.3574543223e-002	 3.7036461648e+000
 1.3958959191e+000	 1.0711753628e-001	 3.6877228698e+000
 1.3947872022e+000	 1.2069919028e-001	 3.6671616565e+000
 1.3935416916e+000	 1.3431769500e-001	 3.6415719289e+000
 1.4266639289e+000	 0.0000000000e+000	 3.7319229098e+000
 1.4266002698e+000	 1.3476827075e-002	 3.7400507776e+000
 1.4264083102e+000	 2.7004851823e-002	 3.7458751087e+000
 1.4260865896e+000	 4.0582508805e-002	 3.7490408184e+000
 1.4256336662e+000	 5.4208192294e-002	 3.7491823627e+000
 1.4250481181e+000	 6.7880256345e-002	 3.7459230835e+000
 1.4243285440e+000	 8.1597014902e-002	 3.7388746913e+000
 1.4234735646e+000	 9.5356741943e-002	 3.7276368862e+000
 1.4224818242e+000	 1.0915767165e-001	 3.7117971186e+000
 1.4213519908e+000	 1.2299799864e-001	 3.6909304896e+000
 1.4200827586e+000	 1.3687587820e-001	 3.6645997891e+000
 1.4533279700e+000	 0.0000000000e+000	 3.7475680247e+000
 1.4532631212e+000	 1.3728706065e-002	 3.7554977783e+000
 1.4530675738e+000	 2.7509566677e-002	 3.7611488320e+000
 1.4527398403e+000	 4.1340987140e-002	 3.7641380700e+000
 1.4522784520e+000	 5.5221331714e-002	 3.7640674121e+000
 1.4516819601e+000	 6.9148923693e-002	 3.7605232323e+000
 1.4509489372e+000	 8.3122045509e-002	 3.7530759424e+000
 1.4500779785e+000	 9.7138938881e-002	 3.7412797457e+000
 1.4490677026e+000	 1.1119780499e-001	 3.7246725583e+000
 1.4479167530e+000	 1.2529680471e-001	 3.7027760994e+000
 1.4466237990e+000	 1.3943405884e-001	 3.6750961477e+000
 1.4799919911e+000	 0.0000000000e+000	 3.7625471600e+000
 1.4799259525e+000	 1.3980584867e-002	 3.7679120316e+000
 1.4797268175e+000	 2.8014281154e-002	 3.7712496530e+000
 1.4793930711e+000	 4.2099464907e-002	 3.7721409787e+000
 1.4789232177e+000	 5.6234470375e-002	 3.7701469912e+000
 1.4783157820e+000	 7.0417590090e-002	 3.7648082223e+000
 1.4775693105e+000	 8.4647074973e-002	 3.7556444750e+000
 1.4766823725e+000	 9.8921134482e-002	 3.7421547461e+000
 1.4756535611e+000	 1.1323793680e-001	 3.7238173514e+000
 1.4744814952e+000	 1.2759560905e-001	 3.7000902508e+000
 1.4731648196e+000	 1.4199223756e-001	 3.6704115719e+000
 1.5066559989e+000	 0.0000000000e+000	 3.7763837492e+000
 1.5065887705e+000	 1.4232463543e-002	 3.7764641568e+000
 1.5063860478e+000	 2.8518995379e-002	 3.7750307414e+000
 1.5060462885e+000	 4.2857942294e-002	 3.7716206840e+000
 1.5055679701e+000	 5.7247608530e-002	 3.7657456208e+000
 1.5049495907e+000	 7.1686255854e-002	 3.7568913012e+000
 1.5041896705e+000	 8.6172103675e-002	 3.7445174837e+000
 1.5032867531e+000	 1.0070332919e-001	 3.7280580688e+000
 1.5022394064e+000	 1.1527806759e-001	 3.7069214713e+000
 1.5010462241e+000	 1.2989441224e-001	 3.6804912290e+000
 1.4997058268e+000	 1.4455041500e-001	 3.6481268445e+000
 1.5333200000e+000	 0.0000000000e+000	 3.7887457880e+000
 1.5332515818e+000	 1.4484342157e-002	 3.7804778883e+000
 1.5330452715e+000	 2.9023709478e-002	 3.7715067174e+000
 1.5326994993e+000	 4.3616419493e-002	 3.7613178129e+000
 1.5322127159e+000	 5.8260746432e-002	 3.7493649671e+000
 1.5315833927e+000	 7.2954921301e-002	 3.7350700561e+000
 1.5308100238e+000	 8.7697131996e-002	 3.7178231480e+000
 1.5298911271e+000	 1.0248552346e-001	 3.6969828893e+000
 1.5288252450e+000	 1.1731819787e-001	 3.6718771712e+000
 1.5276109464e+000	 1.3219321486e-001	 3.6418040718e+000
 1.5262468275e+000	 1.4710859180e-001	 3.6060330714e+000
 1.2608357263e+000	 1.2152671826e-001	 3.5273479392e+000
 1.2595841192e+000	 1.3387816074e-001	 3.5049290911e+000
 1.2582065363e+000	 1.4625958289e-001	 3.4819314351e+000
 1.2567018928e+000	 1.5866927164e-001	 3.4580739669e+000
 1.2550691308e+000	 1.7110548102e-001	 3.4330795849e+000
 1.2533072201e+000	 1.8356643257e-001	 3.4066748258e+000
 1.2514151596e+000	 1.9605031575e-001	 3.3785895526e+000
 1.2493919777e+000	 2.0855528842e-001	 3.3485565979e+000
 1.2472367342e+000	 2.2107947735e-001	 3.3163113662e+000
 1.2449485205e+000	 2.3362097874e-001	 3.2815913981e+000
 1.2425264611e+000	 2.4617785878e-001	 3.2441359002e+000
 1.2873770255e+000	 1.2408492384e-001	 3.5167496087e+000
 1.2860990714e+000	 1.3669637111e-001	 3.4912418357e+000
 1.2846924896e+000	 1.4933842914e-001	 3.4650973585e+000
 1.2831561725e+000	 1.6200934880e-001	 3.4380120708e+000
 1.2814890399e+000	 1.7470734737e-001	 3.4096864881e+000
 1.2796900401e+000	 1.8743060893e-001	 3.3798254334e+000
 1.2777581506e+000	 2.0017728485e-001	 3.3481376682e+000
 1.2756923796e+000	 2.1294549421e-001	 3.3143354742e+000
 1.2734917670e+000	 2.2573332434e-001	 3.2781341865e+000
 1.2711553851e+000	 2.3853883137e-001	 3.2392516846e+000
 1.2686823400e+000	 2.5136004078e-001	 3.1974078443e+000
 1.3139182650e+000	 1.2664312367e-001	 3.5329961413e+000
 1.3126139639e+000	 1.3951457514e-001	 3.5054341621e+000
 1.3111783833e+000	 1.5241726847e-001	 3.4770056005e+000
 1.3096103927e+000	 1.6534941845e-001	 3.4473881539e+000
 1.3079088896e+000	 1.7830920561e-001	 3.4162653574e+000
 1.3060728006e+000	 1.9129477660e-001	 3.3833262109e+000
 1.3041010823e+000	 2.0430424467e-001	 3.3482647443e+000
 1.3019927223e+000	 2.1733569013e-001	 3.3107795257e+000
 1.2997467407e+000	 2.3038716087e-001	 3.2705731149e+000
 1.2973621908e+000	 2.4345667294e-001	 3.2273514669e+000
 1.2948381601e+000	 2.5654221113e-001	 3.1808232916e+000
 1.3404594514e+000	 1.2920131837e-001	 3.5698063805e+000
 1.3391288034e+000	 1.4233277354e-001	 3.5414691331e+000
 1.3376642240e+000	 1.5549610164e-001	 3.5118753295e+000
 1.3360645600e+000	 1.6868948142e-001	 3.4806577806e+000
 1.3343286865e+000	 1.8191105664e-001	 3.4474528073e+000
 1.3324555085e+000	 1.9515893654e-001	 3.4119134752e+000
 1.3304439613e+000	 2.0843119624e-001	 3.3737976959e+000
 1.3282930124e+000	 2.2172587726e-001	 3.3328157877e+000
 1.3260016620e+000	 2.3504098809e-001	 3.2886649826e+000
 1.3235689440e+000	 2.4837450467e-001	 3.2410471976e+000
 1.3209939278e+000	 2.6172437110e-001	 3.1896682854e+000
 1.3670005914e+000	 1.3175950861e-001	 3.6089144217e+000
 1.3656435965e+000	 1.4515096700e-001	 3.5805498001e+000
 1.3641500184e+000	 1.5857492942e-001	 3.5507672023e+000
 1.3625186809e+000	 1.7202953854e-001	 3.5191825790e+000
 1.3607484371e+000	 1.8551290138e-001	 3.4854133851e+000
 1.3588381701e+000	 1.9902308972e-001	 3.4490790640e+000
 1.3567867943e+000	 2.1255814058e-001	 3.4098015967e+000
 1.3545932565e+000	 2.2611605672e-001	 3.3672061048e+000
 1.3522565372e+000	 2.3969480716e-001	 3.3209215011e+000
 1.3497756514e+000	 2.5329232780e-001	 3.2705811749e+000
 1.3471496498e+000	 2.6690652201e-001	 3.2158237033e+000
 1.3935416916e+000	 1.3431769500e-001	 3.6415719289e+000
 1.3921583499e+000	 1.4796915623e-001	 3.6127058284e+000
 1.3906357731e+000	 1.6165375258e-001	 3.5823047086e+000
 1.3889727622e+000	 1.7536959065e-001	 3.5499669933e+000
 1.3871681481e+000	 1.8911474071e-001	 3.5152905229e+000
 1.3852207922e+000	 2.0288723710e-001	 3.4778732430e+000
 1.3831295877e+000	 2.1668507874e-001	 3.4373139713e+000
 1.3808934612e+000	 2.3050622959e-001	 3.3932132341e+000
 1.3785113731e+000	 2.4434861925e-001	 3.3451741603e+000
 1.3759823195e+000	 2.5821014355e-001	 3.2928034221e+000
 1.3733053326e+000	 2.7208866515e-001	 3.2357122097e+000
 1.4200827586e+000	 1.3687587820e-001	 3.6645997891e+000
 1.4186730700e+000	 1.5078734195e-001	 3.6347402481e+000
 1.4171214946e+000	 1.6473257189e-001	 3.6032972707e+000
 1.4154268105e+000	 1.7870963858e-001	 3.5698503166e+000
 1.4135878261e+000	 1.9271657554e-001	 3.5339760616e+000
 1.4116033813e+000	 2.0675137966e-001	 3.4952493260e+000
 1.4094723482e+000	 2.2081201173e-001	 3.4532440972e+000
 1.4071936330e+000	 2.3489639697e-001	 3.4075346373e+000
 1.4047661762e+000	 2.4900242552e-001	 3.3576966626e+000
 1.4021889548e+000	 2.6312795315e-001	 3.3033085792e+000
 1.3994609826e+000	 2.7727080181e-001	 3.2439527630e+000
 1.4466237990e+000	 1.3943405884e-001	 3.6750961477e+000
 1.4451877637e+000	 1.5360552484e-001	 3.6437364223e+000
 1.4436071897e+000	 1.6781138813e-001	 3.6108372131e+000
 1.4418808323e+000	 1.8204968318e-001	 3.5759567596e+000
 1.4400074777e+000	 1.9631840676e-001	 3.5386481713e+000
 1.4379859440e+000	 2.1061551834e-001	 3.4984606346e+000
 1.4358150824e+000	 2.2493894060e-001	 3.4549407338e+000
 1.4334937784e+000	 2.3928655996e-001	 3.4076338728e+000
 1.4310209530e+000	 2.5365622715e-001	 3.3560857827e+000
 1.4283955639e+000	 2.6804575784e-001	 3.2998440998e+000
 1.4256166065e+000	 2.8245293328e-001	 3.2384599944e+000
 1.4731648196e+000	 1.4199223756e-001	 3.6704115719e+000
 1.4717024375e+000	 1.5642370563e-001	 3.6370331614e+000
 1.4700928649e+000	 1.7089020205e-001	 3.6022748870e+000
 1.4683348342e+000	 1.8538972527e-001	 3.5656706396e+000
 1.4664271094e+000	 1.9992023529e-001	 3.5267466558e+000
 1.4643684869e+000	 2.1447965413e-001	 3.4850230474e+000
 1.4621577968e+000	 2.2906586638e-001	 3.4400154659e+000
 1.4597939042e+000	 2.4367671966e-001	 3.3912368861e+000
 1.4572757102e+000	 2.5831002528e-001	 3.3381994907e+000
 1.4546021534e+000	 2.7296355883e-001	 3.2804166386e+000
 1.4517722108e+000	 2.8763506087e-001	 3.2174048952e+000
 1.4997058268e+000	 1.4455041500e-001	 3.6481268445e+000
 1.4982170980e+000	 1.5924188500e-001	 3.6122024704e+000
 1.4965785268e+000	 1.7396901444e-001	 3.5751964191e+000
 1.4947888229e+000	 1.8872976570e-001	 3.5366141775e+000
 1.4928467280e+000	 2.0352206201e-001	 3.4959508431e+000
 1.4907510167e+000	 2.1834378799e-001	 3.4526930251e+000
 1.4885004981e+000	 2.3319279009e-001	 3.4063209027e+000
 1.4860940168e+000	 2.4806687716e-001	 3.3563104212e+000
 1.4835304542e+000	 2.6296382108e-001	 3.3021356078e+000
 1.4808087297e+000	 2.7788135737e-001	 3.2432709849e+000
 1.4779278020e+000	 2.9281718587e-001	 3.1791940561e+000
 1.5262468275e+000	 1.4710859180e-001	 3.6060330714e+000
 1.5247317519e+000	 1.6206006367e-001	 3.5670296064e+000
 1.5230641822e+000	 1.7704782606e-001	 3.5274037639e+000
 1.5212428050e+000	 1.9206980528e-001	 3.4866275852e+000
 1.5192663399e+000	 2.0712388784e-001	 3.4441597459e+000
 1.5171335398e+000	 2.2220792089e-001	 3.3994478805e+000
 1.5148431927e+000	 2.3731971277e-001	 3.3519310887e+000
 1.5123941228e+000	 2.5245703357e-001	 3.3010426021e+000
 1.5097851916e+000	 2.6761761573e-001	 3.2462125882e+000
 1.5070152995e+000	 2.8279915468e-001	 3.1868710683e+000
 1.5040833867e+000	 2.9799930958e-001	 3.1224509202e+000
 1.2425264611e+000	 2.4617785878e-001	 3.2441359002e+000
 1.2399693210e+000	 2.5875004047e-001	 3.2048940006e+000
 1.2372766476e+000	 2.7133364591e-001	 3.1648705570e+000
 1.2344476710e+000	 2.8392665122e-001	 3.1238756869e+000
 1.2314816584e+000	 2.9652700510e-001	 3.0817242445e+000
 1.2283779150e+000	 3.0913262957e-001	 3.0382352712e+000
 1.2251357850e+000	 3.2174142079e-001	 2.9932314342e+000
 1.2217546522e+000	 3.3435124988e-001	 2.9465384605e+000
 1.2182339414e+000	 3.4695996377e-001	 2.8979845735e+000
 1.2145731190e+000	 3.5956538610e-001	 2.8473999375e+000
 1.2107716938e+000	 3.7216531816e-001	 2.7946161189e+000
 1.2686823400e+000	 2.5136004078e-001	 3.1974078443e+000
 1.2660713707e+000	 2.6419687395e-001	 3.1536764801e+000
 1.2633220150e+000	 2.7704537134e-001	 3.1091928337e+000
 1.2604334868e+000	 2.8990346648e-001	 3.0637546922e+000
 1.2574050380e+000	 3.0276906487e-001	 3.0171648826e+000
 1.2542359591e+000	 3.1564004480e-001	 2.9692306249e+000
 1.2509255804e+000	 3.2851425815e-001	 2.9197628727e+000
 1.2474732729e+000	 3.4138953122e-001	 2.8685756495e+000
 1.2438784492e+000	 3.5426366561e-001	 2.8154853871e+000
 1.2401405644e+000	 3.6713443915e-001	 2.7603102737e+000
 1.2362591171e+000	 3.7999960685e-001	 2.7028696212e+000
 1.2948381601e+000	 2.5654221113e-001	 3.1808232916e+000
 1.2921733617e+000	 2.6964369517e-001	 3.1322005557e+000
 1.2893673238e+000	 2.8275708392e-001	 3.0827640691e+000
 1.2864192442e+000	 2.9588026828e-001	 3.0323103776e+000
 1.2833283593e+000	 3.0901111059e-001	 2.9806416079e+000
 1.2800939450e+000	 3.2214744540e-001	 2.9275646983e+000
 1.2767153178e+000	 3.3528708028e-001	 2.8728906147e+000
 1.2731918357e+000	 3.4842779672e-001	 2.8164335617e+000
 1.2695228992e+000	 3.6156735101e-001	 2.7580101950e+000
 1.2657079522e+000	 3.7470347516e-001	 2.6974388460e+000
 1.2617464830e+000	 3.8783387790e-001	 2.6345387657e+000
 1.3209939278e+000	 2.6172437110e-001	 3.1896682854e+000
 1.3182753004e+000	 2.7509050550e-001	 3.1358886507e+000
 1.3154125805e+000	 2.8846878507e-001	 3.0811465406e+000
 1.3124049496e+000	 3.0185705814e-001	 3.0252483408e+000
 1.3092516287e+000	 3.1525314384e-001	 2.9680067896e+000
 1.3059518792e+000	 3.2865483298e-001	 2.9092400589e+000
 1.3025050036e+000	 3.4205988886e-001	 2.8487708181e+000
 1.2989103471e+000	 3.5546604815e-001	 2.7864252914e+000
 1.2951672980e+000	 3.6887102181e-001	 2.7220323152e+000
 1.2912752890e+000	 3.8227249605e-001	 2.6554224092e+000
 1.2872337979e+000	 3.9566813330e-001	 2.5864268677e+000
 1.3471496498e+000	 2.6690652201e-001	 3.2158237033e+000
 1.3443771935e+000	 2.8053730629e-001	 3.1580939144e+000
 1.3414577916e+000	 2.9418047623e-001	 3.0989274910e+000
 1.3383906095e+000	 3.0783383753e-001	 3.0380878941e+000
 1.3351748528e+000	 3.2149516616e-001	 2.9753524002e+000
 1.3318097681e+000	 3.3516220917e-001	 2.9105549585e+000
 1.3282946443e+000	 3.4883268559e-001	 2.8438433409e+000
 1.3246288135e+000	 3.6250428726e-001	 2.7751354636e+000
 1.3208116519e+000	 3.7617467983e-001	 2.7042842931e+000
 1.3168425809e+000	 3.8984150368e-001	 2.6311445597e+000
 1.3127210682e+000	 4.0350237498e-001	 2.5555716671e+000
 1.3733053326e+000	 2.7208866515e-001	 3.2357122097e+000
 1.3704790474e+000	 2.8598409892e-001	 3.1754624320e+000
 1.3675029637e+000	 2.9989215883e-001	 3.1137160217e+000
 1.3643762305e+000	 3.1381060796e-001	 3.0502214076e+000
 1.3610980380e+000	 3.2773717911e-001	 2.9847411201e+000
 1.3576676183e+000	 3.4166957560e-001	 2.9170526504e+000
 1.3540842463e+000	 3.5560547216e-001	 2.8469492391e+000
 1.3503472413e+000	 3.6954251581e-001	 2.7742405775e+000
 1.3464559673e+000	 3.8347832689e-001	 2.6987534048e+000
 1.3424098346e+000	 3.9741049996e-001	 2.6203319846e+000
 1.3382083003e+000	 4.1133660491e-001	 2.5388384443e+000
 1.3994609826e+000	 2.7727080181e-001	 3.2439527630e+000
 1.3965808687e+000	 2.9143088474e-001	 3.1813000256e+000
 1.3935481032e+000	 3.0560383428e-001	 3.1171314562e+000
 1.3903618190e+000	 3.1978737092e-001	 3.0511809265e+000
 1.3870211908e+000	 3.3397918427e-001	 2.9831968799e+000
 1.3835254361e+000	 3.4817693390e-001	 2.9129434702e+000
 1.3798738161e+000	 3.6237825026e-001	 2.8402016235e+000
 1.3760656369e+000	 3.7658073557e-001	 2.7647700027e+000
 1.3721002507e+000	 3.9078196482e-001	 2.6864658554e+000
 1.3679770563e+000	 4.0497948679e-001	 2.6051257250e+000
 1.3636955006e+000	 4.1917082505e-001	 2.5206060065e+000
 1.4256166065e+000	 2.8245293328e-001	 3.2384599944e+000
 1.4226826639e+000	 2.9687766511e-001	 3.1737016255e+000
 1.4195932166e+000	 3.1131550402e-001	 3.1074586525e+000
 1.4163473815e+000	 3.2576412790e-001	 3.0394498122e+000
 1.4129443177e+000	 3.4022118318e-001	 2.9694090786e+000
 1.4093832281e+000	 3.5468428569e-001	 2.8970871221e+000
 1.4056633601e+000	 3.6915102159e-001	 2.8222526825e+000
 1.4017840069e+000	 3.8361894829e-001	 2.7446938339e+000
 1.3977445084e+000	 3.9808559545e-001	 2.6642191181e+000
 1.3935442524e+000	 4.1254846604e-001	 2.5806585234e+000
 1.3891826753e+000	 4.2700503735e-001	 2.4938642874e+000
 1.4517722108e+000	 2.8763506087e-001	 3.2174048952e+000
 1.4487844395e+000	 3.0232444140e-001	 3.1510149655e+000
 1.4456383106e+000	 3.1702716948e-001	 3.0832311403e+000
 1.4423329245e+000	 3.3174088040e-001	 3.0137553581e+000
 1.4388674251e+000	 3.4646317741e-001	 2.9423056719e+000
 1.4352410007e+000	 3.6119163260e-001	 2.8686180724e+000
 1.4314528847e+000	 3.7592378784e-001	 2.7924482165e+000
 1.4275023575e+000	 3.9065715573e-001	 2.7135730336e+000
 1.4233887469e+000	 4.0538922061e-001	 2.6317921836e+000
 1.4191114293e+000	 4.2011743962e-001	 2.5469293410e+000
 1.4146698310e+000	 4.3483924378e-001	 2.4588332792e+000
 1.4779278020e+000	 2.9281718587e-001	 3.1791940561e+000
 1.4748862021e+000	 3.0777121496e-001	 3.1118201390e+000
 1.4716833915e+000	 3.2273883208e-001	 3.0432109860e+000
 1.4683184545e+000	 3.3771762992e-001	 2.9730489534e+000
 1.4647905196e+000	 3.5270516852e-001	 2.9010336194e+000
 1.4610987603e+000	 3.6769897626e-001	 2.8268840209e+000
 1.4572423965e+000	 3.8269655071e-001	 2.7503407844e+000
 1.4532206953e+000	 3.9769535965e-001	 2.6711681205e+000
 1.4490329726e+000	 4.1269284211e-001	 2.5891556511e+000
 1.4446785935e+000	 4.2768640941e-001	 2.5041200401e+000
 1.4401569739e+000	 4.4267344629e-001	 2.4159063973e+000
 1.5040833867e+000	 2.9799930958e-001	 3.1224509202e+000
 1.5009879582e+000	 3.1321798717e-001	 3.0549111063e+000
 1.4977284659e+000	 3.2845049326e-001	 2.9863705430e+000
 1.4943039780e+000	 3.4369437793e-001	 2.9164880634e+000
 1.4907136076e+000	 3.5894715807e-001	 2.8449410804e+000
 1.4869565135e+000	 3.7420631829e-001	 2.7714282920e+000
 1.4830319018e+000	 3.8946931188e-001	 2.6956722679e+000
 1.4789390267e+000	 4.0473356181e-001	 2.6174218835e+000
 1.4746771918e+000	 4.1999646178e-001	 2.5364545650e+000
 1.4702457512e+000	 4.3525537731e-001	 2.4525783133e+000
 1.4656441104e+000	 4.5050764685e-001	 2.3656334714e+000
 1.2107716938e+000	 3.7216531816e-001	 2.7946161189e+000
 1.2068292178e+000	 3.8475753968e-001	 2.7398388303e+000
 1.2027452861e+000	 3.9733980923e-001	 2.6834395577e+000
 1.1985195382e+000	 4.0990986582e-001	 2.6255002520e+000
 1.1941516598e+000	 4.2246543011e-001	 2.5661034984e+000
 1.1896413827e+000	 4.3500420550e-001	 2.5053316991e+000
 1.1849884863e+000	 4.4752387933e-001	 2.4432663058e+000
 1.1801927979e+000	 4.6002212396e-001	 2.3799871073e+000
 1.1752541932e+000	 4.7249659800e-001	 2.3155715800e+000
 1.1701725973e+000	 4.8494494752e-001	 2.2500943103e+000
 1.1649479851e+000	 4.9736480731e-001	 2.1836264935e+000
 1.2362591171e+000	 3.7999960685e-001	 2.7028696212e+000
 1.2322336498e+000	 3.9285690169e-001	 2.6433579108e+000
 1.2280637489e+000	 4.0570403507e-001	 2.5821607847e+000
 1.2237490467e+000	 4.1853869841e-001	 2.5193858571e+000
 1.2192892220e+000	 4.3135856436e-001	 2.4551413947e+000
 1.2146840010e+000	 4.4416128801e-001	 2.3895353596e+000
 1.2099331586e+000	 4.5694450800e-001	 2.3226745074e+000
 1.2050365182e+000	 4.6970584769e-001	 2.2546635467e+000
 1.1999939531e+000	 4.8244291640e-001	 2.1856043704e+000
 1.1948053868e+000	 4.9515331066e-001	 2.1155953657e+000
 1.1894707936e+000	 5.0783461546e-001	 2.0447308119e+000
 1.2617464830e+000	 3.8783387790e-001	 2.6345387657e+000
 1.2576380245e+000	 4.0095624548e-001	 2.5695098302e+000
 1.2533821548e+000	 4.1406824210e-001	 2.5027631982e+000
 1.2489784985e+000	 4.2716751158e-001	 2.4344362690e+000
 1.2444267276e+000	 4.4025167860e-001	 2.3646668128e+000
 1.2397265631e+000	 4.5331834992e-001	 2.2935918535e+000
 1.2348777747e+000	 4.6636511547e-001	 2.2213466125e+000
 1.2298801827e+000	 4.7938954962e-001	 2.1480635217e+000
 1.2247336574e+000	 4.9238921242e-001	 2.0738713179e+000
 1.2194381209e+000	 5.0536165083e-001	 1.9988942249e+000
 1.2139935469e+000	 5.1830440006e-001	 1.9232512353e+000
 1.2872337979e+000	 3.9566813330e-001	 2.5864268677e+000
 1.2830423485e+000	 4.0905557307e-001	 2.5152629191e+000
 1.2787005101e+000	 4.2243243239e-001	 2.4423742086e+000
 1.2742078998e+000	 4.3579630749e-001	 2.3679323511e+000
 1.2695641830e+000	 4.4914477506e-001	 2.2921087421e+000
 1.2647690750e+000	 4.6247539351e-001	 2.2150732575e+000
 1.2598223410e+000	 4.7578570410e-001	 2.1369930219e+000
 1.2547237974e+000	 4.8907323219e-001	 2.0580312568e+000
 1.2494733122e+000	 5.0233548855e-001	 1.9783462176e+000
 1.2440708057e+000	 5.1556997059e-001	 1.8980902323e+000
 1.2385162512e+000	 5.2877416372e-001	 1.8174088508e+000
 1.3127210682e+000	 4.0350237498e-001	 2.5555716671e+000
 1.3084466280e+000	 4.1715488648e-001	 2.4778078899e+000
 1.3040188211e+000	 4.3079660805e-001	 2.3983323207e+000
 1.2994372569e+000	 4.4442508830e-001	 2.3173555448e+000
 1.2947015944e+000	 4.5803785596e-001	 2.2350870167e+000
 1.2898115431e+000	 4.7163242108e-001	 2.1517335544e+000
 1.2847668636e+000	 4.8520627624e-001	 2.0674979105e+000
 1.2795673687e+000	 4.9875689782e-001	 1.9825774319e+000
 1.2742129237e+000	 5.1228174727e-001	 1.8971628223e+000
 1.2687034474e+000	 5.2577827248e-001	 1.8114370172e+000
 1.2630389125e+000	 5.3924390905e-001	 1.7255741852e+000
 1.3382083003e+000	 4.1133660491e-001	 2.5388384443e+000
 1.3338508694e+000	 4.2525418775e-001	 2.4545331663e+000
 1.3293370941e+000	 4.3916077117e-001	 2.3681682302e+000
 1.3246665762e+000	 4.5305385617e-001	 2.2803700346e+000
 1.3198389681e+000	 4.6693092352e-001	 2.1913955029e+000
 1.3148539736e+000	 4.8078943491e-001	 2.1014927981e+000
 1.3097113488e+000	 4.9462683425e-001	 2.0109043208e+000
 1.3044109027e+000	 5.0844054892e-001	 1.9198651602e+000
 1.2989524981e+000	 5.2222799108e-001	 1.8286016584e+000
 1.2933360522e+000	 5.3598655906e-001	 1.7373301042e+000
 1.2875615371e+000	 5.4971363869e-001	 1.6462555670e+000
 1.3636955006e+000	 4.1917082505e-001	 2.5206060065e+000
 1.3592550790e+000	 4.3335347890e-001	 2.4331446158e+000
 1.3546553354e+000	 4.4752492382e-001	 2.3432466803e+000
 1.3498958639e+000	 4.6168261326e-001	 2.2512011902e+000
 1.3449763104e+000	 4.7582397996e-001	 2.1573184808e+000
 1.3398963729e+000	 4.8994643730e-001	 2.0619289622e+000
 1.3346558028e+000	 5.0404738049e-001	 1.9653815785e+000
 1.3292544057e+000	 5.1812418791e-001	 1.8681973731e+000
 1.3236920416e+000	 5.3217422245e-001	 1.7710781618e+000
 1.3179686261e+000	 5.4619483288e-001	 1.6742957605e+000
 1.3120841310e+000	 5.6018335524e-001	 1.5780886468e+000
 1.3891826753e+000	 4.2700503735e-001	 2.4938642874e+000
 1.3846592633e+000	 4.4145276194e-001	 2.4040386723e+000
 1.3799735514e+000	 4.5588906812e-001	 2.3116521355e+000
 1.3751251265e+000	 4.7031136171e-001	 2.2169946169e+000
 1.3701136275e+000	 4.8471702751e-001	 2.1203797429e+000
 1.3649387471e+000	 4.9910343053e-001	 2.0221436227e+000
 1.3596002319e+000	 5.1346791731e-001	 1.9226433394e+000
 1.3540978838e+000	 5.2780781723e-001	 1.8222551227e+000
 1.3484315603e+000	 5.4212044388e-001	 1.7213721945e+000
 1.3426011755e+000	 5.5640309649e-001	 1.6204022805e+000
 1.3366067004e+000	 5.7065306131e-001	 1.5197647832e+000
 1.4146698310e+000	 4.3483924378e-001	 2.4588332792e+000
 1.4100634284e+000	 4.4955203891e-001	 2.3676534911e+000
 1.4052917485e+000	 4.6425320614e-001	 2.2738053519e+000
 1.4003543701e+000	 4.7894010370e-001	 2.1775761072e+000
 1.3952509258e+000	 4.9361006839e-001	 2.0792793822e+000
 1.3899811025e+000	 5.0826041690e-001	 1.9792540686e+000
 1.3845446423e+000	 5.2288844706e-001	 1.8778628636e+000
 1.3789413433e+000	 5.3749143928e-001	 1.7754904489e+000
 1.3731710605e+000	 5.5206665785e-001	 1.6725412952e+000
 1.3672337064e+000	 5.6661135245e-001	 1.5694370865e+000
 1.3611292514e+000	 5.8112275954e-001	 1.4666137569e+000
 1.4401569739e+000	 4.4267344629e-001	 2.4159063973e+000
 1.4354675809e+000	 4.5765131184e-001	 2.3245906157e+000
 1.4306099329e+000	 4.7261733998e-001	 2.2305091016e+000
 1.4255836011e+000	 4.8756884137e-001	 2.1339423174e+000
 1.4203882115e+000	 5.0250310483e-001	 2.0352002188e+000
 1.4150234454e+000	 5.1741739869e-001	 1.9346212563e+000
 1.4094890402e+000	 5.3230897211e-001	 1.8325709840e+000
 1.4037847904e+000	 5.4717505649e-001	 1.7294402581e+000
 1.3979105484e+000	 5.6201286685e-001	 1.6256430124e+000
 1.3918662249e+000	 5.7681960330e-001	 1.5216136002e+000
 1.3856517902e+000	 5.9159245253e-001	 1.4178036931e+000
 1.4656441104e+000	 4.5050764685e-001	 2.3656334714e+000
 1.4608717271e+000	 4.6575058273e-001	 2.2755979771e+000
 1.4559281109e+000	 4.8098147173e-001	 2.1827020906e+000
 1.4508128258e+000	 4.9619757688e-001	 2.0872149391e+000
 1.4455254909e+000	 5.1139613904e-001	 1.9894387495e+000
 1.4400657820e+000	 5.2657437818e-001	 1.8897079925e+000
 1.4344334318e+000	 5.4172949480e-001	 1.7883880824e+000
 1.4286282313e+000	 5.5685867128e-001	 1.6858736145e+000
 1.4226500300e+000	 5.7195907336e-001	 1.5825861221e+000
 1.4164987373e+000	 5.8702785160e-001	 1.4789713419e+000
 1.4101743228e+000	 6.0206214291e-001	 1.3754959764e+000
 1.1649479851e+000	 4.9736480731e-001	 2.1836264935e+000
 1.1595811979e+000	 5.0975194641e-001	 2.1155400449e+000
 1.1540715394e+000	 5.2210584754e-001	 2.0452560740e+000
 1.1484191381e+000	 5.3442412108e-001	 1.9729435847e+000
 1.1426241741e+000	 5.4670437139e-001	 1.8987668249e+000
 1.1366868794e+000	 5.5894419814e-001	 1.8228849313e+000
 1.1306075389e+000	 5.7114119775e-001	 1.7454516785e+000
 1.1243864900e+000	 5.8329296476e-001	 1.6666153376e+000
 1.1180241233e+000	 5.9539709325e-001	 1.5865186454e+000
 1.1115208828e+000	 6.0745117825e-001	 1.5052988891e+000
 1.1048772657e+000	 6.1945281727e-001	 1.4230881048e+000
 1.1894707936e+000	 5.0783461546e-001	 2.0447308119e+000
 1.1839910325e+000	 5.2048251078e-001	 1.9723632780e+000
 1.1783653926e+000	 5.3309646847e-001	 1.8978518567e+000
 1.1725940051e+000	 5.4567404858e-001	 1.8213249965e+000
 1.1666770538e+000	 5.5821280504e-001	 1.7429051105e+000
 1.1606147757e+000	 5.7071028701e-001	 1.6627082749e+000
 1.1544074617e+000	 5.8316404031e-001	 1.5808440478e+000
 1.1480554562e+000	 5.9557160883e-001	 1.4974154127e+000
 1.1415591582e+000	 6.0793053600e-001	 1.4125188509e+000
 1.1349190208e+000	 6.2023836626e-001	 1.3262445433e+000
 1.1281355518e+000	 6.3249264651e-001	 1.2386767052e+000
 1.2139935469e+000	 5.1830440006e-001	 1.9232512353e+000
 1.2084008122e+000	 5.3121305102e-001	 1.8462785564e+000
 1.2026591912e+000	 5.4408706467e-001	 1.7672873807e+000
 1.1967688177e+000	 5.5692395076e-001	 1.6863834050e+000
 1.1907298794e+000	 5.6972121280e-001	 1.6036644869e+000
 1.1845426183e+000	 5.8247634941e-001	 1.5192203611e+000
 1.1782073310e+000	 5.9518685581e-001	 1.4331324942e+000
 1.1717243693e+000	 6.0785022527e-001	 1.3454740818e+000
 1.1650941401e+000	 6.2046395056e-001	 1.2563101923e+000
 1.1583171062e+000	 6.3302552550e-001	 1.1656980599e+000
 1.1513937857e+000	 6.4553244642e-001	 1.0736875282e+000
 1.2385162512e+000	 5.2877416372e-001	 1.8174088508e+000
 1.2328105430e+000	 5.4194356980e-001	 1.7356214680e+000
 1.2269529411e+000	 5.5507763888e-001	 1.6520013718e+000
 1.2209435820e+000	 5.6817383045e-001	 1.5666484133e+000
 1.2147826569e+000	 5.8122959754e-001	 1.4796522572e+000
 1.2084704129e+000	 5.9424238828e-001	 1.3910920808e+000
 1.2020071527e+000	 6.0720964727e-001	 1.3010364311e+000
 1.1953932349e+000	 6.2012881715e-001	 1.2095432448e+000
 1.1886290750e+000	 6.3299734006e-001	 1.1166600349e+000
 1.1817151448e+000	 6.4581265917e-001	 1.0224242472e+000
 1.1746519730e+000	 6.5857222024e-001	 9.2686378810e-001
 1.2630389125e+000	 5.3924390905e-001	 1.7255741852e+000
 1.2572202312e+000	 5.5267406980e-001	 1.6388733061e+000
 1.2512466486e+000	 5.6606819387e-001	 1.5505759703e+000
 1.2451183039e+000	 5.7942369044e-001	 1.4607922708e+000
 1.2388353924e+000	 5.9273796215e-001	 1.3696192016e+000
 1.2323981657e+000	 6.0600840655e-001	 1.2771403058e+000
 1.2258069327e+000	 6.1923241769e-001	 1.1834255023e+000
 1.2190620592e+000	 6.3240738755e-001	 1.0885310976e+000
 1.2121639687e+000	 6.4553070762e-001	 9.9249998733e-001
 1.2051131424e+000	 6.5859977046e-001	 8.9536205058e-001
 1.1979101196e+000	 6.7161197125e-001	 7.9721725158e-001
 1.2875615371e+000	 5.4971363869e-001	 1.6462555670e+000
 1.2816298827e+000	 5.6340455370e-001	 1.5546501117e+000
 1.2755403196e+000	 5.7705873237e-001	 1.4617263529e+000
 1.2692929896e+000	 5.9067353357e-001	 1.3676199656e+000
 1.2628880917e+000	 6.0424630949e-001	 1.2724500256e+000
 1.2563258826e+000	 6.1777440718e-001	 1.1763185713e+000
 1.2496066770e+000	 6.3125517008e-001	 1.0793103687e+000
 1.2427308479e+000	 6.4468593953e-001	 9.8149288505e-001
 1.2356988270e+000	 6.5806405638e-001	 8.8291647804e-001
 1.2285111049e+000	 6.7138686257e-001	 7.8368096658e-001
 1.2211682313e+000	 6.8465170270e-001	 6.8447766185e-001
 1.3120841310e+000	 5.6018335524e-001	 1.5780886468e+000
 1.3060395037e+000	 5.7413502419e-001	 1.4816928071e+000
 1.2998339602e+000	 5.8804925714e-001	 1.3842913904e+000
 1.2934676450e+000	 6.0192336263e-001	 1.2860603125e+000
 1.2869407610e+000	 6.1575464245e-001	 1.1871547758e+000
 1.2802535696e+000	 6.2954039311e-001	 1.0877087114e+000
 1.2734063916e+000	 6.4327790744e-001	 9.8783445035e-001
 1.2663996071e+000	 6.5696447616e-001	 8.8762263017e-001
 1.2592336560e+000	 6.7059738948e-001	 7.8718249164e-001
 1.2519090382e+000	 6.8417393870e-001	 6.8714042851e-001
 1.2444263139e+000	 6.9769141785e-001	 5.8742910893e-001
 1.3366067004e+000	 5.7065306131e-001	 1.5197647832e+000
 1.3304491003e+000	 5.8486548396e-001	 1.4188582808e+000
 1.3241275766e+000	 5.9903977091e-001	 1.3172252089e+000
 1.3176422763e+000	 6.1317318045e-001	 1.2151579063e+000
 1.3109934062e+000	 6.2726296390e-001	 1.1128610974e+000
 1.3041812327e+000	 6.4130636726e-001	 1.0105133264e+000
 1.2972060824e+000	 6.5530063278e-001	 9.0826650296e-001
 1.2900683426e+000	 6.6924300052e-001	 8.0626075174e-001
 1.2827684614e+000	 6.8313071005e-001	 7.0506681421e-001
 1.2753069481e+000	 6.9696100204e-001	 6.0465495191e-001
 1.2676843733e+000	 7.1073111996e-001	 5.0467253369e-001
 1.3611292514e+000	 5.8112275954e-001	 1.4666137569e+000
 1.3548586787e+000	 5.9559593567e-001	 1.3633540533e+000
 1.3484211747e+000	 6.1003027645e-001	 1.2589574486e+000
 1.3418168895e+000	 6.2442298983e-001	 1.1539382774e+000
 1.3350460334e+000	 6.3877127672e-001	 1.0488048869e+000
 1.3281088778e+000	 6.5307233260e-001	 9.4404897597e-001
 1.3210057554e+000	 6.6732334910e-001	 8.3999473168e-001
 1.3137370603e+000	 6.8152151567e-001	 7.3716428282e-001
 1.3063032492e+000	 6.9566402121e-001	 6.3561797481e-001
 1.2987048405e+000	 7.0974805580e-001	 5.3497620800e-001
 1.2909424153e+000	 7.2377081230e-001	 4.3489440118e-001
 1.3856517902e+000	 5.9159245253e-001	 1.4178036931e+000
 1.3792682448e+000	 6.0632638202e-001	 1.3133992177e+000
 1.3727147607e+000	 6.2102077649e-001	 1.2076410374e+000
 1.3659914906e+000	 6.3567279358e-001	 1.1011203073e+000
 1.3590986486e+000	 6.5027958379e-001	 9.9442329461e-001
 1.3520365110e+000	 6.6483829205e-001	 8.8812562613e-001
 1.3448054164e+000	 6.7934605941e-001	 7.8300349671e-001
 1.3374057663e+000	 6.9380002467e-001	 6.7957132835e-001
 1.3298380252e+000	 7.0819732611e-001	 5.7771045379e-001
 1.3221027211e+000	 7.2253510315e-001	 4.7693503094e-001
 1.3142004456e+000	 7.3681049811e-001	 3.7686628657e-001
 1.4101743228e+000	 6.0206214291e-001	 1.3754959764e+000
 1.4036778048e+000	 6.1705682569e-001	 1.2712281735e+000
 1.3970083406e+000	 6.3201127378e-001	 1.1653374968e+000
 1.3901660856e+000	 6.4692259452e-001	 1.0585038196e+000
 1.3831512578e+000	 6.6178788798e-001	 9.5140367304e-001
 1.3759641382e+000	 6.7660424856e-001	 8.4482146894e-001
 1.3686050715e+000	 6.9136876671e-001	 7.3944300812e-001
 1.3610744663e+000	 7.0607853061e-001	 6.3523744333e-001
 1.3533727953e+000	 7.2073062788e-001	 5.3217303128e-001
 1.3455005959e+000	 7.3532214732e-001	 4.3026061620e-001
 1.3374584701e+000	 7.4985018066e-001	 3.2955417448e-001
 1.1048772657e+000	 6.1945281727e-001	 1.4230881048e+000
 1.0980927950e+000	 6.3140139974e-001	 1.3403463090e+000
 1.0911690624e+000	 6.4329272745e-001	 1.2573925794e+000
 1.0841067275e+000	 6.5512441360e-001	 1.1741039509e+000
 1.0769065033e+000	 6.6689407973e-001	 1.0903551745e+000
 1.0695691567e+000	 6.7859935721e-001	 1.0067388654e+000
 1.0620955081e+000	 6.9023788874e-001	 9.2372348601e-001
 1.0544864310e+000	 7.0180732985e-001	 8.4108719117e-001
 1.0467428524e+000	 7.1330535038e-001	 7.5863507027e-001
 1.0388657520e+000	 7.2472963597e-001	 6.7620006840e-001
 1.0308561619e+000	 7.3607788956e-001	 5.9364382870e-001
 1.1281355518e+000	 6.3249264651e-001	 1.2386767052e+000
 1.1212082642e+000	 6.4469275334e-001	 1.1502729649e+000
 1.1141387832e+000	 6.5683440017e-001	 1.0614720316e+000
 1.1069277821e+000	 6.6891514995e-001	 9.7230568867e-001
 1.0995759892e+000	 6.8093257415e-001	 8.8364115012e-001
 1.0920841874e+000	 6.9288425429e-001	 7.9581424447e-001
 1.0844532142e+000	 7.0476778344e-001	 7.0870861278e-001
 1.0766839618e+000	 7.1658076777e-001	 6.2223569549e-001
 1.0687773766e+000	 7.2832082808e-001	 5.3633553877e-001
 1.0607344587e+000	 7.3998560129e-001	 4.5097751798e-001
 1.0525562623e+000	 7.5157274199e-001	 3.6616097419e-001
 1.1513937857e+000	 6.4553244642e-001	 1.0736875282e+000
 1.1443236814e+000	 6.5798407704e-001	 9.8070685080e-001
 1.1371084523e+000	 6.7037604242e-001	 8.8732372746e-001
 1.1297487855e+000	 6.8270585527e-001	 7.9453840985e-001
 1.1222454241e+000	 6.9497103699e-001	 7.0263156805e-001
 1.1145991674e+000	 7.0716911923e-001	 6.1157016063e-001
 1.1068108701e+000	 7.1929764545e-001	 5.2135001524e-001
 1.0988814427e+000	 7.3135417246e-001	 4.3199656349e-001
 1.0908118511e+000	 7.4333627200e-001	 3.4356548862e-001
 1.0826031163e+000	 7.5524153229e-001	 2.5614328167e-001
 1.0742563139e+000	 7.6706755955e-001	 1.6984770242e-001
 1.1746519730e+000	 6.5857222024e-001	 9.2686378810e-001
 1.1674390524e+000	 6.7127537416e-001	 8.3043798306e-001
 1.1600780755e+000	 6.8391765760e-001	 7.3452089596e-001
 1.1525697432e+000	 6.9649653302e-001	 6.3938208526e-001
 1.1449148137e+000	 7.0900947176e-001	 5.4505051760e-001
 1.1371141023e+000	 7.2145395561e-001	 4.5158520765e-001
 1.1291684812e+000	 7.3382747840e-001	 3.5907592343e-001
 1.1210788792e+000	 7.4612754760e-001	 2.6764380070e-001
 1.1128462816e+000	 7.5835168590e-001	 1.7744186163e-001
 1.1044717301e+000	 7.7049743278e-001	 8.8655433525e-002
 1.0959563221e+000	 7.8256234613e-001	 1.5024638309e-003
 1.1979101196e+000	 6.7161197125e-001	 7.9721725158e-001
 1.1905543830e+000	 6.8456664802e-001	 6.9914108938e-001
 1.1830476584e+000	 6.9745924908e-001	 6.0165322824e-001
 1.1753906609e+000	 7.1028718663e-001	 5.0482425052e-001
 1.1675841636e+000	 7.2304788196e-001	 4.0875598136e-001
 1.1596289979e+000	 7.3573876698e-001	 3.1358220518e-001
 1.1515260532e+000	 7.4835728592e-001	 2.1946928821e-001
 1.1432762768e+000	 7.6090089688e-001	 1.2661670163e-001
 1.1348806736e+000	 7.7336707351e-001	 3.5257440748e-002
 1.1263403057e+000	 7.8575330657e-001	-5.4341664292e-002
 1.1176562923e+000	 7.9805710559e-001	-1.4187975034e-001
 1.2211682313e+000	 6.8465170270e-001	 6.8447766185e-001
 1.2136696789e+000	 6.9785790195e-001	 5.8548419442e-001
 1.2060172070e+000	 7.1100082024e-001	 4.8693997273e-001
 1.1982115444e+000	 7.2407781956e-001	 3.8897014329e-001
 1.1902534795e+000	 7.3708627110e-001	 2.9173298196e-001
 1.1821438597e+000	 7.5002355694e-001	 1.9542056465e-001
 1.1738835917e+000	 7.6288707165e-001	 1.0025933592e-001
 1.1654736412e+000	 7.7567422401e-001	 6.5105702962e-003
 1.1569150325e+000	 7.8838243861e-001	-8.5529278921e-002
 1.1482088484e+000	 8.0100915748e-001	-1.7552834800e-001
 1.1393562299e+000	 8.1355184181e-001	-2.6311925247e-001
 1.2444263139e+000	 6.9769141785e-001	 5.8742910893e-001
 1.2367849459e+000	 7.1114913926e-001	 4.8789001318e-001
 1.2289867268e+000	 7.2454237448e-001	 3.8870494503e-001
 1.2210323994e+000	 7.3786843525e-001	 2.9003801137e-001
 1.2129227671e+000	 7.5112464270e-001	 1.9208824988e-001
 1.2046586934e+000	 7.6430832903e-001	 9.5090282667e-002
 1.1962411022e+000	 7.7741683922e-001	-6.8513985784e-004
 1.1876709778e+000	 7.9044753268e-001	-9.4930710493e-002
 1.1789493638e+000	 8.0339778493e-001	-1.8730225776e-001
 1.1700773638e+000	 8.1626498933e-001	-2.7741856441e-001
 1.1610561405e+000	 8.2904655867e-001	-3.6486131640e-001
 1.2676843733e+000	 7.1073111996e-001	 5.0467253369e-001
 1.2599001897e+000	 7.2444036328e-001	 4.0487524522e-001
 1.2519562236e+000	 7.3808391518e-001	 3.0537358647e-001
 1.2438532316e+000	 7.5165903715e-001	 2.0635565688e-001
 1.2355920320e+000	 7.6516300026e-001	 1.0804621682e-001
 1.2271735045e+000	 7.7859308685e-001	 1.0707353178e-002
 1.2185985904e+000	 7.9194659226e-001	-8.5360972371e-002
 1.2098682922e+000	 8.0522082657e-001	-1.7982049864e-001
 1.2009836731e+000	 8.1841311625e-001	-2.7229436982e-001
 1.1919458574e+000	 8.3152080591e-001	-3.6236697530e-001
 1.1827560293e+000	 8.4454126003e-001	-4.4958392959e-001
 1.2909424153e+000	 7.2377081230e-001	 4.3489440118e-001
 1.2830154163e+000	 7.3773157734e-001	 3.3504904022e-001
 1.2749257032e+000	 7.5162544573e-001	 2.3547102790e-001
 1.2666740467e+000	 7.6544962871e-001	 1.3635806046e-001
 1.2582612799e+000	 7.7920134729e-001	 3.7946167618e-002
 1.2496882988e+000	 7.9287783395e-001	-5.9489580746e-002
 1.2409560618e+000	 8.0647633441e-001	-1.5563449270e-001
 1.2320655899e+000	 8.1999410938e-001	-2.5013380414e-001
 1.2230179659e+000	 8.3342843630e-001	-3.4259236703e-001
 1.2138143345e+000	 8.4677661106e-001	-4.3257448186e-001
 1.2044559019e+000	 8.6003594977e-001	-5.1960387991e-001
 1.3142004456e+000	 7.3681049811e-001	 3.7686628657e-001
 1.3061306312e+000	 7.5102278475e-001	 2.7711228250e-001
 1.2978951713e+000	 7.6516696950e-001	 1.7762103426e-001
 1.2894948503e+000	 7.7924021338e-001	 7.8585951845e-002
 1.2809305164e+000	 7.9323968730e-001	-1.9759592861e-002
 1.2722030818e+000	 8.0716257390e-001	-1.1714148892e-001
 1.2633135221e+000	 8.2100606929e-001	-2.1324424144e-001
 1.2542628766e+000	 8.3476738481e-001	-3.0771046674e-001
 1.2450522477e+000	 8.4844374884e-001	-4.0014053468e-001
 1.2356828007e+000	 8.6203240858e-001	-4.9009236497e-001
 1.2261557636e+000	 8.7553063176e-001	-5.7708138333e-001
 1.3374584701e+000	 7.4985018066e-001	 3.2955417448e-001
 1.3292458404e+000	 7.6431398883e-001	 2.2985759457e-001
 1.3208646337e+000	 7.7870848989e-001	 1.3054572257e-001
 1.3123156482e+000	 7.9303079459e-001	 3.1685211519e-002
 1.3035997473e+000	 8.0727802380e-001	-6.6506681355e-002
 1.2947178591e+000	 8.2144731029e-001	-1.6377026207e-001
 1.2856709767e+000	 8.3553580053e-001	-2.5980266228e-001
 1.2764601577e+000	 8.4954065654e-001	-3.5425725010e-001
 1.2670865240e+000	 8.6345905763e-001	-4.4674319720e-001
 1.2575512615e+000	 8.7728820228e-001	-5.3682520979e-001
 1.2478556198e+000	 8.9102530988e-001	-6.2402343015e-001
 1.0308561619e+000	 7.3607788956e-001	 5.9364382870e-001
 1.0227151665e+000	 7.4734783261e-001	 5.1076439308e-001
 1.0144439005e+000	 7.5853720581e-001	 4.2763296926e-001
 1.0060435498e+000	 7.6964377126e-001	 3.4455738372e-001
 9.9751535112e-001	 7.8066531416e-001	 2.6186459435e-001
 9.8886059143e-001	 7.9159964427e-001	 1.7990046374e-001
 9.8008060741e-001	 8.0244459730e-001	 9.9029456122e-002
 9.7117678475e-001	 8.1319803631e-001	 1.9634257844e-002
 9.6215055747e-001	 8.2385785312e-001	-5.7884678459e-002
 9.5300340716e-001	 8.3442196966e-001	-1.3310966527e-001
 9.4373686216e-001	 8.4488833928e-001	-2.0560638616e-001
 1.0525562623e+000	 7.5157274199e-001	 3.6616097419e-001
 1.0442438944e+000	 7.6307992366e-001	 2.8152428433e-001
 1.0357985136e+000	 7.7450483944e-001	 1.9691883420e-001
 1.0272213308e+000	 7.8584520432e-001	 1.1270003403e-001
 1.0185136087e+000	 7.9709875688e-001	 2.9241414762e-002
 1.0096766615e+000	 8.0826326077e-001	-5.3065694886e-002
 1.0007118539e+000	 8.1933650614e-001	-1.3381257105e-001
 9.9162060078e-001	 8.3031631108e-001	-2.1257357705e-001
 9.8240436636e-001	 8.4120052302e-001	-2.8890672496e-001
 9.7306466339e-001	 8.5198702013e-001	-3.6235431571e-001
 9.6360305242e-001	 8.6267371270e-001	-4.3244365633e-001
 1.0742563139e+000	 7.6706755955e-001	 1.6984770242e-001
 1.0657725738e+000	 7.7881197931e-001	 8.4119294668e-002
 1.0571530786e+000	 7.9047243714e-001	-1.4410882838e-003
 1.0483990641e+000	 8.0204660093e-001	-8.6437822255e-002
 1.0395118191e+000	 8.1353216263e-001	-1.7045725477e-001
 1.0304926847e+000	 8.2492683979e-001	-2.5306810906e-001
 1.0213430540e+000	 8.3622837699e-001	-3.3382197302e-001
 1.0120643708e+000	 8.4743454733e-001	-4.1225387311e-001
 1.0026581297e+000	 8.5854315389e-001	-4.8788293265e-001
 9.9312587450e-001	 8.6955203108e-001	-5.6021311353e-001
 9.8346919799e-001	 8.8045904610e-001	-6.2873403998e-001
 1.0959563221e+000	 7.8256234613e-001	 1.5024638309e-003
 1.0873012102e+000	 7.9454400350e-001	-8.4795670839e-002
 1.0785076010e+000	 8.0644000291e-001	-1.7090292699e-001
 1.0695767551e+000	 8.1824796514e-001	-2.5639039550e-001
 1.0605099875e+000	 8.2996553551e-001	-3.4081033438e-001
 1.0513086664e+000	 8.4159038547e-001	-4.2369663892e-001
 1.0419742128e+000	 8.5312021405e-001	-5.0456540397e-001
 1.0325081000e+000	 8.6455274935e-001	-5.8291557855e-001
 1.0229118525e+000	 8.7588575008e-001	-6.5822971202e-001
 1.0131870455e+000	 8.8711700690e-001	-7.2997479083e-001
 1.0033353038e+000	 8.9824434394e-001	-7.9760316422e-001
 1.1176562923e+000	 7.9805710559e-001	-1.4187975034e-001
 1.1088298089e+000	 8.1027600016e-001	-2.2836042184e-001
 1.0998620859e+000	 8.2240754074e-001	-3.1471157043e-001
 1.0907544091e+000	 8.3444930100e-001	-4.0047752842e-001
 1.0815081192e+000	 8.4639887964e-001	-4.8518211192e-001
 1.0721246116e+000	 8.5825390200e-001	-5.6832914225e-001
 1.0626053355e+000	 8.7001202155e-001	-6.4940306904e-001
 1.0529517933e+000	 8.8167092142e-001	-7.2786969469e-001
 1.0431655398e+000	 8.9322831592e-001	-8.0317700000e-001
 1.0332481814e+000	 9.0468195199e-001	-8.7475606947e-001
 1.0232013749e+000	 9.1602961065e-001	-9.4202211480e-001
 1.1393562299e+000	 8.1355184181e-001	-2.6311925247e-001
 1.1303583753e+000	 8.2600797323e-001	-3.4952206108e-001
 1.1212165389e+000	 8.3837505462e-001	-4.3591373426e-001
 1.1119320312e+000	 8.5065061256e-001	-5.2181800467e-001
 1.1025062193e+000	 8.6283219912e-001	-6.0673554200e-001
 1.0929405255e+000	 8.7491739353e-001	-6.9014451116e-001
 1.0832364273e+000	 8.8690380371e-001	-7.7150124338e-001
 1.0733954560e+000	 8.9878906781e-001	-8.5024102034e-001
 1.0634191968e+000	 9.1057085575e-001	-9.2577897067e-001
 1.0533092871e+000	 9.2224687073e-001	-9.9751107775e-001
 1.0430674162e+000	 9.3381485069e-001	-1.0648152970e+000
 1.1610561405e+000	 8.2904655867e-001	-3.6486131640e-001
 1.1518869148e+000	 8.4173992663e-001	-4.5104527873e-001
 1.1425709651e+000	 8.5434254855e-001	-5.3736867522e-001
 1.1331096269e+000	 8.6685190386e-001	-6.2334046311e-001
 1.1235042932e+000	 8.7926549806e-001	-7.0844313918e-001
 1.1137564135e+000	 8.9158086424e-001	-7.9213332021e-001
 1.1038674932e+000	 9.0379556476e-001	-8.7384244976e-001
 1.0938390932e+000	 9.1590719280e-001	-9.5297763137e-001
 1.0836728285e+000	 9.2791337390e-001	-1.0289225879e+000
 1.0733703679e+000	 9.3981176752e-001	-1.1010387460e+000
 1.0629334326e+000	 9.5160006850e-001	-1.1686664430e+000
 1.1827560293e+000	 8.4454126003e-001	-4.4958392959e-001
 1.1734154328e+000	 8.5747186430e-001	-5.3552065586e-001
 1.1639253700e+000	 8.7031002650e-001	-6.2175685388e-001
 1.1542872015e+000	 8.8305317897e-001	-7.0779222542e-001
 1.1445023461e+000	 8.9569878056e-001	-7.9309577393e-001
 1.1345722806e+000	 9.0824431828e-001	-8.7710639278e-001
 1.1244985386e+000	 9.2068730893e-001	-9.5923359516e-001
 1.1142827099e+000	 9.3302530068e-001	-1.0388583863e+000
 1.1039264399e+000	 9.4525587472e-001	-1.1153342774e+000
 1.0934314285e+000	 9.5737664674e-001	-1.1879884407e+000
 1.0827994292e+000	 9.6938526853e-001	-1.2561230031e+000
 1.2044559019e+000	 8.6003594977e-001	-5.1960387991e-001
 1.1949439347e+000	 8.7320379017e-001	-6.0537122827e-001
 1.1852797589e+000	 8.8627749248e-001	-6.9158680478e-001
 1.1754647601e+000	 8.9925444193e-001	-7.7774630008e-001
 1.1655003833e+000	 9.1213205075e-001	-8.6330963620e-001
 1.1553881321e+000	 9.2490775983e-001	-9.4770154804e-001
 1.1451295685e+000	 9.3757904042e-001	-1.0303123240e+000
 1.1347263113e+000	 9.5014339572e-001	-1.1104987069e+000
 1.1241800362e+000	 9.6259836252e-001	-1.1875849545e+000
 1.1134924741e+000	 9.7494151279e-001	-1.2608640594e+000
 1.1026654109e+000	 9.8717045521e-001	-1.3295991257e+000
 1.2261557636e+000	 8.7553063176e-001	-5.7708138333e-001
 1.2164724257e+000	 8.8893570818e-001	-6.6285752603e-001
 1.2066341371e+000	 9.0224495048e-001	-7.4920043610e-001
 1.1966423081e+000	 9.1545569679e-001	-8.3560678863e-001
 1.1864984099e+000	 9.2856531271e-001	-9.2153159327e-001
 1.1762039732e+000	 9.4157119305e-001	-1.0063887541e+000
 1.1657605880e+000	 9.5447076347e-001	-1.0895518088e+000
 1.1551699025e+000	 9.6726148220e-001	-1.1703548475e+000
 1.1444336223e+000	 9.7994084166e-001	-1.2480936123e+000
 1.1335535097e+000	 9.9250637006e-001	-1.3220267762e+000
 1.1225313827e+000	 1.0049556330e+000	-1.3913773994e+000
 1.2478556198e+000	 8.9102530988e-001	-6.2402343015e-001
 1.2380009114e+000	 9.0466762225e-001	-7.1008127434e-001
 1.2279885099e+000	 9.1821240449e-001	-7.9677694991e-001
 1.2178198509e+000	 9.3165694760e-001	-8.8361288875e-001
 1.2074964313e+000	 9.4499857057e-001	-9.7004313749e-001
 1.1970198092e+000	 9.5823462210e-001	-1.0554738812e+000
 1.1863916024e+000	 9.7136248230e-001	-1.1392641682e+000
 1.1756134885e+000	 9.8437956441e-001	-1.2207268366e+000
 1.1646872033e+000	 9.9728331646e-001	-1.2991296450e+000
 1.1536145402e+000	 1.0100712229e+000	-1.3736966040e+000
 1.1423973494e+000	 1.0227408064e+000	-1.4436102564e+000
 9.4373686216e-001	 8.4488833928e-001	-2.0560638616e-001
 9.3435391325e-001	 8.5525340088e-001	-2.7758527479e-001
 9.2485479875e-001	 8.6551675343e-001	-3.5120106325e-001
 9.1524118220e-001	 8.7567645404e-001	-4.2588336160e-001
 9.0551477026e-001	 8.8573059636e-001	-5.0105134733e-001
 8.9567731170e-001	 8.9567731170e-001	-5.7611495194e-001
 8.8573059636e-001	 9.0551477026e-001	-6.5047609941e-001
 8.7567645404e-001	 9.1524118220e-001	-7.2352999228e-001
 8.6551675343e-001	 9.2485479875e-001	-7.9466644091e-001
 8.5525340088e-001	 9.3435391325e-001	-8.6327123101e-001
 8.4488833928e-001	 9.4373686216e-001	-9.2872752433e-001
 9.6360305242e-001	 8.6267371270e-001	-4.3244365633e-001
 9.5402258718e-001	 8.7325696466e-001	-5.0143277202e-001
 9.4432351099e-001	 8.8373636653e-001	-5.7155969731e-001
 9.3450752243e-001	 8.9410993455e-001	-6.4227053643e-001
 9.2457636406e-001	 9.0437572220e-001	-7.1299935660e-001
 9.1453182148e-001	 9.1453182148e-001	-7.8316940948e-001
 9.0437572220e-001	 9.2457636406e-001	-8.5219441187e-001
 8.9410993455e-001	 9.3450752243e-001	-9.1947988126e-001
 8.8373636653e-001	 9.4432351099e-001	-9.8442452135e-001
 8.7325696466e-001	 9.5402258718e-001	-1.0464216524e+000
 8.6267371270e-001	 9.6360305242e-001	-1.1048606810e+000
 9.8346919799e-001	 8.8045904610e-001	-6.2873403998e-001
 9.7369121686e-001	 8.9126048793e-001	-6.9568393613e-001
 9.6379217943e-001	 9.0195593865e-001	-7.6331794892e-001
 9.5377381930e-001	 9.1254337358e-001	-8.3109987950e-001
 9.4363791497e-001	 9.2302080609e-001	-8.9847969693e-001
 9.3338628884e-001	 9.3338628884e-001	-9.6489479195e-001
 9.2302080609e-001	 9.4363791497e-001	-1.0297712984e+000
 9.1254337358e-001	 9.5377381930e-001	-1.0925254776e+000
 9.0195593865e-001	 9.6379217943e-001	-1.1525651596e+000
 8.9126048793e-001	 9.7369121686e-001	-1.2092912378e+000
 8.8045904610e-001	 9.8346919799e-001	-1.2620992088e+000
 1.0033353038e+000	 8.9824434394e-001	-7.9760316422e-001
 9.9335980720e-001	 9.0926397520e-001	-8.6328308815e-001
 9.8326080894e-001	 9.2017547433e-001	-9.2923772584e-001
 9.7304007765e-001	 9.3097677575e-001	-9.9494938624e-001
 9.6269942776e-001	 9.4166585269e-001	-1.0598845508e+000
 9.5224071848e-001	 9.5224071848e-001	-1.1234951580e+000
 9.4166585269e-001	 9.6269942776e-001	-1.1852199642e+000
 9.3097677575e-001	 9.7304007765e-001	-1.2444859766e+000
 9.2017547433e-001	 9.8326080894e-001	-1.3007099517e+000
 9.0926397520e-001	 9.9335980720e-001	-1.3532999549e+000
 8.9824434394e-001	 1.0033353038e+000	-1.4016569731e+000
 1.0232013749e+000	 9.1602961065e-001	-9.4202211480e-001
 1.0130283631e+000	 9.2726743097e-001	-1.0070391354e+000
 1.0027294044e+000	 9.3839497813e-001	-1.0719649717e+000
 9.9230630228e-001	 9.4941014566e-001	-1.1363008785e+000
 9.8176090719e-001	 9.6031086667e-001	-1.1995300770e+000
 9.7109511514e-001	 9.7109511514e-001	-1.2611190686e+000
 9.6031086667e-001	 9.8176090719e-001	-1.3205190357e+000
 9.4941014566e-001	 9.9230630228e-001	-1.3771673225e+000
 9.3839497813e-001	 1.0027294044e+000	-1.4304889931e+000
 9.2726743097e-001	 1.0130283631e+000	-1.4798984580e+000
 9.1602961065e-001	 1.0232013749e+000	-1.5248011627e+000
 1.0430674162e+000	 9.3381485069e-001	-1.0648152970e+000
 1.0326968896e+000	 9.4527085973e-001	-1.1296317431e+000
 1.0221979706e+000	 9.5661445460e-001	-1.1940341427e+000
 1.0115724980e+000	 9.6784348792e-001	-1.2575427781e+000
 1.0008223580e+000	 9.7895585267e-001	-1.3196574708e+000
 9.8994948351e-001	 9.8994948351e-001	-1.3798589231e+000
 9.7895585267e-001	 1.0008223580e+000	-1.4376101580e+000
 9.6784348792e-001	 1.0115724980e+000	-1.4923580517e+000
 9.5661445460e-001	 1.0221979706e+000	-1.5435349506e+000
 9.4527085973e-001	 1.0326968896e+000	-1.5905603691e+000
 9.3381485069e-001	 1.0430674162e+000	-1.6328427587e+000
 1.0629334326e+000	 9.5160006850e-001	-1.1686664430e+000
 1.0523653914e+000	 9.6327426599e-001	-1.2336158363e+000
 1.0416665125e+000	 9.7483390829e-001	-1.2978711987e+000
 1.0308386697e+000	 9.8627680714e-001	-1.3609715823e+000
 1.0198837850e+000	 9.9760081538e-001	-1.4224329163e+000
 1.0088038283e+000	 1.0088038283e+000	-1.4817493774e+000
 9.9760081538e-001	 1.0198837850e+000	-1.5383948702e+000
 9.8627680714e-001	 1.0308386697e+000	-1.5918246109e+000
 9.7483390829e-001	 1.0416665125e+000	-1.6414768085e+000
 9.6327426599e-001	 1.0523653914e+000	-1.6867744365e+000
 9.5160006850e-001	 1.0629334326e+000	-1.7271270872e+000
 1.0827994292e+000	 9.6938526853e-001	-1.2561230031e+000
 1.0720338736e+000	 9.8127765425e-001	-1.3214246446e+000
 1.0611350349e+000	 9.9305334377e-001	-1.3857953004e+000
 1.0501048220e+000	 1.0047101079e+000	-1.4487922073e+000
 1.0389451930e+000	 1.0162457594e+000	-1.5099465706e+000
 1.0276581543e+000	 1.0276581543e+000	-1.5687649635e+000
 1.0162457594e+000	 1.0389451930e+000	-1.6247308485e+000
 1.0047101079e+000	 1.0501048220e+000	-1.6773062156e+000
 9.9305334377e-001	 1.0611350349e+000	-1.7259333307e+000
 9.8127765425e-001	 1.0720338736e+000	-1.7700365863e+000
 9.6938526853e-001	 1.0827994292e+000	-1.8090244456e+000
 1.1026654109e+000	 9.8717045521e-001	-1.3295991257e+000
 1.0917023410e+000	 9.9928102900e-001	-1.3953714763e+000
 1.0806035428e+000	 1.0112727656e+000	-1.4600193745e+000
 1.0693709600e+000	 1.0231433949e+000	-1.5231173430e+000
 1.0580065867e+000	 1.0348906895e+000	-1.5842107044e+000
 1.0465124661e+000	 1.0465124661e+000	-1.6428169750e+000
 1.0348906895e+000	 1.0580065867e+000	-1.6984275997e+000
 1.0231433949e+000	 1.0693709600e+000	-1.7505093083e+000
 1.0112727656e+000	 1.0806035428e+000	-1.7985062744e+000
 9.9928102900e-001	 1.0917023410e+000	-1.8418418803e+000
 9.8717045521e-001	 1.1026654109e+000	-1.8799207930e+000
 1.1225313827e+000	 1.0049556330e+000	-1.3913773994e+000
 1.1113707986e+000	 1.0172843948e+000	-1.4576510576e+000
 1.1000720409e+000	 1.0294921783e+000	-1.5226501641e+000
 1.0886370883e+000	 1.0415766726e+000	-1.5859662129e+000
 1.0770679708e+000	 1.0535356103e+000	-1.6471571675e+000
 1.0653667685e+000	 1.0653667685e+000	-1.7057498048e+000
 1.0535356103e+000	 1.0770679708e+000	-1.7612413258e+000
 1.0415766726e+000	 1.0886370883e+000	-1.8131011128e+000
 1.0294921783e+000	 1.1000720409e+000	-1.8607726246e+000
 1.0172843948e+000	 1.1113707986e+000	-1.9036754221e+000
 1.0049556330e+000	 1.1225313827e+000	-1.9412084966e+000
 1.1423973494e+000	 1.0227408064e+000	-1.4436102564e+000
 1.1310392512e+000	 1.0352877560e+000	-1.5103363622e+000
 1.1195405341e+000	 1.0477115864e+000	-1.5756849163e+000
 1.1079032118e+000	 1.0600099458e+000	-1.6392611194e+000
 1.0961293502e+000	 1.0721805264e+000	-1.7006337917e+000
 1.0842210662e+000	 1.0842210662e+000	-1.7593368631e+000
 1.0721805264e+000	 1.0961293502e+000	-1.8148710325e+000
 1.0600099458e+000	 1.1079032118e+000	-1.8667055908e+000
 1.0477115864e+000	 1.1195405341e+000	-1.9142803972e+000
 1.0352877560e+000	 1.1310392512e+000	-1.9570080021e+000
 1.0227408064e+000	 1.1423973494e+000	-1.9942759055e+000
 8.4488833928e-001	 9.4373686216e-001	-9.2872752433e-001
 8.3442196966e-001	 9.5300340716e-001	-9.9335095379e-001
 8.2385785312e-001	 9.6215055747e-001	-1.0595287332e+000
 8.1319803631e-001	 9.7117678475e-001	-1.1267782491e+000
 8.0244459730e-001	 9.8008060741e-001	-1.1946170222e+000
 7.9159964427e-001	 9.8886059143e-001	-1.2625640307e+000
 7.8066531416e-001	 9.9751535112e-001	-1.3301410367e+000
 7.6964377126e-001	 1.0060435498e+000	-1.3968739093e+000
 7.5853720581e-001	 1.0144439005e+000	-1.4622939377e+000
 7.4734783261e-001	 1.0227151665e+000	-1.5259391303e+000
 7.3607788956e-001	 1.0308561619e+000	-1.5873554921e+000
 8.6267371270e-001	 9.6360305242e-001	-1.1048606810e+000
 8.5198702013e-001	 9.7306466339e-001	-1.1620500701e+000
 8.4120052302e-001	 9.8240436636e-001	-1.2203933132e+000
 8.3031631108e-001	 9.9162060078e-001	-1.2794428175e+000
 8.1933650614e-001	 1.0007118539e+000	-1.3387481813e+000
 8.0826326077e-001	 1.0096766615e+000	-1.3978575559e+000
 7.9709875688e-001	 1.0185136087e+000	-1.4563190163e+000
 7.8584520432e-001	 1.0272213308e+000	-1.5136819359e+000
 7.7450483944e-001	 1.0357985136e+000	-1.5694983579e+000
 7.6307992366e-001	 1.0442438944e+000	-1.6233243567e+000
 7.5157274199e-001	 1.0525562623e+000	-1.6747213846e+000
 8.8045904610e-001	 9.8346919799e-001	-1.2620992088e+000
 8.6955203108e-001	 9.9312587450e-001	-1.3132595186e+000
 8.5854315389e-001	 1.0026581297e+000	-1.3651365617e+000
 8.4743454733e-001	 1.0120643708e+000	-1.4172822345e+000
 8.3622837699e-001	 1.0213430540e+000	-1.4692439716e+000
 8.2492683979e-001	 1.0304926847e+000	-1.5205662066e+000
 8.1353216263e-001	 1.0395118191e+000	-1.5707918470e+000
 8.0204660093e-001	 1.0483990641e+000	-1.6194637573e+000
 7.9047243714e-001	 1.0571530786e+000	-1.6661262416e+000
 7.7881197931e-001	 1.0657725738e+000	-1.7103265203e+000
 7.6706755955e-001	 1.0742563139e+000	-1.7516161930e+000
 8.9824434394e-001	 1.0033353038e+000	-1.4016569731e+000
 8.8711700690e-001	 1.0131870455e+000	-1.4480094316e+000
 8.7588575008e-001	 1.0229118525e+000	-1.4946555730e+000
 8.6455274935e-001	 1.0325081000e+000	-1.5411128884e+000
 8.5312021405e-001	 1.0419742128e+000	-1.5868939825e+000
 8.4159038547e-001	 1.0513086664e+000	-1.6315081948e+000
 8.2996553551e-001	 1.0605099875e+000	-1.6744632372e+000
 8.1824796514e-001	 1.0695767551e+000	-1.7152668410e+000
 8.0644000291e-001	 1.0785076010e+000	-1.7534284049e+000
 7.9454400350e-001	 1.0873012102e+000	-1.7884606371e+000
 7.8256234613e-001	 1.0959563221e+000	-1.8198811826e+000
 9.1602961065e-001	 1.0232013749e+000	-1.5248011627e+000
 9.0468195199e-001	 1.0332481814e+000	-1.5674042449e+000
 8.9322831592e-001	 1.0431655398e+000	-1.6099388436e+000
 8.8167092142e-001	 1.0529517933e+000	-1.6518556332e+000
 8.7001202155e-001	 1.0626053355e+000	-1.6926011500e+000
 8.5825390200e-001	 1.0721246116e+000	-1.7316196327e+000
 8.4639887964e-001	 1.0815081192e+000	-1.7683548808e+000
 8.3444930100e-001	 1.0907544091e+000	-1.8022521208e+000
 8.2240754074e-001	 1.0998620859e+000	-1.8327598733e+000
 8.1027600016e-001	 1.1088298089e+000	-1.8593318105e+000
 7.9805710559e-001	 1.1176562923e+000	-1.8814285962e+000
 9.3381485069e-001	 1.0430674162e+000	-1.6328427587e+000
 9.2224687073e-001	 1.0533092871e+000	-1.6726115326e+000
 9.1057085575e-001	 1.0634191968e+000	-1.7120538610e+000
 8.9878906781e-001	 1.0733954560e+000	-1.7505225363e+000
 8.8690380371e-001	 1.0832364273e+000	-1.7873680786e+000
 8.7491739353e-001	 1.0929405255e+000	-1.8219408569e+000
 8.6283219912e-001	 1.1025062193e+000	-1.8535932240e+000
 8.5065061256e-001	 1.1119320312e+000	-1.8816816587e+000
 8.3837505462e-001	 1.1212165389e+000	-1.9055689029e+000
 8.2600797323e-001	 1.1303583753e+000	-1.9246260866e+000
 8.1355184181e-001	 1.1393562299e+000	-1.9382348274e+000
 9.5160006850e-001	 1.0629334326e+000	-1.7271270872e+000
 9.3981176752e-001	 1.0733703679e+000	-1.7648511133e+000
 9.2791337390e-001	 1.0836728285e+000	-1.8021351115e+000
 9.1590719280e-001	 1.0938390932e+000	-1.8382041441e+000
 9.0379556476e-001	 1.1038674932e+000	-1.8722839363e+000
 8.9158086424e-001	 1.1137564135e+000	-1.9036033342e+000
 8.7926549806e-001	 1.1235042932e+000	-1.9313967753e+000
 8.6685190386e-001	 1.1331096269e+000	-1.9549067603e+000
 8.5434254855e-001	 1.1425709651e+000	-1.9733863145e+000
 8.4173992663e-001	 1.1518869148e+000	-1.9861014286e+000
 8.2904655867e-001	 1.1610561405e+000	-1.9923334672e+000
 9.6938526853e-001	 1.0827994292e+000	-1.8090244456e+000
 9.5737664674e-001	 1.0934314285e+000	-1.8453843944e+000
 9.4525587472e-001	 1.1039264399e+000	-1.8813724505e+000
 9.3302530068e-001	 1.1142827099e+000	-1.9160572014e+000
 9.2068730893e-001	 1.1244985386e+000	-1.9485118514e+000
 9.0824431828e-001	 1.1345722806e+000	-1.9778170768e+000
 8.9569878056e-001	 1.1445023461e+000	-2.0030638881e+000
 8.8305317897e-001	 1.1542872015e+000	-2.0233564862e+000
 8.7031002650e-001	 1.1639253700e+000	-2.0378151002e+000
 8.5747186430e-001	 1.1734154328e+000	-2.0455787957e+000
 8.4454126003e-001	 1.1827560293e+000	-2.0458082399e+000
 9.8717045521e-001	 1.1026654109e+000	-1.8799207930e+000
 9.7494151279e-001	 1.1134924741e+000	-1.9155039229e+000
 9.6259836252e-001	 1.1241800362e+000	-1.9509997922e+000
 9.5014339572e-001	 1.1347263113e+000	-1.9852927639e+000
 9.3757904042e-001	 1.1451295685e+000	-2.0172767458e+000
 9.2490775983e-001	 1.1553881321e+000	-2.0458585010e+000
 9.1213205075e-001	 1.1655003833e+000	-2.0699609582e+000
 8.9925444193e-001	 1.1754647601e+000	-2.0885265075e+000
 8.8627749248e-001	 1.1852797589e+000	-2.1005202680e+000
 8.7320379017e-001	 1.1949439347e+000	-2.1049333136e+000
 8.6003594977e-001	 1.2044559019e+000	-2.1007858423e+000
 1.0049556330e+000	 1.1225313827e+000	-1.9412084966e+000
 9.9250637006e-001	 1.1335535097e+000	-1.9765231180e+000
 9.7994084166e-001	 1.1444336223e+000	-2.0122840764e+000
 9.6726148220e-001	 1.1551699025e+000	-2.0471646583e+000
 9.5447076347e-001	 1.1657605880e+000	-2.0798535524e+000
 9.4157119305e-001	 1.1762039732e+000	-2.1090586745e+000
 9.2856531271e-001	 1.1864984099e+000	-2.1335109820e+000
 9.1545569679e-001	 1.1966423081e+000	-2.1519682650e+000
 9.0224495048e-001	 1.2066341371e+000	-2.1632188959e+000
 8.8893570818e-001	 1.2164724257e+000	-2.1660855240e+000
 8.7553063176e-001	 1.2261557636e+000	-2.1594286988e+000
 1.0227408064e+000	 1.1423973494e+000	-1.9942759055e+000
 1.0100712229e+000	 1.1536145402e+000	-2.0297661631e+000
 9.9728331646e-001	 1.1646872033e+000	-2.0665144812e+000
 9.8437956441e-001	 1.1756134885e+000	-2.1029582457e+000
 9.7136248230e-001	 1.1863916024e+000	-2.1375557686e+000
 9.5823462210e-001	 1.1970198092e+000	-2.1687919059e+000
 9.4499857057e-001	 1.2074964313e+000	-2.1951824348e+000
 9.3165694760e-001	 1.2178198509e+000	-2.2152783935e+000
 9.1821240449e-001	 1.2279885099e+000	-2.2276703679e+000
 9.0466762225e-001	 1.2380009114e+000	-2.2309927057e+000
 8.9102530988e-001	 1.2478556198e+000	-2.2239276420e+000
 7.3607788956e-001	 1.0308561619e+000	-1.5873554921e+000
 7.2472963597e-001	 1.0388657520e+000	-1.6480802100e+000
 7.1330535038e-001	 1.0467428524e+000	-1.7096469826e+000
 7.0180732985e-001	 1.0544864310e+000	-1.7716207960e+000
 6.9023788874e-001	 1.0620955081e+000	-1.8335908366e+000
 6.7859935721e-001	 1.0695691567e+000	-1.8951715782e+000
 6.6689407973e-001	 1.0769065033e+000	-1.9560037937e+000
 6.5512441360e-001	 1.0841067275e+000	-2.0143653555e+000
 6.4329272745e-001	 1.0911690624e+000	-2.0684192250e+000
 6.3140139974e-001	 1.0980927950e+000	-2.1178104850e+000
 6.1945281727e-001	 1.1048772657e+000	-2.1622047067e+000
 7.5157274199e-001	 1.0525562623e+000	-1.6747213846e+000
 7.3998560129e-001	 1.0607344587e+000	-1.7255789994e+000
 7.2832082808e-001	 1.0687773766e+000	-1.7776552535e+000
 7.1658076777e-001	 1.0766839618e+000	-1.8303412670e+000
 7.0476778344e-001	 1.0844532142e+000	-1.8830588263e+000
 6.9288425429e-001	 1.0920841874e+000	-1.9352618172e+000
 6.8093257415e-001	 1.0995759892e+000	-1.9864375666e+000
 6.6891514995e-001	 1.1069277821e+000	-2.0361080861e+000
 6.5683440017e-001	 1.1141387832e+000	-2.0828304431e+000
 6.4469275334e-001	 1.1212082642e+000	-2.1241990216e+000
 6.3249264651e-001	 1.1281355518e+000	-2.1597042208e+000
 7.6706755955e-001	 1.0742563139e+000	-1.7516161930e+000
 7.5524153229e-001	 1.0826031163e+000	-1.7923606581e+000
 7.4333627200e-001	 1.0908118511e+000	-1.8346994680e+000
 7.3135417246e-001	 1.0988814427e+000	-1.8778759679e+000
 7.1929764545e-001	 1.1068108701e+000	-1.9211701250e+000
 7.0716911923e-001	 1.1145991674e+000	-1.9639002846e+000
 6.9497103699e-001	 1.1222454241e+000	-2.0054248175e+000
 6.8270585527e-001	 1.1297487855e+000	-2.0451436530e+000
 6.7037604242e-001	 1.1371084523e+000	-2.0824996923e+000
 6.5798407704e-001	 1.1443236814e+000	-2.1162078739e+000
 6.4553244642e-001	 1.1513937857e+000	-2.1435349889e+000
 7.8256234613e-001	 1.0959563221e+000	-1.8198811826e+000
 7.7049743278e-001	 1.1044717301e+000	-1.8506116687e+000
 7.5835168590e-001	 1.1128462816e+000	-1.8832852747e+000
 7.4612754760e-001	 1.1210788792e+000	-1.9170219274e+000
 7.3382747840e-001	 1.1291684812e+000	-1.9509836553e+000
 7.2145395561e-001	 1.1371141023e+000	-1.9843766446e+000
 7.0900947176e-001	 1.1449148137e+000	-2.0164531722e+000
 6.9649653302e-001	 1.1525697432e+000	-2.0465134079e+000
 6.8391765760e-001	 1.1600780755e+000	-2.0739070803e+000
 6.7127537416e-001	 1.1674390524e+000	-2.0980350004e+000
 6.5857222024e-001	 1.1746519730e+000	-2.1176878759e+000
 7.9805710559e-001	 1.1176562923e+000	-1.8814285962e+000
 7.8575330657e-001	 1.1263403057e+000	-1.9025687087e+000
 7.7336707351e-001	 1.1348806736e+000	-1.9259495270e+000
 7.6090089688e-001	 1.1432762768e+000	-1.9505902861e+000
 7.4835728592e-001	 1.1515260532e+000	-1.9755573563e+000
 7.3573876698e-001	 1.1596289979e+000	-1.9999665799e+000
 7.2304788196e-001	 1.1675841636e+000	-2.0229854707e+000
 7.1028718663e-001	 1.1753906609e+000	-2.0438352673e+000
 6.9745924908e-001	 1.1830476584e+000	-2.0617928351e+000
 6.8456664802e-001	 1.1905543830e+000	-2.0761924078e+000
 6.7161197125e-001	 1.1979101196e+000	-2.0864271648e+000
 8.1355184181e-001	 1.1393562299e+000	-1.9382348274e+000
 8.0100915748e-001	 1.1482088484e+000	-1.9505143092e+000
 7.8838243861e-001	 1.1569150325e+000	-1.9652582634e+000
 7.7567422401e-001	 1.1654736412e+000	-1.9814064222e+000
 7.6288707165e-001	 1.1738835917e+000	-1.9979502692e+000
 7.5002355694e-001	 1.1821438597e+000	-2.0139356390e+000
 7.3708627110e-001	 1.1902534795e+000	-2.0284651668e+000
 7.2407781956e-001	 1.1982115444e+000	-2.0407005774e+000
 7.1100082024e-001	 1.2060172070e+000	-2.0498648073e+000
 6.9785790195e-001	 1.2136696789e+000	-2.0552439512e+000
 6.8465170270e-001	 1.2211682313e+000	-2.0561890267e+000
 8.2904655867e-001	 1.1610561405e+000	-1.9923334672e+000
 8.1626498933e-001	 1.1700773638e+000	-1.9967721229e+000
 8.0339778493e-001	 1.1789493638e+000	-2.0038040523e+000
 7.9044753268e-001	 1.1876709778e+000	-2.0123092180e+000
 7.7741683922e-001	 1.1962411022e+000	-2.0212235591e+000
 7.6430832903e-001	 1.2046586934e+000	-2.0295418384e+000
 7.5112464270e-001	 1.2129227671e+000	-2.0363203267e+000
 7.3786843525e-001	 1.2210323994e+000	-2.0406793145e+000
 7.2454237448e-001	 1.2289867268e+000	-2.0418054408e+000
 7.1114913926e-001	 1.2367849459e+000	-2.0389538321e+000
 6.9769141785e-001	 1.2444263139e+000	-2.0314500435e+000
 8.4454126003e-001	 1.1827560293e+000	-2.0458082399e+000
 8.3152080591e-001	 1.1919458574e+000	-2.0437018512e+000
 8.1841311625e-001	 1.2009836731e+000	-2.0442027811e+000
 8.0522082657e-001	 1.2098682922e+000	-2.0461495740e+000
 7.9194659226e-001	 1.2185985904e+000	-2.0484406088e+000
 7.7859308685e-001	 1.2271735045e+000	-2.0500371803e+000
 7.6516300026e-001	 1.2355920320e+000	-2.0499664067e+000
 7.5165903715e-001	 1.2438532316e+000	-2.0473239507e+000
 7.3808391518e-001	 1.2519562236e+000	-2.0412765451e+000
 7.2444036328e-001	 1.2599001897e+000	-2.0310643136e+000
 7.1073111996e-001	 1.2676843733e+000	-2.0160028780e+000
 8.6003594977e-001	 1.2044559019e+000	-2.1007858423e+000
 8.4677661106e-001	 1.2138143345e+000	-2.0936938723e+000
 8.3342843630e-001	 1.2230179659e+000	-2.0890899611e+000
 8.1999410938e-001	 1.2320655899e+000	-2.0857882685e+000
 8.0647633441e-001	 1.2409560618e+000	-2.0826663021e+000
 7.9287783395e-001	 1.2496882988e+000	-2.0786682230e+000
 7.7920134729e-001	 1.2582612799e+000	-2.0728079643e+000
 7.6544962871e-001	 1.2666740467e+000	-2.0641721530e+000
 7.5162544573e-001	 1.2749257032e+000	-2.0519228227e+000
 7.3773157734e-001	 1.2830154163e+000	-2.0352999073e+000
 7.2377081230e-001	 1.2909424153e+000	-2.0136235074e+000
 8.7553063176e-001	 1.2261557636e+000	-2.1594286988e+000
 8.6203240858e-001	 1.2356828007e+000	-2.1491636099e+000
 8.4844374884e-001	 1.2450522477e+000	-2.1411166079e+000
 8.3476738481e-001	 1.2542628766e+000	-2.1340932412e+000
 8.2100606929e-001	 1.2633135221e+000	-2.1269655971e+000
 8.0716257390e-001	 1.2722030818e+000	-2.1186758201e+000
 7.9323968730e-001	 1.2809305164e+000	-2.1082394351e+000
 7.7924021338e-001	 1.2894948503e+000	-2.0947484611e+000
 7.6516696950e-001	 1.2978951713e+000	-2.0773743039e+000
 7.5102278475e-001	 1.3061306312e+000	-2.0553704168e+000
 7.3681049811e-001	 1.3142004456e+000	-2.0280747187e+000
 8.9102530988e-001	 1.2478556198e+000	-2.2239276420e+000
 8.7728820228e-001	 1.2575512615e+000	-2.2125456713e+000
 8.6345905763e-001	 1.2670865240e+000	-2.2029447480e+000
 8.4954065654e-001	 1.2764601577e+000	-2.1939363738e+000
 8.3553580053e-001	 1.2856709767e+000	-2.1844014755e+000
 8.2144731029e-001	 1.2947178591e+000	-2.1732941309e+000
 8.0727802380e-001	 1.3035997473e+000	-2.1596450882e+000
 7.9303079459e-001	 1.3123156482e+000	-2.1425650665e+000
 7.7870848989e-001	 1.3208646337e+000	-2.1212478233e+000
 7.6431398883e-001	 1.3292458404e+000	-2.0949729770e+000
 7.4985018066e-001	 1.3374584701e+000	-2.0632129928e+000
 6.1945281727e-001	 1.1048772657e+000	-2.1622047067e+000
 6.0745117825e-001	 1.1115208828e+000	-2.2043118838e+000
 5.9539709325e-001	 1.1180241233e+000	-2.2467534402e+000
 5.8329296476e-001	 1.1243864900e+000	-2.2890856426e+000
 5.7114119775e-001	 1.1306075389e+000	-2.3309014185e+000
 5.5894419814e-001	 1.1366868794e+000	-2.3718307228e+000
 5.4670437139e-001	 1.1426241741e+000	-2.4115408952e+000
 5.3442412108e-001	 1.1484191381e+000	-2.4497370075e+000
 5.2210584754e-001	 1.1540715394e+000	-2.4861621988e+000
 5.0975194641e-001	 1.1595811979e+000	-2.5205979941e+000
 4.9736480731e-001	 1.1649479851e+000	-2.5528646071e+000
 6.3249264651e-001	 1.1281355518e+000	-2.1597042208e+000
 6.2023836626e-001	 1.1349190208e+000	-2.1923131209e+000
 6.0793053600e-001	 1.1415591582e+000	-2.2249925465e+000
 5.9557160883e-001	 1.1480554562e+000	-2.2573173249e+000
 5.8316404031e-001	 1.1544074617e+000	-2.2889014498e+000
 5.7071028701e-001	 1.1606147757e+000	-2.3193984154e+000
 5.5821280504e-001	 1.1666770538e+000	-2.3485015475e+000
 5.4567404858e-001	 1.1725940051e+000	-2.3759443291e+000
 5.3309646847e-001	 1.1783653926e+000	-2.4015007171e+000
 5.2048251078e-001	 1.1839910325e+000	-2.4249854504e+000
 5.0783461546e-001	 1.1894707936e+000	-2.4462543420e+000
 6.4553244642e-001	 1.1513937857e+000	-2.1435349889e+000
 6.3302552550e-001	 1.1583171062e+000	-2.1675204097e+000
 6.2046395056e-001	 1.1650941401e+000	-2.1914135371e+000
 6.0785022527e-001	 1.1717243693e+000	-2.2148068286e+000
 5.9518685581e-001	 1.1782073310e+000	-2.2373337202e+000
 5.8247634941e-001	 1.1845426183e+000	-2.2586689393e+000
 5.6972121280e-001	 1.1907298794e+000	-2.2785288222e+000
 5.5692395076e-001	 1.1967688177e+000	-2.2966716326e+000
 5.4408706467e-001	 1.2026591912e+000	-2.3128978791e+000
 5.3121305102e-001	 1.2084008122e+000	-2.3270506288e+000
 5.1830440006e-001	 1.2139935469e+000	-2.3390158124e+000
 6.5857222024e-001	 1.1746519730e+000	-2.1176878759e+000
 6.4581265917e-001	 1.1817151448e+000	-2.1338942127e+000
 6.3299734006e-001	 1.1886290750e+000	-2.1499186149e+000
 6.2012881715e-001	 1.1953932349e+000	-2.1653703179e+000
 6.0720964727e-001	 1.2020071527e+000	-2.1799006584e+000
 5.9424238828e-001	 1.2084704129e+000	-2.1932033774e+000
 5.8122959754e-001	 1.2147826569e+000	-2.2050149368e+000
 5.6817383045e-001	 1.2209435820e+000	-2.2151148465e+000
 5.5507763888e-001	 1.2269529411e+000	-2.2233259993e+000
 5.4194356980e-001	 1.2328105430e+000	-2.2295150105e+000
 5.2877416372e-001	 1.2385162512e+000	-2.2335925561e+000
 6.7161197125e-001	 1.1979101196e+000	-2.0864271648e+000
 6.5859977046e-001	 1.2051131424e+000	-2.0954266912e+000
 6.4553070762e-001	 1.2121639687e+000	-2.1044389097e+000
 6.3240738755e-001	 1.2190620592e+000	-2.1128522869e+000
 6.1923241769e-001	 1.2258069327e+000	-2.1203345894e+000
 6.0600840655e-001	 1.2323981657e+000	-2.1265964236e+000
 5.9273796215e-001	 1.2388353924e+000	-2.1313915646e+000
 5.7942369044e-001	 1.2451183039e+000	-2.1345173077e+000
 5.6606819387e-001	 1.2512466486e+000	-2.1358148386e+000
 5.5267406980e-001	 1.2572202312e+000	-2.1351696177e+000
 5.3924390905e-001	 1.2630389125e+000	-2.1325117740e+000
 6.8465170270e-001	 1.2211682313e+000	-2.0561890267e+000
 6.7138686257e-001	 1.2285111049e+000	-2.0563650011e+000
 6.5806405638e-001	 1.2356988270e+000	-2.0589460551e+000
 6.4468593953e-001	 1.2427308479e+000	-2.0611369034e+000
 6.3125517008e-001	 1.2496066770e+000	-2.0624086649e+000
 6.1777440718e-001	 1.2563258826e+000	-2.0624867205e+000
 6.0424630949e-001	 1.2628880917e+000	-2.0611394021e+000
 5.9067353357e-001	 1.2692929896e+000	-2.0581783838e+000
 5.7705873237e-001	 1.2755403196e+000	-2.0534591049e+000
 5.6340455370e-001	 1.2816298827e+000	-2.0468812197e+000
 5.4971363869e-001	 1.2875615371e+000	-2.0383890689e+000
 6.9769141785e-001	 1.2444263139e+000	-2.0314500435e+000
 6.8417393870e-001	 1.2519090382e+000	-2.0230092152e+000
 6.7059738948e-001	 1.2592336560e+000	-2.0176056450e+000
 6.5696447616e-001	 1.2663996071e+000	-2.0141575858e+000
 6.4327790744e-001	 1.2734063916e+000	-2.0099460688e+000
 6.2954039311e-001	 1.2802535696e+000	-2.0045655372e+000
 6.1575464245e-001	 1.2869407610e+000	-1.9977961629e+000
 6.0192336263e-001	 1.2934676450e+000	-1.9894606265e+000
 5.8804925714e-001	 1.2998339602e+000	-1.9794246128e+000
 5.7413502419e-001	 1.3060395037e+000	-1.9675973459e+000
 5.6018335524e-001	 1.3120841310e+000	-1.9539321610e+000
 7.1073111996e-001	 1.2676843733e+000	-2.0160028780e+000
 6.9696100204e-001	 1.2753069481e+000	-1.9998230818e+000
 6.8313071005e-001	 1.2827684614e+000	-1.9865284573e+000
 6.6924300052e-001	 1.2900683426e+000	-1.9759651251e+000
 6.5530063278e-001	 1.2972060824e+000	-1.9668277216e+000
 6.4130636726e-001	 1.3041812327e+000	-1.9565840009e+000
 6.2726296390e-001	 1.3109934062e+000	-1.9449631980e+000
 6.1317318045e-001	 1.3176422763e+000	-1.9317956455e+000
 5.9903977091e-001	 1.3241275766e+000	-1.9169532748e+000
 5.8486548396e-001	 1.3304491003e+000	-1.9003502596e+000
 5.7065306131e-001	 1.3366067004e+000	-1.8819104383e+000
 7.2377081230e-001	 1.2909424153e+000	-2.0136235074e+000
 7.0974805580e-001	 1.2987048405e+000	-1.9906078513e+000
 6.9566402121e-001	 1.3063032492e+000	-1.9702431895e+000
 6.8152151567e-001	 1.3137370603e+000	-1.9523938907e+000
 6.6732334910e-001	 1.3210057554e+000	-1.9370022438e+000
 6.5307233260e-001	 1.3281088778e+000	-1.9223590634e+000
 6.3877127672e-001	 1.3350460334e+000	-1.9063133912e+000
 6.2442298983e-001	 1.3418168895e+000	-1.8886993327e+000
 6.1003027645e-001	 1.3484211747e+000	-1.8692459894e+000
 5.9559593567e-001	 1.3548586787e+000	-1.8476991478e+000
 5.8112275954e-001	 1.3611292514e+000	-1.8238644046e+000
 7.3681049811e-001	 1.3142004456e+000	-2.0280747187e+000
 7.2253510315e-001	 1.3221027211e+000	-1.9991544710e+000
 7.0819732611e-001	 1.3298380252e+000	-1.9725466737e+000
 6.9380002467e-001	 1.3374057663e+000	-1.9481932452e+000
 6.7934605941e-001	 1.3448054164e+000	-1.9262743734e+000
 6.6483829205e-001	 1.3520365110e+000	-1.9066321959e+000
 6.5027958379e-001	 1.3590986486e+000	-1.8867866799e+000
 6.3567279358e-001	 1.3659914906e+000	-1.8649754204e+000
 6.2102077649e-001	 1.3727147607e+000	-1.8408879655e+000
 6.0632638202e-001	 1.3792682448e+000	-1.8142715256e+000
 5.9159245253e-001	 1.3856517902e+000	-1.7849349121e+000
 7.4985018066e-001	 1.3374584701e+000	-2.0632129928e+000
 7.3532214732e-001	 1.3455005959e+000	-2.0300686144e+000
 7.2073062788e-001	 1.3533727953e+000	-1.9992456154e+000
 7.0607853061e-001	 1.3610744663e+000	-1.9703985597e+000
 6.9136876671e-001	 1.3686050715e+000	-1.9432726683e+000
 6.7660424856e-001	 1.3759641382e+000	-1.9177046055e+000
 6.6178788798e-001	 1.3831512578e+000	-1.8934093857e+000
 6.4692259452e-001	 1.3901660856e+000	-1.8674715026e+000
 6.3201127378e-001	 1.3970083406e+000	-1.8387319099e+000
 6.1705682569e-001	 1.4036778048e+000	-1.8069342467e+000
 6.0206214291e-001	 1.4101743228e+000	-1.7718856223e+000
 4.9736480731e-001	 1.1649479851e+000	-2.5528646071e+000
 4.8494494752e-001	 1.1701725973e+000	-2.5830678343e+000
 4.7249659800e-001	 1.1752541932e+000	-2.6114324540e+000
 4.6002212396e-001	 1.1801927979e+000	-2.6380275174e+000
 4.4752387933e-001	 1.1849884863e+000	-2.6629582658e+000
 4.3500420550e-001	 1.1896413827e+000	-2.6863660699e+000
 4.2246543011e-001	 1.1941516598e+000	-2.7084283424e+000
 4.0990986582e-001	 1.1985195382e+000	-2.7293584210e+000
 3.9733980923e-001	 1.2027452861e+000	-2.7494054176e+000
 3.8475753968e-001	 1.2068292178e+000	-2.7688540317e+000
 3.7216531816e-001	 1.2107716938e+000	-2.7880243242e+000
 5.0783461546e-001	 1.1894707936e+000	-2.4462543420e+000
 4.9515331066e-001	 1.1948053868e+000	-2.4654332099e+000
 4.8244291640e-001	 1.1999939531e+000	-2.4827621276e+000
 4.6970584769e-001	 1.2050365182e+000	-2.4983388323e+000
 4.5694450800e-001	 1.2099331586e+000	-2.5123016980e+000
 4.4416128801e-001	 1.2146840010e+000	-2.5248296608e+000
 4.3135856436e-001	 1.2192892220e+000	-2.5361421154e+000
 4.1853869841e-001	 1.2237490467e+000	-2.5464987787e+000
 4.0570403507e-001	 1.2280637489e+000	-2.5561995177e+000
 3.9285690169e-001	 1.2322336498e+000	-2.5655841370e+000
 3.7999960685e-001	 1.2362591171e+000	-2.5750321233e+000
 5.1830440006e-001	 1.2139935469e+000	-2.3390158124e+000
 5.0536165083e-001	 1.2194381209e+000	-2.3489765914e+000
 4.9238921242e-001	 1.2247336574e+000	-2.3572287437e+000
 4.7938954962e-001	 1.2298801827e+000	-2.3638975759e+000
 4.6636511547e-001	 1.2348777747e+000	-2.3691526853e+000
 4.5331834992e-001	 1.2397265631e+000	-2.3732078929e+000
 4.4025167860e-001	 1.2444267276e+000	-2.3763211481e+000
 4.2716751158e-001	 1.2489784985e+000	-2.3787943990e+000
 4.1406824210e-001	 1.2533821548e+000	-2.3809734245e+000
 4.0095624548e-001	 1.2576380245e+000	-2.3832476253e+000
 3.8783387790e-001	 1.2617464830e+000	-2.3860497668e+000
 5.2877416372e-001	 1.2385162512e+000	-2.2335925561e+000
 5.1556997059e-001	 1.2440708057e+000	-2.2358306412e+000
 5.0233548855e-001	 1.2494733122e+000	-2.2366151884e+000
 4.8907323219e-001	 1.2547237974e+000	-2.2360977365e+000
 4.7578570410e-001	 1.2598223410e+000	-2.2344769961e+000
 4.6247539351e-001	 1.2647690750e+000	-2.2319988145e+000
 4.4914477506e-001	 1.2695641830e+000	-2.2289561125e+000
 4.3579630749e-001	 1.2742078998e+000	-2.2256887880e+000
 4.2243243239e-001	 1.2787005101e+000	-2.2225835810e+000
 4.0905557307e-001	 1.2830423485e+000	-2.2200738953e+000
 3.9566813330e-001	 1.2872337979e+000	-2.2186395715e+000
 5.3924390905e-001	 1.2630389125e+000	-2.1325117740e+000
 5.2577827248e-001	 1.2687034474e+000	-2.1282282609e+000
 5.1228174727e-001	 1.2742129237e+000	-2.1228240561e+000
 4.9875689782e-001	 1.2795673687e+000	-2.1164753612e+000
 4.8520627624e-001	 1.2847668636e+000	-2.1094076760e+000
 4.7163242108e-001	 1.2898115431e+000	-2.1018958185e+000
 4.5803785596e-001	 1.2947015944e+000	-2.0942639208e+000
 4.4442508830e-001	 1.2994372569e+000	-2.0868853929e+000
 4.3079660805e-001	 1.3040188211e+000	-2.0801828485e+000
 4.1715488648e-001	 1.3084466280e+000	-2.0746279886e+000
 4.0350237498e-001	 1.3127210682e+000	-2.0707414345e+000
 5.4971363869e-001	 1.2875615371e+000	-2.0383890689e+000
 5.3598655906e-001	 1.2933360522e+000	-2.0285056489e+000
 5.2222799108e-001	 1.2989524981e+000	-2.0178787680e+000
 5.0844054892e-001	 1.3044109027e+000	-2.0067074778e+000
 4.9462683425e-001	 1.3097113488e+000	-1.9952415130e+000
 4.8078943491e-001	 1.3148539736e+000	-1.9837813931e+000
 4.6693092352e-001	 1.3198389681e+000	-1.9726785026e+000
 4.5305385617e-001	 1.3246665762e+000	-1.9623351442e+000
 4.3916077117e-001	 1.3293370941e+000	-1.9532045562e+000
 4.2525418775e-001	 1.3338508694e+000	-1.9457874300e+000
 4.1133660491e-001	 1.3382083003e+000	-1.9403622901e+000
 5.6018335524e-001	 1.3120841310e+000	-1.9539321610e+000
 5.4619483288e-001	 1.3179686261e+000	-1.9391045288e+000
 5.3217422245e-001	 1.3236920416e+000	-1.9239240862e+000
 5.1812418791e-001	 1.3292544057e+000	-1.9086106656e+000
 5.0404738049e-001	 1.3346558028e+000	-1.8934225244e+000
 4.8994643730e-001	 1.3398963729e+000	-1.8783871170e+000
 4.7582397996e-001	 1.3449763104e+000	-1.8637100323e+000
 4.6168261326e-001	 1.3498958639e+000	-1.8497721434e+000
 4.4752492382e-001	 1.3546553354e+000	-1.8370255803e+000
 4.3335347890e-001	 1.3592550790e+000	-1.8259934037e+000
 4.1917082505e-001	 1.3636955006e+000	-1.8172689884e+000
 5.7065306131e-001	 1.3366067004e+000	-1.8819104383e+000
 5.5640309649e-001	 1.3426011755e+000	-1.8622504349e+000
 5.4212044388e-001	 1.3484315603e+000	-1.8422139350e+000
 5.2780781723e-001	 1.3540978838e+000	-1.8219363467e+000
 5.1346791731e-001	 1.3596002319e+000	-1.8016257534e+000
 4.9910343053e-001	 1.3649387471e+000	-1.7815639136e+000
 4.8471702751e-001	 1.3701136275e+000	-1.7621069080e+000
 4.7031136171e-001	 1.3751251265e+000	-1.7436854380e+000
 4.5588906812e-001	 1.3799735514e+000	-1.7268047834e+000
 4.4145276194e-001	 1.3846592633e+000	-1.7120444282e+000
 4.2700503735e-001	 1.3891826753e+000	-1.7000573665e+000
 5.8112275954e-001	 1.3611292514e+000	-1.8238644046e+000
 5.6661135245e-001	 1.3672337064e+000	-1.7986249834e+000
 5.5206665785e-001	 1.3731710605e+000	-1.7730473623e+000
 5.3749143928e-001	 1.3789413433e+000	-1.7473034804e+000
 5.2288844706e-001	 1.3845446423e+000	-1.7216409799e+000
 5.0826041690e-001	 1.3899811025e+000	-1.6963843065e+000
 4.9361006839e-001	 1.3952509258e+000	-1.6719354181e+000
 4.7894010370e-001	 1.4003543701e+000	-1.6487741092e+000
 4.6425320614e-001	 1.4052917485e+000	-1.6274579587e+000
 4.4955203891e-001	 1.4100634284e+000	-1.6086219117e+000
 4.3483924378e-001	 1.4146698310e+000	-1.5929775084e+000
 5.9159245253e-001	 1.3856517902e+000	-1.7849349121e+000
 5.7681960330e-001	 1.3918662249e+000	-1.7539522454e+000
 5.6201286685e-001	 1.3979105484e+000	-1.7226021138e+000
 5.4717505649e-001	 1.4037847904e+000	-1.6910925894e+000
 5.3230897211e-001	 1.4094890402e+000	-1.6597103896e+000
 5.1741739869e-001	 1.4150234454e+000	-1.6288220918e+000
 5.0250310483e-001	 1.4203882115e+000	-1.5988749157e+000
 4.8756884137e-001	 1.4255836011e+000	-1.5703970817e+000
 4.7261733998e-001	 1.4306099329e+000	-1.5439977532e+000
 4.5765131184e-001	 1.4354675809e+000	-1.5203665767e+000
 4.4267344629e-001	 1.4401569739e+000	-1.5002728320e+000
 6.0206214291e-001	 1.4101743228e+000	-1.7718856223e+000
 5.8702785160e-001	 1.4164987373e+000	-1.7348528627e+000
 5.7195907336e-001	 1.4226500300e+000	-1.6973313738e+000
 5.5685867128e-001	 1.4286282313e+000	-1.6595647336e+000
 5.4172949480e-001	 1.4344334318e+000	-1.6218780942e+000
 5.2657437818e-001	 1.4400657820e+000	-1.5846795254e+000
 5.1139613904e-001	 1.4455254909e+000	-1.5484608815e+000
 4.9619757688e-001	 1.4508128258e+000	-1.5137982008e+000
 4.8098147173e-001	 1.4559281109e+000	-1.4813516463e+000
 4.6575058273e-001	 1.4608717271e+000	-1.4518650038e+000
 4.5050764685e-001	 1.4656441104e+000	-1.4261647521e+000
 3.7216531816e-001	 1.2107716938e+000	-2.7880243242e+000
 3.5956538610e-001	 1.2145731190e+000	-2.8054800339e+000
 3.4695996377e-001	 1.2182339414e+000	-2.8199640991e+000
 3.3435124988e-001	 1.2217546522e+000	-2.8321081974e+000
 3.2174142079e-001	 1.2251357850e+000	-2.8425654893e+000
 3.0913262957e-001	 1.2283779150e+000	-2.8520100268e+000
 2.9652700510e-001	 1.2314816584e+000	-2.8611361337e+000
 2.8392665122e-001	 1.2344476710e+000	-2.8706577546e+000
 2.7133364591e-001	 1.2372766476e+000	-2.8813077710e+000
 2.5875004047e-001	 1.2399693210e+000	-2.8938372837e+000
 2.4617785878e-001	 1.2425264611e+000	-2.9090148585e+000
 3.7999960685e-001	 1.2362591171e+000	-2.5750321233e+000
 3.6713443915e-001	 1.2401405644e+000	-2.5828596184e+000
 3.5426366561e-001	 1.2438784492e+000	-2.5875895323e+000
 3.4138953122e-001	 1.2474732729e+000	-2.5899579626e+000
 3.2851425815e-001	 1.2509255804e+000	-2.5907230151e+000
 3.1564004480e-001	 1.2542359591e+000	-2.5906641687e+000
 3.0276906487e-001	 1.2574050380e+000	-2.5905816103e+000
 2.8990346648e-001	 1.2604334868e+000	-2.5912955388e+000
 2.7704537134e-001	 1.2633220150e+000	-2.5936454342e+000
 2.6419687395e-001	 1.2660713707e+000	-2.5984892915e+000
 2.5136004078e-001	 1.2686823400e+000	-2.6067028166e+000
 3.8783387790e-001	 1.2617464830e+000	-2.3860497668e+000
 3.7470347516e-001	 1.2657079522e+000	-2.3873758867e+000
 3.6156735101e-001	 1.2695228992e+000	-2.3854507081e+000
 3.4842779672e-001	 1.2731918357e+000	-2.3811000925e+000
 3.3528708028e-001	 1.2767153178e+000	-2.3751730217e+000
 3.2214744540e-001	 1.2800939450e+000	-2.3685409377e+000
 3.0901111059e-001	 1.2833283593e+000	-2.3620970521e+000
 2.9588026828e-001	 1.2864192442e+000	-2.3567556213e+000
 2.8275708392e-001	 1.2893673238e+000	-2.3534511849e+000
 2.6964369517e-001	 1.2921733617e+000	-2.3531377657e+000
 2.5654221113e-001	 1.2948381601e+000	-2.3567880280e+000
 3.9566813330e-001	 1.2872337979e+000	-2.2186395715e+000
 3.8227249605e-001	 1.2912752890e+000	-2.2159090033e+000
 3.6887102181e-001	 1.2951672980e+000	-2.2097558028e+000
 3.5546604815e-001	 1.2989103471e+000	-2.2010812873e+000
 3.4205988886e-001	 1.3025050036e+000	-2.1908115757e+000
 3.2865483298e-001	 1.3059518792e+000	-2.1798969250e+000
 3.1525314384e-001	 1.3092516287e+000	-2.1693110328e+000
 3.0185705814e-001	 1.3124049496e+000	-2.1600503032e+000
 2.8846878507e-001	 1.3154125805e+000	-2.1531330713e+000
 2.7509050550e-001	 1.3182753004e+000	-2.1495987845e+000
 2.6172437110e-001	 1.3209939278e+000	-2.1505071371e+000
 4.0350237498e-001	 1.3127210682e+000	-2.0707414345e+000
 3.8984150368e-001	 1.3168425809e+000	-2.0657593877e+000
 3.7617467983e-001	 1.3208116519e+000	-2.0571746606e+000
 3.6250428726e-001	 1.3246288135e+000	-2.0459500013e+000
 3.4883268559e-001	 1.3282946443e+000	-2.0330751938e+000
 3.3516220917e-001	 1.3318097681e+000	-2.0195664136e+000
 3.2149516616e-001	 1.3351748528e+000	-2.0064108170e+000
 3.0783383753e-001	 1.3383906095e+000	-1.9944308315e+000
 2.9418047623e-001	 1.3414577916e+000	-1.9847204106e+000
 2.8053730629e-001	 1.3443771935e+000	-1.9784369425e+000
 2.6690652201e-001	 1.3471496498e+000	-1.9767650958e+000
 4.1133660491e-001	 1.3382083003e+000	-1.9403622901e+000
 3.9741049996e-001	 1.3424098346e+000	-1.9335924023e+000
 3.8347832689e-001	 1.3464559673e+000	-1.9225890026e+000
 3.6954251581e-001	 1.3503472413e+000	-1.9083835649e+000
 3.5560547216e-001	 1.3540842463e+000	-1.8920498499e+000
 3.4166957560e-001	 1.3576676183e+000	-1.8747020462e+000
 3.2773717911e-001	 1.3610980380e+000	-1.8574927672e+000
 3.1381060796e-001	 1.3643762305e+000	-1.8416109199e+000
 2.9989215883e-001	 1.3675029637e+000	-1.8282794601e+000
 2.8598409892e-001	 1.3704790474e+000	-1.8187530502e+000
 2.7208866515e-001	 1.3733053326e+000	-1.8143156353e+000
 4.1917082505e-001	 1.3636955006e+000	-1.8172689884e+000
 4.0497948679e-001	 1.3679770563e+000	-1.8073414968e+000
 3.9078196482e-001	 1.3721002507e+000	-1.7929810830e+000
 3.7658073557e-001	 1.3760656369e+000	-1.7752909052e+000
 3.6237825026e-001	 1.3798738161e+000	-1.7554206553e+000
 3.4817693390e-001	 1.3835254361e+000	-1.7345644597e+000
 3.3397918427e-001	 1.3870211908e+000	-1.7139586186e+000
 3.1978737092e-001	 1.3903618190e+000	-1.6948791998e+000
 3.0560383428e-001	 1.3935481032e+000	-1.6786395059e+000
 2.9143088474e-001	 1.3965808687e+000	-1.6665874315e+000
 2.7727080181e-001	 1.3994609826e+000	-1.6601027291e+000
 4.2700503735e-001	 1.3891826753e+000	-1.7000573665e+000
 4.1254846604e-001	 1.3935442524e+000	-1.6870284439e+000
 3.9808559545e-001	 1.3977445084e+000	-1.6694225608e+000
 3.8361894829e-001	 1.4017840069e+000	-1.6484072903e+000
 3.6915102159e-001	 1.4056633601e+000	-1.6252017019e+000
 3.5468428569e-001	 1.4093832281e+000	-1.6010740049e+000
 3.4022118318e-001	 1.4129443177e+000	-1.5773390096e+000
 3.2576412790e-001	 1.4163473815e+000	-1.5553554243e+000
 3.1131550402e-001	 1.4195932166e+000	-1.5365230090e+000
 2.9687766511e-001	 1.4226826639e+000	-1.5222796060e+000
 2.8245293328e-001	 1.4256166065e+000	-1.5140980671e+000
 4.3483924378e-001	 1.4146698310e+000	-1.5929775084e+000
 4.2011743962e-001	 1.4191114293e+000	-1.5764626104e+000
 4.0538922061e-001	 1.4233887469e+000	-1.5552901903e+000
 3.9065715573e-001	 1.4275023575e+000	-1.5306856326e+000
 3.7592378784e-001	 1.4314528847e+000	-1.5039315187e+000
 3.6119163260e-001	 1.4352410007e+000	-1.4763649940e+000
 3.4646317741e-001	 1.4388674251e+000	-1.4493749278e+000
 3.3174088040e-001	 1.4423329245e+000	-1.4243988883e+000
 3.1702716948e-001	 1.4456383106e+000	-1.4029199557e+000
 3.0232444140e-001	 1.4487844395e+000	-1.3864633961e+000
 2.8763506087e-001	 1.4517722108e+000	-1.3765932195e+000
 4.4267344629e-001	 1.4401569739e+000	-1.5002728320e+000
 4.2768640941e-001	 1.4446785935e+000	-1.4794808065e+000
 4.1269284211e-001	 1.4490329726e+000	-1.4540211585e+000
 3.9769535965e-001	 1.4532206953e+000	-1.4251711317e+000
 3.8269655071e-001	 1.4572423965e+000	-1.3942716322e+000
 3.6769897626e-001	 1.4610987603e+000	-1.3627242963e+000
 3.5270516852e-001	 1.4647905196e+000	-1.3319883237e+000
 3.3771762992e-001	 1.4683184545e+000	-1.3035771028e+000
 3.2273883208e-001	 1.4716833915e+000	-1.2790546522e+000
 3.0777121496e-001	 1.4748862021e+000	-1.2600319054e+000
 2.9281718587e-001	 1.4779278020e+000	-1.2481628644e+000
 4.5050764685e-001	 1.4656441104e+000	-1.4261647521e+000
 4.3525537731e-001	 1.4702457512e+000	-1.3999299947e+000
 4.1999646178e-001	 1.4746771918e+000	-1.3690938720e+000
 4.0473356181e-001	 1.4789390267e+000	-1.3349801764e+000
 3.8946931188e-001	 1.4830319018e+000	-1.2989836227e+000
 3.7420631829e-001	 1.4869565135e+000	-1.2625665911e+000
 3.5894715807e-001	 1.4907136076e+000	-1.2272556063e+000
 3.4369437793e-001	 1.4943039780e+000	-1.1946375807e+000
 3.2845049326e-001	 1.4977284659e+000	-1.1663558513e+000
 3.1321798717e-001	 1.5009879582e+000	-1.1441060391e+000
 2.9799930958e-001	 1.5040833867e+000	-1.1296317607e+000
 2.4617785878e-001	 1.2425264611e+000	-2.9090148585e+000
 2.3362097874e-001	 1.2449485205e+000	-2.9235407828e+000
 2.2107947735e-001	 1.2472367342e+000	-2.9342143955e+000
 2.0855528842e-001	 1.2493919777e+000	-2.9419557276e+000
 1.9605031575e-001	 1.2514151596e+000	-2.9476813583e+000
 1.8356643257e-001	 1.2533072201e+000	-2.9523037534e+000
 1.7110548102e-001	 1.2550691308e+000	-2.9567305896e+000
 1.5866927164e-001	 1.2567018928e+000	-2.9618640659e+000
 1.4625958289e-001	 1.2582065363e+000	-2.9686002005e+000
 1.3387816074e-001	 1.2595841192e+000	-2.9778281146e+000
 1.2152671826e-001	 1.2608357263e+000	-2.9904293026e+000
 2.5136004078e-001	 1.2686823400e+000	-2.6067028166e+000
 2.3853883137e-001	 1.2711553851e+000	-2.6145708698e+000
 2.2573332434e-001	 1.2734917670e+000	-2.6184831293e+000
 2.1294549421e-001	 1.2756923796e+000	-2.6194775776e+000
 2.0017728485e-001	 1.2777581506e+000	-2.6185874461e+000
 1.8743060893e-001	 1.2796900401e+000	-2.6168405046e+000
 1.7470734737e-001	 1.2814890399e+000	-2.6152583360e+000
 1.6200934880e-001	 1.2831561725e+000	-2.6148555963e+000
 1.4933842914e-001	 1.2846924896e+000	-2.6166392585e+000
 1.3669637111e-001	 1.2860990714e+000	-2.6216078417e+000
 1.2408492384e-001	 1.2873770255e+000	-2.6307506252e+000
 2.5654221113e-001	 1.2948381601e+000	-2.3567880280e+000
 2.4345667294e-001	 1.2973621908e+000	-2.3602363815e+000
 2.3038716087e-001	 1.2997467407e+000	-2.3594285971e+000
 2.1733569013e-001	 1.3019927223e+000	-2.3555118986e+000
 2.0430424467e-001	 1.3041010823e+000	-2.3496285711e+000
 1.9129477660e-001	 1.3060728006e+000	-2.3429151981e+000
 1.7830920561e-001	 1.3079088896e+000	-2.3365018805e+000
 1.6534941845e-001	 1.3096103927e+000	-2.3315114367e+000
 1.5241726847e-001	 1.3111783833e+000	-2.3290585841e+000
 1.3951457514e-001	 1.3126139639e+000	-2.3302491007e+000
 1.2664312367e-001	 1.3139182650e+000	-2.3361789690e+000
 2.6172437110e-001	 1.3209939278e+000	-2.1505071371e+000
 2.4837450467e-001	 1.3235689440e+000	-2.1512174209e+000
 2.3504098809e-001	 1.3260016620e+000	-2.1472074351e+000
 2.2172587726e-001	 1.3282930124e+000	-2.1397251608e+000
 2.0843119624e-001	 1.3304439613e+000	-2.1300145432e+000
 1.9515893654e-001	 1.3324555085e+000	-2.1193146727e+000
 1.8191105664e-001	 1.3343286865e+000	-2.1088414931e+000
 1.6868948142e-001	 1.3360645600e+000	-2.0997514545e+000
 1.5549610164e-001	 1.3376642240e+000	-2.0932835802e+000
 1.4233277354e-001	 1.3391288034e+000	-2.0906781978e+000
 1.2920131837e-001	 1.3404594514e+000	-2.0931634216e+000
 2.6690652201e-001	 1.3471496498e+000	-1.9767650958e+000
 2.5329232780e-001	 1.3497756514e+000	-1.9746252595e+000
 2.3969480716e-001	 1.3522565372e+000	-1.9670657714e+000
 2.2611605672e-001	 1.3545932565e+000	-1.9554814311e+000
 2.1255814058e-001	 1.3567867943e+000	-1.9412647812e+000
 1.9902308972e-001	 1.3588381701e+000	-1.9258040943e+000
 1.8551290138e-001	 1.3607484371e+000	-1.9104813955e+000
 1.7202953854e-001	 1.3625186809e+000	-1.8966705293e+000
 1.5857492942e-001	 1.3641500184e+000	-1.8857352831e+000
 1.4515096700e-001	 1.3656435965e+000	-1.8790275735e+000
 1.3175950861e-001	 1.3670005914e+000	-1.8778857057e+000
 2.7208866515e-001	 1.3733053326e+000	-1.8143156353e+000
 2.5821014355e-001	 1.3759823195e+000	-1.8094215458e+000
 2.4434861925e-001	 1.3785113731e+000	-1.7986588394e+000
 2.3050622959e-001	 1.3808934612e+000	-1.7835336341e+000
 2.1668507874e-001	 1.3831295877e+000	-1.7655507733e+000
 2.0288723710e-001	 1.3852207922e+000	-1.7462115010e+000
 1.8911474071e-001	 1.3871681481e+000	-1.7270111758e+000
 1.7536959065e-001	 1.3889727622e+000	-1.7094370357e+000
 1.6165375258e-001	 1.3906357731e+000	-1.6949660250e+000
 1.4796915623e-001	 1.3921583499e+000	-1.6850626935e+000
 1.3431769500e-001	 1.3935416916e+000	-1.6811771786e+000
 2.7727080181e-001	 1.3994609826e+000	-1.6601027291e+000
 2.6312795315e-001	 1.4021889548e+000	-1.6531811578e+000
 2.4900242552e-001	 1.4047661762e+000	-1.6399581063e+000
 2.3489639697e-001	 1.4071936330e+000	-1.6220484378e+000
 2.2081201173e-001	 1.4094723482e+000	-1.6010675163e+000
 2.0675137966e-001	 1.4116033813e+000	-1.5786285324e+000
 1.9271657554e-001	 1.4135878261e+000	-1.5563398704e+000
 1.7870963858e-001	 1.4154268105e+000	-1.5358025315e+000
 1.6473257189e-001	 1.4171214946e+000	-1.5186076254e+000
 1.5078734195e-001	 1.4186730700e+000	-1.5063339433e+000
 1.3687587820e-001	 1.4200827586e+000	-1.5005456229e+000
 2.8245293328e-001	 1.4256166065e+000	-1.5140980671e+000
 2.6804575784e-001	 1.4283955639e+000	-1.5055312042e+000
 2.5365622715e-001	 1.4310209530e+000	-1.4902773800e+000
 2.3928655996e-001	 1.4334937784e+000	-1.4700583789e+000
 2.2493894060e-001	 1.4358150824e+000	-1.4465990348e+000
 2.1061551834e-001	 1.4379859440e+000	-1.4216241667e+000
 1.9631840676e-001	 1.4400074777e+000	-1.3968555574e+000
 1.8204968318e-001	 1.4418808323e+000	-1.3740089941e+000
 1.6781138813e-001	 1.4436071897e+000	-1.3547913827e+000
 1.5360552484e-001	 1.4451877637e+000	-1.3408979529e+000
 1.3943405884e-001	 1.4466237990e+000	-1.3340095652e+000
 2.8763506087e-001	 1.4517722108e+000	-1.3765932195e+000
 2.7296355883e-001	 1.4546021534e+000	-1.3664425294e+000
 2.5831002528e-001	 1.4572757102e+000	-1.3492958231e+000
 2.4367671966e-001	 1.4597939042e+000	-1.3269807460e+000
 2.2906586638e-001	 1.4621577968e+000	-1.3013312973e+000
 2.1447965413e-001	 1.4643684869e+000	-1.2741843312e+000
 1.9992023529e-001	 1.4664271094e+000	-1.2473761050e+000
 1.8538972527e-001	 1.4683348342e+000	-1.2227388909e+000
 1.7089020205e-001	 1.4700928649e+000	-1.2020976705e+000
 1.5642370563e-001	 1.4717024375e+000	-1.1872669269e+000
 1.4199223756e-001	 1.4731648196e+000	-1.1800475497e+000
 2.9281718587e-001	 1.4779278020e+000	-1.2481628644e+000
 2.7788135737e-001	 1.4808087297e+000	-1.2361913060e+000
 2.6296382108e-001	 1.4835304542e+000	-1.2170180771e+000
 2.4806687716e-001	 1.4860940168e+000	-1.1925764037e+000
 2.3319279009e-001	 1.4885004981e+000	-1.1648099105e+000
 2.1834378799e-001	 1.4907510167e+000	-1.1356686421e+000
 2.0352206201e-001	 1.4928467280e+000	-1.1071051322e+000
 1.8872976570e-001	 1.4947888229e+000	-1.0810705412e+000
 1.7396901444e-001	 1.4965785268e+000	-1.0595108822e+000
 1.5924188500e-001	 1.4982170980e+000	-1.0443633541e+000
 1.4455041500e-001	 1.4997058268e+000	-1.0375527984e+000
 2.9799930958e-001	 1.5040833867e+000	-1.1296317607e+000
 2.8279915468e-001	 1.5070152995e+000	-1.1153245614e+000
 2.6761761573e-001	 1.5097851916e+000	-1.0937384879e+000
 2.5245703357e-001	 1.5123941228e+000	-1.0669128661e+000
 2.3731971277e-001	 1.5148431927e+000	-1.0369021937e+000
 2.2220792089e-001	 1.5171335398e+000	-1.0057716324e+000
 2.0712388784e-001	 1.5192663399e+000	-9.7559254847e-001
 1.9206980528e-001	 1.5212428050e+000	-9.4843812522e-001
 1.7704782606e-001	 1.5230641822e+000	-9.2637907094e-001
 1.6206006367e-001	 1.5247317519e+000	-9.1147944258e-001
 1.4710859180e-001	 1.5262468275e+000	-9.0579260531e-001
 1.2152671826e-001	 1.2608357263e+000	-2.9904293026e+000
 1.0920509388e-001	 1.2619626278e+000	-3.0036054030e+000
 9.6916810941e-002	 1.2629657625e+000	-3.0145510967e+000
 8.4663507302e-002	 1.2638462899e+000	-3.0241204993e+000
 7.2446785896e-002	 1.2646053925e+000	-3.0331443308e+000
 6.0268214518e-002	 1.2652442741e+000	-3.0424295711e+000
 4.8129325638e-002	 1.2657641593e+000	-3.0527591176e+000
 3.6031616237e-002	 1.2661662922e+000	-3.0648914444e+000
 2.3976547683e-002	 1.2664519353e+000	-3.0795602653e+000
 1.1965545641e-002	 1.2666223687e+000	-3.0974742002e+000
 0.0000000000e+000	 1.2666788891e+000	-3.1193165606e+000
 1.2408492384e-001	 1.2873770255e+000	-2.6307506252e+000
 1.1150392235e-001	 1.2885276489e+000	-2.6408647930e+000
 9.8956964168e-002	 1.2895519001e+000	-2.6487350328e+000
 8.6445721615e-002	 1.2904509632e+000	-2.6553079552e+000
 7.3971831370e-002	 1.2912260453e+000	-2.6615009955e+000
 6.1536894235e-002	 1.2918783757e+000	-2.6682021384e+000
 4.9142474935e-002	 1.2924092048e+000	-2.6762696447e+000
 3.6790101965e-002	 1.2928198028e+000	-2.6865317809e+000
 2.4481267458e-002	 1.2931114588e+000	-2.6997865522e+000
 1.2217427086e-002	 1.2932854800e+000	-2.7168014403e+000
 0.0000000000e+000	 1.2933431901e+000	-2.7383131817e+000
 1.2664312367e-001	 1.3139182650e+000	-2.3361789690e+000
 1.1380274566e-001	 1.3150926103e+000	-2.3431399851e+000
 1.0099711281e-001	 1.3161379780e+000	-2.3474125142e+000
 8.8227931917e-002	 1.3170555766e+000	-2.3500466778e+000
 7.5496873414e-002	 1.3178466382e+000	-2.3520593967e+000
 6.2805571096e-002	 1.3185124174e+000	-2.3544341279e+000
 5.0155621952e-002	 1.3190541903e+000	-2.3581206033e+000
 3.7548585987e-002	 1.3194732534e+000	-2.3640345696e+000
 2.4985986097e-002	 1.3197709224e+000	-2.3730575316e+000
 1.2469307965e-002	 1.3199485313e+000	-2.3860364983e+000
 0.0000000000e+000	 1.3200074312e+000	-2.4037837469e+000
 1.2920131837e-001	 1.3404594514e+000	-2.0931634216e+000
 1.1610156436e-001	 1.3416575185e+000	-2.0964740783e+000
 1.0303725736e-001	 1.3427240027e+000	-2.0963372038e+000
 9.0010138656e-002	 1.3436601368e+000	-2.0939321483e+000
 7.7021912407e-002	 1.3444671778e+000	-2.0903985720e+000
 6.4074245421e-002	 1.3451464058e+000	-2.0868360820e+000
 5.1168766943e-002	 1.3456991226e+000	-2.0843039745e+000
 3.8307068493e-002	 1.3461266508e+000	-2.0838210835e+000
 2.5490703727e-002	 1.3464303327e+000	-2.0863657341e+000
 1.2721188341e-002	 1.3466115292e+000	-2.0928758007e+000
 0.0000000000e+000	 1.3466716190e+000	-2.1042488811e+000
 1.3175950861e-001	 1.3670005914e+000	-1.8778857057e+000
 1.1840037905e-001	 1.3682223803e+000	-1.8774165942e+000
 1.0507739835e-001	 1.3693099808e+000	-1.8727294382e+000
 9.1792342276e-002	 1.3702646504e+000	-1.8651233276e+000
 7.8546948732e-002	 1.3710876709e+000	-1.8558537151e+000
 6.5342917526e-002	 1.3717803477e+000	-1.8461319113e+000
 5.2181910162e-002	 1.3723440082e+000	-1.8371247031e+000
 3.9065549671e-002	 1.3727800015e+000	-1.8299540937e+000
 2.5995420473e-002	 1.3730896963e+000	-1.8256971650e+000
 1.2973068276e-002	 1.3732744805e+000	-1.8253860624e+000
 0.0000000000e+000	 1.3733357600e+000	-1.8300081126e+000
 1.3431769500e-001	 1.3935416916e+000	-1.6811771786e+000
 1.2069919028e-001	 1.3947872022e+000	-1.6777628700e+000
 1.0711753628e-001	 1.3958959191e+000	-1.6692902332e+000
 9.3574543223e-002	 1.3968691242e+000	-1.6571885237e+000
 8.0071982770e-002	 1.3977081241e+000	-1.6428405481e+000
 6.6611587728e-002	 1.3984142495e+000	-1.6275819542e+000
 5.3195051861e-002	 1.3989888539e+000	-1.6127006602e+000
 3.9824029712e-002	 1.3994333122e+000	-1.5994364241e+000
 2.6500136463e-002	 1.3997490199e+000	-1.5889805536e+000
 1.3224947833e-002	 1.3999373918e+000	-1.5824757558e+000
 0.0000000000e+000	 1.3999998611e+000	-1.5810161414e+000
 1.3687587820e-001	 1.4200827586e+000	-1.5005456229e+000
 1.2299799864e-001	 1.4213519908e+000	-1.4950381314e+000
 1.0915767165e-001	 1.4224818242e+000	-1.4836431560e+000
 9.5356741943e-002	 1.4234735646e+000	-1.4679304331e+000
 8.1597014902e-002	 1.4243285440e+000	-1.4494215070e+000
 6.7880256345e-002	 1.4250481181e+000	-1.4295887495e+000
 5.4208192294e-002	 1.4256336662e+000	-1.4098545357e+000
 4.0582508805e-002	 1.4260865896e+000	-1.3915905799e+000
 2.7004851823e-002	 1.4264083102e+000	-1.3761174308e+000
 1.3476827075e-002	 1.4266002698e+000	-1.3647041269e+000
 0.0000000000e+000	 1.4266639289e+000	-1.3585680265e+000
 1.3943405884e-001	 1.4466237990e+000	-1.3340095652e+000
 1.2529680471e-001	 1.4479167530e+000	-1.3272790918e+000
 1.1119780499e-001	 1.4490677026e+000	-1.3139187806e+000
 9.7138938881e-002	 1.4500779785e+000	-1.2956491245e+000
 8.3122045509e-002	 1.4509489372e+000	-1.2741416847e+000
 6.9148923693e-002	 1.4516819601e+000	-1.2510177722e+000
 5.5221331714e-002	 1.4522784520e+000	-1.2278473073e+000
 4.1340987140e-002	 1.4527398403e+000	-1.2061478576e+000
 2.7509566677e-002	 1.4530675738e+000	-1.1873838570e+000
 1.3728706065e-002	 1.4532631212e+000	-1.1729660062e+000
 0.0000000000e+000	 1.4533279700e+000	-1.1642508706e+000
 1.4199223756e-001	 1.4731648196e+000	-1.1800475497e+000
 1.2759560905e-001	 1.4744814952e+000	-1.1729835148e+000
 1.1323793680e-001	 1.4756535611e+000	-1.1587050253e+000
 9.8921134482e-002	 1.4766823725e+000	-1.1390936343e+000
 8.4647074973e-002	 1.4775693105e+000	-1.1159821636e+000
 7.0417590090e-002	 1.4783157820e+000	-1.0911529814e+000
 5.6234470375e-002	 1.4789232177e+000	-1.0663364786e+000
 4.2099464907e-002	 1.4793930711e+000	-1.0432097456e+000
 2.8014281154e-002	 1.4797268175e+000	-1.0233954532e+000
 1.3980584867e-002	 1.4799259525e+000	-1.0084609369e+000
 0.0000000000e+000	 1.4799919911e+000	-9.9991750382e-001
 1.4455041500e-001	 1.4997058268e+000	-1.0375527984e+000
 1.2989441224e-001	 1.5010462241e+000	-1.0310651371e+000
 1.1527806759e-001	 1.5022394064e+000	-1.0170027688e+000
 1.0070332919e-001	 1.5032867531e+000	-9.9741870566e-001
 8.6172103675e-002	 1.5041896705e+000	-9.7431830842e-001
 7.1686255854e-002	 1.5049495907e+000	-9.4965709268e-001
 5.7247608530e-002	 1.5055679701e+000	-9.2533875571e-001
 4.2857942294e-002	 1.5060462885e+000	-9.0321342745e-001
 2.8518995379e-002	 1.5063860478e+000	-8.8507614931e-001
 1.4232463543e-002	 1.5065887705e+000	-8.7266558256e-001
 0.0000000000e+000	 1.5066559989e+000	-8.6766296476e-001
 1.4710859180e-001	 1.5262468275e+000	-9.0579260531e-001
 1.3219321486e-001	 1.5276109464e+000	-9.0081329743e-001
 1.1731819787e-001	 1.5288252450e+000	-8.8818610150e-001
 1.0248552346e-001	 1.5298911271e+000	-8.7014604772e-001
 8.7697131996e-002	 1.5308100238e+000	-8.4888241573e-001
 7.2954921301e-002	 1.5315833927e+000	-8.2653600066e-001
 5.8260746432e-002	 1.5322127159e+000	-8.0519662272e-001
 4.3616419493e-002	 1.5326994993e+000	-7.8690088648e-001
 2.9023709478e-002	 1.5330452715e+000	-7.7363019417e-001
 1.4484342157e-002	 1.5332515818e+000	-7.6730901578e-001
 0.0000000000e+000	 1.5333200000e+000	-7.6980343605e-001
 1.5333200000e+000	 0.0000000000e+000	 3.7887457880e+000
 1.5332515818e+000	 1.4484342157e-002	 3.7804778883e+000
 1.5330452715e+000	 2.9023709478e-002	 3.7715067174e+000
 1.5326994993e+000	 4.3616419493e-002	 3.7613178129e+000
 1.5322127159e+000	 5.8260746432e-002	 3.7493649671e+000
 1.5315833927e+000	 7.2954921301e-002	 3.7350700561e+000
 1.5308100238e+000	 8.7697131996e-002	 3.7178231480e+000
 1.5298911271e+000	 1.0248552346e-001	 3.6969828893e+000
 1.5288252450e+000	 1.1731819787e-001	 3.6718771712e+000
 1.5276109464e+000	 1.3219321486e-001	 3.6418040718e+000
 1.5262468275e+000	 1.4710859180e-001	 3.6060330714e+000
 1.5599880000e+000	 0.0000000000e+000	 3.7948466583e+000
 1.5599183919e+000	 1.4736258546e-002	 3.7778934514e+000
 1.5597084933e+000	 2.9528499270e-002	 3.7610838780e+000
 1.5593567074e+000	 4.4375010443e-002	 3.7438532967e+000
 1.5588614576e+000	 5.9274036279e-002	 3.7255985400e+000
 1.5582211890e+000	 7.4223777015e-002	 3.7056779383e+000
 1.5574343695e+000	 8.9222389032e-002	 3.6834116660e+000
 1.5564994910e+000	 1.0426798501e-001	 3.6580824124e+000
 1.5554150707e+000	 1.1935863411e-001	 3.6289363754e+000
 1.5541796526e+000	 1.3449236223e-001	 3.5951845753e+000
 1.5527918086e+000	 1.4966715226e-001	 3.5560044844e+000
 1.5866560000e+000	 0.0000000000e+000	 3.7882364613e+000
 1.5865852019e+000	 1.4988174934e-002	 3.7651491623e+000
 1.5863717151e+000	 3.0033289064e-002	 3.7428238475e+000
 1.5860139154e+000	 4.5133601394e-002	 3.7206556913e+000
 1.5855101994e+000	 6.0287326125e-002	 3.6979940268e+000
 1.5848589854e+000	 7.5492632729e-002	 3.6741425737e+000
 1.5840587152e+000	 9.0747646068e-002	 3.6483600394e+000
 1.5831078549e+000	 1.0605044656e-001	 3.6198610912e+000
 1.5820048965e+000	 1.2139907035e-001	 3.5878177002e+000
 1.5807483589e+000	 1.3679150961e-001	 3.5513608527e+000
 1.5793367896e+000	 1.5222571273e-001	 3.5095826222e+000
 1.6133240000e+000	 0.0000000000e+000	 3.7664087132e+000
 1.6132520120e+000	 1.5240091324e-002	 3.7396306919e+000
 1.6130349369e+000	 3.0538078857e-002	 3.7140340429e+000
 1.6126711235e+000	 4.5892192346e-002	 3.6889824352e+000
 1.6121589411e+000	 6.1300615973e-002	 3.6637857695e+000
 1.6114967818e+000	 7.6761488443e-002	 3.6377006258e+000
 1.6106830609e+000	 9.2272903104e-002	 3.6099311361e+000
 1.6097162188e+000	 1.0783290811e-001	 3.5796302815e+000
 1.6085947222e+000	 1.2343950660e-001	 3.5459016121e+000
 1.6073170652e+000	 1.3909065698e-001	 3.5078013857e+000
 1.6058817707e+000	 1.5478427319e-001	 3.4643411160e+000
 1.6399920000e+000	 0.0000000000e+000	 3.7271241540e+000
 1.6399188220e+000	 1.5492007713e-002	 3.6989820683e+000
 1.6396981588e+000	 3.1042868651e-002	 3.6722718265e+000
 1.6393283315e+000	 4.6650783297e-002	 3.6463329455e+000
 1.6388076829e+000	 6.2313905820e-002	 3.6204425576e+000
 1.6381345781e+000	 7.8030344158e-002	 3.5938160961e+000
 1.6373074066e+000	 9.3798160140e-002	 3.5656084609e+000
 1.6363245828e+000	 1.0961536965e-001	 3.5349156673e+000
 1.6351845480e+000	 1.2547994284e-001	 3.5007769722e+000
 1.6338857715e+000	 1.4138980436e-001	 3.4621774743e+000
 1.6324267518e+000	 1.5734283365e-001	 3.4180511778e+000
 1.6666600000e+000	 0.0000000000e+000	 3.6683893685e+000
 1.6665856321e+000	 1.5743924102e-002	 3.6410847798e+000
 1.6663613806e+000	 3.1547658445e-002	 3.6153241238e+000
 1.6659855396e+000	 4.7409374249e-002	 3.5904287790e+000
 1.6654564246e+000	 6.3327195668e-002	 3.5656483545e+000
 1.6647723745e+000	 7.9299199872e-002	 3.5401616334e+000
 1.6639317522e+000	 9.5323417177e-002	 3.5130780592e+000
 1.6629329467e+000	 1.1139783120e-001	 3.4834397647e+000
 1.6617743738e+000	 1.2752037909e-001	 3.4502241405e+000
 1.6604544778e+000	 1.4368895174e-001	 3.4123469358e+000
 1.6589717329e+000	 1.5990139411e-001	 3.3686658815e+000
 1.6933280000e+000	 0.0000000000e+000	 3.5884374275e+000
 1.6932524421e+000	 1.5995840491e-002	 3.5640388512e+000
 1.6930246025e+000	 3.2052448238e-002	 3.5411889668e+000
 1.6926427476e+000	 4.8167965200e-002	 3.5191956686e+000
 1.6921051664e+000	 6.4340485515e-002	 3.4972848467e+000
 1.6914101708e+000	 8.0568055587e-002	 3.4746016121e+000
 1.6905560979e+000	 9.6848674214e-002	 3.4502121334e+000
 1.6895413106e+000	 1.1318029275e-001	 3.4231060808e+000
 1.6883641995e+000	 1.2956081534e-001	 3.3921996766e+000
 1.6870231841e+000	 1.4598809912e-001	 3.3563393412e+000
 1.6855167140e+000	 1.6245995458e-001	 3.3143059237e+000
 1.7199960000e+000	 0.0000000000e+000	 3.4857103298e+000
 1.7199192522e+000	 1.6247756880e-002	 3.4661456824e+000
 1.7196878243e+000	 3.2557238032e-002	 3.4480587556e+000
 1.7192999557e+000	 4.8926556152e-002	 3.4307472317e+000
 1.7187539081e+000	 6.5353775363e-002	 3.4134156186e+000
 1.7180479672e+000	 8.1836911302e-002	 3.3951767860e+000
 1.7171804436e+000	 9.8373931250e-002	 3.3750541851e+000
 1.7161496746e+000	 1.1496275430e-001	 3.3519847485e+000
 1.7149540253e+000	 1.3160125158e-001	 3.3248224654e+000
 1.7135918903e+000	 1.4828724649e-001	 3.2923426237e+000
 1.7120616951e+000	 1.6501851504e-001	 3.2532467035e+000
 1.7466640000e+000	 0.0000000000e+000	 3.3588430526e+000
 1.7465860622e+000	 1.6499673269e-002	 3.3458924575e+000
 1.7463510461e+000	 3.3062027826e-002	 3.3343050541e+000
 1.7459571637e+000	 4.9685147103e-002	 3.3233701731e+000
 1.7454026499e+000	 6.6367065210e-002	 3.3122717791e+000
 1.7446857636e+000	 8.3105767016e-002	 3.3000903507e+000
 1.7438047893e+000	 9.9899188287e-002	 3.2858055213e+000
 1.7427580385e+000	 1.1674521585e-001	 3.2682994778e+000
 1.7415438510e+000	 1.3364168783e-001	 3.2463611119e+000
 1.7401605966e+000	 1.5058639387e-001	 3.2186909123e+000
 1.7386066761e+000	 1.6757707550e-001	 3.1839065816e+000
 1.7733320000e+000	 0.0000000000e+000	 3.2066490414e+000
 1.7732528723e+000	 1.6751589658e-002	 3.2019379626e+000
 1.7730142680e+000	 3.3566817619e-002	 3.1984647583e+000
 1.7726143718e+000	 5.0443738054e-002	 3.1955108235e+000
 1.7720513917e+000	 6.7380355057e-002	 3.1922388861e+000
 1.7713235599e+000	 8.4374622731e-002	 3.1876952659e+000
 1.7704291350e+000	 1.0142444532e-001	 3.1808129796e+000
 1.7693664024e+000	 1.1852767740e-001	 3.1704156876e+000
 1.7681336768e+000	 1.3568212407e-001	 3.1552224762e+000
 1.7667293029e+000	 1.5288554125e-001	 3.1338534607e+000
 1.7651516572e+000	 1.7013563596e-001	 3.1048361930e+000
 1.8000000000e+000	 0.0000000000e+000	 3.0281069888e+000
 1.7999196823e+000	 1.7003506047e-002	 3.0330996631e+000
 1.7996774898e+000	 3.4071607412e-002	 3.0392274941e+000
 1.7992715798e+000	 5.1202329005e-002	 3.0457628769e+000
 1.7987001334e+000	 6.8393644903e-002	 3.0518450363e+000
 1.7979613563e+000	 8.5643478444e-002	 3.0564827063e+000
 1.7970534806e+000	 1.0294970236e-001	 3.0585577468e+000
 1.7959747663e+000	 1.2031013895e-001	 3.0568296925e+000
 1.7947235026e+000	 1.3772256032e-001	 3.0499412257e+000
 1.7932980092e+000	 1.5518468862e-001	 3.0364245590e+000
 1.7916966383e+000	 1.7269419643e-001	 3.0147087052e+000
 1.5262468275e+000	 1.4710859180e-001	 3.6060330714e+000
 1.5247317519e+000	 1.6206006367e-001	 3.5670296064e+000
 1.5230641822e+000	 1.7704782606e-001	 3.5274037639e+000
 1.5212428050e+000	 1.9206980528e-001	 3.4866275852e+000
 1.5192663399e+000	 2.0712388784e-001	 3.4441597459e+000
 1.5171335398e+000	 2.2220792089e-001	 3.3994478805e+000
 1.5148431927e+000	 2.3731971277e-001	 3.3519310887e+000
 1.5123941228e+000	 2.5245703357e-001	 3.3010426021e+000
 1.5097851916e+000	 2.6761761573e-001	 3.2462125882e+000
 1.5070152995e+000	 2.8279915468e-001	 3.1868710683e+000
 1.5040833867e+000	 2.9799930958e-001	 3.1224509202e+000
 1.5527918086e+000	 1.4966715226e-001	 3.5560044844e+000
 1.5512503823e+000	 1.6487866499e-001	 3.5139283301e+000
 1.5495538096e+000	 1.8012709942e-001	 3.4716787454e+000
 1.5477007545e+000	 1.9541034579e-001	 3.4286998565e+000
 1.5456899141e+000	 2.1072625384e-001	 3.3844193331e+000
 1.5435200196e+000	 2.2607263330e-001	 3.3382511769e+000
 1.5411898381e+000	 2.4144725438e-001	 3.2895987195e+000
 1.5386981731e+000	 2.5684784838e-001	 3.2378578025e+000
 1.5360438666e+000	 2.7227210831e-001	 3.1824201164e+000
 1.5332257996e+000	 2.8771768953e-001	 3.1226766679e+000
 1.5302428940e+000	 3.0318221046e-001	 3.0580213468e+000
 1.5793367896e+000	 1.5222571273e-001	 3.5095826222e+000
 1.5777690127e+000	 1.6769726632e-001	 3.4650687389e+000
 1.5760434371e+000	 1.8320637278e-001	 3.4206472593e+000
 1.5741587040e+000	 1.9875088630e-001	 3.3757496205e+000
 1.5721134882e+000	 2.1432861985e-001	 3.3297877180e+000
 1.5699064994e+000	 2.2993734571e-001	 3.2821571901e+000
 1.5675364834e+000	 2.4557479598e-001	 3.2322409375e+000
 1.5650022235e+000	 2.6123866319e-001	 3.1794128502e+000
 1.5623025416e+000	 2.7692660090e-001	 3.1230417137e+000
 1.5594362997e+000	 2.9263622438e-001	 3.0624952597e+000
 1.5564024013e+000	 3.0836511135e-001	 2.9971443295e+000
 1.6058817707e+000	 1.5478427319e-001	 3.4643411160e+000
 1.6042876431e+000	 1.7051586764e-001	 3.4181485724e+000
 1.6025330646e+000	 1.8628564614e-001	 3.3721516329e+000
 1.6006166535e+000	 2.0209142680e-001	 3.3257819215e+000
 1.5985370624e+000	 2.1793098585e-001	 3.2784484016e+000
 1.5962929793e+000	 2.3380205812e-001	 3.2295411923e+000
 1.5938831288e+000	 2.4970233759e-001	 3.1784356481e+000
 1.5913062738e+000	 2.6562947801e-001	 3.1244966716e+000
 1.5885612165e+000	 2.8158109349e-001	 3.0670832265e+000
 1.5856467998e+000	 2.9755475923e-001	 3.0055530129e+000
 1.5825619087e+000	 3.1354801224e-001	 2.9392672664e+000
 1.6324267518e+000	 1.5734283365e-001	 3.4180511778e+000
 1.6308062735e+000	 1.7333446896e-001	 3.3710579954e+000
 1.6290226921e+000	 1.8936491950e-001	 3.3242213047e+000
 1.6270746030e+000	 2.0543196731e-001	 3.2769834525e+000
 1.6249606366e+000	 2.2153335186e-001	 3.2287609324e+000
 1.6226794591e+000	 2.3766677053e-001	 3.1789487751e+000
 1.6202297741e+000	 2.5382987920e-001	 3.1269252330e+000
 1.6176103241e+000	 2.7002029282e-001	 3.0720567252e+000
 1.6148198915e+000	 2.8623558608e-001	 3.0137030040e+000
 1.6118572999e+000	 3.0247329409e-001	 2.9512225019e+000
 1.6087214160e+000	 3.1873091312e-001	 2.8839778154e+000
 1.6589717329e+000	 1.5990139411e-001	 3.3686658815e+000
 1.6573249039e+000	 1.7615307028e-001	 3.3218644623e+000
 1.6555123196e+000	 1.9244419286e-001	 3.2750582847e+000
 1.6535325525e+000	 2.0877250781e-001	 3.2277086161e+000
 1.6513842108e+000	 2.2513571786e-001	 3.1792475641e+000
 1.6490659389e+000	 2.4153148295e-001	 3.1290830908e+000
 1.6465764195e+000	 2.5795742081e-001	 3.0766043547e+000
 1.6439143745e+000	 2.7441110764e-001	 3.0211873400e+000
 1.6410785664e+000	 2.9089007867e-001	 2.9622007319e+000
 1.6380678000e+000	 3.0739182894e-001	 2.8990119903e+000
 1.6348809233e+000	 3.2391381401e-001	 2.8309935728e+000
 1.6855167140e+000	 1.6245995458e-001	 3.3143059237e+000
 1.6838435343e+000	 1.7897167161e-001	 3.2687990007e+000
 1.6820019470e+000	 1.9552346622e-001	 3.2230239722e+000
 1.6799905020e+000	 2.1211304832e-001	 3.1764668783e+000
 1.6778077849e+000	 2.2873808387e-001	 3.1285811399e+000
 1.6754524187e+000	 2.4539619536e-001	 3.0787932549e+000
 1.6729230649e+000	 2.6208496243e-001	 3.0265088551e+000
 1.6702184248e+000	 2.7880192246e-001	 2.9711190815e+000
 1.6673372414e+000	 2.9554457126e-001	 2.9120072295e+000
 1.6642783001e+000	 3.1231036379e-001	 2.8485556128e+000
 1.6610404306e+000	 3.2909671490e-001	 2.7801525889e+000
 1.7120616951e+000	 1.6501851504e-001	 3.2532467035e+000
 1.7103621647e+000	 1.8179027293e-001	 3.2102437624e+000
 1.7084915745e+000	 1.9860273958e-001	 3.1666271847e+000
 1.7064484515e+000	 2.1545358883e-001	 3.1219112755e+000
 1.7042313591e+000	 2.3234044987e-001	 3.0755740717e+000
 1.7018388985e+000	 2.4926090777e-001	 3.0270637824e+000
 1.6992697102e+000	 2.6621250404e-001	 2.9758056288e+000
 1.6965224752e+000	 2.8319273727e-001	 2.9212090327e+000
 1.6935959164e+000	 3.0019906385e-001	 2.8626751029e+000
 1.6904888002e+000	 3.1722889864e-001	 2.7996043583e+000
 1.6871999379e+000	 3.3427961579e-001	 2.7314046288e+000
 1.7386066761e+000	 1.6757707550e-001	 3.1839065816e+000
 1.7368807951e+000	 1.8460887425e-001	 3.1447207048e+000
 1.7349812020e+000	 2.0168201293e-001	 3.1045132672e+000
 1.7329064010e+000	 2.1879412933e-001	 3.0628279519e+000
 1.7306549333e+000	 2.3594281588e-001	 3.0191682962e+000
 1.7282253784e+000	 2.5312562018e-001	 2.9730049493e+000
 1.7256163556e+000	 2.7034004565e-001	 2.9237833675e+000
 1.7228265255e+000	 2.8758355209e-001	 2.8709318945e+000
 1.7198545913e+000	 3.0485355644e-001	 2.8138701647e+000
 1.7166993003e+000	 3.2214743349e-001	 2.7520177673e+000
 1.7133594452e+000	 3.3946251668e-001	 2.6848031008e+000
 1.7651516572e+000	 1.7013563596e-001	 3.1048361930e+000
 1.7633994255e+000	 1.8742747557e-001	 3.0708812840e+000
 1.7614708295e+000	 2.0476128629e-001	 3.0354541698e+000
 1.7593643505e+000	 2.2213466984e-001	 2.9981266175e+000
 1.7570785075e+000	 2.3954518188e-001	 2.9584261062e+000
 1.7546118582e+000	 2.5699033260e-001	 2.9158439802e+000
 1.7519630010e+000	 2.7446758726e-001	 2.8698440838e+000
 1.7491305758e+000	 2.9197436690e-001	 2.8198718159e+000
 1.7461132663e+000	 3.0950804903e-001	 2.7653635388e+000
 1.7429098004e+000	 3.2706596835e-001	 2.7057562702e+000
 1.7395189526e+000	 3.4464541757e-001	 2.6404975798e+000
 1.7916966383e+000	 1.7269419643e-001	 3.0147087052e+000
 1.7899180559e+000	 1.9024607690e-001	 2.9874970549e+000
 1.7879604570e+000	 2.0784055965e-001	 2.9583393914e+000
 1.7858223000e+000	 2.2547521035e-001	 2.9268318325e+000
 1.7835020816e+000	 2.4314754789e-001	 2.8925217642e+000
 1.7809983380e+000	 2.6085504501e-001	 2.8549169777e+000
 1.7783096463e+000	 2.7859512887e-001	 2.8134953327e+000
 1.7754346262e+000	 2.9636518172e-001	 2.7677148819e+000
 1.7723719412e+000	 3.1416254162e-001	 2.7170243796e+000
 1.7691203005e+000	 3.3198450320e-001	 2.6608740982e+000
 1.7656784599e+000	 3.4982831845e-001	 2.5987268659e+000
 1.5040833867e+000	 2.9799930958e-001	 3.1224509202e+000
 1.5009879582e+000	 3.1321798717e-001	 3.0549111063e+000
 1.4977284659e+000	 3.2845049326e-001	 2.9863705430e+000
 1.4943039780e+000	 3.4369437793e-001	 2.9164880634e+000
 1.4907136076e+000	 3.5894715807e-001	 2.8449410804e+000
 1.4869565135e+000	 3.7420631829e-001	 2.7714282920e+000
 1.4830319018e+000	 3.8946931188e-001	 2.6956722679e+000
 1.4789390267e+000	 4.0473356181e-001	 2.6174218835e+000
 1.4746771918e+000	 4.1999646178e-001	 2.5364545650e+000
 1.4702457512e+000	 4.3525537731e-001	 2.4525783133e+000
 1.4656441104e+000	 4.5050764685e-001	 2.3656334714e+000
 1.5302428940e+000	 3.0318221046e-001	 3.0580213468e+000
 1.5270936288e+000	 3.1866557624e-001	 2.9904452795e+000
 1.5237774463e+000	 3.3416301103e-001	 2.9221105731e+000
 1.5202933987e+000	 3.4967202231e-001	 2.8526548605e+000
 1.5166405834e+000	 3.6519008376e-001	 2.7817360579e+000
 1.5128181447e+000	 3.8071463625e-001	 2.7090355869e+000
 1.5088252749e+000	 3.9624308879e-001	 2.6342614638e+000
 1.5046612151e+000	 4.1177281952e-001	 2.5571512172e+000
 1.5003252571e+000	 4.2730117681e-001	 2.4774745939e+000
 1.4958167434e+000	 4.4282548035e-001	 2.3950360135e+000
 1.4911350694e+000	 4.5834302232e-001	 2.3096767348e+000
 1.5564024013e+000	 3.0836511135e-001	 2.9971443295e+000
 1.5531992994e+000	 3.2411316532e-001	 2.9290134042e+000
 1.5498264268e+000	 3.3987552881e-001	 2.8603035434e+000
 1.5462828194e+000	 3.5564966668e-001	 2.7906392322e+000
 1.5425675592e+000	 3.7143300944e-001	 2.7196673811e+000
 1.5386797759e+000	 3.8722295421e-001	 2.6470611081e+000
 1.5346186479e+000	 4.0301686569e-001	 2.5725233730e+000
 1.5303834036e+000	 4.1881207722e-001	 2.4957904165e+000
 1.5259733223e+000	 4.3460589183e-001	 2.4166349617e+000
 1.5213877356e+000	 4.5039558340e-001	 2.3348691324e+000
 1.5166260283e+000	 4.6617839780e-001	 2.2503470439e+000
 1.5825619087e+000	 3.1354801224e-001	 2.9392672664e+000
 1.5793049700e+000	 3.2956075439e-001	 2.8702866397e+000
 1.5758754073e+000	 3.4558804658e-001	 2.8008487855e+000
 1.5722722400e+000	 3.6162731105e-001	 2.7305710924e+000
 1.5684945349e+000	 3.7767593513e-001	 2.6590959799e+000
 1.5645414070e+000	 3.9373127217e-001	 2.5860952929e+000
 1.5604120209e+000	 4.0979064260e-001	 2.5112745265e+000
 1.5561055920e+000	 4.2585133493e-001	 2.4343768333e+000
 1.5516213875e+000	 4.4191060686e-001	 2.3551867615e+000
 1.5469587277e+000	 4.5796568644e-001	 2.2735336737e+000
 1.5421169872e+000	 4.7401377327e-001	 2.1892947966e+000
 1.6087214160e+000	 3.1873091312e-001	 2.8839778154e+000
 1.6054106406e+000	 3.3500834347e-001	 2.8140699678e+000
 1.6019243877e+000	 3.5130056436e-001	 2.7437724644e+000
 1.5982616607e+000	 3.6760495543e-001	 2.6726996452e+000
 1.5944215107e+000	 3.8391886081e-001	 2.6004939809e+000
 1.5904030382e+000	 4.0023959013e-001	 2.5268311348e+000
 1.5862053940e+000	 4.1656441951e-001	 2.4514248347e+000
 1.5818277804e+000	 4.3289059263e-001	 2.3740314990e+000
 1.5772694527e+000	 4.4921532188e-001	 2.2944545597e+000
 1.5725297199e+000	 4.6553578949e-001	 2.2125484256e+000
 1.5676079461e+000	 4.8184914875e-001	 2.1282220303e+000
 1.6348809233e+000	 3.2391381401e-001	 2.8309935728e+000
 1.6315163112e+000	 3.4045593255e-001	 2.7602922239e+000
 1.6279733682e+000	 3.5701308213e-001	 2.6892179337e+000
 1.6242510813e+000	 3.7358259980e-001	 2.6173840322e+000
 1.6203484865e+000	 3.9016178650e-001	 2.5444356048e+000
 1.6162646694e+000	 4.0674790810e-001	 2.4700552870e+000
 1.6119987670e+000	 4.2333819642e-001	 2.3939688449e+000
 1.6075499689e+000	 4.3992985034e-001	 2.3159504786e+000
 1.6029175179e+000	 4.5652003691e-001	 2.2358277850e+000
 1.5981007120e+000	 4.7310589253e-001	 2.1534863159e+000
 1.5930989051e+000	 4.8968452423e-001	 2.0688736701e+000
 1.6610404306e+000	 3.2909671490e-001	 2.7801525889e+000
 1.6576219818e+000	 3.4590352162e-001	 2.7089969040e+000
 1.6540223487e+000	 3.6272559991e-001	 2.6374368075e+000
 1.6502405020e+000	 3.7956024417e-001	 2.5650846338e+000
 1.6462754622e+000	 3.9640471218e-001	 2.4915886594e+000
 1.6421263005e+000	 4.1325622606e-001	 2.4166397014e+000
 1.6377921401e+000	 4.3011197333e-001	 2.3399774762e+000
 1.6332721573e+000	 4.4696910804e-001	 2.2613966463e+000
 1.6285655831e+000	 4.6382475193e-001	 2.1807524839e+000
 1.6236717042e+000	 4.8067599558e-001	 2.0979660822e+000
 1.6185898640e+000	 4.9751989970e-001	 2.0130290420e+000
 1.6871999379e+000	 3.3427961579e-001	 2.7314046288e+000
 1.6837276525e+000	 3.5135111070e-001	 2.6603336651e+000
 1.6800713291e+000	 3.6843811768e-001	 2.5887806698e+000
 1.6762299227e+000	 3.8553788855e-001	 2.5163549551e+000
 1.6722024380e+000	 4.0264763787e-001	 2.4427065621e+000
 1.6679879317e+000	 4.1976454402e-001	 2.3675337441e+000
 1.6635855131e+000	 4.3688575024e-001	 2.2905901799e+000
 1.6589943457e+000	 4.5400836575e-001	 2.2116918364e+000
 1.6542136483e+000	 4.7112946696e-001	 2.1307234039e+000
 1.6492426964e+000	 4.8824609862e-001	 2.0476442229e+000
 1.6440808229e+000	 5.0535527518e-001	 1.9624936257e+000
 1.7133594452e+000	 3.3946251668e-001	 2.6848031008e+000
 1.7098333231e+000	 3.5679869978e-001	 2.6145504430e+000
 1.7061203096e+000	 3.7415063546e-001	 2.5436933544e+000
 1.7022193433e+000	 3.9151553292e-001	 2.4718340330e+000
 1.6981294138e+000	 4.0889056356e-001	 2.3986208365e+000
 1.6938495629e+000	 4.2627286198e-001	 2.3237567383e+000
 1.6893788862e+000	 4.4365952714e-001	 2.2470074793e+000
 1.6847165342e+000	 4.6104762346e-001	 2.1682093289e+000
 1.6798617136e+000	 4.7843418198e-001	 2.0872763673e+000
 1.6748136885e+000	 4.9581620167e-001	 2.0042072000e+000
 1.6695717818e+000	 5.1319065065e-001	 1.9190910192e+000
 1.7395189526e+000	 3.4464541757e-001	 2.6404975798e+000
 1.7359389937e+000	 3.6224628886e-001	 2.5719861241e+000
 1.7321692901e+000	 3.7986315324e-001	 2.5027037347e+000
 1.7282087640e+000	 3.9749317730e-001	 2.4322393108e+000
 1.7240563896e+000	 4.1513348924e-001	 2.3602340331e+000
 1.7197111941e+000	 4.3278117994e-001	 2.2863908877e+000
 1.7151722592e+000	 4.5043330405e-001	 2.2104838506e+000
 1.7104387226e+000	 4.6808688116e-001	 2.1323666356e+000
 1.7055097788e+000	 4.8573889701e-001	 2.0519809080e+000
 1.7003846807e+000	 5.0338630472e-001	 1.9693638658e+000
 1.6950627408e+000	 5.2102602613e-001	 1.8846550940e+000
 1.7656784599e+000	 3.4982831845e-001	 2.5987268659e+000
 1.7620446643e+000	 3.6769387793e-001	 2.5330637126e+000
 1.7582182705e+000	 3.8557567101e-001	 2.4664189701e+000
 1.7541981846e+000	 4.0347082167e-001	 2.3983599302e+000
 1.7499833653e+000	 4.2137641493e-001	 2.3285130285e+000
 1.7455728252e+000	 4.3928949790e-001	 2.2565745419e+000
 1.7409656323e+000	 4.5720708096e-001	 2.1823209075e+000
 1.7361609110e+000	 4.7512613887e-001	 2.1056185543e+000
 1.7311578440e+000	 4.9304361203e-001	 2.0264331411e+000
 1.7259556728e+000	 5.1095640776e-001	 1.9448380915e+000
 1.7205536997e+000	 5.2886140161e-001	 1.8610223206e+000
 1.4656441104e+000	 4.5050764685e-001	 2.3656334714e+000
 1.4608717271e+000	 4.6575058273e-001	 2.2755979771e+000
 1.4559281109e+000	 4.8098147173e-001	 2.1827020906e+000
 1.4508128258e+000	 4.9619757688e-001	 2.0872149391e+000
 1.4455254909e+000	 5.1139613904e-001	 1.9894387495e+000
 1.4400657820e+000	 5.2657437818e-001	 1.8897079925e+000
 1.4344334318e+000	 5.4172949480e-001	 1.7883880824e+000
 1.4286282313e+000	 5.5685867128e-001	 1.6858736145e+000
 1.4226500300e+000	 5.7195907336e-001	 1.5825861221e+000
 1.4164987373e+000	 5.8702785160e-001	 1.4789713419e+000
 1.4101743228e+000	 6.0206214291e-001	 1.3754959764e+000
 1.4911350694e+000	 4.5834302232e-001	 2.3096767348e+000
 1.4862796832e+000	 4.7385106831e-001	 2.2212582530e+000
 1.4812500860e+000	 4.8934685788e-001	 2.1298869870e+000
 1.4760458342e+000	 5.0482760648e-001	 2.0358285550e+000
 1.4706665403e+000	 5.2029050697e-001	 1.9393859404e+000
 1.4651118743e+000	 5.3573273098e-001	 1.8408987874e+000
 1.4593815645e+000	 5.5115143031e-001	 1.7407421968e+000
 1.4534753980e+000	 5.6654373835e-001	 1.6393249986e+000
 1.4473932219e+000	 5.8190677153e-001	 1.5370874830e+000
 1.4411349439e+000	 5.9723763087e-001	 1.4344985734e+000
 1.4347005331e+000	 6.1253340346e-001	 1.3320524300e+000
 1.5166260283e+000	 4.6617839780e-001	 2.2503470439e+000
 1.5116876392e+000	 4.8195155388e-001	 2.1628034803e+000
 1.5065720611e+000	 4.9771224403e-001	 2.0722149366e+000
 1.5012788426e+000	 5.1345763607e-001	 1.9788628671e+000
 1.4958075896e+000	 5.2918487490e-001	 1.8830711796e+000
 1.4901579667e+000	 5.4489108379e-001	 1.7852056754e+000
 1.4843296971e+000	 5.6057336583e-001	 1.6856729270e+000
 1.4783225647e+000	 5.7622880542e-001	 1.5849185654e+000
 1.4721364138e+000	 5.9185446971e-001	 1.4834249557e+000
 1.4657711505e+000	 6.0744741014e-001	 1.3817082422e+000
 1.4592267435e+000	 6.2300466401e-001	 1.2803147492e+000
 1.5421169872e+000	 4.7401377327e-001	 2.1892947966e+000
 1.5370955953e+000	 4.9005203945e-001	 2.1020679618e+000
 1.5318940362e+000	 5.0607763017e-001	 2.0116935891e+000
 1.5265118510e+000	 5.2208766567e-001	 1.9184865903e+000
 1.5209486390e+000	 5.3807924283e-001	 1.8228103205e+000
 1.5152040590e+000	 5.5404943659e-001	 1.7250761599e+000
 1.5092778298e+000	 5.6999530135e-001	 1.6257424634e+000
 1.5031697314e+000	 5.8591387250e-001	 1.5253128450e+000
 1.4968796057e+000	 6.0180216789e-001	 1.4243337720e+000
 1.4904073571e+000	 6.1765718941e-001	 1.3233914487e+000
 1.4837529538e+000	 6.3347592456e-001	 1.2231079722e+000
 1.5676079461e+000	 4.8184914875e-001	 2.1282220303e+000
 1.5625035514e+000	 4.9815252503e-001	 2.0409259648e+000
 1.5572160113e+000	 5.1444301632e-001	 1.9503582943e+000
 1.5517448594e+000	 5.3071769527e-001	 1.8568833452e+000
 1.5460896883e+000	 5.4697361076e-001	 1.7609208626e+000
 1.5402501513e+000	 5.6320778939e-001	 1.6629457373e+000
 1.5342259625e+000	 5.7941723687e-001	 1.5634870193e+000
 1.5280168981e+000	 5.9559893957e-001	 1.4631261857e+000
 1.5216227976e+000	 6.1174986607e-001	 1.3624946314e+000
 1.5150435638e+000	 6.2786696868e-001	 1.2622703592e+000
 1.5082791642e+000	 6.4394718511e-001	 1.1631738505e+000
 1.5930989051e+000	 4.8968452423e-001	 2.0688736701e+000
 1.5879115075e+000	 5.0625301060e-001	 1.9812827903e+000
 1.5825379864e+000	 5.2280840247e-001	 1.8902629249e+000
 1.5769778678e+000	 5.3934772486e-001	 1.7962421600e+000
 1.5712307377e+000	 5.5586797869e-001	 1.6997120534e+000
 1.5652962436e+000	 5.7236614219e-001	 1.6012275112e+000
 1.5591740951e+000	 5.8883917239e-001	 1.5014058648e+000
 1.5528640649e+000	 6.0528400665e-001	 1.4009251100e+000
 1.5463659895e+000	 6.2169756424e-001	 1.3005212749e+000
 1.5396797704e+000	 6.3807674794e-001	 1.2009848877e+000
 1.5328053745e+000	 6.5441844567e-001	 1.1031565234e+000
 1.6185898640e+000	 4.9751989970e-001	 2.0130290420e+000
 1.6133194636e+000	 5.1435349618e-001	 1.9250660634e+000
 1.6078599615e+000	 5.3117378862e-001	 1.8334708778e+000
 1.6022108762e+000	 5.4797775446e-001	 1.7387481123e+000
 1.5963717870e+000	 5.6476234663e-001	 1.6414750923e+000
 1.5903423359e+000	 5.8152449499e-001	 1.5423018777e+000
 1.5841222278e+000	 5.9826110790e-001	 1.4419504053e+000
 1.5777112316e+000	 6.1496907372e-001	 1.3412126926e+000
 1.5711091814e+000	 6.3164526242e-001	 1.2409480655e+000
 1.5643159770e+000	 6.4828652721e-001	 1.1420793765e+000
 1.5573315848e+000	 6.6488970622e-001	 1.0455881916e+000
 1.6440808229e+000	 5.0535527518e-001	 1.9624936257e+000
 1.6387274197e+000	 5.2245398175e-001	 1.8742172213e+000
 1.6331819366e+000	 5.3953917476e-001	 1.7820462350e+000
 1.6274438846e+000	 5.5660778406e-001	 1.6865730940e+000
 1.6215128364e+000	 5.7365671456e-001	 1.5884734265e+000
 1.6153884283e+000	 5.9068284779e-001	 1.4885062728e+000
 1.6090703604e+000	 6.0768304342e-001	 1.3875132984e+000
 1.6025583983e+000	 6.2465414080e-001	 1.2864169595e+000
 1.5958523733e+000	 6.4159296060e-001	 1.1862175755e+000
 1.5889521836e+000	 6.5849630648e-001	 1.0879892752e+000
 1.5818577952e+000	 6.7536096677e-001	 9.9291557306e-001
 1.6695717818e+000	 5.1319065065e-001	 1.9190910192e+000
 1.6641353757e+000	 5.3055446732e-001	 1.8306831778e+000
 1.6585039117e+000	 5.4790456091e-001	 1.7380450660e+000
 1.6526768930e+000	 5.6523781365e-001	 1.6418666863e+000
 1.6466538858e+000	 5.8255108249e-001	 1.5429331286e+000
 1.6404345206e+000	 5.9984120060e-001	 1.4421249774e+000
 1.6340184931e+000	 6.1710497894e-001	 1.3404176063e+000
 1.6274055650e+000	 6.3433920787e-001	 1.2388793031e+000
 1.6205955652e+000	 6.5154065878e-001	 1.1386681790e+000
 1.6135883902e+000	 6.6870608575e-001	 1.0410313274e+000
 1.6063840055e+000	 6.8583222732e-001	 9.4731539647e-001
 1.6950627408e+000	 5.2102602613e-001	 1.8846550940e+000
 1.6895433318e+000	 5.3865495290e-001	 1.7964081454e+000
 1.6838258868e+000	 5.5626994706e-001	 1.7035068584e+000
 1.6779099014e+000	 5.7386784325e-001	 1.6067471339e+000
 1.6717949351e+000	 5.9144545042e-001	 1.5070333464e+000
 1.6654806129e+000	 6.0899955340e-001	 1.4053789719e+000
 1.6589666257e+000	 6.2652691446e-001	 1.3029059783e+000
 1.6522527317e+000	 6.4402427494e-001	 1.2008429151e+000
 1.6453387571e+000	 6.6148835695e-001	 1.1005216494e+000
 1.6382245968e+000	 6.7891586502e-001	 1.0034415922e+000
 1.6309102159e+000	 6.9630348787e-001	 9.1064225559e-001
 1.7205536997e+000	 5.2886140161e-001	 1.8610223206e+000
 1.7149512879e+000	 5.4675543847e-001	 1.7733255985e+000
 1.7091478619e+000	 5.6463533321e-001	 1.6804460613e+000
 1.7031429098e+000	 5.8249787284e-001	 1.5832924080e+000
 1.6969359845e+000	 6.0033981835e-001	 1.4828968193e+000
 1.6905267052e+000	 6.1815790620e-001	 1.3804158357e+000
 1.6839147584e+000	 6.3594884997e-001	 1.2771298625e+000
 1.6770998984e+000	 6.5370934202e-001	 1.1744412321e+000
 1.6700819490e+000	 6.7143605513e-001	 1.0738900351e+000
 1.6628608034e+000	 6.8912564429e-001	 9.7710313252e-001
 1.6554364262e+000	 7.0677474842e-001	 8.8464709425e-001
 1.4101743228e+000	 6.0206214291e-001	 1.3754959764e+000
 1.4036778048e+000	 6.1705682569e-001	 1.2712281735e+000
 1.3970083406e+000	 6.3201127378e-001	 1.1653374968e+000
 1.3901660856e+000	 6.4692259452e-001	 1.0585038196e+000
 1.3831512578e+000	 6.6178788798e-001	 9.5140367304e-001
 1.3759641382e+000	 6.7660424856e-001	 8.4482146894e-001
 1.3686050715e+000	 6.9136876671e-001	 7.3944300812e-001
 1.3610744663e+000	 7.0607853061e-001	 6.3523744333e-001
 1.3533727953e+000	 7.2073062788e-001	 5.3217303128e-001
 1.3455005959e+000	 7.3532214732e-001	 4.3026061620e-001
 1.3374584701e+000	 7.4985018066e-001	 3.2955417448e-001
 1.4347005331e+000	 6.1253340346e-001	 1.3320524300e+000
 1.4280910255e+000	 6.2778887864e-001	 1.2286878598e+000
 1.4213055639e+000	 6.4300341935e-001	 1.1234862021e+000
 1.4143443062e+000	 6.5817408263e-001	 1.0172209711e+000
 1.4072074742e+000	 6.7329791811e-001	 9.1071321253e-001
 1.3998953539e+000	 6.8837196965e-001	 8.0481806814e-001
 1.3924082959e+000	 7.0339327710e-001	 6.9959586050e-001
 1.3847467159e+000	 7.1835887800e-001	 5.9502232902e-001
 1.3769110950e+000	 7.3326580931e-001	 4.9111642790e-001
 1.3689019798e+000	 7.4811110919e-001	 3.8794084283e-001
 1.3607199827e+000	 7.6289181882e-001	 2.8560242108e-001
 1.4592267435e+000	 6.2300466401e-001	 1.2803147492e+000
 1.4525042463e+000	 6.3852093159e-001	 1.1780569309e+000
 1.4456027872e+000	 6.5399556492e-001	 1.0739127985e+000
 1.4385225267e+000	 6.6942557074e-001	 9.6875632631e-001
 1.4312636906e+000	 6.8480794824e-001	 8.6358044484e-001
 1.4238265695e+000	 7.0013969074e-001	 7.5860941944e-001
 1.4162115203e+000	 7.1541778749e-001	 6.5382106618e-001
 1.4084189656e+000	 7.3063922539e-001	 5.4923711392e-001
 1.4004493947e+000	 7.4580099073e-001	 4.4492369725e-001
 1.3923033636e+000	 7.6090007107e-001	 3.4099176323e-001
 1.3839814953e+000	 7.7593345698e-001	 2.3759739025e-001
 1.4837529538e+000	 6.3347592456e-001	 1.2231079722e+000
 1.4769174671e+000	 6.4925298454e-001	 1.1221780107e+000
 1.4699000105e+000	 6.6498771050e-001	 1.0194677716e+000
 1.4627007473e+000	 6.8067705886e-001	 9.1603117328e-001
 1.4553199070e+000	 6.9631797836e-001	 8.1236898461e-001
 1.4477577852e+000	 7.1190741183e-001	 7.0845948377e-001
 1.4400147447e+000	 7.2744229788e-001	 6.0432211802e-001
 1.4320912153e+000	 7.4291957277e-001	 5.0002147658e-001
 1.4239876944e+000	 7.5833617216e-001	 3.9566767729e-001
 1.4157047475e+000	 7.7368903295e-001	 2.9141666612e-001
 1.4072430079e+000	 7.8897509513e-001	 1.8747042798e-001
 1.5082791642e+000	 6.4394718511e-001	 1.1631738505e+000
 1.5013306879e+000	 6.5998503749e-001	 1.0637958124e+000
 1.4941972338e+000	 6.7597985607e-001	 9.6294094701e-001
 1.4868789679e+000	 6.9192854697e-001	 8.6142588041e-001
 1.4793761234e+000	 7.0782800849e-001	 7.5927797661e-001
 1.4716890009e+000	 7.2367513292e-001	 6.5650963430e-001
 1.4638179691e+000	 7.3946680827e-001	 5.5317918188e-001
 1.4557634649e+000	 7.5519992016e-001	 4.4939124617e-001
 1.4475259941e+000	 7.7087135358e-001	 3.4529703484e-001
 1.4391061313e+000	 7.8647799482e-001	 2.4109453113e-001
 1.4305045204e+000	 8.0201673329e-001	 1.3702859969e-001
 1.5328053745e+000	 6.5441844567e-001	 1.1031565234e+000
 1.5257439087e+000	 6.7071709044e-001	 1.0055544951e+000
 1.5184944571e+000	 6.8697200164e-001	 9.0679851406e-001
 1.5110571885e+000	 7.0318003508e-001	 8.0707598133e-001
 1.5034323398e+000	 7.1933803862e-001	 7.0638777715e-001
 1.4956202166e+000	 7.3544285401e-001	 6.0478154267e-001
 1.4876211935e+000	 7.5149131866e-001	 5.0235203191e-001
 1.4794357146e+000	 7.6748026755e-001	 3.9924137807e-001
 1.4710642938e+000	 7.8340653501e-001	 2.9563927343e-001
 1.4625075152e+000	 7.9926695670e-001	 1.9178306175e-001
 1.4537660330e+000	 8.1505837144e-001	 8.7957741971e-002
 1.5573315848e+000	 6.6488970622e-001	 1.0455881916e+000
 1.5501571295e+000	 6.8144914339e-001	 9.4997552785e-001
 1.5427916804e+000	 6.9796414722e-001	 8.5311732468e-001
 1.5352354090e+000	 7.1443152319e-001	 7.5500214085e-001
 1.5274885562e+000	 7.3084806875e-001	 6.5566280051e-001
 1.5195514323e+000	 7.4721057510e-001	 5.5518009314e-001
 1.5114244179e+000	 7.6351582905e-001	 4.5368302382e-001
 1.5031079643e+000	 7.7976061493e-001	 3.5134897822e-001
 1.4946025935e+000	 7.9594171644e-001	 2.4840380164e-001
 1.4859088990e+000	 8.1205591857e-001	 1.4512179125e-001
 1.4770275456e+000	 8.2810000960e-001	 4.1825600608e-002
 1.5818577952e+000	 6.7536096677e-001	 9.9291557306e-001
 1.5745703503e+000	 6.9218119634e-001	 8.9913213443e-001
 1.5670889037e+000	 7.0895629279e-001	 8.0385986211e-001
 1.5594136296e+000	 7.2568301130e-001	 7.0711293458e-001
 1.5515447726e+000	 7.4235809888e-001	 6.0895438252e-001
 1.5434826480e+000	 7.5897829619e-001	 5.0949632167e-001
 1.5352276423e+000	 7.7554033944e-001	 4.0890010173e-001
 1.5267802140e+000	 7.9204096232e-001	 3.0737637084e-001
 1.5181408932e+000	 8.0847689786e-001	 2.0518505528e-001
 1.5093102829e+000	 8.2484488045e-001	 1.0263525371e-001
 1.5002890582e+000	 8.4114164775e-001	 8.5045287252e-005
 1.6063840055e+000	 6.8583222732e-001	 9.4731539647e-001
 1.5989835711e+000	 7.0291324929e-001	 8.5493027823e-001
 1.5913861270e+000	 7.1994843836e-001	 7.6088043234e-001
 1.5835918502e+000	 7.3693449941e-001	 6.6520763784e-001
 1.5756009890e+000	 7.5386812901e-001	 5.6800365935e-001
 1.5674138637e+000	 7.7074601728e-001	 4.6941037727e-001
 1.5590308667e+000	 7.8756484983e-001	 3.6961983528e-001
 1.5504524636e+000	 8.0432130970e-001	 2.6887420503e-001
 1.5416791929e+000	 8.2101207928e-001	 1.6746566786e-001
 1.5327116667e+000	 8.3763384232e-001	 6.5736213159e-002
 1.5235505708e+000	 8.5418328591e-001	-3.5922647015e-002
 1.6309102159e+000	 6.9630348787e-001	 9.1064225559e-001
 1.6233967918e+000	 7.1364530224e-001	 8.1917168796e-001
 1.6156833503e+000	 7.3094058393e-001	 7.2592785881e-001
 1.6077700708e+000	 7.4818598752e-001	 6.3097902270e-001
 1.5996572054e+000	 7.6537815914e-001	 5.3444445993e-001
 1.5913450793e+000	 7.8251373836e-001	 4.3649450323e-001
 1.5828340911e+000	 7.9958936022e-001	 3.3735048365e-001
 1.5741247133e+000	 8.1660165709e-001	 2.3728459602e-001
 1.5652174926e+000	 8.3354726071e-001	 1.3661968400e-001
 1.5561130506e+000	 8.5042280420e-001	 3.5728944737e-002
 1.5468120834e+000	 8.6722492406e-001	-6.4964447287e-002
 1.6554364262e+000	 7.0677474842e-001	 8.8464709425e-001
 1.6478100126e+000	 7.2437735518e-001	 7.9355644266e-001
 1.6399805736e+000	 7.4193272950e-001	 7.0064818049e-001
 1.6319482913e+000	 7.5943747564e-001	 6.0601616248e-001
 1.6237134218e+000	 7.7688818926e-001	 5.0980621067e-001
 1.6152762950e+000	 7.9428145945e-001	 4.1221603628e-001
 1.6066373155e+000	 8.1161387061e-001	 3.1349508380e-001
 1.5977969630e+000	 8.2888200447e-001	 2.1394429758e-001
 1.5887557923e+000	 8.4608244213e-001	 1.1391581160e-001
 1.5795144344e+000	 8.6321176607e-001	 1.3812562426e-002
 1.5700735960e+000	 8.8026656221e-001	-8.5912174704e-002
 1.3374584701e+000	 7.4985018066e-001	 3.2955417448e-001
 1.3292458404e+000	 7.6431398883e-001	 2.2985759457e-001
 1.3208646337e+000	 7.7870848989e-001	 1.3054572257e-001
 1.3123156482e+000	 7.9303079459e-001	 3.1685211519e-002
 1.3035997473e+000	 8.0727802380e-001	-6.6506681355e-002
 1.2947178591e+000	 8.2144731029e-001	-1.6377026207e-001
 1.2856709767e+000	 8.3553580053e-001	-2.5980266228e-001
 1.2764601577e+000	 8.4954065654e-001	-3.5425725010e-001
 1.2670865240e+000	 8.6345905763e-001	-4.4674319720e-001
 1.2575512615e+000	 8.7728820228e-001	-5.3682520979e-001
 1.2478556198e+000	 8.9102530988e-001	-6.2402343015e-001
 1.3607199827e+000	 7.6289181882e-001	 2.8560242108e-001
 1.3523645163e+000	 7.7760718625e-001	 1.8401080128e-001
 1.3438375409e+000	 7.9225204115e-001	 8.3353546561e-002
 1.3351398687e+000	 8.0682344403e-001	-1.5825217740e-002
 1.3262723780e+000	 8.2131846568e-001	-1.1343009509e-001
 1.3172360131e+000	 8.3573418901e-001	-2.1009196501e-001
 1.3080317844e+000	 8.5006771085e-001	-3.0556830427e-001
 1.2986607678e+000	 8.6431614387e-001	-3.9953928077e-001
 1.2891241048e+000	 8.7847661832e-001	-4.9163867125e-001
 1.2794230019e+000	 8.9254628395e-001	-5.8145349035e-001
 1.2695587305e+000	 9.0652231179e-001	-6.6852380164e-001
 1.3839814953e+000	 7.7593345698e-001	 2.3759739025e-001
 1.3754831922e+000	 7.9090038366e-001	 1.3465231747e-001
 1.3668104481e+000	 8.0579559240e-001	 3.2299599868e-002
 1.3579640892e+000	 8.2061609346e-001	-6.8936111992e-002
 1.3489450086e+000	 8.3535890756e-001	-1.6848518026e-001
 1.3397541671e+000	 8.5002106772e-001	-2.6573347091e-001
 1.3303925920e+000	 8.6459962117e-001	-3.6012346724e-001
 1.3208613779e+000	 8.7909163119e-001	-4.5258039730e-001
 1.3111616856e+000	 8.9349417900e-001	-5.4325124897e-001
 1.3012947424e+000	 9.0780436561e-001	-6.3176303337e-001
 1.2912618412e+000	 9.2201931370e-001	-7.1769294157e-001
 1.4072430079e+000	 7.8897509513e-001	 1.8747042798e-001
 1.3986018680e+000	 8.0419358107e-001	 8.3758706693e-002
 1.3897833553e+000	 8.1933914365e-001	-1.9612263621e-002
 1.3807883096e+000	 8.3440874290e-001	-1.2215270412e-001
 1.3716176393e+000	 8.4939934944e-001	-2.2332629461e-001
 1.3622723211e+000	 8.6430794644e-001	-3.2255061925e-001
 1.3527533997e+000	 8.7913153149e-001	-4.1919771197e-001
 1.3430619880e+000	 8.9386711852e-001	-5.1259470243e-001
 1.3331992664e+000	 9.0851173969e-001	-6.0202470134e-001
 1.3231664828e+000	 9.2306244728e-001	-6.8817344240e-001
 1.3129649519e+000	 9.3751631561e-001	-7.7191731677e-001
 1.4305045204e+000	 8.0201673329e-001	 1.3702859969e-001
 1.4217205439e+000	 8.1748677848e-001	 3.3065850674e-002
 1.4127562625e+000	 8.3288269491e-001	-7.0713240014e-002
 1.4036125301e+000	 8.4820139233e-001	-1.7386827722e-001
 1.3942902700e+000	 8.6343979131e-001	-2.7591067694e-001
 1.3847904751e+000	 8.7859482515e-001	-3.7630403573e-001
 1.3751142074e+000	 8.9366344181e-001	-4.7446459982e-001
 1.3652625981e+000	 9.0864260585e-001	-5.6976183518e-001
 1.3552368472e+000	 9.2352930037e-001	-6.6151909964e-001
 1.3450382232e+000	 9.3832052895e-001	-7.4901441844e-001
 1.3346680626e+000	 9.5301331752e-001	-8.3148136393e-001
 1.4537660330e+000	 8.1505837144e-001	 8.7957741971e-002
 1.4448392197e+000	 8.3077997589e-001	-1.5811578074e-002
 1.4357291697e+000	 8.4642624616e-001	-1.1945595675e-001
 1.4264367505e+000	 8.6199404176e-001	-2.2259806536e-001
 1.4169629007e+000	 8.7748023319e-001	-3.2481065192e-001
 1.4073086290e+000	 8.9288170386e-001	-4.2561680377e-001
 1.3974750150e+000	 9.0819535213e-001	-5.2449030958e-001
 1.3874632082e+000	 9.2341809318e-001	-6.2085612217e-001
 1.3772744280e+000	 9.3854686106e-001	-7.1409092414e-001
 1.3669099637e+000	 9.5357861061e-001	-8.0352379767e-001
 1.3563711732e+000	 9.6851031942e-001	-8.8843700010e-001
 1.4770275456e+000	 8.2810000960e-001	 4.1825600608e-002
 1.4679578956e+000	 8.4407317330e-001	-6.1376937657e-002
 1.4587020769e+000	 8.5996979741e-001	-1.6441122854e-001
 1.4492609710e+000	 8.7578669120e-001	-2.6697591551e-001
 1.4396355313e+000	 8.9152067506e-001	-3.6871790390e-001
 1.4298267830e+000	 9.0716858258e-001	-4.6923248672e-001
 1.4198358227e+000	 9.2272726244e-001	-5.6806356900e-001
 1.4096638183e+000	 9.3819358050e-001	-6.6470399268e-001
 1.3993120089e+000	 9.5356442174e-001	-7.5859596442e-001
 1.3887817041e+000	 9.6883669228e-001	-8.4913158845e-001
 1.3780742839e+000	 9.8400732133e-001	-9.3565350669e-001
 1.5002890582e+000	 8.4114164775e-001	 8.5045287253e-005
 1.4910765715e+000	 8.5736637071e-001	-1.0224835045e-001
 1.4816749840e+000	 8.7351334866e-001	-2.0426471690e-001
 1.4720851914e+000	 8.8957934063e-001	-3.0575084704e-001
 1.4623081620e+000	 9.0556111694e-001	-4.0643990716e-001
 1.4523449370e+000	 9.2145546129e-001	-5.0601139624e-001
 1.4421966304e+000	 9.3725917276e-001	-6.0409120249e-001
 1.4318644284e+000	 9.5296906783e-001	-7.0025175966e-001
 1.4213495897e+000	 9.6858198243e-001	-7.9401230621e-001
 1.4106534445e+000	 9.8409477394e-001	-8.8483925014e-001
 1.3997773946e+000	 9.9950432324e-001	-9.7214664237e-001
 1.5235505708e+000	 8.5418328591e-001	-3.5922647015e-002
 1.5141952473e+000	 8.7065956811e-001	-1.3715535837e-001
 1.5046478912e+000	 8.8705689991e-001	-2.3781350358e-001
 1.4949094119e+000	 9.0337199006e-001	-3.3778351982e-001
 1.4849807927e+000	 9.1960155881e-001	-4.3689626218e-001
 1.4748630910e+000	 9.3574234000e-001	-5.3492676736e-001
 1.4645574380e+000	 9.5179108307e-001	-6.3159411235e-001
 1.4540650385e+000	 9.6774455515e-001	-7.2656137189e-001
 1.4433871705e+000	 9.8359954311e-001	-8.1943567825e-001
 1.4325251850e+000	 9.9935285560e-001	-9.0976838706e-001
 1.4214805053e+000	 1.0150013251e+000	-9.9705624289e-001
 1.5468120834e+000	 8.6722492406e-001	-6.4964447287e-002
 1.5373139232e+000	 8.8395276552e-001	-1.6493550794e-001
 1.5276207984e+000	 9.0060045116e-001	-2.6396258694e-001
 1.5177336323e+000	 9.1716463949e-001	-3.6204262052e-001
 1.5076534233e+000	 9.3364200069e-001	-4.5911494789e-001
 1.4973812450e+000	 9.5002921872e-001	-5.5506084985e-001
 1.4869182457e+000	 9.6632299339e-001	-6.4970318000e-001
 1.4762656486e+000	 9.8252004248e-001	-7.4280609300e-001
 1.4654247513e+000	 9.9861710379e-001	-8.3407487438e-001
 1.4543969254e+000	 1.0146109373e+000	-9.2315678463e-001
 1.4431836160e+000	 1.0304983271e+000	-1.0096373294e+000
 1.5700735960e+000	 8.8026656221e-001	-8.5912174704e-002
 1.5604325990e+000	 8.9724596293e-001	-1.8453087260e-001
 1.5505937056e+000	 9.1414400241e-001	-2.8172130925e-001
 1.5405578528e+000	 9.3095728892e-001	-3.7760117564e-001
 1.5303260540e+000	 9.4768244256e-001	-4.7222849849e-001
 1.5198993990e+000	 9.6431609743e-001	-5.6560092471e-001
 1.5092790533e+000	 9.8085490370e-001	-6.5765509542e-001
 1.4984662587e+000	 9.9729552980e-001	-7.4826611485e-001
 1.4874623321e+000	 1.0136346645e+000	-8.3724807029e-001
 1.4762686658e+000	 1.0298690189e+000	-9.2434974508e-001
 1.4648867267e+000	 1.0459953290e+000	-1.0092606050e+000
 1.2478556198e+000	 8.9102530988e-001	-6.2402343015e-001
 1.2380009114e+000	 9.0466762225e-001	-7.1008127434e-001
 1.2279885099e+000	 9.1821240449e-001	-7.9677694991e-001
 1.2178198509e+000	 9.3165694760e-001	-8.8361288875e-001
 1.2074964313e+000	 9.4499857057e-001	-9.7004313749e-001
 1.1970198092e+000	 9.5823462210e-001	-1.0554738812e+000
 1.1863916024e+000	 9.7136248230e-001	-1.1392641682e+000
 1.1756134885e+000	 9.8437956441e-001	-1.2207268366e+000
 1.1646872033e+000	 9.9728331646e-001	-1.2991296450e+000
 1.1536145402e+000	 1.0100712229e+000	-1.3736966040e+000
 1.1423973494e+000	 1.0227408064e+000	-1.4436102564e+000
 1.2695587305e+000	 9.0652231179e-001	-6.6852380164e-001
 1.2595326258e+000	 9.2040189569e-001	-7.5451901921e-001
 1.2493460854e+000	 9.3418225318e-001	-8.4114436855e-001
 1.2390005697e+000	 9.4786062816e-001	-9.2791675031e-001
 1.2284976019e+000	 9.6143429298e-001	-1.0142977616e+000
 1.2178387669e+000	 9.7490055022e-001	-1.0996941630e+000
 1.2070257109e+000	 9.8825673443e-001	-1.1834585699e+000
 1.1960601405e+000	 1.0015002139e+000	-1.2648903691e+000
 1.1849438218e+000	 1.0146283922e+000	-1.3432378300e+000
 1.1736785794e+000	 1.0276387101e+000	-1.4176954338e+000
 1.1622662956e+000	 1.0405286470e+000	-1.4874117881e+000
 1.2912618412e+000	 9.2201931370e-001	-7.1769294157e-001
 1.2810643402e+000	 9.3613616914e-001	-8.0258609762e-001
 1.2707036608e+000	 9.5015210188e-001	-8.8802130039e-001
 1.2601812885e+000	 9.6406430873e-001	-9.7354231849e-001
 1.2494987724e+000	 9.7787001539e-001	-1.0586310970e+000
 1.2386577246e+000	 9.9156647834e-001	-1.1427081424e+000
 1.2276598194e+000	 1.0051509866e+000	-1.2251331547e+000
 1.2165067926e+000	 1.0186208633e+000	-1.3052068823e+000
 1.2052004404e+000	 1.0319734679e+000	-1.3821682045e+000
 1.1937426186e+000	 1.0452061972e+000	-1.4552018218e+000
 1.1821352418e+000	 1.0583164877e+000	-1.5234355287e+000
 1.3129649519e+000	 9.3751631561e-001	-7.7191731677e-001
 1.3025960546e+000	 9.5187044258e-001	-8.5464495376e-001
 1.2920612363e+000	 9.6612195058e-001	-9.3777351404e-001
 1.2813620074e+000	 9.8026798929e-001	-1.0208854899e+000
 1.2704999430e+000	 9.9430573780e-001	-1.1034953874e+000
 1.2594766823e+000	 1.0082324065e+000	-1.1850500031e+000
 1.2482939279e+000	 1.0220452387e+000	-1.2649299267e+000
 1.2369534446e+000	 1.0357415128e+000	-1.3424464031e+000
 1.2254570589e+000	 1.0493185436e+000	-1.4168485740e+000
 1.2138066578e+000	 1.0627736844e+000	-1.4873206117e+000
 1.2020041879e+000	 1.0761043283e+000	-1.5529844593e+000
 1.3346680626e+000	 9.5301331752e-001	-8.3148136393e-001
 1.3241277690e+000	 9.6760471602e-001	-9.1098632204e-001
 1.3134188117e+000	 9.8209179928e-001	-9.9069585297e-001
 1.3025427262e+000	 9.9647166985e-001	-1.0702707169e+000
 1.2915011135e+000	 1.0107414602e+000	-1.1492706971e+000
 1.2802956401e+000	 1.0248983346e+000	-1.2271786386e+000
 1.2689280364e+000	 1.0389394908e+000	-1.3034075120e+000
 1.2574000967e+000	 1.0528621622e+000	-1.3772966009e+000
 1.2457136775e+000	 1.0666636193e+000	-1.4481137043e+000
 1.2338706970e+000	 1.0803411715e+000	-1.5150564718e+000
 1.2218731341e+000	 1.0938921690e+000	-1.5772540392e+000
 1.3563711732e+000	 9.6851031942e-001	-8.8843700010e-001
 1.3456594834e+000	 9.8333898946e-001	-9.6938980216e-001
 1.3347763872e+000	 9.9806164798e-001	-1.0469688716e+000
 1.3237234450e+000	 1.0126753504e+000	-1.1219439994e+000
 1.3125022841e+000	 1.0271771826e+000	-1.1962525832e+000
 1.3011145978e+000	 1.0415642627e+000	-1.2694659687e+000
 1.2895621449e+000	 1.0558337430e+000	-1.3410397825e+000
 1.2778467487e+000	 1.0699828117e+000	-1.4103511559e+000
 1.2659702960e+000	 1.0840086950e+000	-1.4766996727e+000
 1.2539347362e+000	 1.0979086586e+000	-1.5393086444e+000
 1.2417420802e+000	 1.1116800096e+000	-1.5973267115e+000
 1.3780742839e+000	 9.8400732133e-001	-9.3565350669e-001
 1.3671911978e+000	 9.9907326290e-001	-1.0185287451e+000
 1.3561339626e+000	 1.0140314967e+000	-1.0981417927e+000
 1.3449041638e+000	 1.0288790310e+000	-1.1737745921e+000
 1.3335034546e+000	 1.0436129050e+000	-1.2446501829e+000
 1.3219335555e+000	 1.0582301908e+000	-1.3121950491e+000
 1.3101962534e+000	 1.0727279951e+000	-1.3782038387e+000
 1.2982934008e+000	 1.0871034612e+000	-1.4421035341e+000
 1.2862269145e+000	 1.1013537707e+000	-1.5032369284e+000
 1.2739987753e+000	 1.1154761458e+000	-1.5608645301e+000
 1.2616110264e+000	 1.1294678503e+000	-1.6141661081e+000
 1.3997773946e+000	 9.9950432324e-001	-9.7214664237e-001
 1.3887229121e+000	 1.0148075363e+000	-1.0561367242e+000
 1.3774915381e+000	 1.0300013454e+000	-1.1370123741e+000
 1.3660848826e+000	 1.0450827115e+000	-1.2141065429e+000
 1.3545046252e+000	 1.0600486274e+000	-1.2866871360e+000
 1.3427525133e+000	 1.0748961189e+000	-1.3539587611e+000
 1.3308303620e+000	 1.0896222472e+000	-1.4151733911e+000
 1.3187400528e+000	 1.1042241106e+000	-1.4729395231e+000
 1.3064835331e+000	 1.1186988464e+000	-1.5282432040e+000
 1.2940628145e+000	 1.1330436329e+000	-1.5803930671e+000
 1.2814799725e+000	 1.1472556909e+000	-1.6286109858e+000
 1.4214805053e+000	 1.0150013251e+000	-9.9705624289e-001
 1.4102546265e+000	 1.0305418098e+000	-1.0813725338e+000
 1.3988491135e+000	 1.0459711941e+000	-1.1627817414e+000
 1.3872656015e+000	 1.0612863921e+000	-1.2406711951e+000
 1.3755057957e+000	 1.0764843498e+000	-1.3143625935e+000
 1.3635714710e+000	 1.0915620471e+000	-1.3831125799e+000
 1.3514644705e+000	 1.1065164994e+000	-1.4461134676e+000
 1.3391867049e+000	 1.1213447601e+000	-1.5024941183e+000
 1.3267401516e+000	 1.1360439222e+000	-1.5521162940e+000
 1.3141268537e+000	 1.1506111200e+000	-1.5984379284e+000
 1.3013489187e+000	 1.1650435316e+000	-1.6413689237e+000
 1.4431836160e+000	 1.0304983271e+000	-1.0096373294e+000
 1.4317863409e+000	 1.0462760832e+000	-1.0935183603e+000
 1.4202066890e+000	 1.0619410428e+000	-1.1747717120e+000
 1.4084463203e+000	 1.0774900727e+000	-1.2528470919e+000
 1.3965069663e+000	 1.0929200723e+000	-1.3271274288e+000
 1.3843904287e+000	 1.1082279752e+000	-1.3969292807e+000
 1.3720985790e+000	 1.1234107515e+000	-1.4615033941e+000
 1.3596333569e+000	 1.1384654095e+000	-1.5200354202e+000
 1.3469967702e+000	 1.1533889979e+000	-1.5716467914e+000
 1.3341908929e+000	 1.1681786072e+000	-1.6153957619e+000
 1.3212178648e+000	 1.1828313722e+000	-1.6530098060e+000
 1.4648867267e+000	 1.0459953290e+000	-1.0092606050e+000
 1.4533180553e+000	 1.0620103567e+000	-1.0919702288e+000
 1.4415642644e+000	 1.0779108915e+000	-1.1724201544e+000
 1.4296270391e+000	 1.0936937532e+000	-1.2501290456e+000
 1.4175081369e+000	 1.1093557947e+000	-1.3245480888e+000
 1.4052093865e+000	 1.1248939033e+000	-1.3950612104e+000
 1.3927326875e+000	 1.1403050036e+000	-1.4609854473e+000
 1.3800800090e+000	 1.1555860590e+000	-1.5215714767e+000
 1.3672533887e+000	 1.1707340736e+000	-1.5760043087e+000
 1.3542549321e+000	 1.1857460943e+000	-1.6234041470e+000
 1.3410868110e+000	 1.2006192129e+000	-1.6628274211e+000
 1.1423973494e+000	 1.0227408064e+000	-1.4436102564e+000
 1.1310392512e+000	 1.0352877560e+000	-1.5103363622e+000
 1.1195405341e+000	 1.0477115864e+000	-1.5756849163e+000
 1.1079032118e+000	 1.0600099458e+000	-1.6392611194e+000
 1.0961293502e+000	 1.0721805264e+000	-1.7006337917e+000
 1.0842210662e+000	 1.0842210662e+000	-1.7593368631e+000
 1.0721805264e+000	 1.0961293502e+000	-1.8148710325e+000
 1.0600099458e+000	 1.1079032118e+000	-1.8667055908e+000
 1.0477115864e+000	 1.1195405341e+000	-1.9142803972e+000
 1.0352877560e+000	 1.1310392512e+000	-1.9570080021e+000
 1.0227408064e+000	 1.1423973494e+000	-1.9942759055e+000
 1.1622662956e+000	 1.0405286470e+000	-1.4874117881e+000
 1.1507106537e+000	 1.0532938173e+000	-1.5538674100e+000
 1.1390119471e+000	 1.0659337270e+000	-1.6189046486e+000
 1.1271722247e+000	 1.0784459834e+000	-1.6821169300e+000
 1.1151935882e+000	 1.0908282387e+000	-1.7430576773e+000
 1.1030781915e+000	 1.1030781915e+000	-1.8012418818e+000
 1.0908282387e+000	 1.1151935882e+000	-1.8561478617e+000
 1.0784459834e+000	 1.1271722247e+000	-1.9072192006e+000
 1.0659337270e+000	 1.1390119471e+000	-1.9538668570e+000
 1.0532938173e+000	 1.1507106537e+000	-1.9954714358e+000
 1.0405286470e+000	 1.1622662956e+000	-2.0313856099e+000
 1.1821352418e+000	 1.0583164877e+000	-1.5234355287e+000
 1.1703820561e+000	 1.0712998786e+000	-1.5884200264e+000
 1.1584833601e+000	 1.0841558676e+000	-1.6520446212e+000
 1.1464412376e+000	 1.0968820211e+000	-1.7138415104e+000
 1.1342578263e+000	 1.1094759510e+000	-1.7732997646e+000
 1.1219353168e+000	 1.1219353168e+000	-1.8298670753e+000
 1.1094759510e+000	 1.1342578263e+000	-1.8829517089e+000
 1.0968820211e+000	 1.1464412376e+000	-1.9319246560e+000
 1.0841558676e+000	 1.1584833601e+000	-1.9761219693e+000
 1.0712998786e+000	 1.1703820561e+000	-2.0148472768e+000
 1.0583164877e+000	 1.1821352418e+000	-2.0473744619e+000
 1.2020041879e+000	 1.0761043283e+000	-1.5529844593e+000
 1.1900534585e+000	 1.0893059399e+000	-1.6155200766e+000
 1.1779547731e+000	 1.1023780082e+000	-1.6768815334e+000
 1.1657102505e+000	 1.1153180587e+000	-1.7364926188e+000
 1.1533220644e+000	 1.1281236634e+000	-1.7937313253e+000
 1.1407924421e+000	 1.1407924421e+000	-1.8479318676e+000
 1.1281236634e+000	 1.1533220644e+000	-1.8983869234e+000
 1.1153180587e+000	 1.1657102505e+000	-1.9443500889e+000
 1.1023780082e+000	 1.1779547731e+000	-1.9850385364e+000
 1.0893059399e+000	 1.1900534585e+000	-2.0196358637e+000
 1.0761043283e+000	 1.2020041879e+000	-2.0472951223e+000
 1.2218731341e+000	 1.0938921690e+000	-1.5772540392e+000
 1.2097248609e+000	 1.1073120011e+000	-1.6365765299e+000
 1.1974261861e+000	 1.1206001488e+000	-1.6950644452e+000
 1.1849792634e+000	 1.1337540964e+000	-1.7519881042e+000
 1.1723863024e+000	 1.1467713757e+000	-1.8065697699e+000
 1.1596495674e+000	 1.1596495674e+000	-1.8579860291e+000
 1.1467713757e+000	 1.1723863024e+000	-1.9053704142e+000
 1.1337540964e+000	 1.1849792634e+000	-1.9478162546e+000
 1.1206001488e+000	 1.1974261861e+000	-1.9843797467e+000
 1.1073120011e+000	 1.2097248609e+000	-2.0140832299e+000
 1.0938921690e+000	 1.2218731341e+000	-2.0359186541e+000
 1.2417420802e+000	 1.1116800096e+000	-1.5973267115e+000
 1.2293962633e+000	 1.1253180624e+000	-1.6528767735e+000
 1.2168975991e+000	 1.1388222893e+000	-1.7081110398e+000
 1.2042482763e+000	 1.1521901340e+000	-1.7621032700e+000
 1.1914505405e+000	 1.1654190881e+000	-1.8138772740e+000
 1.1785066928e+000	 1.1785066928e+000	-1.8624097443e+000
 1.1654190881e+000	 1.1914505405e+000	-1.9066333471e+000
 1.1521901340e+000	 1.2042482763e+000	-1.9454400604e+000
 1.1388222893e+000	 1.2168975991e+000	-1.9776847465e+000
 1.1253180624e+000	 1.2293962633e+000	-2.0021889444e+000
 1.1116800096e+000	 1.2417420802e+000	-2.0177448652e+000
 1.2616110264e+000	 1.1294678503e+000	-1.6141661081e+000
 1.2490676657e+000	 1.1433241237e+000	-1.6655815449e+000
 1.2363690121e+000	 1.1570444299e+000	-1.7174034099e+000
 1.2235172892e+000	 1.1706261717e+000	-1.7684676519e+000
 1.2105147786e+000	 1.1840668004e+000	-1.8175587005e+000
 1.1973638181e+000	 1.1973638181e+000	-1.8634128373e+000
 1.1840668004e+000	 1.2105147786e+000	-1.9047218458e+000
 1.1706261717e+000	 1.2235172892e+000	-1.9401369244e+000
 1.1570444299e+000	 1.2363690121e+000	-1.9682728504e+000
 1.1433241237e+000	 1.2490676657e+000	-1.9877123764e+000
 1.1294678503e+000	 1.2616110264e+000	-1.9970108432e+000
 1.2814799725e+000	 1.1472556909e+000	-1.6286109858e+000
 1.2687390682e+000	 1.1613301850e+000	-1.6757195231e+000
 1.2558404251e+000	 1.1752665705e+000	-1.7241834194e+000
 1.2427863021e+000	 1.1890622093e+000	-1.7725612775e+000
 1.2295790166e+000	 1.2027145127e+000	-1.8193588915e+000
 1.2162209434e+000	 1.2162209434e+000	-1.8630332442e+000
 1.2027145127e+000	 1.2295790166e+000	-1.9019968019e+000
 1.1890622093e+000	 1.2427863021e+000	-1.9346220902e+000
 1.1752665705e+000	 1.2558404251e+000	-1.9592465361e+000
 1.1613301850e+000	 1.2687390682e+000	-1.9741775574e+000
 1.1472556909e+000	 1.2814799725e+000	-1.9776978788e+000
 1.3013489187e+000	 1.1650435316e+000	-1.6413689237e+000
 1.2884104706e+000	 1.1793362463e+000	-1.6841816151e+000
 1.2753118380e+000	 1.1934887111e+000	-1.7295476862e+000
 1.2620553150e+000	 1.2074982469e+000	-1.7757104601e+000
 1.2486432547e+000	 1.2213622251e+000	-1.8208593996e+000
 1.2350780687e+000	 1.2350780687e+000	-1.8631348155e+000
 1.2213622251e+000	 1.2486432547e+000	-1.9006328915e+000
 1.2074982469e+000	 1.2620553150e+000	-1.9314110092e+000
 1.1934887111e+000	 1.2753118380e+000	-1.9534933551e+000
 1.1793362463e+000	 1.2884104706e+000	-1.9648767885e+000
 1.1650435316e+000	 1.3013489187e+000	-1.9635369487e+000
 1.3212178648e+000	 1.1828313722e+000	-1.6530098060e+000
 1.3080818730e+000	 1.1973423076e+000	-1.6917149704e+000
 1.2947832510e+000	 1.2117108517e+000	-1.7344422254e+000
 1.2813243279e+000	 1.2259342846e+000	-1.7790831773e+000
 1.2677074928e+000	 1.2400099374e+000	-1.8234747159e+000
 1.2539351941e+000	 1.2539351941e+000	-1.8654045165e+000
 1.2400099374e+000	 1.2677074928e+000	-1.9026168797e+000
 1.2259342846e+000	 1.2813243279e+000	-1.9328188897e+000
 1.2117108517e+000	 1.2947832510e+000	-1.9536868723e+000
 1.1973423076e+000	 1.3080818730e+000	-1.9628731270e+000
 1.1828313722e+000	 1.3212178648e+000	-1.9580129111e+000
 1.3410868110e+000	 1.2006192129e+000	-1.6628274211e+000
 1.3277532754e+000	 1.2153483688e+000	-1.6989167515e+000
 1.3142546640e+000	 1.2299329922e+000	-1.7396567886e+000
 1.3005933408e+000	 1.2443703222e+000	-1.7836840768e+000
 1.2867717309e+000	 1.2586576498e+000	-1.8284480479e+000
 1.2727923194e+000	 1.2727923194e+000	-1.8713490909e+000
 1.2586576498e+000	 1.2867717309e+000	-1.9097452894e+000
 1.2443703222e+000	 1.3005933408e+000	-1.9409594983e+000
 1.2299329922e+000	 1.3142546640e+000	-1.9622867360e+000
 1.2153483688e+000	 1.3277532754e+000	-1.9710018667e+000
 1.2006192129e+000	 1.3410868110e+000	-1.9651454793e+000
 1.0227408064e+000	 1.1423973494e+000	-1.9942759055e+000
 1.0100712229e+000	 1.1536145402e+000	-2.0297661631e+000
 9.9728331646e-001	 1.1646872033e+000	-2.0665144812e+000
 9.8437956441e-001	 1.1756134885e+000	-2.1029582457e+000
 9.7136248230e-001	 1.1863916024e+000	-2.1375557686e+000
 9.5823462210e-001	 1.1970198092e+000	-2.1687919059e+000
 9.4499857057e-001	 1.2074964313e+000	-2.1951824348e+000
 9.3165694760e-001	 1.2178198509e+000	-2.2152783935e+000
 9.1821240449e-001	 1.2279885099e+000	-2.2276703679e+000
 9.0466762225e-001	 1.2380009114e+000	-2.2309927057e+000
 8.9102530988e-001	 1.2478556198e+000	-2.2239276420e+000
 1.0405286470e+000	 1.1622662956e+000	-2.0313856099e+000
 1.0276387101e+000	 1.1736785794e+000	-2.0659454986e+000
 1.0146283922e+000	 1.1849438218e+000	-2.1027201232e+000
 1.0015002139e+000	 1.1960601405e+000	-2.1399270658e+000
 9.8825673443e-001	 1.2070257109e+000	-2.1758068606e+000
 9.7490055022e-001	 1.2178387669e+000	-2.2086385751e+000
 9.6143429298e-001	 1.2284976019e+000	-2.2367378969e+000
 9.4786062816e-001	 1.2390005697e+000	-2.2584636734e+000
 9.3418225318e-001	 1.2493460854e+000	-2.2722227303e+000
 9.2040189569e-001	 1.2595326258e+000	-2.2764746038e+000
 9.0652231179e-001	 1.2695587305e+000	-2.2697361678e+000
 1.0583164877e+000	 1.1821352418e+000	-2.0473744619e+000
 1.0452061972e+000	 1.1937426186e+000	-2.0787730837e+000
 1.0319734679e+000	 1.2052004404e+000	-2.1132888871e+000
 1.0186208633e+000	 1.2165067926e+000	-2.1489738385e+000
 1.0051509866e+000	 1.2276598194e+000	-2.1839147727e+000
 9.9156647834e-001	 1.2386577246e+000	-2.2162307271e+000
 9.7787001539e-001	 1.2494987724e+000	-2.2440901397e+000
 9.6406430873e-001	 1.2601812885e+000	-2.2657086174e+000
 9.5015210188e-001	 1.2707036608e+000	-2.2793560674e+000
 9.3613616914e-001	 1.2810643402e+000	-2.2833618925e+000
 9.2201931370e-001	 1.2912618412e+000	-2.2761200714e+000
 1.0761043283e+000	 1.2020041879e+000	-2.0472951223e+000
 1.0627736844e+000	 1.2138066578e+000	-2.0738488147e+000
 1.0493185436e+000	 1.2254570589e+000	-2.1043135167e+000
 1.0357415128e+000	 1.2369534446e+000	-2.1366311230e+000
 1.0220452387e+000	 1.2482939279e+000	-2.1687788864e+000
 1.0082324065e+000	 1.2594766823e+000	-2.1987775879e+000
 9.9430573780e-001	 1.2704999430e+000	-2.2246885246e+000
 9.8026798929e-001	 1.2813620074e+000	-2.2446321379e+000
 9.6612195058e-001	 1.2920612363e+000	-2.2567854435e+000
 9.5187044258e-001	 1.3025960546e+000	-2.2593896444e+000
 9.3751631561e-001	 1.3129649519e+000	-2.2507556164e+000
 1.0938921690e+000	 1.2218731341e+000	-2.0359186541e+000
 1.0803411715e+000	 1.2338706970e+000	-2.0564656583e+000
 1.0666636193e+000	 1.2457136775e+000	-2.0815571527e+000
 1.0528621622e+000	 1.2574000967e+000	-2.1090756756e+000
 1.0389394908e+000	 1.2689280364e+000	-2.1369399623e+000
 1.0248983346e+000	 1.2802956401e+000	-2.1631111817e+000
 1.0107414602e+000	 1.2915011135e+000	-2.1855991434e+000
 9.9647166985e-001	 1.3025427262e+000	-2.2024713052e+000
 9.8209179928e-001	 1.3134188117e+000	-2.2118478450e+000
 9.6760471602e-001	 1.3241277690e+000	-2.2119235842e+000
 9.5301331752e-001	 1.3346680626e+000	-2.2009851806e+000
 1.1116800096e+000	 1.2417420802e+000	-2.0177448652e+000
 1.0979086586e+000	 1.2539347362e+000	-2.0316210434e+000
 1.0840086950e+000	 1.2659702960e+000	-2.0504667029e+000
 1.0699828117e+000	 1.2778467487e+000	-2.0721529641e+000
 1.0558337430e+000	 1.2895621449e+000	-2.0945862740e+000
 1.0415642627e+000	 1.3011145978e+000	-2.1157149412e+000
 1.0271771826e+000	 1.3125022841e+000	-2.1335356498e+000
 1.0126753504e+000	 1.3237234450e+000	-2.1460999284e+000
 9.9806164798e-001	 1.3347763872e+000	-2.1515502336e+000
 9.8333898946e-001	 1.3456594834e+000	-2.1497996220e+000
 9.6851031942e-001	 1.3563711732e+000	-2.1399131327e+000
 1.1294678503e+000	 1.2616110264e+000	-1.9970108432e+000
 1.1154761458e+000	 1.2739987753e+000	-2.0040276521e+000
 1.1013537707e+000	 1.2862269145e+000	-2.0161856335e+000
 1.0871034612e+000	 1.2982934008e+000	-2.0313897950e+000
 1.0727279951e+000	 1.3101962534e+000	-2.0475779285e+000
 1.0582301908e+000	 1.3219335555e+000	-2.0627273851e+000
 1.0436129050e+000	 1.3335034546e+000	-2.0748623663e+000
 1.0288790310e+000	 1.3449041638e+000	-2.0837269006e+000
 1.0140314967e+000	 1.3561339626e+000	-2.0887778902e+000
 9.9907326290e-001	 1.3671911978e+000	-2.0878870737e+000
 9.8400732133e-001	 1.3780742839e+000	-2.0790023997e+000
 1.1472556909e+000	 1.2814799725e+000	-1.9776978788e+000
 1.1330436329e+000	 1.2940628145e+000	-1.9781223936e+000
 1.1186988464e+000	 1.3064835331e+000	-1.9835647614e+000
 1.1042241106e+000	 1.3187400528e+000	-1.9920066809e+000
 1.0896222472e+000	 1.3308303620e+000	-2.0014584533e+000
 1.0748961189e+000	 1.3427525133e+000	-2.0111037152e+000
 1.0600486274e+000	 1.3545046252e+000	-2.0212337224e+000
 1.0450827115e+000	 1.3660848826e+000	-2.0297183978e+000
 1.0300013454e+000	 1.3774915381e+000	-2.0344209460e+000
 1.0148075363e+000	 1.3887229121e+000	-2.0332822658e+000
 9.9950432324e-001	 1.3997773946e+000	-2.0243298547e+000
 1.1650435316e+000	 1.3013489187e+000	-1.9635369487e+000
 1.1506111200e+000	 1.3141268537e+000	-1.9580737540e+000
 1.1360439222e+000	 1.3267401516e+000	-1.9571712612e+000
 1.1213447601e+000	 1.3391867049e+000	-1.9593768395e+000
 1.1065164994e+000	 1.3514644705e+000	-1.9656609453e+000
 1.0915620471e+000	 1.3635714710e+000	-1.9743791821e+000
 1.0764843498e+000	 1.3755057957e+000	-1.9833765541e+000
 1.0612863921e+000	 1.3872656015e+000	-1.9905601047e+000
 1.0459711941e+000	 1.3988491135e+000	-1.9939042571e+000
 1.0305418098e+000	 1.4102546265e+000	-1.9914560446e+000
 1.0150013251e+000	 1.4214805053e+000	-1.9813402121e+000
 1.1828313722e+000	 1.3212178648e+000	-1.9580129111e+000
 1.1681786072e+000	 1.3341908929e+000	-1.9477980464e+000
 1.1533889979e+000	 1.3469967702e+000	-1.9437009097e+000
 1.1384654095e+000	 1.3596333569e+000	-1.9455295548e+000
 1.1234107515e+000	 1.3720985790e+000	-1.9511929254e+000
 1.1082279752e+000	 1.3843904287e+000	-1.9586445005e+000
 1.0929200723e+000	 1.3965069663e+000	-1.9658876967e+000
 1.0774900727e+000	 1.4084463203e+000	-1.9709812091e+000
 1.0619410428e+000	 1.4202066890e+000	-1.9720442751e+000
 1.0462760832e+000	 1.4317863409e+000	-1.9672618405e+000
 1.0304983271e+000	 1.4431836160e+000	-1.9548896125e+000
 1.2006192129e+000	 1.3410868110e+000	-1.9651454793e+000
 1.1857460943e+000	 1.3542549321e+000	-1.9564505413e+000
 1.1707340736e+000	 1.3672533887e+000	-1.9542589398e+000
 1.1555860590e+000	 1.3800800090e+000	-1.9566585161e+000
 1.1403050036e+000	 1.3927326875e+000	-1.9617682820e+000
 1.1248939033e+000	 1.4052093865e+000	-1.9677436774e+000
 1.1093557947e+000	 1.4175081369e+000	-1.9727818035e+000
 1.0936937532e+000	 1.4296270391e+000	-1.9751266140e+000
 1.0779108915e+000	 1.4415642644e+000	-1.9730740457e+000
 1.0620103567e+000	 1.4533180553e+000	-1.9649770714e+000
 1.0459953290e+000	 1.4648867267e+000	-1.9492506562e+000
 8.9102530988e-001	 1.2478556198e+000	-2.2239276420e+000
 8.7728820228e-001	 1.2575512615e+000	-2.2125456713e+000
 8.6345905763e-001	 1.2670865240e+000	-2.2029447480e+000
 8.4954065654e-001	 1.2764601577e+000	-2.1939363738e+000
 8.3553580053e-001	 1.2856709767e+000	-2.1844014755e+000
 8.2144731029e-001	 1.2947178591e+000	-2.1732941309e+000
 8.0727802380e-001	 1.3035997473e+000	-2.1596450882e+000
 7.9303079459e-001	 1.3123156482e+000	-2.1425650665e+000
 7.7870848989e-001	 1.3208646337e+000	-2.1212478233e+000
 7.6431398883e-001	 1.3292458404e+000	-2.0949729770e+000
 7.4985018066e-001	 1.3374584701e+000	-2.0632129928e+000
 9.0652231179e-001	 1.2695587305e+000	-2.2697361678e+000
 8.9254628395e-001	 1.2794230019e+000	-2.2580987682e+000
 8.7847661832e-001	 1.2891241048e+000	-2.2477952046e+000
 8.6431614387e-001	 1.2986607678e+000	-2.2376517011e+000
 8.5006771085e-001	 1.3080317844e+000	-2.2265663633e+000
 8.3573418901e-001	 1.3172360131e+000	-2.2135131132e+000
 8.2131846568e-001	 1.3262723780e+000	-2.1975454091e+000
 8.0682344403e-001	 1.3351398687e+000	-2.1778270122e+000
 7.9225204115e-001	 1.3438375409e+000	-2.1543439380e+000
 7.7760718625e-001	 1.3523645163e+000	-2.1265547557e+000
 7.6289181882e-001	 1.3607199827e+000	-2.0935980747e+000
 9.2201931370e-001	 1.2912618412e+000	-2.2761200714e+000
 9.0780436561e-001	 1.3012947424e+000	-2.2636529696e+000
 8.9349417900e-001	 1.3111616856e+000	-2.2522136205e+000
 8.7909163119e-001	 1.3208613779e+000	-2.2406461579e+000
 8.6459962117e-001	 1.3303925920e+000	-2.2278685005e+000
 8.5002106772e-001	 1.3397541671e+000	-2.2132654458e+000
 8.3535890756e-001	 1.3489450086e+000	-2.1969358930e+000
 8.2061609346e-001	 1.3579640892e+000	-2.1778371256e+000
 8.0579559240e-001	 1.3668104481e+000	-2.1549410117e+000
 7.9090038366e-001	 1.3754831922e+000	-2.1273187870e+000
 7.7593345698e-001	 1.3839814953e+000	-2.0941433768e+000
 9.3751631561e-001	 1.3129649519e+000	-2.2507556164e+000
 9.2306244728e-001	 1.3231664828e+000	-2.2367741673e+000
 9.0851173969e-001	 1.3331992664e+000	-2.2236323839e+000
 8.9386711852e-001	 1.3430619880e+000	-2.2111850572e+000
 8.7913153149e-001	 1.3527533997e+000	-2.1991994497e+000
 8.6430794644e-001	 1.3622723211e+000	-2.1863934047e+000
 8.4939934944e-001	 1.3716176393e+000	-2.1715767116e+000
 8.3440874290e-001	 1.3807883096e+000	-2.1536543111e+000
 8.1933914365e-001	 1.3897833553e+000	-2.1316291728e+000
 8.0419358107e-001	 1.3986018680e+000	-2.1046049466e+000
 7.8897509513e-001	 1.4072430079e+000	-2.0717883806e+000
 9.5301331752e-001	 1.3346680626e+000	-2.2009851806e+000
 9.3832052895e-001	 1.3450382232e+000	-2.1862388648e+000
 9.2352930037e-001	 1.3552368472e+000	-2.1744214254e+000
 9.0864260585e-001	 1.3652625981e+000	-2.1641062008e+000
 8.9366344181e-001	 1.3751142074e+000	-2.1539519234e+000
 8.7859482515e-001	 1.3847904751e+000	-2.1427063305e+000
 8.6343979131e-001	 1.3942902700e+000	-2.1292095750e+000
 8.4820139233e-001	 1.4036125301e+000	-2.1123974269e+000
 8.3288269491e-001	 1.4127562625e+000	-2.0913042547e+000
 8.1748677848e-001	 1.4217205439e+000	-2.0650657788e+000
 8.0201673329e-001	 1.4305045204e+000	-2.0329215887e+000
 9.6851031942e-001	 1.3563711732e+000	-2.1399131327e+000
 9.5357861061e-001	 1.3669099637e+000	-2.1271073060e+000
 9.3854686106e-001	 1.3772744280e+000	-2.1169706877e+000
 9.2341809318e-001	 1.3874632082e+000	-2.1081091901e+000
 9.0819535213e-001	 1.3974750150e+000	-2.0992136302e+000
 8.9288170386e-001	 1.4073086290e+000	-2.0890634471e+000
 8.7748023319e-001	 1.4169629007e+000	-2.0765302210e+000
 8.6199404176e-001	 1.4264367505e+000	-2.0605809815e+000
 8.4642624616e-001	 1.4357291697e+000	-2.0402812963e+000
 8.3077997589e-001	 1.4448392197e+000	-2.0147981305e+000
 8.1505837144e-001	 1.4537660330e+000	-1.9834024676e+000
 9.8400732133e-001	 1.3780742839e+000	-2.0790023997e+000
 9.6883669228e-001	 1.3887817041e+000	-2.0671841832e+000
 9.5356442174e-001	 1.3993120089e+000	-2.0578622934e+000
 9.3819358050e-001	 1.4096638183e+000	-2.0496776444e+000
 9.2272726244e-001	 1.4198358227e+000	-2.0413549425e+000
 9.0716858258e-001	 1.4298267830e+000	-2.0317065114e+000
 8.9152067506e-001	 1.4396355313e+000	-2.0196359190e+000
 8.7578669120e-001	 1.4492609710e+000	-2.0041413962e+000
 8.5996979741e-001	 1.4587020769e+000	-1.9843190352e+000
 8.4407317330e-001	 1.4679578956e+000	-1.9593657588e+000
 8.2810000960e-001	 1.4770275456e+000	-1.9285820520e+000
 9.9950432324e-001	 1.3997773946e+000	-2.0243298547e+000
 9.8409477394e-001	 1.4106534445e+000	-2.0124876256e+000
 9.6858198243e-001	 1.4213495897e+000	-2.0030430053e+000
 9.5296906783e-001	 1.4318644284e+000	-1.9946738206e+000
 9.3725917276e-001	 1.4421966304e+000	-1.9861399677e+000
 9.2145546129e-001	 1.4523449370e+000	-1.9762873444e+000
 9.0556111694e-001	 1.4623081620e+000	-1.9640515878e+000
 8.8957934063e-001	 1.4720851914e+000	-1.9484616048e+000
 8.7351334866e-001	 1.4816749840e+000	-1.9286428839e+000
 8.5736637071e-001	 1.4910765715e+000	-1.9038205797e+000
 8.4114164775e-001	 1.5002890582e+000	-1.8733223590e+000
 1.0150013251e+000	 1.4214805053e+000	-1.9813402121e+000
 9.9935285560e-001	 1.4325251850e+000	-1.9684178920e+000
 9.8359954311e-001	 1.4433871705e+000	-1.9578534891e+000
 9.6774455515e-001	 1.4540650385e+000	-1.9483667450e+000
 9.5179108307e-001	 1.4645574380e+000	-1.9387535647e+000
 9.3574234000e-001	 1.4748630910e+000	-1.9278936412e+000
 9.1960155881e-001	 1.4849807927e+000	-1.9147543046e+000
 9.0337199006e-001	 1.4949094119e+000	-1.8983941672e+000
 8.8705689991e-001	 1.5046478912e+000	-1.8779665534e+000
 8.7065956811e-001	 1.5141952473e+000	-1.8527227027e+000
 8.5418328591e-001	 1.5235505708e+000	-1.8220147368e+000
 1.0304983271e+000	 1.4431836160e+000	-1.9548896125e+000
 1.0146109373e+000	 1.4543969254e+000	-1.9397816117e+000
 9.9861710379e-001	 1.4654247513e+000	-1.9270556706e+000
 9.8252004248e-001	 1.4762656486e+000	-1.9154586257e+000
 9.6632299339e-001	 1.4869182457e+000	-1.9038267294e+000
 9.5002921872e-001	 1.4973812450e+000	-1.8910732430e+000
 9.3364200069e-001	 1.5076534233e+000	-1.8761963774e+000
 9.1716463949e-001	 1.5177336323e+000	-1.8582830558e+000
 9.0060045116e-001	 1.5276207984e+000	-1.8365124644e+000
 8.8395276552e-001	 1.5373139232e+000	-1.8101593796e+000
 8.6722492406e-001	 1.5468120834e+000	-1.7785972622e+000
 1.0459953290e+000	 1.4648867267e+000	-1.9492506562e+000
 1.0298690189e+000	 1.4762686658e+000	-1.9308345263e+000
 1.0136346645e+000	 1.4874623321e+000	-1.9148540493e+000
 9.9729552980e-001	 1.4984662587e+000	-1.9001097248e+000
 9.8085490370e-001	 1.5092790533e+000	-1.8854605147e+000
 9.6431609743e-001	 1.5198993990e+000	-1.8698570279e+000
 9.4768244256e-001	 1.5303260540e+000	-1.8523271280e+000
 9.3095728892e-001	 1.5405578528e+000	-1.8319842494e+000
 9.1414400241e-001	 1.5505937056e+000	-1.8080310725e+000
 8.9724596293e-001	 1.5604325990e+000	-1.7797629800e+000
 8.8026656221e-001	 1.5700735960e+000	-1.7465712832e+000
 7.4985018066e-001	 1.3374584701e+000	-2.0632129928e+000
 7.3532214732e-001	 1.3455005959e+000	-2.0300686144e+000
 7.2073062788e-001	 1.3533727953e+000	-1.9992456154e+000
 7.0607853061e-001	 1.3610744663e+000	-1.9703985597e+000
 6.9136876671e-001	 1.3686050715e+000	-1.9432726683e+000
 6.7660424856e-001	 1.3759641382e+000	-1.9177046055e+000
 6.6178788798e-001	 1.3831512578e+000	-1.8934093857e+000
 6.4692259452e-001	 1.3901660856e+000	-1.8674715026e+000
 6.3201127378e-001	 1.3970083406e+000	-1.8387319099e+000
 6.1705682569e-001	 1.4036778048e+000	-1.8069342467e+000
 6.0206214291e-001	 1.4101743228e+000	-1.7718856223e+000
 7.6289181882e-001	 1.3607199827e+000	-2.0935980747e+000
 7.4811110919e-001	 1.3689019798e+000	-2.0587013534e+000
 7.3326580931e-001	 1.3769110950e+000	-2.0253311663e+000
 7.1835887800e-001	 1.3847467159e+000	-1.9931455800e+000
 7.0339327710e-001	 1.3924082959e+000	-1.9618951822e+000
 6.8837196965e-001	 1.3998953539e+000	-1.9314239993e+000
 6.7329791811e-001	 1.4072074742e+000	-1.9016701851e+000
 6.5817408263e-001	 1.4143443062e+000	-1.8720282488e+000
 6.4300341935e-001	 1.4213055639e+000	-1.8394306075e+000
 6.2778887864e-001	 1.4280910255e+000	-1.8032401424e+000
 6.1253340346e-001	 1.4347005331e+000	-1.7632550030e+000
 7.7593345698e-001	 1.3839814953e+000	-2.0941433768e+000
 7.6090007107e-001	 1.3923033636e+000	-2.0585108112e+000
 7.4580099073e-001	 1.4004493947e+000	-2.0237264987e+000
 7.3063922539e-001	 1.4084189656e+000	-1.9894414636e+000
 7.1541778749e-001	 1.4162115203e+000	-1.9554013366e+000
 7.0013969074e-001	 1.4238265695e+000	-1.9214474193e+000
 6.8480794824e-001	 1.4312636906e+000	-1.8875175136e+000
 6.6942557074e-001	 1.4385225267e+000	-1.8536465118e+000
 6.5399556492e-001	 1.4456027872e+000	-1.8185571184e+000
 6.3852093159e-001	 1.4525042463e+000	-1.7794979466e+000
 6.2300466401e-001	 1.4592267435e+000	-1.7361859827e+000
 7.8897509513e-001	 1.4072430079e+000	-2.0717883806e+000
 7.7368903295e-001	 1.4157047475e+000	-2.0361349461e+000
 7.5833617216e-001	 1.4239876944e+000	-2.0007734438e+000
 7.4291957277e-001	 1.4320912153e+000	-1.9653372640e+000
 7.2744229788e-001	 1.4400147447e+000	-1.9295566995e+000
 7.1190741183e-001	 1.4477577852e+000	-1.8932601737e+000
 6.9631797836e-001	 1.4553199070e+000	-1.8563752254e+000
 6.8067705886e-001	 1.4627007473e+000	-1.8189292462e+000
 6.6498771050e-001	 1.4699000105e+000	-1.7810255410e+000
 6.4925298454e-001	 1.4769174671e+000	-1.7403123063e+000
 6.3347592456e-001	 1.4837529538e+000	-1.6949756051e+000
 8.0201673329e-001	 1.4305045204e+000	-2.0329215887e+000
 7.8647799482e-001	 1.4391061313e+000	-1.9976903702e+000
 7.7087135358e-001	 1.4475259941e+000	-1.9623219786e+000
 7.5519992016e-001	 1.4557634649e+000	-1.9264215237e+000
 7.3946680827e-001	 1.4638179691e+000	-1.8896935151e+000
 7.2367513292e-001	 1.4716890009e+000	-1.8519432702e+000
 7.0782800849e-001	 1.4793761234e+000	-1.8130780699e+000
 6.9192854697e-001	 1.4868789679e+000	-1.7731080575e+000
 6.7597985607e-001	 1.4941972338e+000	-1.7321468820e+000
 6.5998503749e-001	 1.5013306879e+000	-1.6900359124e+000
 6.4394718511e-001	 1.5082791642e+000	-1.6437063649e+000
 8.1505837144e-001	 1.4537660330e+000	-1.9834024676e+000
 7.9926695670e-001	 1.4625075152e+000	-1.9487920459e+000
 7.8340653501e-001	 1.4710642938e+000	-1.9137476967e+000
 7.6748026755e-001	 1.4794357146e+000	-1.8778355396e+000
 7.5149131866e-001	 1.4876211935e+000	-1.8407237849e+000
 7.3544285401e-001	 1.4956202166e+000	-1.8021843361e+000
 7.1933803862e-001	 1.5034323398e+000	-1.7620941315e+000
 7.0318003508e-001	 1.5110571885e+000	-1.7204362209e+000
 6.8697200164e-001	 1.5184944571e+000	-1.6773005754e+000
 6.7071709044e-001	 1.5257439087e+000	-1.6328846281e+000
 6.5441844567e-001	 1.5328053745e+000	-1.5862313596e+000
 8.2810000960e-001	 1.4770275456e+000	-1.9285820520e+000
 8.1205591857e-001	 1.4859088990e+000	-1.8945718387e+000
 7.9594171644e-001	 1.4946025935e+000	-1.8599683242e+000
 7.7976061493e-001	 1.5031079643e+000	-1.8242878615e+000
 7.6351582905e-001	 1.5114244179e+000	-1.7871517683e+000
 7.4721057510e-001	 1.5195514323e+000	-1.7482881408e+000
 7.3084806875e-001	 1.5274885562e+000	-1.7075333966e+000
 7.1443152319e-001	 1.5352354090e+000	-1.6648335434e+000
 6.9796414722e-001	 1.5427916804e+000	-1.6202451697e+000
 6.8144914339e-001	 1.5501571295e+000	-1.5739361570e+000
 6.6488970622e-001	 1.5573315848e+000	-1.5261599189e+000
 8.4114164775e-001	 1.5002890582e+000	-1.8733223590e+000
 8.2484488045e-001	 1.5093102829e+000	-1.8396960491e+000
 8.0847689786e-001	 1.5181408932e+000	-1.8054593863e+000
 7.9204096232e-001	 1.5267802140e+000	-1.7700681077e+000
 7.7554033944e-001	 1.5352276423e+000	-1.7330859649e+000
 7.5897829619e-001	 1.5434826480e+000	-1.6941867642e+000
 7.4235809888e-001	 1.5515447726e+000	-1.6531561264e+000
 7.2568301130e-001	 1.5594136296e+000	-1.6098929618e+000
 7.0895629279e-001	 1.5670889037e+000	-1.5644106571e+000
 6.9218119634e-001	 1.5745703503e+000	-1.5168379723e+000
 6.7536096677e-001	 1.5818577952e+000	-1.4674196445e+000
 8.5418328591e-001	 1.5235505708e+000	-1.8220147368e+000
 8.3763384232e-001	 1.5327116667e+000	-1.7883820338e+000
 8.2101207928e-001	 1.5416791929e+000	-1.7542691128e+000
 8.0432130970e-001	 1.5504524636e+000	-1.7190601705e+000
 7.8756484983e-001	 1.5590308667e+000	-1.6822506350e+000
 7.7074601728e-001	 1.5674138637e+000	-1.6434494477e+000
 7.5386812901e-001	 1.5756009890e+000	-1.6023810560e+000
 7.3693449941e-001	 1.5835918502e+000	-1.5588871091e+000
 7.1994843836e-001	 1.5913861270e+000	-1.5129278554e+000
 7.0291324929e-001	 1.5989835711e+000	-1.4645832374e+000
 6.8583222732e-001	 1.6063840055e+000	-1.4140536825e+000
 8.6722492406e-001	 1.5468120834e+000	-1.7785972622e+000
 8.5042280420e-001	 1.5561130506e+000	-1.7444140116e+000
 8.3354726071e-001	 1.5652174926e+000	-1.7100326650e+000
 8.1660165709e-001	 1.5741247133e+000	-1.6747548762e+000
 7.9958936022e-001	 1.5828340911e+000	-1.6379969059e+000
 7.8251373836e-001	 1.5913450793e+000	-1.5992921621e+000
 7.6537815914e-001	 1.5996572054e+000	-1.5582934398e+000
 7.4818598752e-001	 1.6077700708e+000	-1.5147748532e+000
 7.3094058393e-001	 1.6156833503e+000	-1.4686334570e+000
 7.1364530224e-001	 1.6233967918e+000	-1.4198905538e+000
 6.9630348787e-001	 1.6309102159e+000	-1.3686926847e+000
 8.8026656221e-001	 1.5700735960e+000	-1.7465712832e+000
 8.6321176607e-001	 1.5795144344e+000	-1.7111581387e+000
 8.4608244213e-001	 1.5887557923e+000	-1.6759857529e+000
 8.2888200447e-001	 1.5977969630e+000	-1.6402621549e+000
 8.1161387061e-001	 1.6066373155e+000	-1.6033135075e+000
 7.9428145945e-001	 1.6152762950e+000	-1.5645869214e+000
 7.7688818926e-001	 1.6237134218e+000	-1.5236529575e+000
 7.5943747564e-001	 1.6319482913e+000	-1.4802078097e+000
 7.4193272950e-001	 1.6399805736e+000	-1.4340751649e+000
 7.2437735518e-001	 1.6478100126e+000	-1.3852077361e+000
 7.0677474842e-001	 1.6554364262e+000	-1.3336884660e+000
 6.0206214291e-001	 1.4101743228e+000	-1.7718856223e+000
 5.8702785160e-001	 1.4164987373e+000	-1.7348528627e+000
 5.7195907336e-001	 1.4226500300e+000	-1.6973313738e+000
 5.5685867128e-001	 1.4286282313e+000	-1.6595647336e+000
 5.4172949480e-001	 1.4344334318e+000	-1.6218780942e+000
 5.2657437818e-001	 1.4400657820e+000	-1.5846795254e+000
 5.1139613904e-001	 1.4455254909e+000	-1.5484608815e+000
 4.9619757688e-001	 1.4508128258e+000	-1.5137982008e+000
 4.8098147173e-001	 1.4559281109e+000	-1.4813516463e+000
 4.6575058273e-001	 1.4608717271e+000	-1.4518650038e+000
 4.5050764685e-001	 1.4656441104e+000	-1.4261647521e+000
 6.1253340346e-001	 1.4347005331e+000	-1.7632550030e+000
 5.9723763087e-001	 1.4411349439e+000	-1.7209301434e+000
 5.8190677153e-001	 1.4473932219e+000	-1.6779672848e+000
 5.6654373835e-001	 1.4534753980e+000	-1.6346304590e+000
 5.5115143031e-001	 1.4593815645e+000	-1.5912687919e+000
 5.3573273098e-001	 1.4651118743e+000	-1.5483180035e+000
 5.2029050697e-001	 1.4706665403e+000	-1.5063013834e+000
 5.0482760648e-001	 1.4760458342e+000	-1.4658302473e+000
 4.8934685788e-001	 1.4812500860e+000	-1.4276038906e+000
 4.7385106831e-001	 1.4862796832e+000	-1.3924090515e+000
 4.5834302232e-001	 1.4911350694e+000	-1.3611189034e+000
 6.2300466401e-001	 1.4592267435e+000	-1.7361859827e+000
 6.0744741014e-001	 1.4657711505e+000	-1.6902568462e+000
 5.9185446971e-001	 1.4721364138e+000	-1.6435969781e+000
 5.7622880542e-001	 1.4783225647e+000	-1.5964621630e+000
 5.6057336583e-001	 1.4843296971e+000	-1.5491979712e+000
 5.4489108379e-001	 1.4901579667e+000	-1.5022414582e+000
 5.2918487490e-001	 1.4958075896e+000	-1.4561222807e+000
 5.1345763607e-001	 1.5012788426e+000	-1.4114632410e+000
 4.9771224403e-001	 1.5065720611e+000	-1.3689802720e+000
 4.8195155388e-001	 1.5116876392e+000	-1.3294818815e+000
 4.6617839780e-001	 1.5166260283e+000	-1.2938680753e+000
 6.3347592456e-001	 1.4837529538e+000	-1.6949756051e+000
 6.1765718941e-001	 1.4904073571e+000	-1.6468259937e+000
 6.0180216789e-001	 1.4968796057e+000	-1.5979156306e+000
 5.8591387250e-001	 1.5031697314e+000	-1.5484642136e+000
 5.6999530135e-001	 1.5092778298e+000	-1.4987871357e+000
 5.5404943659e-001	 1.5152040590e+000	-1.4492974231e+000
 5.3807924283e-001	 1.5209486390e+000	-1.4005070269e+000
 5.2208766567e-001	 1.5265118510e+000	-1.3530274806e+000
 5.0607763017e-001	 1.5318940362e+000	-1.3075699364e+000
 4.9005203945e-001	 1.5370955953e+000	-1.2649446036e+000
 4.7401377327e-001	 1.5421169872e+000	-1.2260596084e+000
 6.4394718511e-001	 1.5082791642e+000	-1.6437063649e+000
 6.2786696868e-001	 1.5150435638e+000	-1.5944524799e+000
 6.1174986607e-001	 1.5216227976e+000	-1.5444755050e+000
 5.9559893957e-001	 1.5280168981e+000	-1.4939319783e+000
 5.7941723687e-001	 1.5342259625e+000	-1.4430813097e+000
 5.6320778939e-001	 1.5402501513e+000	-1.3922879985e+000
 5.4697361076e-001	 1.5460896883e+000	-1.3420231330e+000
 5.3071769527e-001	 1.5517448594e+000	-1.2928651849e+000
 5.1444301632e-001	 1.5572160113e+000	-1.2455001165e+000
 4.9815252503e-001	 1.5625035514e+000	-1.2007208222e+000
 4.8184914875e-001	 1.5676079461e+000	-1.1594259295e+000
 6.5441844567e-001	 1.5328053745e+000	-1.5862313596e+000
 6.3807674794e-001	 1.5396797704e+000	-1.5367571815e+000
 6.2169756424e-001	 1.5463659895e+000	-1.4866690490e+000
 6.0528400665e-001	 1.5528640649e+000	-1.4360339434e+000
 5.8883917239e-001	 1.5591740951e+000	-1.3850302183e+000
 5.7236614219e-001	 1.5652962436e+000	-1.3339501357e+000
 5.5586797869e-001	 1.5712307377e+000	-1.2832016050e+000
 5.3934772486e-001	 1.5769778678e+000	-1.2333091385e+000
 5.2280840247e-001	 1.5825379864e+000	-1.1849140444e+000
 5.0625301060e-001	 1.5879115075e+000	-1.1387738808e+000
 4.8968452423e-001	 1.5930989051e+000	-1.0957611994e+000
 6.6488970622e-001	 1.5573315848e+000	-1.5261599189e+000
 6.4828652721e-001	 1.5643159770e+000	-1.4771517124e+000
 6.3164526242e-001	 1.5711091814e+000	-1.4277127980e+000
 6.1496907372e-001	 1.5777112316e+000	-1.3777947937e+000
 5.9826110790e-001	 1.5841222278e+000	-1.3274705752e+000
 5.8152449499e-001	 1.5903423359e+000	-1.2769371697e+000
 5.6476234663e-001	 1.5963717870e+000	-1.2265177644e+000
 5.4797775446e-001	 1.6022108762e+000	-1.1766628455e+000
 5.3117378862e-001	 1.6078599615e+000	-1.1279504910e+000
 5.1435349618e-001	 1.6133194636e+000	-1.0810858435e+000
 4.9751989970e-001	 1.6185898640e+000	-1.0368997953e+000
 6.7536096677e-001	 1.5818577952e+000	-1.4674196445e+000
 6.5849630648e-001	 1.5889521836e+000	-1.4188237518e+000
 6.4159296060e-001	 1.5958523733e+000	-1.3706319952e+000
 6.2465414080e-001	 1.6025583983e+000	-1.3220793462e+000
 6.0768304342e-001	 1.6090703604e+000	-1.2731093574e+000
 5.9068284779e-001	 1.6153884283e+000	-1.2238014661e+000
 5.7365671456e-001	 1.6215128364e+000	-1.1743733019e+000
 5.5660778406e-001	 1.6274438846e+000	-1.1251820301e+000
 5.3953917476e-001	 1.6331819366e+000	-1.0767247564e+000
 5.2245398175e-001	 1.6387274197e+000	-1.0296380228e+000
 5.0535527518e-001	 1.6440808229e+000	-9.8469642992e-001
 6.8583222732e-001	 1.6063840055e+000	-1.4140536825e+000
 6.6870608575e-001	 1.6135883902e+000	-1.3647542249e+000
 6.5154065878e-001	 1.6205955652e+000	-1.3182458506e+000
 6.3433920787e-001	 1.6274055650e+000	-1.2715772471e+000
 6.1710497894e-001	 1.6340184931e+000	-1.2245079614e+000
 5.9984120060e-001	 1.6404345206e+000	-1.1769780618e+000
 5.8255108249e-001	 1.6466538858e+000	-1.1290794319e+000
 5.6523781365e-001	 1.6526768930e+000	-1.0810573379e+000
 5.4790456091e-001	 1.6585039117e+000	-1.0333109555e+000
 5.3055446732e-001	 1.6641353757e+000	-9.8639289023e-001
 5.1319065065e-001	 1.6695717818e+000	-9.4100773169e-001
 6.9630348787e-001	 1.6309102159e+000	-1.3686926847e+000
 6.7891586502e-001	 1.6382245968e+000	-1.3186620627e+000
 6.6148835695e-001	 1.6453387571e+000	-1.2731533743e+000
 6.4402427494e-001	 1.6522527317e+000	-1.2287883520e+000
 6.2652691446e-001	 1.6589666257e+000	-1.1840671480e+000
 6.0899955340e-001	 1.6654806129e+000	-1.1387691952e+000
 5.9144545042e-001	 1.6717949351e+000	-1.0928410324e+000
 5.7386784325e-001	 1.6779099014e+000	-1.0463981130e+000
 5.5626994706e-001	 1.6838258868e+000	-9.9972546253e-001
 5.3865495290e-001	 1.6895433318e+000	-9.5327722398e-001
 5.2102602613e-001	 1.6950627408e+000	-9.0767513273e-001
 7.0677474842e-001	 1.6554364262e+000	-1.3336884660e+000
 6.8912564429e-001	 1.6628608034e+000	-1.2833519801e+000
 6.7143605513e-001	 1.6700819490e+000	-1.2378907666e+000
 6.5370934202e-001	 1.6770998984e+000	-1.1960087182e+000
 6.3594884997e-001	 1.6839147584e+000	-1.1540126947e+000
 6.1815790620e-001	 1.6905267052e+000	-1.1113296346e+000
 6.0033981835e-001	 1.6969359845e+000	-1.0677416680e+000
 5.8249787284e-001	 1.7031429098e+000	-1.0232171379e+000
 5.6463533321e-001	 1.7091478619e+000	-9.7791139507e-001
 5.4675543847e-001	 1.7149512879e+000	-9.3216636419e-001
 5.2886140161e-001	 1.7205536997e+000	-8.8650892870e-001
 4.5050764685e-001	 1.4656441104e+000	-1.4261647521e+000
 4.3525537731e-001	 1.4702457512e+000	-1.3999299947e+000
 4.1999646178e-001	 1.4746771918e+000	-1.3690938720e+000
 4.0473356181e-001	 1.4789390267e+000	-1.3349801764e+000
 3.8946931188e-001	 1.4830319018e+000	-1.2989836227e+000
 3.7420631829e-001	 1.4869565135e+000	-1.2625665911e+000
 3.5894715807e-001	 1.4907136076e+000	-1.2272556063e+000
 3.4369437793e-001	 1.4943039780e+000	-1.1946375807e+000
 3.2845049326e-001	 1.4977284659e+000	-1.1663558513e+000
 3.1321798717e-001	 1.5009879582e+000	-1.1441060391e+000
 2.9799930958e-001	 1.5040833867e+000	-1.1296317607e+000
 4.5834302232e-001	 1.4911350694e+000	-1.3611189034e+000
 4.4282548035e-001	 1.4958167434e+000	-1.3294166491e+000
 4.2730117681e-001	 1.5003252571e+000	-1.2932271491e+000
 4.1177281952e-001	 1.5046612151e+000	-1.2539112742e+000
 3.9624308879e-001	 1.5088252749e+000	-1.2129088518e+000
 3.8071463625e-001	 1.5128181447e+000	-1.1717350662e+000
 3.6519008376e-001	 1.5166405834e+000	-1.1319765609e+000
 3.4967202231e-001	 1.5202933987e+000	-1.0952872755e+000
 3.3416301103e-001	 1.5237774463e+000	-1.0633840498e+000
 3.1866557624e-001	 1.5270936288e+000	-1.0380420275e+000
 3.0318221046e-001	 1.5302428940e+000	-1.0210898932e+000
 4.6617839780e-001	 1.5166260283e+000	-1.2938680753e+000
 4.5039558340e-001	 1.5213877356e+000	-1.2578997161e+000
 4.3460589183e-001	 1.5259733223e+000	-1.2175702828e+000
 4.1881207722e-001	 1.5303834036e+000	-1.1742644353e+000
 4.0301686569e-001	 1.5346186479e+000	-1.1294545823e+000
 3.8722295421e-001	 1.5386797759e+000	-1.0846969261e+000
 3.7143300944e-001	 1.5425675592e+000	-1.0416271729e+000
 3.5564966668e-001	 1.5462828194e+000	-1.0019559445e+000
 3.3987552881e-001	 1.5498264268e+000	-9.6746392645e-001
 3.2411316532e-001	 1.5531992994e+000	-9.3999679179e-001
 3.0836511135e-001	 1.5564024013e+000	-9.2145993555e-001
 4.7401377327e-001	 1.5421169872e+000	-1.2260596084e+000
 4.5796568644e-001	 1.5469587277e+000	-1.1868168616e+000
 4.4191060686e-001	 1.5516213875e+000	-1.1433451377e+000
 4.2585133493e-001	 1.5561055920e+000	-1.0970407332e+000
 4.0979064260e-001	 1.5604120209e+000	-1.0493972871e+000
 3.9373127217e-001	 1.5645414070e+000	-1.0020014557e+000
 3.7767593513e-001	 1.5684945349e+000	-9.5652821041e-001
 3.6162731105e-001	 1.5722722400e+000	-9.1473580062e-001
 3.4558804658e-001	 1.5758754073e+000	-8.7846042045e-001
 3.2956075439e-001	 1.5793049700e+000	-8.4961062208e-001
 3.1354801224e-001	 1.5825619087e+000	-8.3016151628e-001
 4.8184914875e-001	 1.5676079461e+000	-1.1594259295e+000
 4.6553578949e-001	 1.5725297199e+000	-1.1177123010e+000
 4.4921532188e-001	 1.5772694527e+000	-1.0719011596e+000
 4.3289059263e-001	 1.5818277804e+000	-1.0233893872e+000
 4.1656441951e-001	 1.5862053940e+000	-9.7368165308e-001
 4.0023959013e-001	 1.5904030382e+000	-9.2438569717e-001
 3.8391886081e-001	 1.5944215107e+000	-8.7720719296e-001
 3.6760495543e-001	 1.5982616607e+000	-8.3394423326e-001
 3.5130056436e-001	 1.6019243877e+000	-7.9648148483e-001
 3.3500834347e-001	 1.6054106406e+000	-7.6678405750e-001
 3.1873091312e-001	 1.6087214160e+000	-7.4689113396e-001
 4.8968452423e-001	 1.5930989051e+000	-1.0957611994e+000
 4.7310589253e-001	 1.5981007120e+000	-1.0522128655e+000
 4.5652003691e-001	 1.6029175179e+000	-1.0046908214e+000
 4.3992985034e-001	 1.6075499689e+000	-9.5458255618e-001
 4.2333819642e-001	 1.6119987670e+000	-9.0339469214e-001
 4.0674790810e-001	 1.6162646694e+000	-8.5274785450e-001
 3.9016178650e-001	 1.6203484865e+000	-8.0437107026e-001
 3.7358259980e-001	 1.6242510813e+000	-7.6009574575e-001
 3.5701308213e-001	 1.6279733682e+000	-7.2184927313e-001
 3.4045593255e-001	 1.6315163112e+000	-6.9164831686e-001
 3.2391381401e-001	 1.6348809233e+000	-6.7159183139e-001
 4.9751989970e-001	 1.6185898640e+000	-1.0368997953e+000
 4.8067599558e-001	 1.6236717042e+000	-9.9200599778e-001
 4.6382475193e-001	 1.6285655831e+000	-9.4324709637e-001
 4.4696910804e-001	 1.6332721573e+000	-8.9199225440e-001
 4.3011197333e-001	 1.6377921401e+000	-8.3974207202e-001
 4.1325622606e-001	 1.6421263005e+000	-7.8812301399e-001
 3.9640471218e-001	 1.6462754622e+000	-7.3888131250e-001
 3.7956024417e-001	 1.6502405020e+000	-6.9387639977e-001
 3.6272559991e-001	 1.6540223487e+000	-6.5507392629e-001
 3.4590352162e-001	 1.6576219818e+000	-6.2453842114e-001
 3.2909671490e-001	 1.6610404306e+000	-6.0442565123e-001
 5.0535527518e-001	 1.6440808229e+000	-9.8469642992e-001
 4.8824609862e-001	 1.6492426964e+000	-9.3881947036e-001
 4.7112946696e-001	 1.6542136483e+000	-8.8916273782e-001
 4.5400836575e-001	 1.6589943457e+000	-8.3706916109e-001
 4.3688575024e-001	 1.6635855131e+000	-7.8402642623e-001
 4.1976454402e-001	 1.6679879317e+000	-7.3166093031e-001
 4.0264763787e-001	 1.6722024380e+000	-6.8173115131e-001
 3.8553788855e-001	 1.6762299227e+000	-6.3612049455e-001
 3.6843811768e-001	 1.6800713291e+000	-5.9682967748e-001
 3.5135111070e-001	 1.6837276525e+000	-5.6596871540e-001
 3.3427961579e-001	 1.6871999379e+000	-5.4574857059e-001
 5.1319065065e-001	 1.6695717818e+000	-9.4100773169e-001
 4.9581620167e-001	 1.6748136885e+000	-8.9440264002e-001
 4.7843418198e-001	 1.6798617136e+000	-8.4407117255e-001
 4.6104762346e-001	 1.6847165342e+000	-7.9132312016e-001
 4.4365952714e-001	 1.6893788862e+000	-7.3762743158e-001
 4.2627286198e-001	 1.6938495629e+000	-6.8460565655e-001
 4.0889056356e-001	 1.6981294138e+000	-6.3402474117e-001
 3.9151553292e-001	 1.7022193433e+000	-5.8778924198e-001
 3.7415063546e-001	 1.7061203096e+000	-5.4793302721e-001
 3.5679869978e-001	 1.7098333231e+000	-5.1661053385e-001
 3.3946251668e-001	 1.7133594452e+000	-4.9608765012e-001
 5.2102602613e-001	 1.6950627408e+000	-9.0767513273e-001
 5.0338630472e-001	 1.7003846807e+000	-8.6050907803e-001
 4.8573889701e-001	 1.7055097788e+000	-8.0962883810e-001
 4.6808688116e-001	 1.7104387226e+000	-7.5630515263e-001
 4.5043330405e-001	 1.7151722592e+000	-7.0198346715e-001
 4.3278117994e-001	 1.7197111941e+000	-6.4827682451e-001
 4.1513348924e-001	 1.7240563896e+000	-5.9695803914e-001
 3.9749317730e-001	 1.7282087640e+000	-5.4995122758e-001
 3.7986315324e-001	 1.7321692901e+000	-5.0932277057e-001
 3.6224628886e-001	 1.7359389937e+000	-4.7727178240e-001
 3.4464541757e-001	 1.7395189526e+000	-4.5612016403e-001
 5.2886140161e-001	 1.7205536997e+000	-8.8650892870e-001
 5.1095640776e-001	 1.7259556728e+000	-8.3888043307e-001
 4.9304361203e-001	 1.7311578440e+000	-7.8749881411e-001
 4.7512613887e-001	 1.7361609110e+000	-7.3359082475e-001
 4.5720708096e-001	 1.7409656323e+000	-6.7857469066e-001
 4.3928949790e-001	 1.7455728252e+000	-6.2405240393e-001
 4.2137641493e-001	 1.7499833653e+000	-5.7180122476e-001
 4.0347082167e-001	 1.7541981846e+000	-5.2376447196e-001
 3.8557567101e-001	 1.7582182705e+000	-4.8204168480e-001
 3.6769387793e-001	 1.7620446643e+000	-4.4887823974e-001
 3.4982831845e-001	 1.7656784599e+000	-4.2665450597e-001
 2.9799930958e-001	 1.5040833867e+000	-1.1296317607e+000
 2.8279915468e-001	 1.5070152995e+000	-1.1153245614e+000
 2.6761761573e-001	 1.5097851916e+000	-1.0937384879e+000
 2.5245703357e-001	 1.5123941228e+000	-1.0669128661e+000
 2.3731971277e-001	 1.5148431927e+000	-1.0369021937e+000
 2.2220792089e-001	 1.5171335398e+000	-1.0057716324e+000
 2.0712388784e-001	 1.5192663399e+000	-9.7559254847e-001
 1.9206980528e-001	 1.5212428050e+000	-9.4843812522e-001
 1.7704782606e-001	 1.5230641822e+000	-9.2637907094e-001
 1.6206006367e-001	 1.5247317519e+000	-9.1147944258e-001
 1.4710859180e-001	 1.5262468275e+000	-9.0579260531e-001
 3.0318221046e-001	 1.5302428940e+000	-1.0210898932e+000
 2.8771768953e-001	 1.5332257996e+000	-1.0046025495e+000
 2.7227210831e-001	 1.5360438666e+000	-9.8082191693e-001
 2.5684784838e-001	 1.5386981731e+000	-9.5188823916e-001
 2.4144725438e-001	 1.5411898381e+000	-9.1996214245e-001
 2.2607263330e-001	 1.5435200196e+000	-8.8721956330e-001
 2.1072625384e-001	 1.5456899141e+000	-8.5584672493e-001
 1.9541034579e-001	 1.5477007545e+000	-8.2803518976e-001
 1.8012709942e-001	 1.5495538096e+000	-8.0597701351e-001
 1.6487866499e-001	 1.5512503823e+000	-7.9186002488e-001
 1.4966715226e-001	 1.5527918086e+000	-7.8786325327e-001
 3.0836511135e-001	 1.5564024013e+000	-9.2145993555e-001
 2.9263622438e-001	 1.5594362997e+000	-9.0363624324e-001
 2.7692660090e-001	 1.5623025416e+000	-8.7847865668e-001
 2.6123866319e-001	 1.5650022235e+000	-8.4821796875e-001
 2.4557479598e-001	 1.5675364834e+000	-8.1511072437e-001
 2.2993734571e-001	 1.5699064994e+000	-7.8143356292e-001
 2.1432861985e-001	 1.5721134882e+000	-7.4947760957e-001
 1.9875088630e-001	 1.5741587040e+000	-7.2154294615e-001
 1.8320637278e-001	 1.5760434371e+000	-6.9993319039e-001
 1.6769726632e-001	 1.5777690127e+000	-6.8695021059e-001
 1.5222571273e-001	 1.5793367896e+000	-6.8488900113e-001
 3.1354801224e-001	 1.5825619087e+000	-8.3016151628e-001
 2.9755475923e-001	 1.5856467998e+000	-8.1162113342e-001
 2.8158109349e-001	 1.5885612165e+000	-7.8566920628e-001
 2.6562947801e-001	 1.5913062738e+000	-7.5461832378e-001
 2.4970233759e-001	 1.5938831288e+000	-7.2081236850e-001
 2.3380205812e-001	 1.5962929793e+000	-6.8662024814e-001
 2.1793098585e-001	 1.5985370624e+000	-6.5442967570e-001
 2.0209142680e-001	 1.6006166535e+000	-6.2664103252e-001
 1.8628564614e-001	 1.6025330646e+000	-6.0566134672e-001
 1.7051586764e-001	 1.6042876431e+000	-5.9389841738e-001
 1.5478427319e-001	 1.6058817707e+000	-5.9375511305e-001
 3.1873091312e-001	 1.6087214160e+000	-7.4689113396e-001
 3.0247329409e-001	 1.6118572999e+000	-7.2804615277e-001
 2.8623558608e-001	 1.6148198915e+000	-7.0166459316e-001
 2.7002029282e-001	 1.6176103241e+000	-6.7013368298e-001
 2.5382987920e-001	 1.6202297741e+000	-6.3587767221e-001
 2.3766677053e-001	 1.6226794591e+000	-6.0135092268e-001
 2.2153335186e-001	 1.6249606366e+000	-5.6903104586e-001
 2.0543196731e-001	 1.6270746030e+000	-5.4141212708e-001
 1.8936491950e-001	 1.6290226921e+000	-5.2099807227e-001
 1.7333446896e-001	 1.6308062735e+000	-5.1029611147e-001
 1.5734283365e-001	 1.6324267518e+000	-5.1181049083e-001
 3.2391381401e-001	 1.6348809233e+000	-6.7159183139e-001
 3.0739182894e-001	 1.6380678000e+000	-6.5266255239e-001
 2.9089007867e-001	 1.6410785664e+000	-6.2601436938e-001
 2.7441110764e-001	 1.6439143745e+000	-5.9410357484e-001
 2.5795742081e-001	 1.6465764195e+000	-5.5942941457e-001
 2.4153148295e-001	 1.6490659389e+000	-5.2452649962e-001
 2.2513571786e-001	 1.6513842108e+000	-4.9195726544e-001
 2.0877250781e-001	 1.6535325525e+000	-4.6430452088e-001
 1.9244419286e-001	 1.6555123196e+000	-4.4416412756e-001
 1.7615307028e-001	 1.6573249039e+000	-4.3413784738e-001
 1.5990139411e-001	 1.6589717329e+000	-4.3682639380e-001
 3.2909671490e-001	 1.6610404306e+000	-6.0442565123e-001
 3.1231036379e-001	 1.6642783001e+000	-5.8545565066e-001
 2.9554457126e-001	 1.6673372414e+000	-5.5851757748e-001
 2.7880192246e-001	 1.6702184248e+000	-5.2613278941e-001
 2.6208496243e-001	 1.6729230649e+000	-4.9087174872e-001
 2.4539619536e-001	 1.6754524187e+000	-4.5534571480e-001
 2.2873808387e-001	 1.6778077849e+000	-4.2219848294e-001
 2.1211304832e-001	 1.6799905020e+000	-3.9409821666e-001
 1.9552346622e-001	 1.6820019470e+000	-3.7372941846e-001
 1.7897167161e-001	 1.6838435343e+000	-3.6378508119e-001
 1.6245995458e-001	 1.6855167140e+000	-3.6695905944e-001
 3.3427961579e-001	 1.6871999379e+000	-5.4574857059e-001
 3.1722889864e-001	 1.6904888002e+000	-5.2661914263e-001
 3.0019906385e-001	 1.6935959164e+000	-4.9919636330e-001
 2.8319273727e-001	 1.6965224752e+000	-4.6606422847e-001
 2.6621250404e-001	 1.6992697102e+000	-4.2986222844e-001
 2.4926090777e-001	 1.7018388985e+000	-3.9327627394e-001
 2.3234044987e-001	 1.7042313591e+000	-3.5902966728e-001
 2.1545358883e-001	 1.7064484515e+000	-3.2987417094e-001
 1.9860273958e-001	 1.7084915745e+000	-3.0858122321e-001
 1.8179027293e-001	 1.7103621647e+000	-2.9793334789e-001
 1.6501851504e-001	 1.7120616951e+000	-3.0071580140e-001
 3.3946251668e-001	 1.7133594452e+000	-4.9608765012e-001
 3.2214743349e-001	 1.7166993003e+000	-4.7653169637e-001
 3.0485355644e-001	 1.7198545913e+000	-4.4827195306e-001
 2.8758355209e-001	 1.7228265255e+000	-4.1395420150e-001
 2.7034004565e-001	 1.7256163556e+000	-3.7628636594e-001
 2.5312562018e-001	 1.7282253784e+000	-3.3802862008e-001
 2.3594281588e-001	 1.7306549333e+000	-3.0198353749e-001
 2.1879412933e-001	 1.7329064010e+000	-2.7098634361e-001
 2.0168201293e-001	 1.7349812020e+000	-2.4789532437e-001
 1.8460887425e-001	 1.7368807951e+000	-2.3558244299e-001
 1.6757707550e-001	 1.7386066761e+000	-2.3692421331e-001
 3.4464541757e-001	 1.7395189526e+000	-4.5612016403e-001
 3.2706596835e-001	 1.7429098004e+000	-4.3573559546e-001
 3.0950804903e-001	 1.7461132663e+000	-4.0614274575e-001
 2.9197436690e-001	 1.7491305758e+000	-3.7004990984e-001
 2.7446758726e-001	 1.7519630010e+000	-3.3023445430e-001
 2.5699033260e-001	 1.7546118582e+000	-2.8953204531e-001
 2.3954518188e-001	 1.7570785075e+000	-2.5082591919e-001
 2.2213466984e-001	 1.7593643505e+000	-2.1703625935e-001
 2.0476128629e-001	 1.7614708295e+000	-1.9110973978e-001
 1.8742747557e-001	 1.7633994255e+000	-1.7600929241e-001
 1.7013563596e-001	 1.7651516572e+000	-1.7470415134e-001
 3.4982831845e-001	 1.7656784599e+000	-4.2665450597e-001
 3.3198450320e-001	 1.7691203005e+000	-4.0491721545e-001
 3.1416254162e-001	 1.7723719412e+000	-3.7336430143e-001
 2.9636518172e-001	 1.7754346262e+000	-3.3476889232e-001
 2.7859512887e-001	 1.7783096463e+000	-2.9198041993e-001
 2.6085504501e-001	 1.7809983380e+000	-2.4791290374e-001
 2.4314754789e-001	 1.7835020816e+000	-2.0553327635e-001
 2.2547521035e-001	 1.7858223000e+000	-1.6784982037e-001
 2.0784055965e-001	 1.7879604570e+000	-1.3790078310e-001
 1.9024607690e-001	 1.7899180559e+000	-1.1874323170e-001
 1.7269419643e-001	 1.7916966383e+000	-1.1344220747e-001
 1.4710859180e-001	 1.5262468275e+000	-9.0579260531e-001
 1.3219321486e-001	 1.5276109464e+000	-9.0081329743e-001
 1.1731819787e-001	 1.5288252450e+000	-8.8818610150e-001
 1.0248552346e-001	 1.5298911271e+000	-8.7014604772e-001
 8.7697131996e-002	 1.5308100238e+000	-8.4888241573e-001
 7.2954921301e-002	 1.5315833927e+000	-8.2653600066e-001
 5.8260746432e-002	 1.5322127159e+000	-8.0519662272e-001
 4.3616419493e-002	 1.5326994993e+000	-7.8690088648e-001
 2.9023709478e-002	 1.5330452715e+000	-7.7363019417e-001
 1.4484342157e-002	 1.5332515818e+000	-7.6730901578e-001
 0.0000000000e+000	 1.5333200000e+000	-7.6980343605e-001
 1.4966715226e-001	 1.5527918086e+000	-7.8786325327e-001
 1.3449236223e-001	 1.5541796526e+000	-7.8505836003e-001
 1.1935863411e-001	 1.5554150707e+000	-7.7470386252e-001
 1.0426798501e-001	 1.5564994910e+000	-7.5921978823e-001
 8.9222389032e-002	 1.5574343695e+000	-7.4098223586e-001
 7.4223777015e-002	 1.5582211890e+000	-7.2232006558e-001
 5.9274036279e-002	 1.5588614576e+000	-7.0551185877e-001
 4.4375010443e-002	 1.5593567074e+000	-6.9278315474e-001
 2.9528499270e-002	 1.5597084933e+000	-6.8630397023e-001
 1.4736258546e-002	 1.5599183919e+000	-6.8818660529e-001
 0.0000000000e+000	 1.5599880000e+000	-7.0048375713e-001
 1.5222571273e-001	 1.5793367896e+000	-6.8488900113e-001
 1.3679150961e-001	 1.5807483589e+000	-6.8444545280e-001
 1.2139907035e-001	 1.5820048965e+000	-6.7654359508e-001
 1.0605044656e-001	 1.5831078549e+000	-6.6378455376e-001
 9.0747646068e-002	 1.5840587152e+000	-6.4872640543e-001
 7.5492632729e-002	 1.5848589854e+000	-6.3388028963e-001
 6.0287326125e-002	 1.5855101994e+000	-6.2170681912e-001
 4.5133601394e-002	 1.5860139154e+000	-6.1461279711e-001
 3.0033289064e-002	 1.5863717151e+000	-6.1494824845e-001
 1.4988174934e-002	 1.5865852019e+000	-6.2500376965e-001
 0.0000000000e+000	 1.5866560000e+000	-6.4700822039e-001
 1.5478427319e-001	 1.6058817707e+000	-5.9375511305e-001
 1.3909065698e-001	 1.6073170652e+000	-5.9558180887e-001
 1.2343950660e-001	 1.6085947222e+000	-5.9000247977e-001
 1.0783290811e-001	 1.6097162188e+000	-5.7979679088e-001
 9.2272903104e-002	 1.6106830609e+000	-5.6770129456e-001
 7.6761488443e-002	 1.6114967818e+000	-5.5640495832e-001
 6.1300615973e-002	 1.6121589411e+000	-5.4854502198e-001
 4.5892192346e-002	 1.6126711235e+000	-5.4670319468e-001
 3.0538078857e-002	 1.6130349369e+000	-5.5340219993e-001
 1.5240091324e-002	 1.6132520120e+000	-5.7110267473e-001
 0.0000000000e+000	 1.6133240000e+000	-6.0220044643e-001
 1.5734283365e-001	 1.6324267518e+000	-5.1181049083e-001
 1.4138980436e-001	 1.6338857715e+000	-5.1556047255e-001
 1.2547994284e-001	 1.6351845480e+000	-5.1188846885e-001
 1.0961536965e-001	 1.6363245828e+000	-5.0375146395e-001
 9.3798160140e-002	 1.6373074066e+000	-4.9406231953e-001
 7.8030344158e-002	 1.6381345781e+000	-4.8568470795e-001
 6.2313905820e-002	 1.6388076829e+000	-4.8142840879e-001
 4.6650783297e-002	 1.6393283315e+000	-4.8404498114e-001
 3.1042868651e-002	 1.6396981588e+000	-4.9622382108e-001
 1.5492007713e-002	 1.6399188220e+000	-5.2058861140e-001
 0.0000000000e+000	 1.6399920000e+000	-5.5969418864e-001
 1.5990139411e-001	 1.6589717329e+000	-4.3682639380e-001
 1.4368895174e-001	 1.6604544778e+000	-4.4191757480e-001
 1.2752037909e-001	 1.6617743738e+000	-4.3947590151e-001
 1.1139783120e-001	 1.6629329467e+000	-4.3263579944e-001
 9.5323417177e-002	 1.6639317522e+000	-4.2448561035e-001
 7.9299199872e-002	 1.6647723745e+000	-4.1806191593e-001
 6.3327195668e-002	 1.6654564246e+000	-4.1634426222e-001
 4.7409374249e-002	 1.6659855396e+000	-4.2225029868e-001
 3.1547658445e-002	 1.6663613806e+000	-4.3863134305e-001
 1.5743924102e-002	 1.6665856321e+000	-4.6826837986e-001
 0.0000000000e+000	 1.6666600000e+000	-5.1386851907e-001
 1.6245995458e-001	 1.6855167140e+000	-3.6695905944e-001
 1.4598809912e-001	 1.6870231841e+000	-3.7259364762e-001
 1.2956081534e-001	 1.6883641995e+000	-3.7046531586e-001
 1.1318029275e-001	 1.6895413106e+000	-3.6388740405e-001
 9.6848674214e-002	 1.6905560979e+000	-3.5612424832e-001
 8.0568055587e-002	 1.6914101708e+000	-3.5038487599e-001
 6.4340485515e-002	 1.6921051664e+000	-3.4981714202e-001
 4.8167965200e-002	 1.6926427476e+000	-3.5750232258e-001
 3.2052448238e-002	 1.6930246025e+000	-3.7645017827e-001
 1.5995840491e-002	 1.6932524421e+000	-4.0959449629e-001
 0.0000000000e+000	 1.6933280000e+000	-4.5978913881e-001
 1.6501851504e-001	 1.7120616951e+000	-3.0071580140e-001
 1.4828724649e-001	 1.7135918903e+000	-3.0589853901e-001
 1.3160125158e-001	 1.7149540253e+000	-3.0294700225e-001
 1.1496275430e-001	 1.7161496746e+000	-2.9535628215e-001
 9.8373931250e-002	 1.7171804436e+000	-2.8656857782e-001
 8.1836911302e-002	 1.7180479672e+000	-2.7996623896e-001
 6.5353775363e-002	 1.7187539081e+000	-2.7886529422e-001
 4.8926556152e-002	 1.7192999557e+000	-2.8650948273e-001
 3.2557238032e-002	 1.7196878243e+000	-3.0606480309e-001
 1.6247756880e-002	 1.7199192522e+000	-3.4061459014e-001
 0.0000000000e+000	 1.7199960000e+000	-3.9315514811e-001
 1.6757707550e-001	 1.7386066761e+000	-2.3692421331e-001
 1.5058639387e-001	 1.7401605966e+000	-2.4047954371e-001
 1.3364168783e-001	 1.7415438510e+000	-2.3536789800e-001
 1.1674521585e-001	 1.7427580385e+000	-2.2527033564e-001
 9.9899188287e-002	 1.7438047893e+000	-2.1381015661e-001
 8.3105767016e-002	 1.7446857636e+000	-2.0454526316e-001
 6.6367065210e-002	 1.7454026499e+000	-2.0096105537e-001
 4.9685147103e-002	 1.7459571637e+000	-2.0646388008e-001
 3.3062027826e-002	 1.7463510461e+000	-2.2437504891e-001
 1.6499673269e-002	 1.7465860622e+000	-2.5792543714e-001
 0.0000000000e+000	 1.7466640000e+000	-3.1025069290e-001
 1.7013563596e-001	 1.7651516572e+000	-1.7470415134e-001
 1.5288554125e-001	 1.7667293029e+000	-1.7529241110e-001
 1.3568212407e-001	 1.7681336768e+000	-1.6650147178e-001
 1.1852767740e-001	 1.7693664024e+000	-1.5220397974e-001
 1.0142444532e-001	 1.7704291350e+000	-1.3620896189e-001
 8.4374622731e-002	 1.7713235599e+000	-1.2225347344e-001
 6.7380355057e-002	 1.7720513917e+000	-1.1399483151e-001
 5.0443738054e-002	 1.7726143718e+000	-1.1500345638e-001
 3.3566817619e-002	 1.7730142680e+000	-1.2875633794e-001
 1.6751589658e-002	 1.7732528723e+000	-1.5863114008e-001
 0.0000000000e+000	 1.7733320000e+000	-2.0790097406e-001
 1.7269419643e-001	 1.7916966383e+000	-1.1344220747e-001
 1.5518468862e-001	 1.7932980092e+000	-1.0957493206e-001
 1.3772256032e-001	 1.7947235026e+000	-9.5420287677e-002
 1.2031013895e-001	 1.7959747663e+000	-7.5049551539e-002
 1.0294970236e-001	 1.7970534806e+000	-5.2463514265e-002
 8.5643478444e-002	 1.7979613563e+000	-3.1583375354e-002
 6.8393644903e-002	 1.7987001334e+000	-1.6242280958e-002
 5.1202329005e-002	 1.7992715798e+000	-1.0177528041e-002
 3.4071607412e-002	 1.7996774898e+000	-1.7023454147e-002
 1.7003506047e-002	 1.7999196823e+000	-4.0305027236e-002
 0.0000000000e+000	 1.8000000000e+000	-8.3432167342e-002
 1.8000000000e+000	 0.0000000000e+000	 3.0281069888e+000
 1.7999196823e+000	 1.7003506047e-002	 3.0330996631e+000
 1.7996774898e+000	 3.4071607412e-002	 3.0392274941e+000
 1.7992715798e+000	 5.1202329005e-002	 3.0457628769e+000
 1.7987001334e+000	 6.8393644903e-002	 3.0518450363e+000
 1.7979613563e+000	 8.5643478444e-002	 3.0564827063e+000
 1.7970534806e+000	 1.0294970236e-001	 3.0585577468e+000
 1.7959747663e+000	 1.2031013895e-001	 3.0568296925e+000
 1.7947235026e+000	 1.3772256032e-001	 3.0499412257e+000
 1.7932980092e+000	 1.5518468862e-001	 3.0364245590e+000
 1.7916966383e+000	 1.7269419643e-001	 3.0147087052e+000
 1.8266680000e+000	 0.0000000000e+000	 2.8620294686e+000
 1.8265864924e+000	 1.7255422436e-002	 2.8756811466e+000
 1.8263407116e+000	 3.4576397204e-002	 2.8903253216e+000
 1.8259287879e+000	 5.1960919955e-002	 2.9052430462e+000
 1.8253488752e+000	 6.9406934749e-002	 2.9195670683e+000
 1.8245991527e+000	 8.6912334157e-002	 2.9322849614e+000
 1.8236778263e+000	 1.0447495939e-001	 2.9422432881e+000
 1.8225831303e+000	 1.2209260050e-001	 2.9481527922e+000
 1.8213133283e+000	 1.3976299656e-001	 2.9485946098e+000
 1.8198667155e+000	 1.5748383600e-001	 2.9420274825e+000
 1.8182416194e+000	 1.7525275689e-001	 2.9267959475e+000
 1.8533360000e+000	 0.0000000000e+000	 2.7480870212e+000
 1.8532533024e+000	 1.7507338824e-002	 2.7667205419e+000
 1.8530039335e+000	 3.5081186996e-002	 2.7861211209e+000
 1.8525859960e+000	 5.2719510904e-002	 2.8056136535e+000
 1.8519976169e+000	 7.0420224594e-002	 2.8243595053e+000
 1.8512369490e+000	 8.8181189870e-002	 2.8413601126e+000
 1.8503021720e+000	 1.0600021643e-001	 2.8554617173e+000
 1.8491914942e+000	 1.2387506204e-001	 2.8653612320e+000
 1.8479031541e+000	 1.4180343280e-001	 2.8696132228e+000
 1.8464354218e+000	 1.5978298338e-001	 2.8666379899e+000
 1.8447866005e+000	 1.7781131735e-001	 2.8547307209e+000
 1.8800040000e+000	 0.0000000000e+000	 2.6867137825e+000
 1.8799201125e+000	 1.7759255212e-002	 2.7063040207e+000
 1.8796671553e+000	 3.5585976788e-002	 2.7264158144e+000
 1.8792432040e+000	 5.3478101853e-002	 2.7464498216e+000
 1.8786463587e+000	 7.1433514439e-002	 2.7656277162e+000
 1.8778747454e+000	 8.9450045582e-002	 2.7829962839e+000
 1.8769265177e+000	 1.0752547346e-001	 2.7974327597e+000
 1.8757998581e+000	 1.2565752359e-001	 2.8076514010e+000
 1.8744929799e+000	 1.4384386905e-001	 2.8122112829e+000
 1.8730041281e+000	 1.6208213075e-001	 2.8095252925e+000
 1.8713315816e+000	 1.8036987781e-001	 2.7978702939e+000
 1.9066720000e+000	 0.0000000000e+000	 2.6784092184e+000
 1.9065869225e+000	 1.8011171600e-002	 2.6945869066e+000
 1.9063303771e+000	 3.6090766580e-002	 2.7110824602e+000
 1.9059004121e+000	 5.4236692802e-002	 2.7274009954e+000
 1.9052951004e+000	 7.2446804284e-002	 2.7428528220e+000
 1.9045125418e+000	 9.0718901294e-002	 2.7565580659e+000
 1.9035508634e+000	 1.0905073050e-001	 2.7674526455e+000
 1.9024082221e+000	 1.2743998514e-001	 2.7742955961e+000
 1.9010828056e+000	 1.4588430529e-001	 2.7756777251e+000
 1.8995728343e+000	 1.6438127813e-001	 2.7700315736e+000
 1.8978765627e+000	 1.8292843827e-001	 2.7556426512e+000
 1.9333400000e+000	 0.0000000000e+000	 2.7237336193e+000
 1.9332537326e+000	 1.8263087988e-002	 2.7317887116e+000
 1.9329935990e+000	 3.6595556372e-002	 2.7400609505e+000
 1.9325576201e+000	 5.4995283751e-002	 2.7481854135e+000
 1.9319438422e+000	 7.3460094129e-002	 2.7555860423e+000
 1.9311503381e+000	 9.1987757006e-002	 2.7614808278e+000
 1.9301752090e+000	 1.1057598753e-001	 2.7648884698e+000
 1.9290165860e+000	 1.2922244669e-001	 2.7646365009e+000
 1.9276726314e+000	 1.4792474153e-001	 2.7593708584e+000
 1.9261415406e+000	 1.6668042550e-001	 2.7475668744e+000
 1.9244215437e+000	 1.8548699874e-001	 2.7275416464e+000
 1.9600080000e+000	 0.0000000000e+000	 2.8233039622e+000
 1.9599205426e+000	 1.8515004376e-002	 2.8181885769e+000
 1.9596568208e+000	 3.7100346163e-002	 2.8133531426e+000
 1.9592148282e+000	 5.5753874700e-002	 2.8085850323e+000
 1.9585925840e+000	 7.4473383974e-002	 2.8034435049e+000
 1.9577881345e+000	 9.3256612718e-002	 2.7972654973e+000
 1.9567995547e+000	 1.1210124456e-001	 2.7891730155e+000
 1.9556249499e+000	 1.3100490823e-001	 2.7780821167e+000
 1.9542624571e+000	 1.4996517778e-001	 2.7627134600e+000
 1.9527102469e+000	 1.6897957288e-001	 2.7416043951e+000
 1.9509665248e+000	 1.8804555920e-001	 2.7131225452e+000
 1.9866760000e+000	 0.0000000000e+000	 2.9777901059e+000
 1.9865873527e+000	 1.8766920764e-002	 2.9541210813e+000
 1.9863200426e+000	 3.7605135955e-002	 2.9310183837e+000
 1.9858720362e+000	 5.6512465649e-002	 2.9084408601e+000
 1.9852413257e+000	 7.5486673818e-002	 2.8861014757e+000
 1.9844259308e+000	 9.4525468430e-002	 2.8634737614e+000
 1.9834239004e+000	 1.1362650160e-001	 2.8397999947e+000
 1.9822333139e+000	 1.3278736978e-001	 2.8141011027e+000
 1.9808522829e+000	 1.5200561402e-001	 2.7851882640e+000
 1.9792789532e+000	 1.7127872026e-001	 2.7516761737e+000
 1.9775115059e+000	 1.9060411966e-001	 2.7119979240e+000
 2.0133440000e+000	 0.0000000000e+000	 3.1627897904e+000
 2.0132541627e+000	 1.9018837152e-002	 3.1177199442e+000
 2.0129832645e+000	 3.8109925747e-002	 3.0741121303e+000
 2.0125292443e+000	 5.7271056599e-002	 3.0319148882e+000
 2.0118900675e+000	 7.6499963663e-002	 2.9908273749e+000
 2.0110637272e+000	 9.5794324142e-002	 2.9503151188e+000
 2.0100482461e+000	 1.1515175863e-001	 2.9096258456e+000
 2.0088416778e+000	 1.3456983133e-001	 2.8678053779e+000
 2.0074421087e+000	 1.5404605026e-001	 2.8237136184e+000
 2.0058476595e+000	 1.7357786763e-001	 2.7760406364e+000
 2.0040564870e+000	 1.9316268012e-001	 2.7233228815e+000
 2.0400120000e+000	 0.0000000000e+000	 3.2287779539e+000
 2.0399209728e+000	 1.9270753540e-002	 3.1748033470e+000
 2.0396464863e+000	 3.8614715539e-002	 3.1230023481e+000
 2.0391864523e+000	 5.8029647548e-002	 3.0731823740e+000
 2.0385388092e+000	 7.7513253509e-002	 3.0249245079e+000
 2.0377015236e+000	 9.7063179855e-002	 2.9775995786e+000
 2.0366725918e+000	 1.1667701567e-001	 2.9303841811e+000
 2.0354500417e+000	 1.3635229287e-001	 2.8822766422e+000
 2.0340319344e+000	 1.5608648651e-001	 2.8321129437e+000
 2.0324163658e+000	 1.7587701501e-001	 2.7785826233e+000
 2.0306014681e+000	 1.9572124058e-001	 2.7202446844e+000
 2.0666800000e+000	 0.0000000000e+000	 3.1520602071e+000
 2.0665877828e+000	 1.9522669929e-002	 3.1043389785e+000
 2.0663097081e+000	 3.9119505332e-002	 3.0586559815e+000
 2.0658436604e+000	 5.8788238498e-002	 3.0146942803e+000
 2.0651875510e+000	 7.8526543355e-002	 2.9719372451e+000
 2.0643393199e+000	 9.8332035568e-002	 2.9296848726e+000
 2.0632969374e+000	 1.1820227270e-001	 2.8870699058e+000
 2.0620584056e+000	 1.3813475442e-001	 2.8430737530e+000
 2.0606217602e+000	 1.5812692275e-001	 2.7965422227e+000
 2.0589850721e+000	 1.7817616239e-001	 2.7462010983e+000
 2.0571464492e+000	 1.9827980105e-001	 2.6906715865e+000
 1.7916966383e+000	 1.7269419643e-001	 3.0147087052e+000
 1.7899180559e+000	 1.9024607690e-001	 2.9874970549e+000
 1.7879604570e+000	 2.0784055965e-001	 2.9583393914e+000
 1.7858223000e+000	 2.2547521035e-001	 2.9268318325e+000
 1.7835020816e+000	 2.4314754789e-001	 2.8925217642e+000
 1.7809983380e+000	 2.6085504501e-001	 2.8549169777e+000
 1.7783096463e+000	 2.7859512887e-001	 2.8134953327e+000
 1.7754346262e+000	 2.9636518172e-001	 2.7677148819e+000
 1.7723719412e+000	 3.1416254162e-001	 2.7170243796e+000
 1.7691203005e+000	 3.3198450320e-001	 2.6608740982e+000
 1.7656784599e+000	 3.4982831845e-001	 2.5987268659e+000
 1.8182416194e+000	 1.7525275689e-001	 2.9267959475e+000
 1.8164366863e+000	 1.9306467822e-001	 2.9056111621e+000
 1.8144500845e+000	 2.1091983301e-001	 2.8821082336e+000
 1.8122802495e+000	 2.2881575086e-001	 2.8559004808e+000
 1.8099256558e+000	 2.4674991390e-001	 2.8265477168e+000
 1.8073848178e+000	 2.6471975742e-001	 2.7935664680e+000
 1.8046562917e+000	 2.8272267048e-001	 2.7564407713e+000
 1.8017386765e+000	 3.0075599654e-001	 2.7146334709e+000
 1.7986306162e+000	 3.1881703421e-001	 2.6675979367e+000
 1.7953308006e+000	 3.3690303805e-001	 2.6147901139e+000
 1.7918379672e+000	 3.5501121934e-001	 2.5556808122e+000
 1.8447866005e+000	 1.7781131735e-001	 2.8547307209e+000
 1.8429553167e+000	 1.9588327954e-001	 2.8366410731e+000
 1.8409397119e+000	 2.1399910637e-001	 2.8160890431e+000
 1.8387381990e+000	 2.3215629136e-001	 2.7926946606e+000
 1.8363492300e+000	 2.5035227990e-001	 2.7660193166e+000
 1.8337712977e+000	 2.6858446984e-001	 2.7355771772e+000
 1.8310029370e+000	 2.8685021209e-001	 2.7008472265e+000
 1.8280427269e+000	 3.0514681135e-001	 2.6612858561e+000
 1.8248892912e+000	 3.2347152681e-001	 2.6163399114e+000
 1.8215413007e+000	 3.4182157291e-001	 2.5654600983e+000
 1.8179974745e+000	 3.6019412023e-001	 2.5081146465e+000
 1.8713315816e+000	 1.8036987781e-001	 2.7978702939e+000
 1.8694739471e+000	 1.9870188086e-001	 2.7800586999e+000
 1.8674293394e+000	 2.1707837973e-001	 2.7598897156e+000
 1.8651961485e+000	 2.3549683187e-001	 2.7369771952e+000
 1.8627728042e+000	 2.5395464591e-001	 2.7108708268e+000
 1.8601577775e+000	 2.7244918225e-001	 2.6810688598e+000
 1.8573495824e+000	 2.9097775370e-001	 2.6470315180e+000
 1.8543467772e+000	 3.0953762617e-001	 2.6081950089e+000
 1.8511479661e+000	 3.2812601940e-001	 2.5639860285e+000
 1.8477518008e+000	 3.4674010776e-001	 2.5138366564e+000
 1.8441569818e+000	 3.6537702112e-001	 2.4571995264e+000
 1.8978765627e+000	 1.8292843827e-001	 2.7556426512e+000
 1.8959925775e+000	 2.0152048219e-001	 2.7354040735e+000
 1.8939189669e+000	 2.2015765309e-001	 2.7131834273e+000
 1.8916540980e+000	 2.3883737238e-001	 2.6885730461e+000
 1.8891963783e+000	 2.5755701191e-001	 2.6610951391e+000
 1.8865442573e+000	 2.7631389466e-001	 2.6302159612e+000
 1.8836962278e+000	 2.9510529531e-001	 2.5953607303e+000
 1.8806508276e+000	 3.1392844099e-001	 2.5559291933e+000
 1.8774066411e+000	 3.3278051199e-001	 2.5113117292e+000
 1.8739623009e+000	 3.5165864261e-001	 2.4609058749e+000
 1.8703164891e+000	 3.7055992201e-001	 2.4041331474e+000
 1.9244215437e+000	 1.8548699874e-001	 2.7275416464e+000
 1.9225112079e+000	 2.0433908351e-001	 2.7022807824e+000
 1.9204085944e+000	 2.2323692645e-001	 2.6757043632e+000
 1.9181120475e+000	 2.4217791288e-001	 2.6473653305e+000
 1.9156199525e+000	 2.6115937792e-001	 2.6167400774e+000
 1.9129307371e+000	 2.8017860707e-001	 2.5832442004e+000
 1.9100428731e+000	 2.9923283692e-001	 2.5462490637e+000
 1.9069548779e+000	 3.1831925580e-001	 2.5050990688e+000
 1.9036653161e+000	 3.3743500458e-001	 2.4591295075e+000
 1.9001728010e+000	 3.5657717746e-001	 2.4076848706e+000
 1.8964759965e+000	 3.7574282290e-001	 2.3501374756e+000
 1.9509665248e+000	 1.8804555920e-001	 2.7131225452e+000
 1.9490298383e+000	 2.0715768483e-001	 2.6803517750e+000
 1.9468982219e+000	 2.2631619981e-001	 2.6472437802e+000
 1.9445699970e+000	 2.4551845339e-001	 2.6132916437e+000
 1.9420435267e+000	 2.6476174392e-001	 2.5779049756e+000
 1.9393172170e+000	 2.8404331949e-001	 2.5404273937e+000
 1.9363895185e+000	 3.0336037854e-001	 2.5001548911e+000
 1.9332589282e+000	 3.2271007062e-001	 2.4563549656e+000
 1.9299239910e+000	 3.4208949717e-001	 2.4082863845e+000
 1.9263833011e+000	 3.6149571232e-001	 2.3552194395e+000
 1.9226355038e+000	 3.8092572379e-001	 2.2964565465e+000
 1.9775115059e+000	 1.9060411966e-001	 2.7119979240e+000
 1.9755484687e+000	 2.0997628615e-001	 2.6693354913e+000
 1.9733878494e+000	 2.2939547317e-001	 2.6276463732e+000
 1.9710279465e+000	 2.4885899389e-001	 2.5863406581e+000
 1.9684671009e+000	 2.6836410993e-001	 2.5447375014e+000
 1.9657036968e+000	 2.8790803190e-001	 2.5020844955e+000
 1.9627361639e+000	 3.0748792015e-001	 2.4575780028e+000
 1.9595629786e+000	 3.2710088544e-001	 2.4103843162e+000
 1.9561826660e+000	 3.4674398976e-001	 2.3596615061e+000
 1.9525938012e+000	 3.6641424717e-001	 2.3045817989e+000
 1.9487950111e+000	 3.8610862468e-001	 2.2443543227e+000
 2.0040564870e+000	 1.9316268012e-001	 2.7233228815e+000
 2.0020670991e+000	 2.1279488748e-001	 2.6689001527e+000
 1.9998774768e+000	 2.3247474653e-001	 2.6168069172e+000
 1.9974858960e+000	 2.5219953440e-001	 2.5665489716e+000
 1.9948906751e+000	 2.7196647593e-001	 2.5174307059e+000
 1.9920901766e+000	 2.9177274431e-001	 2.4685768363e+000
 1.9890828092e+000	 3.1161546176e-001	 2.4190570200e+000
 1.9858670289e+000	 3.3149170025e-001	 2.3679092269e+000
 1.9824413410e+000	 3.5139848235e-001	 2.3141638536e+000
 1.9788043013e+000	 3.7133278202e-001	 2.2568684109e+000
 1.9749545184e+000	 3.9129152557e-001	 2.1951126063e+000
 2.0306014681e+000	 1.9572124058e-001	 2.7202446844e+000
 2.0285857295e+000	 2.1561348880e-001	 2.6604913349e+000
 2.0263671043e+000	 2.3555401989e-001	 2.6033029375e+000
 2.0239438455e+000	 2.5554007491e-001	 2.5480101654e+000
 2.0213142492e+000	 2.7556884194e-001	 2.4938888570e+000
 2.0184766564e+000	 2.9563745673e-001	 2.4401746216e+000
 2.0154294546e+000	 3.1574300337e-001	 2.3860777206e+000
 2.0121710793e+000	 3.3588251507e-001	 2.3307983101e+000
 2.0087000159e+000	 3.5605297494e-001	 2.2735421368e+000
 2.0050148014e+000	 3.7625131688e-001	 2.2135367881e+000
 2.0011140257e+000	 3.9647442646e-001	 2.1500485953e+000
 2.0571464492e+000	 1.9827980105e-001	 2.6906715865e+000
 2.0551043599e+000	 2.1843209012e-001	 2.6334195178e+000
 2.0528567318e+000	 2.3863329325e-001	 2.5783756377e+000
 2.0504017950e+000	 2.5888061541e-001	 2.5247809542e+000
 2.0477378234e+000	 2.7917120795e-001	 2.4718411403e+000
 2.0448631363e+000	 2.9950216914e-001	 2.4187403655e+000
 2.0417760999e+000	 3.1987054498e-001	 2.3646553326e+000
 2.0384751296e+000	 3.4027332989e-001	 2.3087696190e+000
 2.0349586909e+000	 3.6070746753e-001	 2.2502884303e+000
 2.0312253015e+000	 3.8116985173e-001	 2.1884538774e+000
 2.0272735331e+000	 4.0165732735e-001	 2.1225608953e+000
 1.7656784599e+000	 3.4982831845e-001	 2.5987268659e+000
 1.7620446643e+000	 3.6769387793e-001	 2.5330637126e+000
 1.7582182705e+000	 3.8557567101e-001	 2.4664189701e+000
 1.7541981846e+000	 4.0347082167e-001	 2.3983599302e+000
 1.7499833653e+000	 4.2137641493e-001	 2.3285130285e+000
 1.7455728252e+000	 4.3928949790e-001	 2.2565745419e+000
 1.7409656323e+000	 4.5720708096e-001	 2.1823209075e+000
 1.7361609110e+000	 4.7512613887e-001	 2.1056185543e+000
 1.7311578440e+000	 4.9304361203e-001	 2.0264331411e+000
 1.7259556728e+000	 5.1095640776e-001	 1.9448380915e+000
 1.7205536997e+000	 5.2886140161e-001	 1.8610223206e+000
 1.7918379672e+000	 3.5501121934e-001	 2.5556808122e+000
 1.7881503349e+000	 3.7314146701e-001	 2.4928402400e+000
 1.7842672510e+000	 3.9128818879e-001	 2.4288635500e+000
 1.7801876053e+000	 4.0944846605e-001	 2.3632921312e+000
 1.7759103411e+000	 4.2761934061e-001	 2.2957340456e+000
 1.7714344564e+000	 4.4579781587e-001	 2.2258760004e+000
 1.7667590053e+000	 4.6398085787e-001	 2.1534949000e+000
 1.7618830995e+000	 4.8216539658e-001	 2.0784688555e+000
 1.7568059092e+000	 5.0034832706e-001	 2.0007875351e+000
 1.7515266650e+000	 5.1852651081e-001	 1.9205617355e+000
 1.7460446586e+000	 5.3669677708e-001	 1.8380320567e+000
 1.8179974745e+000	 3.6019412023e-001	 2.5081146465e+000
 1.8142560056e+000	 3.7858905609e-001	 2.4469631585e+000
 1.8103162315e+000	 3.9700070657e-001	 2.3846683110e+000
 1.8061770260e+000	 4.1542611042e-001	 2.3207449404e+000
 1.8018373169e+000	 4.3386226630e-001	 2.2547826839e+000
 1.7972960876e+000	 4.5230613383e-001	 2.1864593272e+000
 1.7925523784e+000	 4.7075463478e-001	 2.1155536834e+000
 1.7876052879e+000	 4.8920465428e-001	 2.0419578725e+000
 1.7824539744e+000	 5.0765304208e-001	 1.9656888693e+000
 1.7770976571e+000	 5.2609661385e-001	 1.8868991900e+000
 1.7715356175e+000	 5.4453215256e-001	 1.8058865871e+000
 1.8441569818e+000	 3.6537702112e-001	 2.4571995264e+000
 1.8403616762e+000	 3.8403664517e-001	 2.3968159706e+000
 1.8363652119e+000	 4.0271322434e-001	 2.3354147276e+000
 1.8321664466e+000	 4.2140375480e-001	 2.2724807165e+000
 1.8277642926e+000	 4.4010519199e-001	 2.2075824507e+000
 1.8231577187e+000	 4.5881445179e-001	 2.1403868701e+000
 1.8183457514e+000	 4.7752841169e-001	 2.0706736545e+000
 1.8133274763e+000	 4.9624391199e-001	 1.9983488717e+000
 1.8081020396e+000	 5.1495775711e-001	 1.9234578191e+000
 1.8026686493e+000	 5.3366671690e-001	 1.8461969134e+000
 1.7970265765e+000	 5.5236752804e-001	 1.7669244856e+000
 1.8703164891e+000	 3.7055992201e-001	 2.4041331474e+000
 1.8664673468e+000	 3.8948423424e-001	 2.3438013194e+000
 1.8624141924e+000	 4.0842574212e-001	 2.2826958429e+000
 1.8581558673e+000	 4.2738139917e-001	 2.2202656192e+000
 1.8536912684e+000	 4.4634811767e-001	 2.1560526741e+000
 1.8490193499e+000	 4.6532276975e-001	 2.0897085946e+000
 1.8441391245e+000	 4.8430218860e-001	 2.0210103919e+000
 1.8390496648e+000	 5.0328316970e-001	 1.9498756306e+000
 1.8337501048e+000	 5.2226247213e-001	 1.8763766675e+000
 1.8282396415e+000	 5.4123681994e-001	 1.8007538423e+000
 1.8225175354e+000	 5.6020290351e-001	 1.7234274623e+000
 1.8964759965e+000	 3.7574282290e-001	 2.3501374756e+000
 1.8925730174e+000	 3.9493182332e-001	 2.2893388558e+000
 1.8884631729e+000	 4.1413825989e-001	 2.2281141921e+000
 1.8841452879e+000	 4.3335904355e-001	 2.1658675078e+000
 1.8796182442e+000	 4.5259104336e-001	 2.1021062908e+000
 1.8748809811e+000	 4.7183108771e-001	 2.0364596671e+000
 1.8699324975e+000	 4.9107596551e-001	 1.9686959401e+000
 1.8647718532e+000	 5.1032242740e-001	 1.8987393213e+000
 1.8593981700e+000	 5.2956718716e-001	 1.8266856826e+000
 1.8538106336e+000	 5.4880692299e-001	 1.7528171536e+000
 1.8480084943e+000	 5.6803827899e-001	 1.6776153964e+000
 1.9226355038e+000	 3.8092572379e-001	 2.2964565465e+000
 1.9186786880e+000	 4.0037941240e-001	 2.2348631368e+000
 1.9145121533e+000	 4.1985077767e-001	 2.1732797282e+000
 1.9101347086e+000	 4.3933668792e-001	 2.1110538148e+000
 1.9055452200e+000	 4.5883396905e-001	 2.0476475848e+000
 1.9007426122e+000	 4.7833940568e-001	 1.9826579730e+000
 1.8957258705e+000	 4.9784974242e-001	 1.9158360138e+000
 1.8904940416e+000	 5.1736168511e-001	 1.8471053065e+000
 1.8850462353e+000	 5.3687190219e-001	 1.7765794046e+000
 1.8793816258e+000	 5.5637702603e-001	 1.7045779391e+000
 1.8734994532e+000	 5.7587365447e-001	 1.6316412902e+000
 1.9487950111e+000	 3.8610862468e-001	 2.2443543227e+000
 1.9447843586e+000	 4.0582700148e-001	 2.1818215521e+000
 1.9405611338e+000	 4.2556329545e-001	 2.1198077464e+000
 1.9361241293e+000	 4.4531433230e-001	 2.0575893949e+000
 1.9314721957e+000	 4.6507689473e-001	 1.9945698823e+000
 1.9266042434e+000	 4.8484772364e-001	 1.9303015737e+000
 1.9215192436e+000	 5.0462351933e-001	 1.8645071309e+000
 1.9162162300e+000	 5.2440094282e-001	 1.7970998555e+000
 1.9106943005e+000	 5.4417661721e-001	 1.7282028513e+000
 1.9049526179e+000	 5.6394712908e-001	 1.6581668009e+000
 1.8989904121e+000	 5.8370902994e-001	 1.5875861521e+000
 1.9749545184e+000	 3.9129152557e-001	 2.1951126063e+000
 1.9708900293e+000	 4.1127459056e-001	 2.1316722764e+000
 1.9666101143e+000	 4.3127581323e-001	 2.0693168104e+000
 1.9621135499e+000	 4.5129197667e-001	 2.0072343537e+000
 1.9573991715e+000	 4.7131982042e-001	 1.9447532069e+000
 1.9524658746e+000	 4.9135604160e-001	 1.8813661091e+000
 1.9473126166e+000	 5.1139729624e-001	 1.8167536789e+000
 1.9419384185e+000	 5.3144020053e-001	 1.7508067888e+000
 1.9363423657e+000	 5.5148133224e-001	 1.6836476491e+000
 1.9305236101e+000	 5.7151723213e-001	 1.6156493746e+000
 1.9244813711e+000	 5.9154440542e-001	 1.5474538157e+000
 2.0011140257e+000	 3.9647442646e-001	 2.1500485953e+000
 1.9969956999e+000	 4.1672217963e-001	 2.0858822452e+000
 1.9926590947e+000	 4.3698833100e-001	 2.0234266785e+000
 1.9881029706e+000	 4.5726962105e-001	 1.9617418558e+000
 1.9833261473e+000	 4.7756274611e-001	 1.9000618981e+000
 1.9783275057e+000	 4.9786435957e-001	 1.8378021509e+000
 1.9731059897e+000	 5.1817107315e-001	 1.7745849226e+000
 1.9676606069e+000	 5.3847945824e-001	 1.7102640570e+000
 1.9619904309e+000	 5.5878604727e-001	 1.6449480961e+000
 1.9560946022e+000	 5.7908733518e-001	 1.5790217881e+000
 1.9499723300e+000	 5.9937978090e-001	 1.5131656993e+000
 2.0272735331e+000	 4.0165732735e-001	 2.1225608953e+000
 2.0231013705e+000	 4.2216976871e-001	 2.0556122543e+000
 2.0187080752e+000	 4.4270084878e-001	 1.9906144890e+000
 2.0140923913e+000	 4.6324726543e-001	 1.9269647863e+000
 2.0092531230e+000	 4.8380567180e-001	 1.8641799927e+000
 2.0041891369e+000	 5.0437267753e-001	 1.8019177167e+000
 1.9988993627e+000	 5.2494485006e-001	 1.7399719572e+000
 1.9933827953e+000	 5.4551871594e-001	 1.6774602591e+000
 1.9876384961e+000	 5.6609076229e-001	 1.6140771646e+000
 1.9816655944e+000	 5.8665743822e-001	 1.5502060601e+000
 1.9754632889e+000	 6.0721515638e-001	 1.4865555135e+000
 1.7205536997e+000	 5.2886140161e-001	 1.8610223206e+000
 1.7149512879e+000	 5.4675543847e-001	 1.7733255985e+000
 1.7091478619e+000	 5.6463533321e-001	 1.6804460613e+000
 1.7031429098e+000	 5.8249787284e-001	 1.5832924080e+000
 1.6969359845e+000	 6.0033981835e-001	 1.4828968193e+000
 1.6905267052e+000	 6.1815790620e-001	 1.3804158357e+000
 1.6839147584e+000	 6.3594884997e-001	 1.2771298625e+000
 1.6770998984e+000	 6.5370934202e-001	 1.1744412321e+000
 1.6700819490e+000	 6.7143605513e-001	 1.0738900351e+000
 1.6628608034e+000	 6.8912564429e-001	 9.7710313252e-001
 1.6554364262e+000	 7.0677474842e-001	 8.8464709425e-001
 1.7460446586e+000	 5.3669677708e-001	 1.8380320567e+000
 1.7403592440e+000	 5.5485592404e-001	 1.7513143752e+000
 1.7344698370e+000	 5.7300071935e-001	 1.6589007751e+000
 1.7283759182e+000	 5.9112790244e-001	 1.5618018101e+000
 1.7220770338e+000	 6.0923418628e-001	 1.4611680599e+000
 1.7155727975e+000	 6.2731625900e-001	 1.3582913211e+000
 1.7088628910e+000	 6.4537078549e-001	 1.2546042759e+000
 1.7019470652e+000	 6.6339440909e-001	 1.1516785650e+000
 1.6948251409e+000	 6.8138375330e-001	 1.0513375508e+000
 1.6874970101e+000	 6.9933542355e-001	 9.5484890522e-001
 1.6799626365e+000	 7.1724600897e-001	 8.6269871396e-001
 1.7715356175e+000	 5.4453215256e-001	 1.8058865871e+000
 1.7657672001e+000	 5.6295640962e-001	 1.7205386629e+000
 1.7597918121e+000	 5.8136610550e-001	 1.6291135919e+000
 1.7536089266e+000	 5.9975793203e-001	 1.5326959554e+000
 1.7472180832e+000	 6.1812855421e-001	 1.4325283745e+000
 1.7406188898e+000	 6.3647461180e-001	 1.3300131023e+000
 1.7338110237e+000	 6.5479272100e-001	 1.2267119380e+000
 1.7267942319e+000	 6.7307947616e-001	 1.1243844662e+000
 1.7195683327e+000	 6.9133145148e-001	 1.0249526355e+000
 1.7121332167e+000	 7.0954520282e-001	 9.2922276963e-001
 1.7044888469e+000	 7.2771726952e-001	 8.3782637375e-001
 1.7970265765e+000	 5.5236752804e-001	 1.7669244856e+000
 1.7911751561e+000	 5.7105689519e-001	 1.6833004978e+000
 1.7851137872e+000	 5.8973149165e-001	 1.5933275881e+000
 1.7788419349e+000	 6.0838796163e-001	 1.4981365323e+000
 1.7723591325e+000	 6.2702292214e-001	 1.3990357814e+000
 1.7656649822e+000	 6.4563296460e-001	 1.2975135506e+000
 1.7587591563e+000	 6.6421465652e-001	 1.1952380622e+000
 1.7516413986e+000	 6.8276454324e-001	 1.0942526285e+000
 1.7443115246e+000	 7.0127914966e-001	 9.9608519018e-001
 1.7367694233e+000	 7.1975498208e-001	 9.0145732651e-001
 1.7290150572e+000	 7.3818853007e-001	 8.1114424949e-001
 1.8225175354e+000	 5.6020290351e-001	 1.7234274623e+000
 1.8165831122e+000	 5.7915738076e-001	 1.6418351293e+000
 1.8104357623e+000	 5.9809687779e-001	 1.5537081261e+000
 1.8040749433e+000	 6.1701799122e-001	 1.4601955240e+000
 1.7975001819e+000	 6.3591729007e-001	 1.3626454861e+000
 1.7907110745e+000	 6.5479131740e-001	 1.2626079540e+000
 1.7837072890e+000	 6.7363659204e-001	 1.1618943094e+000
 1.7764885653e+000	 6.9244961031e-001	 1.0626836406e+000
 1.7690547165e+000	 7.1122684783e-001	 9.6600909154e-001
 1.7614056299e+000	 7.2996476135e-001	 8.7271169443e-001
 1.7535412676e+000	 7.4865979062e-001	 7.8369569648e-001
 1.8480084943e+000	 5.6803827899e-001	 1.6776153964e+000
 1.8419910683e+000	 5.8725786634e-001	 1.5983052322e+000
 1.8357577374e+000	 6.0646226394e-001	 1.5123361819e+000
 1.8293079517e+000	 6.2564802082e-001	 1.4208475904e+000
 1.8226412312e+000	 6.4481165800e-001	 1.3252012593e+000
 1.8157571668e+000	 6.6394967020e-001	 1.2269848351e+000
 1.8086554216e+000	 6.8305852755e-001	 1.1283086287e+000
 1.8013357320e+000	 7.0213467738e-001	 1.0309873688e+000
 1.7937979084e+000	 7.2117454600e-001	 9.3592355311e-001
 1.7860418365e+000	 7.4017454062e-001	 8.4407274138e-001
 1.7780674779e+000	 7.5913105116e-001	 7.5645435458e-001
 1.8734994532e+000	 5.7587365447e-001	 1.6316412902e+000
 1.8673990244e+000	 5.9535835191e-001	 1.5547950533e+000
 1.8610797125e+000	 6.1482765009e-001	 1.4712016222e+000
 1.8545409601e+000	 6.3427805041e-001	 1.3819624162e+000
 1.8477822806e+000	 6.5370602593e-001	 1.2884267978e+000
 1.8408032591e+000	 6.7310802300e-001	 1.1922599475e+000
 1.8336035543e+000	 6.9248046307e-001	 1.0958304313e+000
 1.8261828987e+000	 7.1181974445e-001	 1.0003983023e+000
 1.8185411003e+000	 7.3112224418e-001	 9.0695455292e-001
 1.8106780431e+000	 7.5038431988e-001	 8.1655640420e-001
 1.8025936882e+000	 7.6960231171e-001	 7.3032536263e-001
 1.8989904121e+000	 5.8370902994e-001	 1.5875861521e+000
 1.8928069804e+000	 6.0345883748e-001	 1.5133044990e+000
 1.8864016876e+000	 6.2319303624e-001	 1.4321964359e+000
 1.8797739685e+000	 6.4290808001e-001	 1.3452970283e+000
 1.8729233299e+000	 6.6260039386e-001	 1.2539170725e+000
 1.8658493514e+000	 6.8226637580e-001	 1.1600191716e+000
 1.8585516869e+000	 7.0190239858e-001	 1.0657247540e+000
 1.8510300654e+000	 7.2150481152e-001	 9.7207713001e-001
 1.8432842922e+000	 7.4106994236e-001	 8.8015632107e-001
 1.8353142497e+000	 7.6059409915e-001	 7.9110908767e-001
 1.8271198986e+000	 7.8007357226e-001	 7.0614667231e-001
 1.9244813711e+000	 5.9154440542e-001	 1.5474538157e+000
 1.9182149365e+000	 6.1155932306e-001	 1.4757431694e+000
 1.9117236627e+000	 6.3155842238e-001	 1.3971079250e+000
 1.9050069769e+000	 6.5153810961e-001	 1.3124880858e+000
 1.8980643793e+000	 6.7149476179e-001	 1.2231737098e+000
 1.8908954437e+000	 6.9142472860e-001	 1.1315659226e+000
 1.8834998196e+000	 7.1132433410e-001	 1.0391826640e+000
 1.8758772322e+000	 7.3118987860e-001	 9.4711235503e-001
 1.8680274841e+000	 7.5101764053e-001	 8.5651288167e-001
 1.8599504564e+000	 7.7080387841e-001	 7.6860913567e-001
 1.8516461089e+000	 7.9054483281e-001	 6.8469045184e-001
 1.9499723300e+000	 5.9937978090e-001	 1.5131656993e+000
 1.9436228926e+000	 6.1965980863e-001	 1.4439243434e+000
 1.9370456378e+000	 6.3992380853e-001	 1.3676118567e+000
 1.9302399853e+000	 6.6016813920e-001	 1.2850441449e+000
 1.9232054286e+000	 6.8038912972e-001	 1.1977498449e+000
 1.9159415361e+000	 7.0058308140e-001	 1.1081174273e+000
 1.9084479522e+000	 7.2074626962e-001	 1.0173229616e+000
 1.9007243989e+000	 7.4087494567e-001	 9.2652194145e-001
 1.8927706760e+000	 7.6096533871e-001	 8.3693964432e-001
 1.8845866630e+000	 7.8101365768e-001	 7.4986836817e-001
 1.8761723193e+000	 8.0101609336e-001	 6.6666457154e-001
 1.9754632889e+000	 6.0721515638e-001	 1.4865555135e+000
 1.9690308487e+000	 6.2776029421e-001	 1.4195589198e+000
 1.9623676129e+000	 6.4828919468e-001	 1.3452655829e+000
 1.9554729937e+000	 6.6879816880e-001	 1.2643478992e+000
 1.9483464780e+000	 6.8928349765e-001	 1.1789169757e+000
 1.9409876284e+000	 7.0974143420e-001	 1.0908189006e+000
 1.9333960849e+000	 7.3016820514e-001	 1.0011938988e+000
 1.9255715656e+000	 7.5056001275e-001	 9.1125499238e-001
 1.9175138679e+000	 7.7091303689e-001	 8.2228504049e-001
 1.9092228696e+000	 7.9122343695e-001	 7.3563367766e-001
 1.9006985296e+000	 8.1148735391e-001	 6.5271416384e-001
 1.6554364262e+000	 7.0677474842e-001	 8.8464709425e-001
 1.6478100126e+000	 7.2437735518e-001	 7.9355644266e-001
 1.6399805736e+000	 7.4193272950e-001	 7.0064818049e-001
 1.6319482913e+000	 7.5943747564e-001	 6.0601616248e-001
 1.6237134218e+000	 7.7688818926e-001	 5.0980621067e-001
 1.6152762950e+000	 7.9428145945e-001	 4.1221603628e-001
 1.6066373155e+000	 8.1161387061e-001	 3.1349508380e-001
 1.5977969630e+000	 8.2888200447e-001	 2.1394429758e-001
 1.5887557923e+000	 8.4608244213e-001	 1.1391581160e-001
 1.5795144344e+000	 8.6321176607e-001	 1.3812562426e-002
 1.5700735960e+000	 8.8026656221e-001	-8.5912174704e-002
 1.6799626365e+000	 7.1724600897e-001	 8.6269871396e-001
 1.6722232334e+000	 7.3510940813e-001	 7.7196718444e-001
 1.6642777969e+000	 7.5292487508e-001	 6.7941052514e-001
 1.6561265119e+000	 7.7068896374e-001	 5.8513999234e-001
 1.6477696382e+000	 7.8839821939e-001	 4.8931975067e-001
 1.6392075107e+000	 8.0604918054e-001	 3.9216670333e-001
 1.6304405399e+000	 8.2363838099e-001	 2.9395024808e-001
 1.6214692126e+000	 8.4116235185e-001	 1.9499195978e-001
 1.6122940921e+000	 8.5861762355e-001	 9.5665200351e-002
 1.6029158183e+000	 8.7600072794e-001	-3.6053436116e-003
 1.5933351085e+000	 8.9330820037e-001	-1.0234419547e-001
 1.7044888469e+000	 7.2771726952e-001	 8.3782637375e-001
 1.6966364542e+000	 7.4584146108e-001	 7.4790306850e-001
 1.6885750202e+000	 7.6391702065e-001	 6.5616305416e-001
 1.6803047325e+000	 7.8194045185e-001	 5.6271987579e-001
 1.6718258546e+000	 7.9990824952e-001	 4.6774102187e-001
 1.6631387264e+000	 8.1781690162e-001	 3.7144768960e-001
 1.6542437644e+000	 8.3566289138e-001	 2.7411448033e-001
 1.6451414623e+000	 8.5344269924e-001	 1.7606902665e-001
 1.6358323918e+000	 8.7115280498e-001	 7.7691551853e-002
 1.6263172021e+000	 8.8878968982e-001	-2.0585637636e-002
 1.6165966211e+000	 9.0634983852e-001	-1.1827872674e-001
 1.7290150572e+000	 7.3818853007e-001	 8.1114424949e-001
 1.7210496750e+000	 7.5657351403e-001	 7.2236254612e-001
 1.7128722434e+000	 7.7490916622e-001	 6.3179494579e-001
 1.7044829530e+000	 7.9319193996e-001	 5.3954299342e-001
 1.6958820710e+000	 8.1141827964e-001	 4.4576329458e-001
 1.6870699421e+000	 8.2958462271e-001	 3.5066724152e-001
 1.6780469888e+000	 8.4768740177e-001	 2.5452067523e-001
 1.6688137120e+000	 8.6572304662e-001	 1.5764348469e-001
 1.6593706915e+000	 8.8368798640e-001	 6.0409144730e-002
 1.6497185860e+000	 9.0157865169e-001	-3.6755807189e-002
 1.6398581337e+000	 9.1939147667e-001	-1.3337235492e-001
 1.7535412676e+000	 7.4865979062e-001	 7.8369569648e-001
 1.7454628958e+000	 7.6730556697e-001	 6.9627582222e-001
 1.7371694667e+000	 7.8590131179e-001	 6.0712941359e-001
 1.7286611736e+000	 8.0444342807e-001	 5.1633250866e-001
 1.7199382875e+000	 8.2292830977e-001	 4.2401739294e-001
 1.7110011578e+000	 8.4135234380e-001	 3.3037231151e-001
 1.7018502132e+000	 8.5971191215e-001	 2.3564112369e-001
 1.6924859617e+000	 8.7800339400e-001	 1.4012290189e-001
 1.6829089912e+000	 8.9622316782e-001	 4.4171475952e-002
 1.6731199699e+000	 9.1436761356e-001	-5.1805076501e-002
 1.6631196463e+000	 9.3243311482e-001	-1.4734499357e-001
 1.7780674779e+000	 7.5913105116e-001	 7.5645435458e-001
 1.7698761166e+000	 7.7803761992e-001	 6.7050585107e-001
 1.7614666900e+000	 7.9689345736e-001	 5.8292462393e-001
 1.7528393942e+000	 8.1569491618e-001	 4.9374844053e-001
 1.7439945039e+000	 8.3443833989e-001	 4.0307255930e-001
 1.7349323735e+000	 8.5312006488e-001	 3.1104945233e-001
 1.7256534376e+000	 8.7173642254e-001	 2.1788847830e-001
 1.7161582113e+000	 8.9028374139e-001	 1.2385550764e-001
 1.7064472909e+000	 9.0875834925e-001	 2.9272501042e-002
 1.6965213537e+000	 9.2715657544e-001	-6.5482957877e-002
 1.6863811589e+000	 9.4547475298e-001	-1.5997817602e-001
 1.8025936882e+000	 7.6960231171e-001	 7.3032536263e-001
 1.7942893373e+000	 7.8876967287e-001	 6.4584946198e-001
 1.7857639133e+000	 8.0788560293e-001	 5.5987476163e-001
 1.7770176148e+000	 8.2694640429e-001	 4.7238870043e-001
 1.7680507203e+000	 8.4594837002e-001	 3.8343749532e-001
 1.7588635892e+000	 8.6488778597e-001	 2.9312589822e-001
 1.7494566620e+000	 8.8376093293e-001	 2.0161691230e-001
 1.7398304610e+000	 9.0256408877e-001	 1.0913146954e-001
 1.7299855906e+000	 9.2129353067e-001	 1.5948070854e-002
 1.7199227376e+000	 9.3994553731e-001	-7.7597610668e-002
 1.7096426715e+000	 9.5851639113e-001	-1.7111316375e-001
 1.8271198986e+000	 7.8007357226e-001	 7.0614667231e-001
 1.8187025581e+000	 7.9950172581e-001	 6.2303860285e-001
 1.8100611366e+000	 8.1887774850e-001	 5.3861122993e-001
 1.8011958353e+000	 8.3819789240e-001	 4.5279027729e-001
 1.7921069367e+000	 8.5745840015e-001	 3.6556156327e-001
 1.7827948048e+000	 8.7665550706e-001	 2.7697081527e-001
 1.7732598864e+000	 8.9578544332e-001	 1.8712345387e-001
 1.7635027107e+000	 9.1484443615e-001	 9.6184348571e-002
 1.7535238903e+000	 9.3382871209e-001	 4.3775464637e-003
 1.7433241214e+000	 9.5273449919e-001	-8.8014025894e-002
 1.7329041841e+000	 9.7155802928e-001	-1.8064888783e-001
 1.8516461089e+000	 7.9054483281e-001	 6.8469045184e-001
 1.8431157789e+000	 8.1023377876e-001	 6.0274169046e-001
 1.8343583599e+000	 8.2986989407e-001	 5.1970397227e-001
 1.8253740559e+000	 8.4944938051e-001	 4.3543055753e-001
 1.8161631531e+000	 8.6896843027e-001	 3.4983613273e-001
 1.8067260205e+000	 8.8842322815e-001	 2.6289670528e-001
 1.7970631108e+000	 9.0780995370e-001	 1.7464947953e-001
 1.7871749603e+000	 9.2712478354e-001	 8.5192716094e-002
 1.7770621900e+000	 9.4636389352e-001	-5.3144243659e-003
 1.7667255053e+000	 9.6552346106e-001	-9.6652052692e-002
 1.7561656967e+000	 9.8459966744e-001	-1.8853973903e-001
 1.8761723193e+000	 8.0101609336e-001	 6.6666457154e-001
 1.8675289997e+000	 8.2096583171e-001	 5.8556505806e-001
 1.8586555832e+000	 8.4086203964e-001	 5.0366290482e-001
 1.8495522765e+000	 8.6070086862e-001	 4.2072876742e-001
 1.8402193695e+000	 8.8047846040e-001	 3.3659605934e-001
 1.8306572362e+000	 9.0019094924e-001	 2.5116094917e-001
 1.8208663352e+000	 9.1983446409e-001	 1.6438235210e-001
 1.8108472100e+000	 9.3940513092e-001	 7.6281917866e-002
 1.8006004897e+000	 9.5889907494e-001	-1.3055983903e-002
 1.7901268891e+000	 9.7831242294e-001	-1.0348428106e-001
 1.7794272093e+000	 9.9764130559e-001	-1.9479322024e-001
 1.9006985296e+000	 8.1148735391e-001	 6.5271416384e-001
 1.8919422205e+000	 8.3169788466e-001	 5.7205449108e-001
 1.8829528065e+000	 8.5185418521e-001	 4.9093944964e-001
 1.8737304971e+000	 8.7195235673e-001	 4.0904752674e-001
 1.8642755859e+000	 8.9198849053e-001	 3.2612128369e-001
 1.8545884519e+000	 9.1195867032e-001	 2.4196747727e-001
 1.8446695596e+000	 9.3185897448e-001	 1.5645719008e-001
 1.8345194597e+000	 9.5168547831e-001	 6.9525971831e-002
 1.8241387894e+000	 9.7143425637e-001	-1.8826007626e-002
 1.8135282730e+000	 9.9110138481e-001	-1.0853379386e-001
 1.8026887218e+000	 1.0106829438e+000	-1.9946970852e-001
 1.5700735960e+000	 8.8026656221e-001	-8.5912174704e-002
 1.5604325990e+000	 8.9724596293e-001	-1.8453087260e-001
 1.5505937056e+000	 9.1414400241e-001	-2.8172130925e-001
 1.5405578528e+000	 9.3095728892e-001	-3.7760117564e-001
 1.5303260540e+000	 9.4768244256e-001	-4.7222849849e-001
 1.5198993990e+000	 9.6431609743e-001	-5.6560092471e-001
 1.5092790533e+000	 9.8085490370e-001	-6.5765509542e-001
 1.4984662587e+000	 9.9729552980e-001	-7.4826611485e-001
 1.4874623321e+000	 1.0136346645e+000	-8.3724807029e-001
 1.4762686658e+000	 1.0298690189e+000	-9.2434974508e-001
 1.4648867267e+000	 1.0459953290e+000	-1.0092606050e+000
 1.5933351085e+000	 8.9330820037e-001	-1.0234419547e-001
 1.5835512749e+000	 9.1053916034e-001	-1.9959128086e-001
 1.5735666128e+000	 9.2768755366e-001	-2.9488533751e-001
 1.5633820732e+000	 9.4474993835e-001	-3.8845999281e-001
 1.5529986847e+000	 9.6172288443e-001	-4.8048721823e-001
 1.5424175529e+000	 9.7860297614e-001	-5.7107635818e-001
 1.5316398610e+000	 9.9538681402e-001	-6.6027324464e-001
 1.5206668688e+000	 1.0120710171e+000	-7.4806042307e-001
 1.5094999130e+000	 1.0286522252e+000	-8.3435220235e-001
 1.4981404063e+000	 1.0451271006e+000	-9.1900073764e-001
 1.4865898373e+000	 1.0614923309e+000	-1.0017908979e+000
 1.6165966211e+000	 9.0634983852e-001	-1.1827872674e-001
 1.6066699508e+000	 9.2383235774e-001	-2.1417642956e-001
 1.5965395200e+000	 9.4123110491e-001	-3.0763792035e-001
 1.5862062937e+000	 9.5854258778e-001	-3.9899375024e-001
 1.5756713154e+000	 9.7576332631e-001	-4.8851102204e-001
 1.5649357069e+000	 9.9288985485e-001	-5.7639218853e-001
 1.5540006687e+000	 1.0099187243e+000	-6.6277393219e-001
 1.5428674789e+000	 1.0268465044e+000	-7.4772704568e-001
 1.5315374938e+000	 1.0436697858e+000	-8.3125166910e-001
 1.5200121467e+000	 1.0603851823e+000	-9.1328249084e-001
 1.5082929480e+000	 1.0769893328e+000	-9.9368379394e-001
 1.6398581337e+000	 9.1939147667e-001	-1.3337235492e-001
 1.6297886266e+000	 9.3712555515e-001	-2.2796931521e-001
 1.6195124272e+000	 9.5477465616e-001	-3.1969670291e-001
 1.6090305142e+000	 9.7233523721e-001	-4.0896370157e-001
 1.5983439460e+000	 9.8980376818e-001	-4.9611445470e-001
 1.5874538609e+000	 1.0071767336e+000	-5.8142665724e-001
 1.5763614763e+000	 1.0244506346e+000	-6.6511123331e-001
 1.5650680890e+000	 1.0416219918e+000	-7.4730684496e-001
 1.5535750746e+000	 1.0586873465e+000	-8.2808543573e-001
 1.5418838871e+000	 1.0756432639e+000	-9.0744646856e-001
 1.5299960587e+000	 1.0924863347e+000	-9.8531722650e-001
 1.6631196463e+000	 9.3243311482e-001	-1.4734499357e-001
 1.6529073025e+000	 9.5041875256e-001	-2.4071793356e-001
 1.6424853344e+000	 9.6831820741e-001	-3.3084547605e-001
 1.6318547346e+000	 9.8612788664e-001	-4.1819783227e-001
 1.6210165767e+000	 1.0038442101e+000	-5.0317878441e-001
 1.6099720149e+000	 1.0214636123e+000	-5.8612522950e-001
 1.5987222840e+000	 1.0389825450e+000	-6.6730087593e-001
 1.5872686991e+000	 1.0563974791e+000	-7.4690235528e-001
 1.5756126554e+000	 1.0737049072e+000	-8.2505255052e-001
 1.5637556276e+000	 1.0909013456e+000	-9.0180074644e-001
 1.5516991694e+000	 1.1079833366e+000	-9.7712148334e-001
 1.6863811589e+000	 9.4547475298e-001	-1.5997817602e-001
 1.6760259784e+000	 9.6371194997e-001	-2.5223330187e-001
 1.6654582416e+000	 9.8186175866e-001	-3.4093195957e-001
 1.6546789551e+000	 9.9992053607e-001	-4.2658843827e-001
 1.6436892074e+000	 1.0178846519e+000	-5.0965071120e-001
 1.6324901689e+000	 1.0357504910e+000	-5.9049322269e-001
 1.6210830917e+000	 1.0535144553e+000	-6.6942382462e-001
 1.6094693093e+000	 1.0711729664e+000	-7.4667607845e-001
 1.5976502362e+000	 1.0887224679e+000	-8.2240932906e-001
 1.5856273680e+000	 1.1061594272e+000	-8.9670726497e-001
 1.5734022801e+000	 1.1234803385e+000	-9.6957658506e-001
 1.7096426715e+000	 9.5851639113e-001	-1.7111316375e-001
 1.6991446542e+000	 9.7700514737e-001	-2.6238730615e-001
 1.6884311488e+000	 9.9540530991e-001	-3.4986541700e-001
 1.6775031755e+000	 1.0137131855e+000	-4.3409103484e-001
 1.6663618381e+000	 1.0319250938e+000	-5.1553431284e-001
 1.6550083229e+000	 1.0500373697e+000	-5.9460007456e-001
 1.6434438993e+000	 1.0680463656e+000	-6.7161895270e-001
 1.6316699194e+000	 1.0859484537e+000	-7.4684747047e-001
 1.6196878171e+000	 1.1037400286e+000	-8.2046634305e-001
 1.6074991084e+000	 1.1214175089e+000	-8.9257886961e-001
 1.5951053908e+000	 1.1389773404e+000	-9.6320942860e-001
 1.7329041841e+000	 9.7155802928e-001	-1.8064888783e-001
 1.7222633301e+000	 9.9029834478e-001	-2.7111038975e-001
 1.7114040560e+000	 1.0089488612e+000	-3.5761411765e-001
 1.7003273960e+000	 1.0275058349e+000	-4.4071551961e-001
 1.6890344687e+000	 1.0459655357e+000	-5.2089626609e-001
 1.6775264769e+000	 1.0643242484e+000	-5.9857144008e-001
 1.6658047070e+000	 1.0825782759e+000	-6.7408103297e-001
 1.6538705295e+000	 1.1007239411e+000	-7.4768976369e-001
 1.6417253979e+000	 1.1187575892e+000	-8.1958523215e-001
 1.6293708489e+000	 1.1366755906e+000	-8.8987615789e-001
 1.6168085014e+000	 1.1544743423e+000	-9.5859071773e-001
 1.7561656967e+000	 9.8459966744e-001	-1.8853973903e-001
 1.7453820060e+000	 1.0035915422e+000	-2.7838909804e-001
 1.7343769632e+000	 1.0224924124e+000	-3.6420426674e-001
 1.7231516164e+000	 1.0412984844e+000	-4.4653263243e-001
 1.7117070994e+000	 1.0600059775e+000	-5.2585728861e-001
 1.7000446309e+000	 1.0786111271e+000	-6.0258726632e-001
 1.6881655147e+000	 1.0971101862e+000	-6.7705747138e-001
 1.6760711396e+000	 1.1154994284e+000	-7.4952663941e-001
 1.6637629787e+000	 1.1337751499e+000	-8.2017535524e-001
 1.6512425893e+000	 1.1519336722e+000	-8.8910415136e-001
 1.6385116121e+000	 1.1699713442e+000	-9.5633170036e-001
 1.7794272093e+000	 9.9764130559e-001	-1.9479322024e-001
 1.7685006818e+000	 1.0168847396e+000	-2.8426538299e-001
 1.7573498703e+000	 1.0360359637e+000	-3.6971063875e-001
 1.7459758369e+000	 1.0550911338e+000	-4.5166462913e-001
 1.7343797301e+000	 1.0740464194e+000	-5.3059038695e-001
 1.7225627848e+000	 1.0928980058e+000	-6.0687850004e-001
 1.7105263223e+000	 1.1116420965e+000	-6.8084491209e-001
 1.6982717497e+000	 1.1302749157e+000	-7.5272876477e-001
 1.6858005595e+000	 1.1487927106e+000	-8.2269029575e-001
 1.6731143297e+000	 1.1671917539e+000	-8.9080880851e-001
 1.6602147228e+000	 1.1854683461e+000	-9.5708073025e-001
 1.8026887218e+000	 1.0106829438e+000	-1.9946970852e-001
 1.7916193577e+000	 1.0301779370e+000	-2.8882618403e-001
 1.7803227775e+000	 1.0495795149e+000	-3.7426371095e-001
 1.7688000574e+000	 1.0688837832e+000	-4.5628378475e-001
 1.7570523608e+000	 1.0880868613e+000	-5.3531758736e-001
 1.7450809388e+000	 1.1071848845e+000	-6.1172368234e-001
 1.7328871300e+000	 1.1261740068e+000	-6.8578572550e-001
 1.7204723598e+000	 1.1450504030e+000	-7.5771020608e-001
 1.7078381404e+000	 1.1638102713e+000	-8.2762423437e-001
 1.6949860702e+000	 1.1824498355e+000	-8.9557339293e-001
 1.6819178335e+000	 1.2009653480e+000	-9.6151966900e-001
 1.4648867267e+000	 1.0459953290e+000	-1.0092606050e+000
 1.4533180553e+000	 1.0620103567e+000	-1.0919702288e+000
 1.4415642644e+000	 1.0779108915e+000	-1.1724201544e+000
 1.4296270391e+000	 1.0936937532e+000	-1.2501290456e+000
 1.4175081369e+000	 1.1093557947e+000	-1.3245480888e+000
 1.4052093865e+000	 1.1248939033e+000	-1.3950612104e+000
 1.3927326875e+000	 1.1403050036e+000	-1.4609854473e+000
 1.3800800090e+000	 1.1555860590e+000	-1.5215714767e+000
 1.3672533887e+000	 1.1707340736e+000	-1.5760043087e+000
 1.3542549321e+000	 1.1857460943e+000	-1.6234041470e+000
 1.3410868110e+000	 1.2006192129e+000	-1.6628274211e+000
 1.4865898373e+000	 1.0614923309e+000	-1.0017908979e+000
 1.4748497697e+000	 1.0777446301e+000	-1.0827582295e+000
 1.4629218399e+000	 1.0938807402e+000	-1.1618619043e+000
 1.4508077579e+000	 1.1098974338e+000	-1.2386716596e+000
 1.4385093074e+000	 1.1257915171e+000	-1.3126894508e+000
 1.4260283442e+000	 1.1415598314e+000	-1.3833495025e+000
 1.4133667960e+000	 1.1571992558e+000	-1.4500185120e+000
 1.4005266610e+000	 1.1727067085e+000	-1.5119960134e+000
 1.3875100072e+000	 1.1880791493e+000	-1.5685149071e+000
 1.3743189713e+000	 1.2033135815e+000	-1.6187421601e+000
 1.3609557572e+000	 1.2184070535e+000	-1.6617796841e+000
 1.5082929480e+000	 1.0769893328e+000	-9.9368379394e-001
 1.4963814841e+000	 1.0934789035e+000	-1.0725801375e+000
 1.4842794153e+000	 1.1098505889e+000	-1.1499751939e+000
 1.4719884768e+000	 1.1261011144e+000	-1.2254488769e+000
 1.4595104780e+000	 1.1422272395e+000	-1.2985133622e+000
 1.4468473020e+000	 1.1582257595e+000	-1.3686130360e+000
 1.4340009045e+000	 1.1740935079e+000	-1.4351245975e+000
 1.4209733130e+000	 1.1898273579e+000	-1.4973573211e+000
 1.4077666258e+000	 1.2054242250e+000	-1.5545534875e+000
 1.3943830105e+000	 1.2208810686e+000	-1.6058889878e+000
 1.3808247033e+000	 1.2361948942e+000	-1.6504741087e+000
 1.5299960587e+000	 1.0924863347e+000	-9.8531722650e-001
 1.5179131985e+000	 1.1092131770e+000	-1.0619532119e+000
 1.5056369908e+000	 1.1258204375e+000	-1.1374290443e+000
 1.4931691956e+000	 1.1423047949e+000	-1.2112956513e+000
 1.4805116485e+000	 1.1586629619e+000	-1.2830366050e+000
 1.4676662597e+000	 1.1748916877e+000	-1.3520680314e+000
 1.4546350130e+000	 1.1909877600e+000	-1.4177386729e+000
 1.4414199651e+000	 1.2069480074e+000	-1.4793301123e+000
 1.4280232443e+000	 1.2227693007e+000	-1.5360571663e+000
 1.4144470496e+000	 1.2384485557e+000	-1.5870684546e+000
 1.4006936495e+000	 1.2539827349e+000	-1.6314471532e+000
 1.5516991694e+000	 1.1079833366e+000	-9.7712148334e-001
 1.5394449129e+000	 1.1249474504e+000	-1.0514420940e+000
 1.5269945662e+000	 1.1417902862e+000	-1.1249342048e+000
 1.5143499144e+000	 1.1585084755e+000	-1.1970822409e+000
 1.5015128191e+000	 1.1750986843e+000	-1.2673039846e+000
 1.4884852174e+000	 1.1915576158e+000	-1.3349505060e+000
 1.4752691215e+000	 1.2078820122e+000	-1.3993062468e+000
 1.4618666171e+000	 1.2240686568e+000	-1.4595892640e+000
 1.4482798629e+000	 1.2401143764e+000	-1.5149516456e+000
 1.4345110888e+000	 1.2560160429e+000	-1.5644801037e+000
 1.4205625956e+000	 1.2717705755e+000	-1.6071967537e+000
 1.5734022801e+000	 1.1234803385e+000	-9.6957658506e-001
 1.5609766273e+000	 1.1406817238e+000	-1.0416563638e+000
 1.5483521417e+000	 1.1577601349e+000	-1.1132409390e+000
 1.5355306332e+000	 1.1747121560e+000	-1.1837122815e+000
 1.5225139896e+000	 1.1915344067e+000	-1.2523867546e+000
 1.5093041752e+000	 1.2082235439e+000	-1.3185151245e+000
 1.4959032300e+000	 1.2247762643e+000	-1.3812827212e+000
 1.4823132692e+000	 1.2411893063e+000	-1.4398097607e+000
 1.4685364814e+000	 1.2574594521e+000	-1.4931518385e+000
 1.4545751280e+000	 1.2735835300e+000	-1.5403006034e+000
 1.4404315418e+000	 1.2895584161e+000	-1.5801846182e+000
 1.5951053908e+000	 1.1389773404e+000	-9.6320942860e-001
 1.5825083417e+000	 1.1564159973e+000	-1.0332478353e+000
 1.5697097171e+000	 1.1737299836e+000	-1.1031365187e+000
 1.5567113521e+000	 1.1909158366e+000	-1.1721205334e+000
 1.5435151602e+000	 1.2079701291e+000	-1.2393806782e+000
 1.5301231329e+000	 1.2248894720e+000	-1.3040336395e+000
 1.5165373385e+000	 1.2416705164e+000	-1.3651322854e+000
 1.5027599212e+000	 1.2583099557e+000	-1.4216661207e+000
 1.4887930999e+000	 1.2748045278e+000	-1.4725619130e+000
 1.4746391672e+000	 1.2911510171e+000	-1.5166844999e+000
 1.4603004879e+000	 1.3073462568e+000	-1.5528377862e+000
 1.6168085014e+000	 1.1544743423e+000	-9.5859071773e-001
 1.6040400561e+000	 1.1721502707e+000	-1.0269076158e+000
 1.5910672926e+000	 1.1896998323e+000	-1.0954424551e+000
 1.5778920709e+000	 1.2071195171e+000	-1.1632703352e+000
 1.5645163307e+000	 1.2244058515e+000	-1.2294037586e+000
 1.5509420906e+000	 1.2415554001e+000	-1.2927929613e+000
 1.5371714470e+000	 1.2585647686e+000	-1.3523263923e+000
 1.5232065733e+000	 1.2754306052e+000	-1.4068313527e+000
 1.5090497185e+000	 1.2921496035e+000	-1.4550748075e+000
 1.4947032064e+000	 1.3087185043e+000	-1.4957643773e+000
 1.4801694341e+000	 1.3251340974e+000	-1.5275495230e+000
 1.6385116121e+000	 1.1699713442e+000	-9.5633170036e-001
 1.6255717704e+000	 1.1878845441e+000	-1.0233629492e+000
 1.6124248680e+000	 1.2056696810e+000	-1.0910114903e+000
 1.5990727897e+000	 1.2233231977e+000	-1.1581507880e+000
 1.5855175013e+000	 1.2408415739e+000	-1.2235936692e+000
 1.5717610484e+000	 1.2582213282e+000	-1.2860928912e+000
 1.5578055555e+000	 1.2754590207e+000	-1.3443418565e+000
 1.5436532253e+000	 1.2925512546e+000	-1.3969754868e+000
 1.5293063370e+000	 1.3094946792e+000	-1.4425712686e+000
 1.5147672456e+000	 1.3262859914e+000	-1.4796504799e+000
 1.5000383802e+000	 1.3429219381e+000	-1.5075796256e+000
 1.6602147228e+000	 1.1854683461e+000	-9.5708073025e-001
 1.6471034848e+000	 1.2036188176e+000	-1.0233738659e+000
 1.6337824434e+000	 1.2216395297e+000	-1.0907243719e+000
 1.6202535085e+000	 1.2395268783e+000	-1.1577736988e+000
 1.6065186718e+000	 1.2572772963e+000	-1.2231049127e+000
 1.5925800061e+000	 1.2748872564e+000	-1.2852435488e+000
 1.5784396640e+000	 1.2923532728e+000	-1.3426586093e+000
 1.5640998774e+000	 1.3096719041e+000	-1.3937637193e+000
 1.5495629556e+000	 1.3268397549e+000	-1.4369184535e+000
 1.5348312848e+000	 1.3438534785e+000	-1.4714469758e+000
 1.5199073264e+000	 1.3607097787e+000	-1.4992079970e+000
 1.6819178335e+000	 1.2009653480e+000	-9.6151966900e-001
 1.6686351992e+000	 1.2193530910e+000	-1.0277296540e+000
 1.6551400189e+000	 1.2376093784e+000	-1.0954864294e+000
 1.6414342274e+000	 1.2557305588e+000	-1.1631703009e+000
 1.6275198424e+000	 1.2737130187e+000	-1.2291057309e+000
 1.6133989638e+000	 1.2915531845e+000	-1.2915625212e+000
 1.5990737725e+000	 1.3092475249e+000	-1.3487571401e+000
 1.5845465294e+000	 1.3267925536e+000	-1.3988542055e+000
 1.5698195741e+000	 1.3441848306e+000	-1.4409779499e+000
 1.5548953239e+000	 1.3614209657e+000	-1.4766793385e+000
 1.5397762725e+000	 1.3784976194e+000	-1.5037358487e+000
 1.3410868110e+000	 1.2006192129e+000	-1.6628274211e+000
 1.3277532754e+000	 1.2153483688e+000	-1.6989167515e+000
 1.3142546640e+000	 1.2299329922e+000	-1.7396567886e+000
 1.3005933408e+000	 1.2443703222e+000	-1.7836840768e+000
 1.2867717309e+000	 1.2586576498e+000	-1.8284480479e+000
 1.2727923194e+000	 1.2727923194e+000	-1.8713490909e+000
 1.2586576498e+000	 1.2867717309e+000	-1.9097452894e+000
 1.2443703222e+000	 1.3005933408e+000	-1.9409594983e+000
 1.2299329922e+000	 1.3142546640e+000	-1.9622867360e+000
 1.2153483688e+000	 1.3277532754e+000	-1.9710018667e+000
 1.2006192129e+000	 1.3410868110e+000	-1.9651454793e+000
 1.3609557572e+000	 1.2184070535e+000	-1.6617796841e+000
 1.3474246778e+000	 1.2333544301e+000	-1.7023331186e+000
 1.3337260770e+000	 1.2481551328e+000	-1.7437122461e+000
 1.3198623537e+000	 1.2628063599e+000	-1.7861808801e+000
 1.3058359689e+000	 1.2773053621e+000	-1.8305307662e+000
 1.2916494447e+000	 1.2916494447e+000	-1.8738157123e+000
 1.2773053621e+000	 1.3058359689e+000	-1.9130439602e+000
 1.2628063599e+000	 1.3198623537e+000	-1.9451894967e+000
 1.2481551328e+000	 1.3337260770e+000	-1.9672026561e+000
 1.2333544301e+000	 1.3474246778e+000	-1.9785098996e+000
 1.2184070535e+000	 1.3609557572e+000	-1.9779647450e+000
 1.3808247033e+000	 1.2361948942e+000	-1.6504741087e+000
 1.3670960803e+000	 1.2513604914e+000	-1.6936775169e+000
 1.3531974900e+000	 1.2663772734e+000	-1.7393101427e+000
 1.3391313666e+000	 1.2812423975e+000	-1.7840649715e+000
 1.3249002070e+000	 1.2959530744e+000	-1.8259004242e+000
 1.3105065700e+000	 1.3105065700e+000	-1.8670106897e+000
 1.2959530744e+000	 1.3249002070e+000	-1.9047768512e+000
 1.2812423975e+000	 1.3391313666e+000	-1.9363468833e+000
 1.2663772734e+000	 1.3531974900e+000	-1.9619821268e+000
 1.2513604914e+000	 1.3670960803e+000	-1.9788362803e+000
 1.2361948942e+000	 1.3808247033e+000	-1.9831981854e+000
 1.4006936495e+000	 1.2539827349e+000	-1.6314471532e+000
 1.3867674827e+000	 1.2693665527e+000	-1.6752195579e+000
 1.3726689030e+000	 1.2845994140e+000	-1.7227861063e+000
 1.3584003795e+000	 1.2996784352e+000	-1.7707103809e+000
 1.3439644451e+000	 1.3146007868e+000	-1.8155423261e+000
 1.3293636953e+000	 1.3293636953e+000	-1.8540978531e+000
 1.3146007868e+000	 1.3439644451e+000	-1.8895774410e+000
 1.2996784352e+000	 1.3584003795e+000	-1.9239086373e+000
 1.2845994140e+000	 1.3726689030e+000	-1.9533972144e+000
 1.2693665527e+000	 1.3867674827e+000	-1.9741785129e+000
 1.2539827349e+000	 1.4006936495e+000	-1.9824157900e+000
 1.4205625956e+000	 1.2717705755e+000	-1.6071967537e+000
 1.4064388851e+000	 1.2873726140e+000	-1.6497512485e+000
 1.3921403160e+000	 1.3028215546e+000	-1.6971891338e+000
 1.3776693924e+000	 1.3181144728e+000	-1.7460457898e+000
 1.3630286831e+000	 1.3332484991e+000	-1.7928413951e+000
 1.3482208207e+000	 1.3482208207e+000	-1.8366637149e+000
 1.3332484991e+000	 1.3630286831e+000	-1.8763207516e+000
 1.3181144728e+000	 1.3776693924e+000	-1.9117640291e+000
 1.3028215546e+000	 1.3921403160e+000	-1.9429080671e+000
 1.2873726140e+000	 1.4064388851e+000	-1.9658528112e+000
 1.2717705755e+000	 1.4205625956e+000	-1.9767239441e+000
 1.4404315418e+000	 1.2895584161e+000	-1.5801846182e+000
 1.4261102875e+000	 1.3053786752e+000	-1.6200153452e+000
 1.4116117290e+000	 1.3210436951e+000	-1.6655080933e+000
 1.3969384052e+000	 1.3365505104e+000	-1.7133868232e+000
 1.3820929212e+000	 1.3518962114e+000	-1.7637137309e+000
 1.3670779460e+000	 1.3670779460e+000	-1.8143059979e+000
 1.3518962114e+000	 1.3820929212e+000	-1.8612816328e+000
 1.3365505104e+000	 1.3969384052e+000	-1.9008067749e+000
 1.3210436951e+000	 1.4116117290e+000	-1.9315052216e+000
 1.3053786752e+000	 1.4261102875e+000	-1.9547167930e+000
 1.2895584161e+000	 1.4404315418e+000	-1.9667853961e+000
 1.4603004879e+000	 1.3073462568e+000	-1.5528377862e+000
 1.4457816899e+000	 1.3233847365e+000	-1.5887077108e+000
 1.4310831420e+000	 1.3392658357e+000	-1.6310600462e+000
 1.4162074181e+000	 1.3549865481e+000	-1.6804784308e+000
 1.4011571593e+000	 1.3705439238e+000	-1.7342803542e+000
 1.3859350713e+000	 1.3859350713e+000	-1.7887271461e+000
 1.3705439238e+000	 1.4011571593e+000	-1.8401200727e+000
 1.3549865481e+000	 1.4162074181e+000	-1.8848061733e+000
 1.3392658357e+000	 1.4310831420e+000	-1.9191840063e+000
 1.3233847365e+000	 1.4457816899e+000	-1.9411896307e+000
 1.3073462568e+000	 1.4603004879e+000	-1.9528384354e+000
 1.4801694341e+000	 1.3251340974e+000	-1.5275495230e+000
 1.4654530924e+000	 1.3413907978e+000	-1.5591523186e+000
 1.4505545550e+000	 1.3574879763e+000	-1.6014331360e+000
 1.4354764310e+000	 1.3734225857e+000	-1.6515763290e+000
 1.4202213973e+000	 1.3891916361e+000	-1.7060876359e+000
 1.4047921966e+000	 1.4047921966e+000	-1.7615037075e+000
 1.3891916361e+000	 1.4202213973e+000	-1.8143975635e+000
 1.3734225857e+000	 1.4354764310e+000	-1.8613839725e+000
 1.3574879763e+000	 1.4505545550e+000	-1.8991247471e+000
 1.3413907978e+000	 1.4654530924e+000	-1.9243339417e+000
 1.3251340974e+000	 1.4801694341e+000	-1.9347153577e+000
 1.5000383802e+000	 1.3429219381e+000	-1.5075796256e+000
 1.4851244948e+000	 1.3593968591e+000	-1.5383742218e+000
 1.4700259680e+000	 1.3757101169e+000	-1.5795534147e+000
 1.4547454439e+000	 1.3918586234e+000	-1.6279676223e+000
 1.4392856354e+000	 1.4078393485e+000	-1.6804888868e+000
 1.4236493219e+000	 1.4236493219e+000	-1.7340157633e+000
 1.4078393485e+000	 1.4392856354e+000	-1.7854781497e+000
 1.3918586234e+000	 1.4547454439e+000	-1.8318420476e+000
 1.3757101169e+000	 1.4700259680e+000	-1.8701142448e+000
 1.3593968591e+000	 1.4851244948e+000	-1.8973469104e+000
 1.3429219381e+000	 1.5000383802e+000	-1.9106420923e+000
 1.5199073264e+000	 1.3607097787e+000	-1.4992079970e+000
 1.5047958972e+000	 1.3774029203e+000	-1.5283540782e+000
 1.4894973809e+000	 1.3939322574e+000	-1.5664372536e+000
 1.4740144568e+000	 1.4102946610e+000	-1.6107637111e+000
 1.4583498735e+000	 1.4264870608e+000	-1.6586564025e+000
 1.4425064473e+000	 1.4425064473e+000	-1.7074591372e+000
 1.4264870608e+000	 1.4583498735e+000	-1.7545406236e+000
 1.4102946610e+000	 1.4740144568e+000	-1.7972984510e+000
 1.3939322574e+000	 1.4894973809e+000	-1.8331630018e+000
 1.3774029203e+000	 1.5047958972e+000	-1.8596012884e+000
 1.3607097787e+000	 1.5199073264e+000	-1.8741207057e+000
 1.5397762725e+000	 1.3784976194e+000	-1.5037358487e+000
 1.5244672996e+000	 1.3954089816e+000	-1.5298327863e+000
 1.5089687939e+000	 1.4121543980e+000	-1.5629431046e+000
 1.4932834697e+000	 1.4287306986e+000	-1.6009113264e+000
 1.4774141115e+000	 1.4451347731e+000	-1.6415928189e+000
 1.4613635726e+000	 1.4613635726e+000	-1.6828569320e+000
 1.4451347731e+000	 1.4774141115e+000	-1.7225900923e+000
 1.4287306986e+000	 1.4932834697e+000	-1.7586988474e+000
 1.4121543980e+000	 1.5089687939e+000	-1.7891128551e+000
 1.3954089816e+000	 1.5244672996e+000	-1.8117878088e+000
 1.3784976194e+000	 1.5397762725e+000	-1.8247082975e+000
 1.2006192129e+000	 1.3410868110e+000	-1.9651454793e+000
 1.1857460943e+000	 1.3542549321e+000	-1.9564505413e+000
 1.1707340736e+000	 1.3672533887e+000	-1.9542589398e+000
 1.1555860590e+000	 1.3800800090e+000	-1.9566585161e+000
 1.1403050036e+000	 1.3927326875e+000	-1.9617682820e+000
 1.1248939033e+000	 1.4052093865e+000	-1.9677436774e+000
 1.1093557947e+000	 1.4175081369e+000	-1.9727818035e+000
 1.0936937532e+000	 1.4296270391e+000	-1.9751266140e+000
 1.0779108915e+000	 1.4415642644e+000	-1.9730740457e+000
 1.0620103567e+000	 1.4533180553e+000	-1.9649770714e+000
 1.0459953290e+000	 1.4648867267e+000	-1.9492506562e+000
 1.2184070535e+000	 1.3609557572e+000	-1.9779647450e+000
 1.2033135815e+000	 1.3743189713e+000	-1.9733531571e+000
 1.1880791493e+000	 1.3875100072e+000	-1.9736337125e+000
 1.1727067085e+000	 1.4005266610e+000	-1.9771053753e+000
 1.1571992558e+000	 1.4133667960e+000	-1.9820897514e+000
 1.1415598314e+000	 1.4260283442e+000	-1.9869361709e+000
 1.1257915171e+000	 1.4385093074e+000	-1.9900267658e+000
 1.1098974338e+000	 1.4508077579e+000	-1.9897815248e+000
 1.0938807402e+000	 1.4629218399e+000	-1.9846633064e+000
 1.0777446301e+000	 1.4748497697e+000	-1.9731827930e+000
 1.0614923309e+000	 1.4865898373e+000	-1.9539033674e+000
 1.2361948942e+000	 1.3808247033e+000	-1.9831981854e+000
 1.2208810686e+000	 1.3943830105e+000	-1.9823946128e+000
 1.2054242250e+000	 1.4077666258e+000	-1.9851777610e+000
 1.1898273579e+000	 1.4209733130e+000	-1.9900065370e+000
 1.1740935079e+000	 1.4340009045e+000	-1.9953541901e+000
 1.1582257595e+000	 1.4468473020e+000	-1.9997133046e+000
 1.1422272395e+000	 1.4595104780e+000	-2.0016008062e+000
 1.1261011144e+000	 1.4719884768e+000	-1.9995629631e+000
 1.1098505889e+000	 1.4842794153e+000	-1.9921803637e+000
 1.0934789035e+000	 1.4963814841e+000	-1.9780728514e+000
 1.0769893328e+000	 1.5082929480e+000	-1.9559043992e+000
 1.2539827349e+000	 1.4006936495e+000	-1.9824157900e+000
 1.2384485557e+000	 1.4144470496e+000	-1.9848901903e+000
 1.2227693007e+000	 1.4280232443e+000	-1.9899682407e+000
 1.2069480074e+000	 1.4414199651e+000	-1.9962193936e+000
 1.1909877600e+000	 1.4546350130e+000	-2.0022193515e+000
 1.1748916877e+000	 1.4676662597e+000	-2.0065550543e+000
 1.1586629619e+000	 1.4805116485e+000	-2.0078296967e+000
 1.1423047949e+000	 1.4931691956e+000	-2.0046677583e+000
 1.1258204375e+000	 1.5056369908e+000	-1.9957200246e+000
 1.1092131770e+000	 1.5179131985e+000	-1.9796685809e+000
 1.0924863347e+000	 1.5299960587e+000	-1.9552317617e+000
 1.2717705755e+000	 1.4205625956e+000	-1.9767239441e+000
 1.2560160429e+000	 1.4345110888e+000	-1.9817095134e+000
 1.2401143764e+000	 1.4482798629e+000	-1.9886539739e+000
 1.2240686568e+000	 1.4618666171e+000	-1.9961896012e+000
 1.2078820122e+000	 1.4752691215e+000	-2.0029470158e+000
 1.1915576158e+000	 1.4884852174e+000	-2.0075602482e+000
 1.1750986843e+000	 1.5015128191e+000	-2.0086718495e+000
 1.1585084755e+000	 1.5143499144e+000	-2.0049380289e+000
 1.1417902862e+000	 1.5269945662e+000	-1.9950337973e+000
 1.1249474504e+000	 1.5394449129e+000	-1.9776580973e+000
 1.1079833366e+000	 1.5516991694e+000	-1.9515389015e+000
 1.2895584161e+000	 1.4404315418e+000	-1.9667853961e+000
 1.2735835300e+000	 1.4545751280e+000	-1.9732953149e+000
 1.2574594521e+000	 1.4685364814e+000	-1.9814730507e+000
 1.2411893063e+000	 1.4823132692e+000	-1.9899675546e+000
 1.2247762643e+000	 1.4959032300e+000	-1.9974183877e+000
 1.2082235439e+000	 1.5093041752e+000	-2.0024609441e+000
 1.1915344067e+000	 1.5225139896e+000	-2.0037317348e+000
 1.1747121560e+000	 1.5355306332e+000	-1.9998737117e+000
 1.1577601349e+000	 1.5483521417e+000	-1.9895416103e+000
 1.1406817238e+000	 1.5609766273e+000	-1.9714072909e+000
 1.1234803385e+000	 1.5734022801e+000	-1.9441650594e+000
 1.3073462568e+000	 1.4603004879e+000	-1.9528384354e+000
 1.2911510171e+000	 1.4746391672e+000	-1.9596815108e+000
 1.2748045278e+000	 1.4887930999e+000	-1.9682698278e+000
 1.2583099557e+000	 1.5027599212e+000	-1.9772243489e+000
 1.2416705164e+000	 1.5165373385e+000	-1.9851490639e+000
 1.2248894720e+000	 1.5301231329e+000	-1.9906364519e+000
 1.2079701291e+000	 1.5435151602e+000	-1.9922730167e+000
 1.1909158366e+000	 1.5567113521e+000	-1.9886448744e+000
 1.1737299836e+000	 1.5697097171e+000	-1.9783433707e+000
 1.1564159973e+000	 1.5825083417e+000	-1.9599707078e+000
 1.1389773404e+000	 1.5951053908e+000	-1.9321455588e+000
 1.3251340974e+000	 1.4801694341e+000	-1.9347153577e+000
 1.3087185043e+000	 1.4947032064e+000	-1.9405106469e+000
 1.2921496035e+000	 1.5090497185e+000	-1.9485113847e+000
 1.2754306052e+000	 1.5232065733e+000	-1.9572672762e+000
 1.2585647686e+000	 1.5371714470e+000	-1.9653036101e+000
 1.2415554001e+000	 1.5509420906e+000	-1.9711270368e+000
 1.2244058515e+000	 1.5645163307e+000	-1.9732314334e+000
 1.2071195171e+000	 1.5778920709e+000	-1.9701038303e+000
 1.1896998323e+000	 1.5910672926e+000	-1.9602303783e+000
 1.1721502707e+000	 1.6040400561e+000	-1.9421023327e+000
 1.1544743423e+000	 1.6168085014e+000	-1.9142220321e+000
 1.3429219381e+000	 1.5000383802e+000	-1.9106420923e+000
 1.3262859914e+000	 1.5147672456e+000	-1.9150507757e+000
 1.3094946792e+000	 1.5293063370e+000	-1.9213034837e+000
 1.2925512546e+000	 1.5436532253e+000	-1.9290549001e+000
 1.2754590207e+000	 1.5578055555e+000	-1.9367097841e+000
 1.2582213282e+000	 1.5717610484e+000	-1.9426473317e+000
 1.2408415739e+000	 1.5855175013e+000	-1.9452274454e+000
 1.2233231977e+000	 1.5990727897e+000	-1.9427970753e+000
 1.2056696810e+000	 1.6124248680e+000	-1.9336966083e+000
 1.1878845441e+000	 1.6255717704e+000	-1.9162662804e+000
 1.1699713442e+000	 1.6385116121e+000	-1.8888525907e+000
 1.3607097787e+000	 1.5199073264e+000	-1.8741207057e+000
 1.3438534785e+000	 1.5348312848e+000	-1.8808901300e+000
 1.3268397549e+000	 1.5495629556e+000	-1.8854060833e+000
 1.3096719041e+000	 1.5640998774e+000	-1.8912117468e+000
 1.2923532728e+000	 1.5784396640e+000	-1.8978724372e+000
 1.2748872564e+000	 1.5925800061e+000	-1.9035994856e+000
 1.2572772963e+000	 1.6065186718e+000	-1.9065786735e+000
 1.2395268783e+000	 1.6202535085e+000	-1.9049770619e+000
 1.2216395297e+000	 1.6337824434e+000	-1.8969498738e+000
 1.2036188176e+000	 1.6471034848e+000	-1.8806474058e+000
 1.1854683461e+000	 1.6602147228e+000	-1.8542219439e+000
 1.3784976194e+000	 1.5397762725e+000	-1.8247082975e+000
 1.3614209657e+000	 1.5548953239e+000	-1.8319402300e+000
 1.3441848306e+000	 1.5698195741e+000	-1.8380102265e+000
 1.3267925536e+000	 1.5845465294e+000	-1.8420426475e+000
 1.3092475249e+000	 1.5990737725e+000	-1.8469871232e+000
 1.2915531845e+000	 1.6133989638e+000	-1.8520860724e+000
 1.2737130187e+000	 1.6275198424e+000	-1.8553121450e+000
 1.2557305588e+000	 1.6414342274e+000	-1.8546138256e+000
 1.2376093784e+000	 1.6551400189e+000	-1.8479228807e+000
 1.2193530910e+000	 1.6686351992e+000	-1.8331618382e+000
 1.2009653480e+000	 1.6819178335e+000	-1.8082514712e+000
 1.0459953290e+000	 1.4648867267e+000	-1.9492506562e+000
 1.0298690189e+000	 1.4762686658e+000	-1.9308345263e+000
 1.0136346645e+000	 1.4874623321e+000	-1.9148540493e+000
 9.9729552980e-001	 1.4984662587e+000	-1.9001097248e+000
 9.8085490370e-001	 1.5092790533e+000	-1.8854605147e+000
 9.6431609743e-001	 1.5198993990e+000	-1.8698570279e+000
 9.4768244256e-001	 1.5303260540e+000	-1.8523271280e+000
 9.3095728892e-001	 1.5405578528e+000	-1.8319842494e+000
 9.1414400241e-001	 1.5505937056e+000	-1.8080310725e+000
 8.9724596293e-001	 1.5604325990e+000	-1.7797629800e+000
 8.8026656221e-001	 1.5700735960e+000	-1.7465712832e+000
 1.0614923309e+000	 1.4865898373e+000	-1.9539033674e+000
 1.0451271006e+000	 1.4981404063e+000	-1.9319189872e+000
 1.0286522252e+000	 1.5094999130e+000	-1.9124365543e+000
 1.0120710171e+000	 1.5206668688e+000	-1.8942808748e+000
 9.9538681402e-001	 1.5316398610e+000	-1.8763524529e+000
 9.7860297614e-001	 1.5424175529e+000	-1.8576092464e+000
 9.6172288443e-001	 1.5529986847e+000	-1.8371032847e+000
 9.4474993835e-001	 1.5633820732e+000	-1.8139640148e+000
 9.2768755366e-001	 1.5735666128e+000	-1.7874070734e+000
 9.1053916034e-001	 1.5835512749e+000	-1.7567378868e+000
 8.9330820037e-001	 1.5933351085e+000	-1.7213550440e+000
 1.0769893328e+000	 1.5082929480e+000	-1.9559043992e+000
 1.0603851823e+000	 1.5200121467e+000	-1.9309557657e+000
 1.0436697858e+000	 1.5315374938e+000	-1.9085657660e+000
 1.0268465044e+000	 1.5428674789e+000	-1.8875685262e+000
 1.0099187243e+000	 1.5540006687e+000	-1.8668702501e+000
 9.9288985485e-001	 1.5649357069e+000	-1.8454326662e+000
 9.7576332631e-001	 1.5756713154e+000	-1.8223075207e+000
 9.5854258778e-001	 1.5862062937e+000	-1.7966215948e+000
 9.4123110491e-001	 1.5965395200e+000	-1.7675852708e+000
 9.2383235774e-001	 1.6066699508e+000	-1.7344963014e+000
 9.0634983852e-001	 1.6165966211e+000	-1.6967433540e+000
 1.0924863347e+000	 1.5299960587e+000	-1.9552317617e+000
 1.0756432639e+000	 1.5418838871e+000	-1.9279028622e+000
 1.0586873465e+000	 1.5535750746e+000	-1.9031954049e+000
 1.0416219918e+000	 1.5650680890e+000	-1.8799329937e+000
 1.0244506346e+000	 1.5763614763e+000	-1.8570028577e+000
 1.0071767336e+000	 1.5874538609e+000	-1.8333668320e+000
 9.8980376818e-001	 1.5983439460e+000	-1.8080422111e+000
 9.7233523721e-001	 1.6090305142e+000	-1.7801399353e+000
 9.5477465616e-001	 1.6195124272e+000	-1.7488472714e+000
 9.3712555515e-001	 1.6297886266e+000	-1.7134369120e+000
 9.1939147667e-001	 1.6398581337e+000	-1.6732707144e+000
 1.1079833366e+000	 1.5516991694e+000	-1.9515389015e+000
 1.0909013456e+000	 1.5637556276e+000	-1.9224013224e+000
 1.0737049072e+000	 1.5756126554e+000	-1.8959692195e+000
 1.0563974791e+000	 1.5872686991e+000	-1.8710362409e+000
 1.0389825450e+000	 1.5987222840e+000	-1.8464570902e+000
 1.0214636123e+000	 1.6099720149e+000	-1.8211524694e+000
 1.0038442101e+000	 1.6210165767e+000	-1.7941209055e+000
 9.8612788664e-001	 1.6318547346e+000	-1.7644166258e+000
 9.6831820741e-001	 1.6424853344e+000	-1.7311920232e+000
 9.5041875256e-001	 1.6529073025e+000	-1.6936776540e+000
 9.3243311482e-001	 1.6631196463e+000	-1.6511919688e+000
 1.1234803385e+000	 1.5734022801e+000	-1.9441650594e+000
 1.1061594272e+000	 1.5856273680e+000	-1.9137850250e+000
 1.0887224679e+000	 1.5976502362e+000	-1.8862302424e+000
 1.0711729664e+000	 1.6094693093e+000	-1.8602453533e+000
 1.0535144553e+000	 1.6210830917e+000	-1.8346337973e+000
 1.0357504910e+000	 1.6324901689e+000	-1.8082629960e+000
 1.0178846519e+000	 1.6436892074e+000	-1.7800693700e+000
 9.9992053607e-001	 1.6546789551e+000	-1.7490711488e+000
 9.8186175866e-001	 1.6654582416e+000	-1.7143428112e+000
 9.6371194997e-001	 1.6760259784e+000	-1.6750625063e+000
 9.4547475298e-001	 1.6863811589e+000	-1.6304889569e+000
 1.1389773404e+000	 1.5951053908e+000	-1.9321455588e+000
 1.1214175089e+000	 1.6074991084e+000	-1.9010904367e+000
 1.1037400286e+000	 1.6196878171e+000	-1.8730300450e+000
 1.0859484537e+000	 1.6316699194e+000	-1.8466413297e+000
 1.0680463656e+000	 1.6434438993e+000	-1.8206580759e+000
 1.0500373697e+000	 1.6550083229e+000	-1.7938763617e+000
 1.0319250938e+000	 1.6663618381e+000	-1.7651598424e+000
 1.0137131855e+000	 1.6775031755e+000	-1.7334448520e+000
 9.9540530991e-001	 1.6884311488e+000	-1.6977543505e+000
 9.7700514737e-001	 1.6991446542e+000	-1.6571683862e+000
 9.5851639113e-001	 1.7096426715e+000	-1.6108772626e+000
 1.1544743423e+000	 1.6168085014e+000	-1.9142220321e+000
 1.1366755906e+000	 1.6293708489e+000	-1.8830663368e+000
 1.1187575892e+000	 1.6417253979e+000	-1.8551379906e+000
 1.1007239411e+000	 1.6538705295e+000	-1.8290278956e+000
 1.0825782759e+000	 1.6658047070e+000	-1.8033821222e+000
 1.0643242484e+000	 1.6775264769e+000	-1.7769076581e+000
 1.0459655357e+000	 1.6890344687e+000	-1.7483779881e+000
 1.0275058349e+000	 1.7003273960e+000	-1.7166384861e+000
 1.0089488612e+000	 1.7114040560e+000	-1.6806199693e+000
 9.9029834478e-001	 1.7222633301e+000	-1.6393121328e+000
 9.7155802928e-001	 1.7329041841e+000	-1.5918130456e+000
 1.1699713442e+000	 1.6385116121e+000	-1.8888525907e+000
 1.1519336722e+000	 1.6512425893e+000	-1.8581835145e+000
 1.1337751499e+000	 1.6637629787e+000	-1.8310504865e+000
 1.1154994284e+000	 1.6760711396e+000	-1.8059403396e+000
 1.0971101862e+000	 1.6881655147e+000	-1.7813936815e+000
 1.0786111271e+000	 1.7000446309e+000	-1.7560109658e+000
 1.0600059775e+000	 1.7117070994e+000	-1.7284583903e+000
 1.0412984844e+000	 1.7231516164e+000	-1.6974736048e+000
 1.0224924124e+000	 1.7343769632e+000	-1.6618712126e+000
 1.0035915422e+000	 1.7453820060e+000	-1.6205575714e+000
 9.8459966744e-001	 1.7561656967e+000	-1.5724999504e+000
 1.1854683461e+000	 1.6602147228e+000	-1.8542219439e+000
 1.1671917539e+000	 1.6731143297e+000	-1.8246444417e+000
 1.1487927106e+000	 1.6858005595e+000	-1.7990002343e+000
 1.1302749157e+000	 1.6982717497e+000	-1.7756543675e+000
 1.1116420965e+000	 1.7105263223e+000	-1.7530245364e+000
 1.0928980058e+000	 1.7225627848e+000	-1.7295875037e+000
 1.0740464194e+000	 1.7343797301e+000	-1.7038853415e+000
 1.0550911338e+000	 1.7459758369e+000	-1.6745314779e+000
 1.0360359637e+000	 1.7573498703e+000	-1.6402165312e+000
 1.0168847396e+000	 1.7685006818e+000	-1.5997139173e+000
 9.9764130559e-001	 1.7794272093e+000	-1.5518960841e+000
 1.2009653480e+000	 1.6819178335e+000	-1.8082514712e+000
 1.1824498355e+000	 1.6949860702e+000	-1.7803929232e+000
 1.1638102713e+000	 1.7078381404e+000	-1.7569654802e+000
 1.1450504030e+000	 1.7204723598e+000	-1.7361949758e+000
 1.1261740068e+000	 1.7328871300e+000	-1.7163590273e+000
 1.1071848845e+000	 1.7450809388e+000	-1.6957938259e+000
 1.0880868613e+000	 1.7570523608e+000	-1.6729007451e+000
 1.0688837832e+000	 1.7688000574e+000	-1.6461527488e+000
 1.0495795149e+000	 1.7803227775e+000	-1.6141005795e+000
 1.0301779370e+000	 1.7916193577e+000	-1.5753787140e+000
 1.0106829438e+000	 1.8026887218e+000	-1.5287110676e+000
 8.8026656221e-001	 1.5700735960e+000	-1.7465712832e+000
 8.6321176607e-001	 1.5795144344e+000	-1.7111581387e+000
 8.4608244213e-001	 1.5887557923e+000	-1.6759857529e+000
 8.2888200447e-001	 1.5977969630e+000	-1.6402621549e+000
 8.1161387061e-001	 1.6066373155e+000	-1.6033135075e+000
 7.9428145945e-001	 1.6152762950e+000	-1.5645869214e+000
 7.7688818926e-001	 1.6237134218e+000	-1.5236529575e+000
 7.5943747564e-001	 1.6319482913e+000	-1.4802078097e+000
 7.4193272950e-001	 1.6399805736e+000	-1.4340751649e+000
 7.2437735518e-001	 1.6478100126e+000	-1.3852077361e+000
 7.0677474842e-001	 1.6554364262e+000	-1.3336884660e+000
 8.9330820037e-001	 1.5933351085e+000	-1.7213550440e+000
 8.7600072794e-001	 1.6029158183e+000	-1.6841420461e+000
 8.5861762355e-001	 1.6122940921e+000	-1.6476714685e+000
 8.4116235185e-001	 1.6214692126e+000	-1.6110536230e+000
 8.2363838099e-001	 1.6304405399e+000	-1.5735205366e+000
 8.0604918054e-001	 1.6392075107e+000	-1.5344290468e+000
 7.8839821939e-001	 1.6477696382e+000	-1.4932635714e+000
 7.7068896374e-001	 1.6561265119e+000	-1.4496385484e+000
 7.5292487508e-001	 1.6642777969e+000	-1.4033005402e+000
 7.3510940813e-001	 1.6722232334e+000	-1.3541299979e+000
 7.1724600897e-001	 1.6799626365e+000	-1.3021426840e+000
 9.0634983852e-001	 1.6165966211e+000	-1.6967433540e+000
 8.8878968982e-001	 1.6263172021e+000	-1.6574484725e+000
 8.7115280498e-001	 1.6358323918e+000	-1.6193646653e+000
 8.5344269924e-001	 1.6451414623e+000	-1.5815071197e+000
 8.3566289138e-001	 1.6542437644e+000	-1.5430162844e+000
 8.1781690162e-001	 1.6631387264e+000	-1.5031612413e+000
 7.9990824952e-001	 1.6718258546e+000	-1.4613427411e+000
 7.8194045185e-001	 1.6803047325e+000	-1.4170958966e+000
 7.6391702065e-001	 1.6885750202e+000	-1.3700925291e+000
 7.4584146108e-001	 1.6966364542e+000	-1.3201431620e+000
 7.2771726952e-001	 1.7044888469e+000	-1.2671986597e+000
 9.1939147667e-001	 1.6398581337e+000	-1.6732707144e+000
 9.0157865169e-001	 1.6497185860e+000	-1.6317583325e+000
 8.8368798640e-001	 1.6593706915e+000	-1.5918946433e+000
 8.6572304662e-001	 1.6688137120e+000	-1.5526017891e+000
 8.4768740177e-001	 1.6780469888e+000	-1.5129306828e+000
 8.2958462271e-001	 1.6870699421e+000	-1.4720646539e+000
 8.1141827964e-001	 1.6958820710e+000	-1.4293227462e+000
 7.9319193996e-001	 1.7044829530e+000	-1.3841626628e+000
 7.7490916622e-001	 1.7128722434e+000	-1.3361833518e+000
 7.5657351403e-001	 1.7210496750e+000	-1.2851272268e+000
 7.3818853007e-001	 1.7290150572e+000	-1.2308820212e+000
 9.3243311482e-001	 1.6631196463e+000	-1.6511919688e+000
 9.1436761356e-001	 1.6731199699e+000	-1.6074736186e+000
 8.9622316782e-001	 1.6829089912e+000	-1.5658126388e+000
 8.7800339400e-001	 1.6924859617e+000	-1.5250397190e+000
 8.5971191215e-001	 1.7018502132e+000	-1.4841177916e+000
 8.4135234380e-001	 1.7110011578e+000	-1.4421459474e+000
 8.2292830977e-001	 1.7199382875e+000	-1.3983629945e+000
 8.0444342807e-001	 1.7286611736e+000	-1.3521506517e+000
 7.8590131179e-001	 1.7371694667e+000	-1.3030363708e+000
 7.6730556697e-001	 1.7454628958e+000	-1.2506957832e+000
 7.4865979062e-001	 1.7535412676e+000	-1.1949547666e+000
 9.4547475298e-001	 1.6863811589e+000	-1.6304889569e+000
 9.2715657544e-001	 1.6965213537e+000	-1.5847239397e+000
 9.0875834925e-001	 1.7064472909e+000	-1.5413982423e+000
 8.9028374139e-001	 1.7161582113e+000	-1.4992522329e+000
 8.7173642254e-001	 1.7256534376e+000	-1.4571619553e+000
 8.5312006488e-001	 1.7349323735e+000	-1.4141433131e+000
 8.3443833989e-001	 1.7439945039e+000	-1.3693558854e+000
 8.1569491618e-001	 1.7528393942e+000	-1.3221063663e+000
 7.9689345736e-001	 1.7614666900e+000	-1.2718516228e+000
 7.7803761992e-001	 1.7698761166e+000	-1.2182013638e+000
 7.5913105116e-001	 1.7780674779e+000	-1.1609204188e+000
 9.5851639113e-001	 1.7096426715e+000	-1.6108772626e+000
 9.3994553731e-001	 1.7199227376e+000	-1.5633731463e+000
 9.2129353067e-001	 1.7299855906e+000	-1.5186658954e+000
 9.0256408877e-001	 1.7398304610e+000	-1.4754062512e+000
 8.8376093293e-001	 1.7494566620e+000	-1.4323840241e+000
 8.6488778597e-001	 1.7588635892e+000	-1.3885325427e+000
 8.4594837002e-001	 1.7680507203e+000	-1.3429327240e+000
 8.2694640429e-001	 1.7770176148e+000	-1.2948167566e+000
 8.0788560293e-001	 1.7857639133e+000	-1.2435713904e+000
 7.8876967287e-001	 1.7942893373e+000	-1.1887408282e+000
 7.6960231171e-001	 1.8025936882e+000	-1.1300292135e+000
 9.7155802928e-001	 1.7329041841e+000	-1.5918130456e+000
 9.5273449919e-001	 1.7433241214e+000	-1.5430260325e+000
 9.3382871209e-001	 1.7535238903e+000	-1.4973714573e+000
 9.1484443615e-001	 1.7635027107e+000	-1.4534107172e+000
 8.9578544332e-001	 1.7732598864e+000	-1.4098476313e+000
 8.7665550706e-001	 1.7827948048e+000	-1.3655331508e+000
 8.5745840015e-001	 1.7921069367e+000	-1.3194696815e+000
 8.3819789240e-001	 1.8011958353e+000	-1.2708150071e+000
 8.1887774850e-001	 1.8100611366e+000	-1.2188858099e+000
 7.9950172581e-001	 1.8187025581e+000	-1.1631607811e+000
 7.8007357226e-001	 1.8271198986e+000	-1.1032833167e+000
 9.8459966744e-001	 1.7561656967e+000	-1.5724999504e+000
 9.6552346106e-001	 1.7667255053e+000	-1.5230351088e+000
 9.4636389352e-001	 1.7770621900e+000	-1.4770188365e+000
 9.2712478354e-001	 1.7871749603e+000	-1.4329230816e+000
 9.0780995370e-001	 1.7970631108e+000	-1.3893655240e+000
 8.8842322815e-001	 1.8067260205e+000	-1.3451145448e+000
 8.6896843027e-001	 1.8161631531e+000	-1.2990937961e+000
 8.4944938051e-001	 1.8253740559e+000	-1.2503863633e+000
 8.2986989407e-001	 1.8343583599e+000	-1.1982385128e+000
 8.1023377876e-001	 1.8431157789e+000	-1.1420630196e+000
 7.9054483281e-001	 1.8516461089e+000	-1.0814420696e+000
 9.9764130559e-001	 1.7794272093e+000	-1.5518960841e+000
 9.7831242294e-001	 1.7901268891e+000	-1.5025074382e+000
 9.5889907494e-001	 1.8006004897e+000	-1.4568666798e+000
 9.3940513092e-001	 1.8108472100e+000	-1.4133558383e+000
 9.1983446409e-001	 1.8208663352e+000	-1.3705059409e+000
 9.0019094924e-001	 1.8306572362e+000	-1.3270022371e+000
 8.8047846040e-001	 1.8402193695e+000	-1.2816890132e+000
 8.6070086862e-001	 1.8495522765e+000	-1.2335739904e+000
 8.4086203964e-001	 1.8586555832e+000	-1.1818322964e+000
 8.2096583171e-001	 1.8675289997e+000	-1.1258100082e+000
 8.0101609336e-001	 1.8761723193e+000	-1.0650272582e+000
 1.0106829438e+000	 1.8026887218e+000	-1.5287110676e+000
 9.9110138481e-001	 1.8135282730e+000	-1.4803115311e+000
 9.7143425637e-001	 1.8241387894e+000	-1.4359351153e+000
 9.5168547831e-001	 1.8345194597e+000	-1.3938831101e+000
 9.3185897448e-001	 1.8446695596e+000	-1.3525990330e+000
 9.1195867032e-001	 1.8545884519e+000	-1.3106840954e+000
 8.9198849053e-001	 1.8642755859e+000	-1.2669022588e+000
 8.7195235673e-001	 1.8737304971e+000	-1.2201848635e+000
 8.5185418521e-001	 1.8829528065e+000	-1.1696348230e+000
 8.3169788466e-001	 1.8919422205e+000	-1.1145303779e+000
 8.1148735391e-001	 1.9006985296e+000	-1.0543284048e+000
 7.0677474842e-001	 1.6554364262e+000	-1.3336884660e+000
 6.8912564429e-001	 1.6628608034e+000	-1.2833519801e+000
 6.7143605513e-001	 1.6700819490e+000	-1.2378907666e+000
 6.5370934202e-001	 1.6770998984e+000	-1.1960087182e+000
 6.3594884997e-001	 1.6839147584e+000	-1.1540126947e+000
 6.1815790620e-001	 1.6905267052e+000	-1.1113296346e+000
 6.0033981835e-001	 1.6969359845e+000	-1.0677416680e+000
 5.8249787284e-001	 1.7031429098e+000	-1.0232171379e+000
 5.6463533321e-001	 1.7091478619e+000	-9.7791139507e-001
 5.4675543847e-001	 1.7149512879e+000	-9.3216636419e-001
 5.2886140161e-001	 1.7205536997e+000	-8.8650892870e-001
 7.1724600897e-001	 1.6799626365e+000	-1.3021426840e+000
 6.9933542355e-001	 1.6874970101e+000	-1.2513989676e+000
 6.8138375330e-001	 1.6948251409e+000	-1.2057273113e+000
 6.6339440909e-001	 1.7019470652e+000	-1.1649079248e+000
 6.4537078549e-001	 1.7088628910e+000	-1.1255032403e+000
 6.2731625900e-001	 1.7155727975e+000	-1.0853333970e+000
 6.0923418628e-001	 1.7220770338e+000	-1.0440136045e+000
 5.9112790244e-001	 1.7283759182e+000	-1.0013638758e+000
 5.7300071935e-001	 1.7344698370e+000	-9.5740994744e-001
 5.5485592404e-001	 1.7403592440e+000	-9.1238284597e-001
 5.3669677708e-001	 1.7460446586e+000	-8.6671715245e-001
 7.2771726952e-001	 1.7044888469e+000	-1.2671986597e+000
 7.0954520282e-001	 1.7121332167e+000	-1.2155619073e+000
 6.9133145148e-001	 1.7195683327e+000	-1.1692208351e+000
 6.7307947616e-001	 1.7267942319e+000	-1.1278602545e+000
 6.5479272100e-001	 1.7338110237e+000	-1.0902041180e+000
 6.3647461180e-001	 1.7406188898e+000	-1.0520542391e+000
 6.1812855421e-001	 1.7472180832e+000	-1.0125632054e+000
 5.9975793203e-001	 1.7536089266e+000	-9.7141667994e-001
 5.8136610550e-001	 1.7597918121e+000	-9.2852558131e-001
 5.6295640962e-001	 1.7657672001e+000	-8.8402561053e-001
 5.4453215256e-001	 1.7715356175e+000	-8.3827534990e-001
 7.3818853007e-001	 1.7290150572e+000	-1.2308820212e+000
 7.1975498208e-001	 1.7367694233e+000	-1.1780042887e+000
 7.0127914966e-001	 1.7443115246e+000	-1.1306589874e+000
 6.8276454324e-001	 1.7516413986e+000	-1.0883614830e+000
 6.6421465652e-001	 1.7587591563e+000	-1.0507536731e+000
 6.4563296460e-001	 1.7656649822e+000	-1.0142355706e+000
 6.2702292214e-001	 1.7723591325e+000	-9.7620983052e-001
 6.0838796163e-001	 1.7788419349e+000	-9.3624103222e-001
 5.8973149165e-001	 1.7851137872e+000	-8.9413948628e-001
 5.7105689519e-001	 1.7911751561e+000	-8.4996068154e-001
 5.5236752804e-001	 1.7970265765e+000	-8.0400316864e-001
 7.4865979062e-001	 1.7535412676e+000	-1.1949547666e+000
 7.2996476135e-001	 1.7614056299e+000	-1.1406293875e+000
 7.1122684783e-001	 1.7690547165e+000	-1.0920735819e+000
 6.9244961031e-001	 1.7764885653e+000	-1.0486432531e+000
 6.7363659204e-001	 1.7837072890e+000	-1.0098759363e+000
 6.5479131740e-001	 1.7907110745e+000	-9.7435889051e-001
 6.3591729007e-001	 1.7975001819e+000	-9.3753265860e-001
 6.1701799122e-001	 1.8040749433e+000	-8.9848406825e-001
 5.9809687779e-001	 1.8104357623e+000	-8.5693647890e-001
 5.7915738076e-001	 1.8165831122e+000	-8.1287985696e-001
 5.6020290351e-001	 1.8225175354e+000	-7.6656839237e-001
 7.5913105116e-001	 1.7780674779e+000	-1.1609204188e+000
 7.4017454062e-001	 1.7860418365e+000	-1.1050851929e+000
 7.2117454600e-001	 1.7937979084e+000	-1.0552452436e+000
 7.0213467738e-001	 1.8013357320e+000	-1.0106061689e+000
 6.8305852755e-001	 1.8086554216e+000	-9.7056187699e-001
 6.6394967020e-001	 1.8157571668e+000	-9.3463634120e-001
 6.4481165800e-001	 1.8226412312e+000	-8.9886352118e-001
 6.2564802082e-001	 1.8293079517e+000	-8.6056759450e-001
 6.0646226394e-001	 1.8357577374e+000	-8.1939810290e-001
 5.8725786634e-001	 1.8419910683e+000	-7.7529379078e-001
 5.6803827899e-001	 1.8480084943e+000	-7.2847990007e-001
 7.6960231171e-001	 1.8025936882e+000	-1.1300292135e+000
 7.5038431988e-001	 1.8106780431e+000	-1.0727693688e+000
 7.3112224418e-001	 1.8185411003e+000	-1.0217080923e+000
 7.1181974445e-001	 1.8261828987e+000	-9.7590904931e-001
 6.9248046307e-001	 1.8336035543e+000	-9.3463048160e-001
 6.7310802300e-001	 1.8408032591e+000	-8.9732696468e-001
 6.5370602593e-001	 1.8477822806e+000	-8.6227983793e-001
 6.3427805041e-001	 1.8545409601e+000	-8.2468123576e-001
 6.1482765009e-001	 1.8610797125e+000	-7.8379589514e-001
 5.9535835191e-001	 1.8673990244e+000	-7.3952528144e-001
 5.7587365447e-001	 1.8734994532e+000	-6.9208087916e-001
 7.8007357226e-001	 1.8271198986e+000	-1.1032833167e+000
 7.6059409915e-001	 1.8353142497e+000	-1.0448342428e+000
 7.4106994236e-001	 1.8432842922e+000	-9.9275445953e-001
 7.2150481152e-001	 1.8510300654e+000	-9.4597332369e-001
 7.0190239858e-001	 1.8585516869e+000	-9.0362063283e-001
 6.8226637580e-001	 1.8658493514e+000	-8.6502871146e-001
 6.6260039386e-001	 1.8729233299e+000	-8.2959764339e-001
 6.4290808001e-001	 1.8797739685e+000	-7.9277570089e-001
 6.2319303624e-001	 1.8864016876e+000	-7.5218480171e-001
 6.0345883748e-001	 1.8928069804e+000	-7.0770274770e-001
 5.8370902994e-001	 1.8989904121e+000	-6.5954226876e-001
 7.9054483281e-001	 1.8516461089e+000	-1.0814420696e+000
 7.7080387841e-001	 1.8599504564e+000	-1.0221918235e+000
 7.5101764053e-001	 1.8680274841e+000	-9.6943963459e-001
 7.3118987860e-001	 1.8758772322e+000	-9.2198746489e-001
 7.1132433410e-001	 1.8834998196e+000	-8.7884318593e-001
 6.9142472860e-001	 1.8908954437e+000	-8.3922299002e-001
 6.7149476179e-001	 1.8980643793e+000	-8.0255328598e-001
 6.5153810961e-001	 1.9050069769e+000	-7.6655615588e-001
 6.3155842238e-001	 1.9117236627e+000	-7.2639673022e-001
 6.1155932306e-001	 1.9182149365e+000	-6.8175387455e-001
 5.9154440542e-001	 1.9244813711e+000	-6.3285641181e-001
 8.0101609336e-001	 1.8761723193e+000	-1.0650272582e+000
 7.8101365768e-001	 1.8845866630e+000	-1.0055188415e+000
 7.6096533871e-001	 1.8927706760e+000	-9.5258663882e-001
 7.4087494567e-001	 1.9007243989e+000	-9.0491145595e-001
 7.2074626962e-001	 1.9084479522e+000	-8.6138508674e-001
 7.0058308140e-001	 1.9159415361e+000	-8.2111304619e-001
 6.8038912972e-001	 1.9232054286e+000	-7.8341677394e-001
 6.6016813920e-001	 1.9302399853e+000	-7.4747569427e-001
 6.3992380853e-001	 1.9370456378e+000	-7.0803422589e-001
 6.1965980863e-001	 1.9436228926e+000	-6.6339941349e-001
 5.9937978090e-001	 1.9499723300e+000	-6.1383089679e-001
 8.1148735391e-001	 1.9006985296e+000	-1.0543284048e+000
 7.9122343695e-001	 1.9092228696e+000	-9.9526181206e-001
 7.7091303689e-001	 1.9175138679e+000	-9.4279102413e-001
 7.5056001275e-001	 1.9255715656e+000	-8.9548128739e-001
 7.3016820514e-001	 1.9333960849e+000	-8.5211352945e-001
 7.0974143420e-001	 1.9409876284e+000	-8.1168741050e-001
 6.8928349765e-001	 1.9483464780e+000	-7.7342383235e-001
 6.6879816880e-001	 1.9554729937e+000	-7.3676690575e-001
 6.4828919468e-001	 1.9623676129e+000	-6.9846426014e-001
 6.2776029421e-001	 1.9690308487e+000	-6.5414712327e-001
 6.0721515638e-001	 1.9754632889e+000	-6.0408257200e-001
 5.2886140161e-001	 1.7205536997e+000	-8.8650892870e-001
 5.1095640776e-001	 1.7259556728e+000	-8.3888043307e-001
 4.9304361203e-001	 1.7311578440e+000	-7.8749881411e-001
 4.7512613887e-001	 1.7361609110e+000	-7.3359082475e-001
 4.5720708096e-001	 1.7409656323e+000	-6.7857469066e-001
 4.3928949790e-001	 1.7455728252e+000	-6.2405240393e-001
 4.2137641493e-001	 1.7499833653e+000	-5.7180122476e-001
 4.0347082167e-001	 1.7541981846e+000	-5.2376447196e-001
 3.8557567101e-001	 1.7582182705e+000	-4.8204168480e-001
 3.6769387793e-001	 1.7620446643e+000	-4.4887823974e-001
 3.4982831845e-001	 1.7656784599e+000	-4.2665450597e-001
 5.3669677708e-001	 1.7460446586e+000	-8.6671715245e-001
 5.1852651081e-001	 1.7515266650e+000	-8.1872007362e-001
 5.0034832706e-001	 1.7568059092e+000	-7.6698473004e-001
 4.8216539658e-001	 1.7618830995e+000	-7.1268705230e-001
 4.6398085787e-001	 1.7667590053e+000	-6.5721223054e-001
 4.4579781587e-001	 1.7714344564e+000	-6.0214636899e-001
 4.2761934061e-001	 1.7759103411e+000	-5.4926726792e-001
 4.0944846605e-001	 1.7801876053e+000	-5.0053442185e-001
 3.9128818879e-001	 1.7842672510e+000	-4.5807832455e-001
 3.7314146701e-001	 1.7881503349e+000	-4.2418917252e-001
 3.5501121934e-001	 1.7918379672e+000	-4.0130505899e-001
 5.4453215256e-001	 1.7715356175e+000	-8.3827534990e-001
 5.2609661385e-001	 1.7770976571e+000	-7.8997172900e-001
 5.0765304208e-001	 1.7824539744e+000	-7.3808953304e-001
 4.8920465428e-001	 1.7876052879e+000	-6.8374526590e-001
 4.7075463478e-001	 1.7925523784e+000	-6.2828331238e-001
 4.5230613383e-001	 1.7972960876e+000	-5.7326691597e-001
 4.3386226630e-001	 1.8018373169e+000	-5.2046819786e-001
 4.1542611042e-001	 1.8061770260e+000	-4.7185731456e-001
 3.9700070657e-001	 1.8103162315e+000	-4.2959085319e-001
 3.7858905609e-001	 1.8142560056e+000	-3.9599956485e-001
 3.6019412023e-001	 1.8179974745e+000	-3.7357553691e-001
 5.5236752804e-001	 1.7970265765e+000	-8.0400316864e-001
 5.3366671690e-001	 1.8026686493e+000	-7.5537712771e-001
 5.1495775711e-001	 1.8081020396e+000	-7.0344603981e-001
 4.9624391199e-001	 1.8133274763e+000	-6.4925953323e-001
 4.7752841169e-001	 1.8183457514e+000	-5.9411467000e-001
 4.5881445179e-001	 1.8231577187e+000	-5.3954620364e-001
 4.4010519199e-001	 1.8277642926e+000	-4.8731578610e-001
 4.2140375480e-001	 1.8321664466e+000	-4.3940023003e-001
 4.0271322434e-001	 1.8363652119e+000	-3.9797893492e-001
 3.8403664517e-001	 1.8403616762e+000	-3.6542058686e-001
 3.6537702112e-001	 1.8441569818e+000	-3.4426924199e-001
 5.6020290351e-001	 1.8225175354e+000	-7.6656839237e-001
 5.4123681994e-001	 1.8282396415e+000	-7.1754876078e-001
 5.2226247213e-001	 1.8337501048e+000	-6.6558073153e-001
 5.0328316970e-001	 1.8390496648e+000	-6.1164075030e-001
 4.8430218860e-001	 1.8441391245e+000	-5.5697328146e-001
 4.6532276975e-001	 1.8490193499e+000	-5.0308029677e-001
 4.4634811767e-001	 1.8536912684e+000	-4.5170961457e-001
 4.2738139917e-001	 1.8581558673e+000	-4.0484220569e-001
 4.0842574212e-001	 1.8624141924e+000	-3.6467858427e-001
 3.8948423424e-001	 1.8664673468e+000	-3.3362440329e-001
 3.7055992201e-001	 1.8703164891e+000	-3.1427537488e-001
 5.6803827899e-001	 1.8480084943e+000	-7.2847990007e-001
 5.4880692299e-001	 1.8538106336e+000	-6.7896261218e-001
 5.2956718716e-001	 1.8593981700e+000	-6.2690614984e-001
 5.1032242740e-001	 1.8647718532e+000	-5.7320860035e-001
 4.9107596551e-001	 1.8699324975e+000	-5.1905779129e-001
 4.7183108771e-001	 1.8748809811e+000	-4.6591995481e-001
 4.5259104336e-001	 1.8796182442e+000	-4.1552713739e-001
 4.3335904355e-001	 1.8841452879e+000	-3.6986348140e-001
 4.1413825989e-001	 1.8884631729e+000	-3.3115050746e-001
 3.9493182332e-001	 1.8925730174e+000	-3.0183152801e-001
 3.7574282290e-001	 1.8964759965e+000	-2.8455532295e-001
 5.7587365447e-001	 1.8734994532e+000	-6.9208087916e-001
 5.5637702603e-001	 1.8793816258e+000	-6.4195119658e-001
 5.3687190219e-001	 1.8850462353e+000	-5.8971366002e-001
 5.1736168511e-001	 1.8904940416e+000	-5.3618394585e-001
 4.9784974242e-001	 1.8957258705e+000	-4.8249043722e-001
 4.7833940568e-001	 1.9007426122e+000	-4.3006200263e-001
 4.5883396905e-001	 1.9055452200e+000	-3.8061440759e-001
 4.3933668792e-001	 1.9101347086e+000	-3.3613549718e-001
 4.1985077767e-001	 1.9145121533e+000	-2.9886928959e-001
 4.0037941240e-001	 1.9186786880e+000	-2.7129912251e-001
 3.8092572379e-001	 1.9226355038e+000	-2.5612999497e-001
 5.8370902994e-001	 1.8989904121e+000	-6.5954226876e-001
 5.6394712908e-001	 1.9049526179e+000	-6.0869687582e-001
 5.4417661721e-001	 1.9106943005e+000	-5.5616654694e-001
 5.2440094282e-001	 1.9162162300e+000	-5.0268161269e-001
 5.0462351933e-001	 1.9215192436e+000	-4.4930943429e-001
 4.8484772364e-001	 1.9266042434e+000	-3.9744122848e-001
 4.6507689473e-001	 1.9314721957e+000	-3.4877740601e-001
 4.4531433230e-001	 1.9361241293e+000	-3.0531157306e-001
 4.2556329545e-001	 1.9405611338e+000	-2.6931334830e-001
 4.0582700148e-001	 1.9447843586e+000	-2.4331014940e-001
 3.8610862468e-001	 1.9487950111e+000	-2.3006810383e-001
 5.9154440542e-001	 1.9244813711e+000	-6.3285641181e-001
 5.7151723213e-001	 1.9305236101e+000	-5.8122542798e-001
 5.5148133224e-001	 1.9363423657e+000	-5.2829341276e-001
 5.3144020053e-001	 1.9419384185e+000	-4.7470353042e-001
 5.1139729624e-001	 1.9473126166e+000	-4.2146177369e-001
 4.9135604160e-001	 1.9524658746e+000	-3.6992276048e-001
 4.7131982042e-001	 1.9573991715e+000	-3.2177391675e-001
 4.5129197667e-001	 1.9621135499e+000	-2.7901820769e-001
 4.3127581323e-001	 1.9666101143e+000	-2.4395558280e-001
 4.1127459056e-001	 1.9708900293e+000	-2.1916330180e-001
 3.9129152557e-001	 1.9749545184e+000	-2.0747530939e-001
 5.9937978090e-001	 1.9499723300e+000	-6.1383089679e-001
 5.7908733518e-001	 1.9560946022e+000	-5.6139984623e-001
 5.5878604727e-001	 1.9619904309e+000	-5.0798184895e-001
 5.3847945824e-001	 1.9676606069e+000	-4.5413219575e-001
 5.1817107315e-001	 1.9731059897e+000	-4.0079639857e-001
 4.9786435957e-001	 1.9783275057e+000	-3.4929487760e-001
 4.7756274611e-001	 1.9833261473e+000	-3.0130589904e-001
 4.5726962105e-001	 1.9881029706e+000	-2.5884693925e-001
 4.3698833100e-001	 1.9926590947e+000	-2.2425465450e-001
 4.1672217963e-001	 1.9969956999e+000	-2.0016363754e-001
 3.9647442646e-001	 2.0011140257e+000	-1.8950230629e-001
 6.0721515638e-001	 1.9754632889e+000	-6.0408257200e-001
 5.8665743822e-001	 1.9816655944e+000	-5.5091434634e-001
 5.6609076229e-001	 1.9876384961e+000	-4.9697235761e-001
 5.4551871594e-001	 1.9933827953e+000	-4.4272443027e-001
 5.2494485006e-001	 1.9988993627e+000	-3.8905772262e-001
 5.0437267753e-001	 2.0041891369e+000	-3.3758857429e-001
 4.8380567180e-001	 2.0092531230e+000	-2.9057984944e-001
 4.6324726543e-001	 2.0140923913e+000	-2.4988652750e-001
 4.4270084878e-001	 2.0187080752e+000	-2.1764013628e-001
 4.2216976871e-001	 2.0231013705e+000	-1.9625198967e-001
 4.0165732735e-001	 2.0272735331e+000	-1.8839435239e-001
 3.4982831845e-001	 1.7656784599e+000	-4.2665450597e-001
 3.3198450320e-001	 1.7691203005e+000	-4.0491721545e-001
 3.1416254162e-001	 1.7723719412e+000	-3.7336430143e-001
 2.9636518172e-001	 1.7754346262e+000	-3.3476889232e-001
 2.7859512887e-001	 1.7783096463e+000	-2.9198041993e-001
 2.6085504501e-001	 1.7809983380e+000	-2.4791290374e-001
 2.4314754789e-001	 1.7835020816e+000	-2.0553327635e-001
 2.2547521035e-001	 1.7858223000e+000	-1.6784982037e-001
 2.0784055965e-001	 1.7879604570e+000	-1.3790078310e-001
 1.9024607690e-001	 1.7899180559e+000	-1.1874323170e-001
 1.7269419643e-001	 1.7916966383e+000	-1.1344220747e-001
 3.5501121934e-001	 1.7918379672e+000	-4.0130505899e-001
 3.3690303805e-001	 1.7953308006e+000	-3.7862574287e-001
 3.1881703421e-001	 1.7986306162e+000	-3.4549674659e-001
 3.0075599654e-001	 1.8017386765e+000	-3.0475672579e-001
 2.8272267048e-001	 1.8046562917e+000	-2.5932863577e-001
 2.6471975742e-001	 1.8073848178e+000	-2.1220699270e-001
 2.4674991390e-001	 1.8099256558e+000	-1.6644517447e-001
 2.2881575086e-001	 1.8122802495e+000	-1.2514283805e-001
 2.1091983301e-001	 1.8144500845e+000	-9.1433526175e-002
 1.9306467822e-001	 1.8164366863e+000	-6.8472532514e-002
 1.7525275689e-001	 1.8182416194e+000	-5.9425089367e-002
 3.6019412023e-001	 1.8179974745e+000	-3.7357553691e-001
 3.4182157291e-001	 1.8215413007e+000	-3.5115665239e-001
 3.2347152681e-001	 1.8248892912e+000	-3.1772248179e-001
 3.0514681135e-001	 1.8280427269e+000	-2.7617632228e-001
 2.8685021209e-001	 1.8310029370e+000	-2.2951497737e-001
 2.6858446984e-001	 1.8337712977e+000	-1.8081490218e-001
 2.5035227990e-001	 1.8363492300e+000	-1.3321838582e-001
 2.3215629136e-001	 1.8387381990e+000	-8.9919854968e-002
 2.1399910637e-001	 1.8409397119e+000	-5.4152378676e-002
 1.9588327954e-001	 1.8429553167e+000	-2.9174450150e-002
 1.7781131735e-001	 1.8447866005e+000	-1.8257115933e-002
 3.6537702112e-001	 1.8441569818e+000	-3.4426924199e-001
 3.4674010776e-001	 1.8477518008e+000	-3.2300501853e-001
 3.2812601940e-001	 1.8511479661e+000	-2.9024686978e-001
 3.0953762617e-001	 1.8543467772e+000	-2.4896353529e-001
 2.9097775370e-001	 1.8573495824e+000	-2.0222768185e-001
 2.7244918225e-001	 1.8601577775e+000	-1.5320083353e-001
 2.5395464591e-001	 1.8627728042e+000	-1.0511833511e-001
 2.3549683187e-001	 1.8651961485e+000	-6.1274441352e-002
 2.1707837973e-001	 1.8674293394e+000	-2.5007619809e-002
 1.9870188086e-001	 1.8694739471e+000	 3.1385017053e-004
 1.8036987781e-001	 1.8713315816e+000	 1.1305904685e-002
 3.7055992201e-001	 1.8703164891e+000	-3.1427537488e-001
 3.5165864261e-001	 1.8739623009e+000	-2.9477602148e-001
 3.3278051199e-001	 1.8774066411e+000	-2.6340794805e-001
 3.1392844099e-001	 1.8806508276e+000	-2.2320784654e-001
 2.9510529531e-001	 1.8836962278e+000	-1.7732797830e-001
 2.7631389466e-001	 1.8865442573e+000	-1.2901978241e-001
 2.5755701191e-001	 1.8891963783e+000	-8.1617513277e-002
 2.3883737238e-001	 1.8916540980e+000	-3.8522008426e-002
 2.2015765309e-001	 1.8939189669e+000	-3.1846825082e-003
 2.0152048219e-001	 1.8959925775e+000	 2.0908162004e-002
 1.8292843827e-001	 1.8978765627e+000	 3.0250622583e-002
 3.7574282290e-001	 1.8964759965e+000	-2.8455532295e-001
 3.5657717746e-001	 1.9001728010e+000	-2.6717015989e-001
 3.3743500458e-001	 1.9036653161e+000	-2.3766062647e-001
 3.1831925580e-001	 1.9069548779e+000	-1.9913561224e-001
 2.9923283692e-001	 1.9100428731e+000	-1.5483244931e-001
 2.8017860707e-001	 1.9129307371e+000	-1.0809908566e-001
 2.6115937792e-001	 1.9156199525e+000	-6.2376282831e-002
 2.4217791288e-001	 1.9181120475e+000	-2.1179948188e-002
 2.2323692645e-001	 1.9204085944e+000	 1.1916293325e-002
 2.0433908351e-001	 1.9225112079e+000	 3.3298189058e-002
 1.8548699874e-001	 1.9244215437e+000	 3.9327517385e-002
 3.8092572379e-001	 1.9226355038e+000	-2.5612999497e-001
 3.6149571232e-001	 1.9263833011e+000	-2.4096961157e-001
 3.4208949717e-001	 1.9299239910e+000	-2.1356212778e-001
 3.2271007062e-001	 1.9332589282e+000	-1.7709464010e-001
 3.0336037854e-001	 1.9363895185e+000	-1.3489680453e-001
 2.8404331949e-001	 1.9393172170e+000	-9.0421454219e-002
 2.6476174392e-001	 1.9420435267e+000	-4.7225235875e-002
 2.4551845339e-001	 1.9445699970e+000	-8.9493853226e-003
 2.2631619981e-001	 1.9468982219e+000	 2.0699243545e-002
 2.0715768483e-001	 1.9490298383e+000	 3.7966788297e-002
 1.8804555920e-001	 1.9509665248e+000	 3.9070524803e-002
 3.8610862468e-001	 1.9487950111e+000	-2.3006810383e-001
 3.6641424717e-001	 1.9525938012e+000	-2.1702563410e-001
 3.4674398976e-001	 1.9561826660e+000	-1.9175855393e-001
 3.2710088544e-001	 1.9595629786e+000	-1.5753997213e-001
 3.0748792015e-001	 1.9627361639e+000	-1.1780093349e-001
 2.8790803190e-001	 1.9657036968e+000	-7.6109352368e-002
 2.6836410993e-001	 1.9684671009e+000	-3.6148959063e-002
 2.4885899389e-001	 1.9710279465e+000	-1.6983898085e-003
 2.2939547317e-001	 1.9733878494e+000	 2.3389454801e-002
 2.0997628615e-001	 1.9755484687e+000	 3.5207665305e-002
 1.9060411966e-001	 1.9775115059e+000	 2.9815082396e-002
 3.9129152557e-001	 1.9749545184e+000	-2.0747530939e-001
 3.7133278202e-001	 1.9788043013e+000	-1.9624690912e-001
 3.5139848235e-001	 1.9824413410e+000	-1.7297247408e-001
 3.3149170025e-001	 1.9858670289e+000	-1.4102076147e-001
 3.1161546176e-001	 1.9890828092e+000	-1.0393511907e-001
 2.9177274431e-001	 1.9920901766e+000	-6.5410598560e-002
 2.7196647593e-001	 1.9948906751e+000	-2.9271074965e-002
 2.5219953440e-001	 1.9974858960e+000	 5.5348522887e-004
 2.3247474653e-001	 1.9998774768e+000	 2.0049471691e-002
 2.1279488748e-001	 2.0020670991e+000	 2.5196636945e-002
 1.9316268012e-001	 2.0040564870e+000	 1.2008325443e-002
 3.9647442646e-001	 2.0011140257e+000	-1.8950230629e-001
 3.7625131688e-001	 2.0050148014e+000	-1.7991744937e-001
 3.5605297494e-001	 2.0087000159e+000	-1.5883968221e-001
 3.3588251507e-001	 2.0121710793e+000	-1.2950492202e-001
 3.1574300337e-001	 2.0154294546e+000	-9.5335538295e-002
 2.9563745673e-001	 2.0184766564e+000	-5.9922801408e-002
 2.7556884194e-001	 2.0213142492e+000	-2.7009541631e-002
 2.5554007491e-001	 2.0239438455e+000	-4.7296601660e-004
 2.3555401989e-001	 2.0263671043e+000	 1.5692416982e-002
 2.1561348880e-001	 2.0285857295e+000	 1.7391812207e-002
 1.9572124058e-001	 2.0306014681e+000	 4.4713518270e-004
 4.0165732735e-001	 2.0272735331e+000	-1.8839435239e-001
 3.8116985173e-001	 2.0312253015e+000	-1.8121810280e-001
 3.6070746753e-001	 2.0349586909e+000	-1.6199910940e-001
 3.4027332989e-001	 2.0384751296e+000	-1.3394962832e-001
 3.1987054498e-001	 2.0417760999e+000	-1.0049179133e-001
 2.9950216914e-001	 2.0448631363e+000	-6.5240556281e-002
 2.7917120795e-001	 2.0477378234e+000	-3.1986847724e-002
 2.5888061541e-001	 2.0504017950e+000	-4.6808248626e-003
 2.3863329325e-001	 2.0528567318e+000	 1.2584782642e-002
 2.1843209012e-001	 2.0551043599e+000	 1.5591327197e-002
 1.9827980105e-001	 2.0571464492e+000	 1.0935952877e-005
 1.7269419643e-001	 1.7916966383e+000	-1.1344220747e-001
 1.5518468862e-001	 1.7932980092e+000	-1.0957493206e-001
 1.3772256032e-001	 1.7947235026e+000	-9.5420287677e-002
 1.2031013895e-001	 1.7959747663e+000	-7.5049551539e-002
 1.0294970236e-001	 1.7970534806e+000	-5.2463514265e-002
 8.5643478444e-002	 1.7979613563e+000	-3.1583375354e-002
 6.8393644903e-002	 1.7987001334e+000	-1.6242280958e-002
 5.1202329005e-002	 1.7992715798e+000	-1.0177528041e-002
 3.4071607412e-002	 1.7996774898e+000	-1.7023454147e-002
 1.7003506047e-002	 1.7999196823e+000	-4.0305027236e-002
 0.0000000000e+000	 1.8000000000e+000	-8.3432167342e-002
 1.7525275689e-001	 1.8182416194e+000	-5.9425089367e-002
 1.5748383600e-001	 1.8198667155e+000	-5.1280594539e-002
 1.3976299656e-001	 1.8213133283e+000	-3.1793239711e-002
 1.2209260050e-001	 1.8225831303e+000	-5.2241615454e-003
 1.0447495939e-001	 1.8236778263e+000	 2.4242383468e-002
 8.6912334157e-002	 1.8245991527e+000	 5.2508933273e-002
 6.9406934749e-002	 1.8253488752e+000	 7.5574033154e-002
 5.1960919955e-002	 1.8259287879e+000	 8.9540720698e-002
 3.4576397204e-002	 1.8263407116e+000	 9.0624261534e-002
 1.7255422436e-002	 1.8265864924e+000	 7.5159119800e-002
 0.0000000000e+000	 1.8266680000e+000	 3.9605130438e-002
 1.7781131735e-001	 1.8447866005e+000	-1.8257115933e-002
 1.5978298338e-001	 1.8464354218e+000	-7.7506994291e-003
 1.4180343280e-001	 1.8479031541e+000	 1.5187986015e-002
 1.2387506204e-001	 1.8491914942e+000	 4.6131710822e-002
 1.0600021643e-001	 1.8503021720e+000	 8.0734624413e-002
 8.8181189870e-002	 1.8512369490e+000	 1.1474305553e-001
 7.0420224594e-002	 1.8519976169e+000	 1.4400555114e-001
 5.2719510904e-002	 1.8525859960e+000	 1.6448212447e-001
 3.5081186996e-002	 1.8530039335e+000	 1.7225268857e-001
 1.7507338824e-002	 1.8532533024e+000	 1.6352465744e-001
 0.0000000000e+000	 1.8533360000e+000	 1.3463968048e-001
 1.8036987781e-001	 1.8713315816e+000	 1.1305904685e-002
 1.6208213075e-001	 1.8730041281e+000	 2.2285338446e-002
 1.4384386905e-001	 1.8744929799e+000	 4.6741394702e-002
 1.2565752359e-001	 1.8757998581e+000	 8.0101865700e-002
 1.0752547346e-001	 1.8769265177e+000	 1.1787862972e-001
 8.9450045582e-002	 1.8778747454e+000	 1.5567941844e-001
 7.1433514439e-002	 1.8786463587e+000	 1.8921876147e-001
 5.3478101853e-002	 1.8792432040e+000	 2.1432807537e-001
 3.5585976788e-002	 1.8796671553e+000	 2.2696487087e-001
 1.7759255212e-002	 1.8799201125e+000	 2.2322105823e-001
 0.0000000000e+000	 1.8800040000e+000	 1.9933031487e-001
 1.8292843827e-001	 1.8978765627e+000	 3.0250622583e-002
 1.6438127813e-001	 1.8995728343e+000	 3.9832620647e-002
 1.4588430529e-001	 1.9010828056e+000	 6.3815344801e-002
 1.2743998514e-001	 1.9024082221e+000	 9.7500098470e-002
 1.0905073050e-001	 1.9035508634e+000	 1.3627328620e-001
 9.0718901294e-002	 1.9045125418e+000	 1.7561923395e-001
 7.2446804284e-002	 1.9052951004e+000	 2.1113212338e-001
 5.4236692802e-002	 1.9059004121e+000	 2.3852700393e-001
 3.6090766580e-002	 1.9063303771e+000	 2.5364985338e-001
 1.8011171600e-002	 1.9065869225e+000	 2.5248666430e-001
 0.0000000000e+000	 1.9066720000e+000	 2.3117151893e-001
 1.8548699874e-001	 1.9244215437e+000	 3.9327517385e-002
 1.6668042550e-001	 1.9261415406e+000	 4.5652385332e-002
 1.4792474153e-001	 1.9276726314e+000	 6.7110156641e-002
 1.2922244669e-001	 1.9290165860e+000	 9.8891529109e-002
 1.1057598753e-001	 1.9301752090e+000	 1.3627172181e-001
 9.1987757006e-002	 1.9311503381e+000	 1.7462443928e-001
 7.3460094129e-002	 1.9319438422e+000	 2.0943488451e-001
 5.4995283751e-002	 1.9325576201e+000	 2.3631178053e-001
 3.6595556372e-002	 1.9329935990e+000	 2.5099836785e-001
 1.8263087988e-002	 1.9332537326e+000	 2.4938235265e-001
 0.0000000000e+000	 1.9333400000e+000	 2.2750476604e-001
 1.8804555920e-001	 1.9509665248e+000	 3.9070524803e-002
 1.6897957288e-001	 1.9527102469e+000	 4.0281860958e-002
 1.4996517778e-001	 1.9542624571e+000	 5.7097954661e-002
 1.3100490823e-001	 1.9556249499e+000	 8.4612187629e-002
 1.1210124456e-001	 1.9567995547e+000	 1.1800038248e-001
 9.3256612718e-002	 1.9577881345e+000	 1.5253600722e-001
 7.4473383974e-002	 1.9585925840e+000	 1.8360436079e-001
 5.5753874700e-002	 1.9592148282e+000	 2.0671569515e-001
 3.7100346163e-002	 1.9596568208e+000	 2.1751723756e-001
 1.8515004376e-002	 1.9599205426e+000	 2.1180408473e-001
 0.0000000000e+000	 1.9600080000e+000	 1.8552892708e-001
 1.9060411966e-001	 1.9775115059e+000	 2.9815082396e-002
 1.7127872026e-001	 1.9792789532e+000	 2.4052519468e-002
 1.5200561402e-001	 1.9808522829e+000	 3.4040909240e-002
 1.3278736978e-001	 1.9822333139e+000	 5.4787019465e-002
 1.1362650160e-001	 1.9834239004e+000	 8.1376569995e-002
 9.4525468430e-002	 1.9844259308e+000	 1.0899077951e-001
 7.5486673818e-002	 1.9852413257e+000	 1.3292182274e-001
 5.6512465649e-002	 1.9858720362e+000	 1.4858714895e-001
 3.7605135955e-002	 1.9863200426e+000	 1.5154262124e-001
 1.8766920764e-002	 1.9865873527e+000	 1.3749444503e-001
 0.0000000000e+000	 1.9866760000e+000	 1.0230984150e-001
 1.9316268012e-001	 2.0040564870e+000	 1.2008325443e-002
 1.7357786763e-001	 2.0058476595e+000	-2.0973204032e-003
 1.5404605026e-001	 2.0074421087e+000	-3.7627292729e-004
 1.3456983133e-001	 2.0088416778e+000	 1.2126027826e-002
 1.1515175863e-001	 2.0100482461e+000	 3.0409322484e-002
 9.5794324142e-002	 2.0110637272e+000	 4.9536418691e-002
 7.6499963663e-002	 2.0118900675e+000	 6.4651039400e-002
 5.7271056599e-002	 2.0125292443e+000	 7.0995639570e-002
 3.8109925747e-002	 2.0129832645e+000	 6.3929192819e-002
 1.9018837152e-002	 2.0132541627e+000	 3.8944944806e-002
 0.0000000000e+000	 2.0133440000e+000	-8.3118957213e-003
 1.9572124058e-001	 2.0306014681e+000	 4.4713518271e-004
 1.7587701501e-001	 2.0324163658e+000	-1.7307768010e-002
 1.5608648651e-001	 2.0340319344e+000	-1.8648308496e-002
 1.3635229287e-001	 2.0354500417e+000	-8.7313603716e-003
 1.1667701567e-001	 2.0366725918e+000	 7.3003719643e-003
 9.7063179855e-002	 2.0377015236e+000	 2.4336416299e-002
 7.7513253509e-002	 2.0385388092e+000	 3.7316651765e-002
 5.8029647548e-002	 2.0391864523e+000	 4.1249493645e-002
 3.8614715539e-002	 2.0396464863e+000	 3.1230147179e-002
 1.9270753540e-002	 2.0399209728e+000	 2.4589281754e-003
 0.0000000000e+000	 2.0400120000e+000	-4.9740378840e-002
 1.9827980105e-001	 2.0571464492e+000	 1.0935952877e-005
 1.7817616239e-001	 2.0589850721e+000	-1.5978227948e-002
 1.5812692275e-001	 2.0606217602e+000	-1.4730233105e-002
 1.3813475442e-001	 2.0620584056e+000	-1.4810331853e-003
 1.1820227270e-001	 2.0632969374e+000	 1.8513153413e-002
 9.8332035568e-002	 2.0643393199e+000	 3.9993995036e-002
 7.8526543355e-002	 2.0651875510e+000	 5.7719360120e-002
 5.8788238498e-002	 2.0658436604e+000	 6.6481804295e-002
 3.9119505332e-002	 2.0663097081e+000	 6.1127236644e-002
 1.9522669929e-002	 2.0665877828e+000	 3.6573764187e-002
 0.0000000000e+000	 2.0666800000e+000	-1.2169314634e-002
 2.0666800000e+000	 0.0000000000e+000	 3.1520602071e+000
 2.0665877828e+000	 1.9522669929e-002	 3.1043389785e+000
 2.0663097081e+000	 3.9119505332e-002	 3.0586559815e+000
 2.0658436604e+000	 5.8788238498e-002	 3.0146942803e+000
 2.0651875510e+000	 7.8526543355e-002	 2.9719372451e+000
 2.0643393199e+000	 9.8332035568e-002	 2.9296848726e+000
 2.0632969374e+000	 1.1820227270e-001	 2.8870699058e+000
 2.0620584056e+000	 1.3813475442e-001	 2.8430737530e+000
 2.0606217602e+000	 1.5812692275e-001	 2.7965422227e+000
 2.0589850721e+000	 1.7817616239e-001	 2.7462010983e+000
 2.0571464492e+000	 1.9827980105e-001	 2.6906715865e+000
 2.0933440000e+000	 0.0000000000e+000	 3.0087668213e+000
 2.0932505931e+000	 1.9774548532e-002	 2.9726903206e+000
 2.0929689307e+000	 3.9624219410e-002	 2.9383059262e+000
 2.0924968700e+000	 5.9546715666e-002	 2.9051712995e+000
 2.0918322956e+000	 7.9539681215e-002	 2.8726735669e+000
 2.0909731208e+000	 9.9600700963e-002	 2.8400458000e+000
 2.0899172897e+000	 1.1972730096e-001	 2.8063831355e+000
 2.0886627785e+000	 1.3991694861e-001	 2.7706585364e+000
 2.0872075977e+000	 1.6016705295e-001	 2.7317382142e+000
 2.0855497932e+000	 1.8047496491e-001	 2.6883967382e+000
 2.0836874487e+000	 2.0083797774e-001	 2.6393318738e+000
 2.1200080000e+000	 0.0000000000e+000	 2.8728843378e+000
 2.1199134033e+000	 2.0026427135e-002	 2.8445204151e+000
 2.1196281532e+000	 4.0128933488e-002	 2.8178852141e+000
 2.1191500797e+000	 6.0305192834e-002	 2.7923934768e+000
 2.1184770403e+000	 8.0552819076e-002	 2.7673200745e+000
 2.1176069217e+000	 1.0086936636e-001	 2.7418165611e+000
 2.1165376419e+000	 1.2125232922e-001	 2.7149271942e+000
 2.1152671514e+000	 1.4169914281e-001	 2.6856044280e+000
 2.1137934352e+000	 1.6220718314e-001	 2.6527238976e+000
 2.1121145144e+000	 1.8277376743e-001	 2.6150989287e+000
 2.1102284483e+000	 2.0339615444e-001	 2.5714946186e+000
 2.1466720000e+000	 0.0000000000e+000	 2.7428154637e+000
 2.1465762135e+000	 2.0278305739e-002	 2.7193001808e+000
 2.1462873758e+000	 4.0633647567e-002	 2.6978321075e+000
 2.1458032894e+000	 6.1063670002e-002	 2.6776677317e+000
 2.1451217849e+000	 8.1565956938e-002	 2.6579560337e+000
 2.1442407226e+000	 1.0213803175e-001	 2.6377550179e+000
 2.1431579941e+000	 1.2277735748e-001	 2.6160475277e+000
 2.1418715243e+000	 1.4348133700e-001	 2.5917563468e+000
 2.1403792726e+000	 1.6424731334e-001	 2.5637586121e+000
 2.1386792356e+000	 1.8507256995e-001	 2.5308995761e+000
 2.1367694478e+000	 2.0595433114e-001	 2.4920057712e+000
 2.1733360000e+000	 0.0000000000e+000	 2.6171476760e+000
 2.1732390237e+000	 2.0530184342e-002	 2.5966521874e+000
 2.1729465983e+000	 4.1138361646e-002	 2.5787038522e+000
 2.1724564990e+000	 6.1822147171e-002	 2.5623878566e+000
 2.1717665295e+000	 8.2579094799e-002	 2.5467161387e+000
 2.1708745235e+000	 1.0340669715e-001	 2.5306437948e+000
 2.1697783463e+000	 1.2430238574e-001	 2.5130845700e+000
 2.1684758971e+000	 1.4526353119e-001	 2.4929254351e+000
 2.1669651101e+000	 1.6628744353e-001	 2.4690402814e+000
 2.1652439568e+000	 1.8737137247e-001	 2.4403027761e+000
 2.1633104473e+000	 2.0851250784e-001	 2.4055984379e+000
 2.2000000000e+000	 0.0000000000e+000	 2.4946420236e+000
 2.1999018340e+000	 2.0782062946e-002	 2.4763411476e+000
 2.1996058209e+000	 4.1643075725e-002	 2.4611687461e+000
 2.1991097087e+000	 6.2580624339e-002	 2.4480280550e+000
 2.1984112742e+000	 8.3592232661e-002	 2.4357854179e+000
 2.1975083244e+000	 1.0467536255e-001	 2.4232864549e+000
 2.1963986986e+000	 1.2582741400e-001	 2.4093710993e+000
 2.1950802700e+000	 1.4704572539e-001	 2.3928875070e+000
 2.1935509476e+000	 1.6832757373e-001	 2.3727048739e+000
 2.1918086779e+000	 1.8967017500e-001	 2.3477252111e+000
 2.1898514469e+000	 2.1107068453e-001	 2.3168941462e+000
 2.2266640000e+000	 0.0000000000e+000	 2.3742227356e+000
 2.2265646442e+000	 2.1033941550e-002	 2.3582650914e+000
 2.2262650434e+000	 4.2147789804e-002	 2.3459987780e+000
 2.2257629184e+000	 6.3339101508e-002	 2.3361369461e+000
 2.2250560188e+000	 8.4605370523e-002	 2.3273945107e+000
 2.2241421253e+000	 1.0594402794e-001	 2.3185039598e+000
 2.2230190508e+000	 1.2735244226e-001	 2.3082297976e+000
 2.2216846429e+000	 1.4882791958e-001	 2.2953816296e+000
 2.2201367851e+000	 1.7036770392e-001	 2.2788259319e+000
 2.2183733991e+000	 1.9196897752e-001	 2.2574965596e+000
 2.2163924464e+000	 2.1362886123e-001	 2.2304040719e+000
 2.2533280000e+000	 0.0000000000e+000	 2.2549675661e+000
 2.2532274544e+000	 2.1285820153e-002	 2.2424471683e+000
 2.2529242659e+000	 4.2652503883e-002	 2.2340627906e+000
 2.2524161280e+000	 6.4097578677e-002	 2.2283319976e+000
 2.2517007635e+000	 8.5618508384e-002	 2.2238152840e+000
 2.2507759262e+000	 1.0721269334e-001	 2.2191313895e+000
 2.2496394030e+000	 1.2887747052e-001	 2.2129709965e+000
 2.2482890157e+000	 1.5061011377e-001	 2.2041088241e+000
 2.2467226226e+000	 1.7240783412e-001	 2.1914141629e+000
 2.2449381203e+000	 1.9426778004e-001	 2.1738599161e+000
 2.2429334459e+000	 2.1618703793e-001	 2.1505302328e+000
 2.2799920000e+000	 0.0000000000e+000	 2.1360988171e+000
 2.2798902646e+000	 2.1537698757e-002	 2.1290280241e+000
 2.2795834885e+000	 4.3157217962e-002	 2.1263201232e+000
 2.2790693377e+000	 6.4856055845e-002	 2.1262943513e+000
 2.2783455081e+000	 8.6631646245e-002	 2.1273567615e+000
 2.2774097270e+000	 1.0848135873e-001	 2.1280148999e+000
 2.2762597552e+000	 1.3040249878e-001	 2.1268905953e+000
 2.2748933886e+000	 1.5239230797e-001	 2.1227308792e+000
 2.2733084601e+000	 1.7444796431e-001	 2.1144170882e+000
 2.2715028415e+000	 1.9656658256e-001	 2.1009722216e+000
 2.2694744455e+000	 2.1874521463e-001	 2.0815666513e+000
 2.3066560000e+000	 0.0000000000e+000	 2.0169749841e+000
 2.3065530749e+000	 2.1789577360e-002	 2.0182587072e+000
 2.3062427110e+000	 4.3661932041e-002	 2.0238146973e+000
 2.3057225474e+000	 6.5614533013e-002	 2.0317640099e+000
 2.3049902527e+000	 8.7644784106e-002	 2.0403613394e+000
 2.3040435279e+000	 1.0975002413e-001	 2.0480089008e+000
 2.3028801075e+000	 1.3192752703e-001	 2.0532681361e+000
 2.3014977615e+000	 1.5417450216e-001	 2.0548692659e+000
 2.2998942975e+000	 1.7648809451e-001	 2.0517187445e+000
 2.2980675626e+000	 1.9886538508e-001	 2.0429047030e+000
 2.2960154450e+000	 2.2130339132e-001	 2.0277004880e+000
 2.3333200000e+000	 0.0000000000e+000	 1.8970829740e+000
 2.3332158851e+000	 2.2041455963e-002	 1.9104940613e+000
 2.3329019336e+000	 4.4166646119e-002	 1.9276695077e+000
 2.3323757570e+000	 6.6373010180e-002	 1.9465353563e+000
 2.3316349974e+000	 8.8657921967e-002	 1.9652012664e+000
 2.3306773288e+000	 1.1101868952e-001	 1.9819734340e+000
 2.3295004597e+000	 1.3345255529e-001	 1.9953650246e+000
 2.3281021343e+000	 1.5595669635e-001	 2.0041041470e+000
 2.3264801350e+000	 1.7852822470e-001	 2.0071394335e+000
 2.3246322838e+000	 2.0116418761e-001	 2.0036433203e+000
 2.3225564445e+000	 2.2386156802e-001	 1.9930131492e+000
 2.0571464492e+000	 1.9827980105e-001	 2.6906715865e+000
 2.0551043599e+000	 2.1843209012e-001	 2.6334195178e+000
 2.0528567318e+000	 2.3863329325e-001	 2.5783756377e+000
 2.0504017950e+000	 2.5888061541e-001	 2.5247809542e+000
 2.0477378234e+000	 2.7917120795e-001	 2.4718411403e+000
 2.0448631363e+000	 2.9950216914e-001	 2.4187403655e+000
 2.0417760999e+000	 3.1987054498e-001	 2.3646553326e+000
 2.0384751296e+000	 3.4027332989e-001	 2.3087696190e+000
 2.0349586909e+000	 3.6070746753e-001	 2.2502884303e+000
 2.0312253015e+000	 3.8116985173e-001	 2.1884538774e+000
 2.0272735331e+000	 4.0165732735e-001	 2.1225608953e+000
 2.0836874487e+000	 2.0083797774e-001	 2.6393318738e+000
 2.0816190127e+000	 2.2125026867e-001	 2.5880807388e+000
 2.0793423861e+000	 2.4171210474e-001	 2.5385162141e+000
 2.0768557760e+000	 2.6222065487e-001	 2.4897955750e+000
 2.0741574342e+000	 2.8277303362e-001	 2.4410611889e+000
 2.0712456583e+000	 3.0336630188e-001	 2.3914533935e+000
 2.0681187935e+000	 3.2399746749e-001	 2.3401235053e+000
 2.0647752345e+000	 3.4466348611e-001	 2.2862470720e+000
 2.0612134272e+000	 3.6536126199e-001	 2.2290374905e+000
 2.0574318702e+000	 3.8608764884e-001	 2.1677601177e+000
 2.0534291166e+000	 4.0683945084e-001	 2.1017470095e+000
 2.1102284483e+000	 2.0339615444e-001	 2.5714946186e+000
 2.1081336655e+000	 2.2406844723e-001	 2.5254971502e+000
 2.1058280403e+000	 2.4479091623e-001	 2.4809038348e+000
 2.1033097570e+000	 2.6556069432e-001	 2.4367869712e+000
 2.1005770451e+000	 2.8637485930e-001	 2.3922246376e+000
 2.0976281804e+000	 3.0723043461e-001	 2.3463124274e+000
 2.0944614871e+000	 3.2812439000e-001	 2.2981752358e+000
 2.0910753395e+000	 3.4905364234e-001	 2.2469792248e+000
 2.0874681636e+000	 3.7001505644e-001	 2.1919441055e+000
 2.0836384389e+000	 3.9100544595e-001	 2.1323558814e+000
 2.0795847002e+000	 4.1202157433e-001	 2.0675802069e+000
 2.1367694478e+000	 2.0595433114e-001	 2.4920057712e+000
 2.1346483183e+000	 2.2688662578e-001	 2.4506949851e+000
 2.1323136945e+000	 2.4786972772e-001	 2.4106760277e+000
 2.1297637380e+000	 2.6890073377e-001	 2.3709383742e+000
 2.1269966559e+000	 2.8997668498e-001	 2.3304982943e+000
 2.1240107024e+000	 3.1109456735e-001	 2.2884092418e+000
 2.1208041806e+000	 3.3225131251e-001	 2.2437722083e+000
 2.1173754444e+000	 3.5344379857e-001	 2.1957461875e+000
 2.1137229000e+000	 3.7466885089e-001	 2.1435589043e+000
 2.1098450077e+000	 3.9592324306e-001	 2.0865179727e+000
 2.1057402838e+000	 4.1720369783e-001	 2.0240226571e+000
 2.1633104473e+000	 2.0851250784e-001	 2.4055984379e+000
 2.1611629711e+000	 2.2970480434e-001	 2.3685640174e+000
 2.1587993488e+000	 2.5094853921e-001	 2.3328117179e+000
 2.1562177190e+000	 2.7224077322e-001	 2.2972538666e+000
 2.1534162668e+000	 2.9357851066e-001	 2.2608509941e+000
 2.1503932245e+000	 3.1495870008e-001	 2.2226206563e+000
 2.1471468742e+000	 3.3637823502e-001	 2.1816461297e+000
 2.1436755493e+000	 3.5783395480e-001	 2.1370851426e+000
 2.1399776363e+000	 3.7932264534e-001	 2.0881788178e+000
 2.1360515764e+000	 4.0084104017e-001	 2.0342610097e+000
 2.1318958674e+000	 4.2238582132e-001	 1.9747682327e+000
 2.1898514469e+000	 2.1107068453e-001	 2.3168941462e+000
 2.1876776239e+000	 2.3252298289e-001	 2.2838596335e+000
 2.1852850030e+000	 2.5402735071e-001	 2.2521340554e+000
 2.1826717000e+000	 2.7558081267e-001	 2.2205619205e+000
 2.1798358776e+000	 2.9718033633e-001	 2.1880578066e+000
 2.1767757465e+000	 3.1882283282e-001	 2.1536133773e+000
 2.1734895678e+000	 3.4050515753e-001	 2.1163041744e+000
 2.1699756543e+000	 3.6222411102e-001	 2.0752963679e+000
 2.1662323727e+000	 3.8397643979e-001	 2.0298536592e+000
 2.1622581451e+000	 4.0575883728e-001	 1.9793445456e+000
 2.1580514510e+000	 4.2756794481e-001	 1.9232501611e+000
 2.2163924464e+000	 2.1362886123e-001	 2.2304040719e+000
 2.2141922767e+000	 2.3534116144e-001	 2.2012048245e+000
 2.2117706572e+000	 2.5710616220e-001	 2.1733131279e+000
 2.2091256810e+000	 2.7892085212e-001	 2.1455187917e+000
 2.2062554884e+000	 3.0078216201e-001	 2.1167040777e+000
 2.2031582686e+000	 3.2268696555e-001	 2.0858486570e+000
 2.1998322613e+000	 3.4463208005e-001	 2.0520342366e+000
 2.1962757592e+000	 3.6661426725e-001	 2.0144490613e+000
 2.1924871090e+000	 3.8863023425e-001	 1.9723925072e+000
 2.1884647138e+000	 4.1067663439e-001	 1.9252799998e+000
 2.1842070346e+000	 4.3275006830e-001	 1.8726484979e+000
 2.2429334459e+000	 2.1618703793e-001	 2.1505302328e+000
 2.2407069295e+000	 2.3815934000e-001	 2.1250921067e+000
 2.2382563115e+000	 2.6018497369e-001	 2.1008685703e+000
 2.2355796621e+000	 2.8226089157e-001	 2.0766117838e+000
 2.2326750993e+000	 3.0438398769e-001	 2.0511893199e+000
 2.2295407906e+000	 3.2655109828e-001	 2.0235867861e+000
 2.2261749549e+000	 3.4875900256e-001	 1.9929100061e+000
 2.2225758641e+000	 3.7100442348e-001	 1.9583869860e+000
 2.2187418454e+000	 3.9328402870e-001	 1.9193699092e+000
 2.2146712825e+000	 4.1559443150e-001	 1.8753374159e+000
 2.2103626182e+000	 4.3793219180e-001	 1.8258974380e+000
 2.2694744455e+000	 2.1874521463e-001	 2.0815666513e+000
 2.2672215823e+000	 2.4097751855e-001	 2.0598853755e+000
 2.2647419657e+000	 2.6326378518e-001	 2.0391720766e+000
 2.2620336431e+000	 2.8560093102e-001	 2.0181623914e+000
 2.2590947101e+000	 3.0798581336e-001	 1.9957309623e+000
 2.2559233126e+000	 3.3041523102e-001	 1.9708914327e+000
 2.2525176484e+000	 3.5288592506e-001	 1.9427958815e+000
 2.2488759691e+000	 3.7539457970e-001	 1.9107339486e+000
 2.2449965817e+000	 3.9793782315e-001	 1.8741319204e+000
 2.2408778513e+000	 4.2051222860e-001	 1.8325520588e+000
 2.2365182018e+000	 4.4311431529e-001	 1.7856924758e+000
 2.2960154450e+000	 2.2130339132e-001	 2.0277004880e+000
 2.2937362351e+000	 2.4379569710e-001	 2.0098216981e+000
 2.2912276199e+000	 2.6634259667e-001	 1.9924498242e+000
 2.2884876241e+000	 2.8894097047e-001	 1.9743293322e+000
 2.2855143209e+000	 3.1158763904e-001	 1.9543679734e+000
 2.2823058347e+000	 3.3427936375e-001	 1.9316338403e+000
 2.2788603420e+000	 3.5701284757e-001	 1.9053517347e+000
 2.2751760740e+000	 3.7978473593e-001	 1.8748991247e+000
 2.2712513181e+000	 4.0259161760e-001	 1.8398019894e+000
 2.2670844200e+000	 4.2543002571e-001	 1.7997308658e+000
 2.2626737853e+000	 4.4829643878e-001	 1.7544974284e+000
 2.3225564445e+000	 2.2386156802e-001	 1.9930131492e+000
 2.3202508879e+000	 2.4661387566e-001	 1.9790130502e+000
 2.3177132742e+000	 2.6942140816e-001	 1.9647848171e+000
 2.3149416051e+000	 2.9228100992e-001	 1.9491114780e+000
 2.3119339318e+000	 3.1518946472e-001	 1.9309643647e+000
 2.3086883567e+000	 3.3814349649e-001	 1.9094968964e+000
 2.3052030356e+000	 3.6113977008e-001	 1.8840375387e+000
 2.3014761789e+000	 3.8417489215e-001	 1.8540822445e+000
 2.2975060545e+000	 4.0724541205e-001	 1.8192867059e+000
 2.2932909887e+000	 4.3034782282e-001	 1.7794587624e+000
 2.2888293689e+000	 4.5347856227e-001	 1.7345513328e+000
 2.0272735331e+000	 4.0165732735e-001	 2.1225608953e+000
 2.0231013705e+000	 4.2216976871e-001	 2.0556122543e+000
 2.0187080752e+000	 4.4270084878e-001	 1.9906144890e+000
 2.0140923913e+000	 4.6324726543e-001	 1.9269647863e+000
 2.0092531230e+000	 4.8380567180e-001	 1.8641799927e+000
 2.0041891369e+000	 5.0437267753e-001	 1.8019177167e+000
 1.9988993627e+000	 5.2494485006e-001	 1.7399719572e+000
 1.9933827953e+000	 5.4551871594e-001	 1.6774602591e+000
 1.9876384961e+000	 5.6609076229e-001	 1.6140771646e+000
 1.9816655944e+000	 5.8665743822e-001	 1.5502060601e+000
 1.9754632889e+000	 6.0721515638e-001	 1.4865555135e+000
 2.0534291166e+000	 4.0683945084e-001	 2.1017470095e+000
 2.0492031255e+000	 4.2761654069e-001	 2.0340172258e+000
 2.0447531485e+000	 4.4841250972e-001	 1.9676076727e+000
 2.0400779137e+000	 4.6922401320e-001	 1.9019896401e+000
 2.0351762100e+000	 4.9004766109e-001	 1.8367616883e+000
 2.0300468890e+000	 5.1088001930e-001	 1.7716697318e+000
 2.0246888670e+000	 5.3171761096e-001	 1.7066286173e+000
 2.0191011256e+000	 5.5255691782e-001	 1.6417453292e+000
 2.0132827143e+000	 5.7339438167e-001	 1.5773439500e+000
 2.0072327511e+000	 5.9422640581e-001	 1.5139924939e+000
 2.0009504244e+000	 6.1504935661e-001	 1.4525317202e+000
 2.0795847002e+000	 4.1202157433e-001	 2.0675802069e+000
 2.0753048804e+000	 4.3306331268e-001	 2.0006196202e+000
 2.0707982218e+000	 4.5412417067e-001	 1.9344898258e+000
 2.0660634361e+000	 4.7520076098e-001	 1.8687033285e+000
 2.0610992969e+000	 4.9628965039e-001	 1.8029059748e+000
 2.0559046411e+000	 5.1738736106e-001	 1.7368958919e+000
 2.0504783712e+000	 5.3849037185e-001	 1.6706440325e+000
 2.0448194559e+000	 5.5959511969e-001	 1.6043164777e+000
 2.0389269325e+000	 5.8069800105e-001	 1.5382986489e+000
 2.0327999078e+000	 6.0179537340e-001	 1.4732215652e+000
 2.0264375598e+000	 6.2288355684e-001	 1.4099902715e+000
 2.1057402838e+000	 4.1720369783e-001	 2.0240226571e+000
 2.1014066354e+000	 4.3851008466e-001	 1.9590357153e+000
 2.0968432952e+000	 4.5983583161e-001	 1.8945103243e+000
 2.0920489586e+000	 4.8117750875e-001	 1.8299716440e+000
 2.0870223838e+000	 5.0253163969e-001	 1.7650826104e+000
 2.0817623933e+000	 5.2389470283e-001	 1.6996615873e+000
 2.0762678754e+000	 5.4526313275e-001	 1.6337017449e+000
 2.0705377862e+000	 5.6663332157e-001	 1.5673923440e+000
 2.0645711507e+000	 5.8800162042e-001	 1.5011420965e+000
 2.0583670645e+000	 6.0936434100e-001	 1.4356047609e+000
 2.0519246953e+000	 6.3071775708e-001	 1.3717071203e+000
 2.1318958674e+000	 4.2238582132e-001	 1.9747682327e+000
 2.1275083903e+000	 4.4395685664e-001	 1.9126095466e+000
 2.1228883685e+000	 4.6554749255e-001	 1.8506442710e+000
 2.1180344810e+000	 4.8715425653e-001	 1.7883860131e+000
 2.1129454707e+000	 5.0877362898e-001	 1.7254888484e+000
 2.1076201454e+000	 5.3040204460e-001	 1.6617635229e+000
 2.1020573797e+000	 5.5203589365e-001	 1.5971955184e+000
 2.0962561165e+000	 5.7367152344e-001	 1.5319651843e+000
 2.0902153689e+000	 5.9530523980e-001	 1.4664701283e+000
 2.0839342212e+000	 6.1693330859e-001	 1.4013500516e+000
 2.0774118308e+000	 6.3855195731e-001	 1.3375141970e+000
 2.1580514510e+000	 4.2756794481e-001	 1.9232501611e+000
 2.1536101453e+000	 4.4940362862e-001	 1.8644211015e+000
 2.1489334418e+000	 4.7125915350e-001	 1.8056012686e+000
 2.1440200035e+000	 4.9313100430e-001	 1.7462728935e+000
 2.1388685576e+000	 5.1501561828e-001	 1.6860595090e+000
 2.1334778975e+000	 5.3690938636e-001	 1.6247405243e+000
 2.1278468839e+000	 5.5880865454e-001	 1.5622678115e+000
 2.1219744468e+000	 5.8070972532e-001	 1.4987845342e+000
 2.1158595871e+000	 6.0260885918e-001	 1.4346464364e+000
 2.1095013779e+000	 6.2450227618e-001	 1.3704458021e+000
 2.1028989663e+000	 6.4638615754e-001	 1.3070382798e+000
 2.1842070346e+000	 4.3275006830e-001	 1.8726484979e+000
 2.1797119003e+000	 4.5485040060e-001	 1.8172943509e+000
 2.1749785151e+000	 4.7697081444e-001	 1.7618340488e+000
 2.1700055259e+000	 4.9910775208e-001	 1.7057030459e+000
 2.1647916446e+000	 5.2125760758e-001	 1.6484769479e+000
 2.1593356496e+000	 5.4341672813e-001	 1.5898842623e+000
 2.1536363881e+000	 5.6558141544e-001	 1.5298213238e+000
 2.1476927771e+000	 5.8774792719e-001	 1.4683696515e+000
 2.1415038053e+000	 6.0991247856e-001	 1.4058159865e+000
 2.1350685346e+000	 6.3207124377e-001	 1.3426752469e+000
 2.1283861017e+000	 6.5422035778e-001	 1.2797166205e+000
 2.2103626182e+000	 4.3793219180e-001	 1.8258974380e+000
 2.2058136552e+000	 4.6029717258e-001	 1.7738051322e+000
 2.2010235884e+000	 4.8268247538e-001	 1.7215469690e+000
 2.1959910484e+000	 5.0508449985e-001	 1.6685006925e+000
 2.1907147315e+000	 5.2749959687e-001	 1.6141809302e+000
 2.1851934017e+000	 5.4992406989e-001	 1.5582499035e+000
 2.1794258924e+000	 5.7235417633e-001	 1.5005304902e+000
 2.1734111074e+000	 5.9478612907e-001	 1.4410219254e+000
 2.1671480235e+000	 6.1721609793e-001	 1.3799184219e+000
 2.1606356913e+000	 6.3964021136e-001	 1.3176309743e+000
 2.1538732372e+000	 6.6205455801e-001	 1.2548125981e+000
 2.2365182018e+000	 4.4311431529e-001	 1.7856924758e+000
 2.2319154102e+000	 4.6574394456e-001	 1.7362888964e+000
 2.2270686617e+000	 4.8839413632e-001	 1.6867043880e+000
 2.2219765708e+000	 5.1106124762e-001	 1.6362525705e+000
 2.2166378184e+000	 5.3374158617e-001	 1.5843784174e+000
 2.2110511539e+000	 5.5643141166e-001	 1.5306666919e+000
 2.2052153966e+000	 5.7912693723e-001	 1.4748529249e+000
 2.1991294377e+000	 6.0182433094e-001	 1.4168372572e+000
 2.1927922417e+000	 6.2451971731e-001	 1.3567014584e+000
 2.1862028480e+000	 6.4720917895e-001	 1.2947294190e+000
 2.1793603727e+000	 6.6988875825e-001	 1.2314666406e+000
 2.2626737853e+000	 4.4829643878e-001	 1.7544974284e+000
 2.2580171652e+000	 4.7119071654e-001	 1.7068483289e+000
 2.2531137351e+000	 4.9410579726e-001	 1.6590389296e+000
 2.2479620932e+000	 5.1703799540e-001	 1.6103168888e+000
 2.2425609053e+000	 5.3998357546e-001	 1.5600532745e+000
 2.2369089060e+000	 5.6293875342e-001	 1.5077484684e+000
 2.2310049008e+000	 5.8589969813e-001	 1.4530408209e+000
 2.2248477680e+000	 6.0886253281e-001	 1.3957184124e+000
 2.2184364599e+000	 6.3182333669e-001	 1.3357342683e+000
 2.2117700047e+000	 6.5477814654e-001	 1.2732253611e+000
 2.2048475082e+000	 6.7772295848e-001	 1.2090097785e+000
 2.2888293689e+000	 4.5347856227e-001	 1.7345513328e+000
 2.2841189201e+000	 4.7663748852e-001	 1.6873608554e+000
 2.2791588084e+000	 4.9981745820e-001	 1.6400596436e+000
 2.2739476157e+000	 5.2301474317e-001	 1.5918321973e+000
 2.2684839922e+000	 5.4622556476e-001	 1.5419759034e+000
 2.2627666581e+000	 5.6944609519e-001	 1.4899041322e+000
 2.2567944051e+000	 5.9267245902e-001	 1.4351523081e+000
 2.2505660983e+000	 6.1590073469e-001	 1.3773873485e+000
 2.2440806781e+000	 6.3912695606e-001	 1.3164208558e+000
 2.2373371614e+000	 6.6234711413e-001	 1.2522264324e+000
 2.2303346436e+000	 6.8555715871e-001	 1.1865158019e+000
 1.9754632889e+000	 6.0721515638e-001	 1.4865555135e+000
 1.9690308487e+000	 6.2776029421e-001	 1.4195589198e+000
 1.9623676129e+000	 6.4828919468e-001	 1.3452655829e+000
 1.9554729937e+000	 6.6879816880e-001	 1.2643478992e+000
 1.9483464780e+000	 6.8928349765e-001	 1.1789169757e+000
 1.9409876284e+000	 7.0974143420e-001	 1.0908189006e+000
 1.9333960849e+000	 7.3016820514e-001	 1.0011938988e+000
 1.9255715656e+000	 7.5056001275e-001	 9.1125499238e-001
 1.9175138679e+000	 7.7091303689e-001	 8.2228504049e-001
 1.9092228696e+000	 7.9122343695e-001	 7.3563367766e-001
 1.9006985296e+000	 8.1148735391e-001	 6.5271416384e-001
 2.0009504244e+000	 6.1504935661e-001	 1.4525317202e+000
 1.9944349938e+000	 6.3585956478e-001	 1.3887325827e+000
 1.9876857899e+000	 6.5665332609e-001	 1.3173139049e+000
 1.9807022174e+000	 6.7742690396e-001	 1.2390033430e+000
 1.9734837563e+000	 6.9817653150e-001	 1.1562472837e+000
 1.9660299640e+000	 7.1889841332e-001	 1.0703854855e+000
 1.9583404755e+000	 7.3958872744e-001	 9.8259386756e-001
 1.9504150054e+000	 7.6024362714e-001	 8.9412142038e-001
 1.9422533485e+000	 7.8085924298e-001	 8.0628696971e-001
 1.9338553809e+000	 8.0143168483e-001	 7.2047584644e-001
 1.9252210612e+000	 8.2195704385e-001	 6.3813647814e-001
 2.0264375598e+000	 6.2288355684e-001	 1.4099902715e+000
 2.0198391388e+000	 6.4395883534e-001	 1.3449861923e+000
 2.0130039669e+000	 6.6501745749e-001	 1.2738178277e+000
 2.0059314410e+000	 6.8605563912e-001	 1.1977464535e+000
 1.9986210347e+000	 7.0706956534e-001	 1.1189112983e+000
 1.9910722996e+000	 7.2805539244e-001	 1.0371255974e+000
 1.9832848661e+000	 7.4900924974e-001	 9.5292106498e-001
 1.9752584453e+000	 7.6992724152e-001	 8.6754972149e-001
 1.9669928291e+000	 7.9080544908e-001	 7.8233356888e-001
 1.9584878923e+000	 8.1163993271e-001	 6.9866104609e-001
 1.9497435928e+000	 8.3242673380e-001	 6.1798341771e-001
 2.0519246953e+000	 6.3071775708e-001	 1.3717071203e+000
 2.0452432839e+000	 6.5205810591e-001	 1.3058175493e+000
 2.0383221439e+000	 6.7338158890e-001	 1.2334896796e+000
 2.0311606646e+000	 6.9468437428e-001	 1.1567663434e+000
 2.0237583131e+000	 7.1596259919e-001	 1.0771731595e+000
 2.0161146352e+000	 7.3721237157e-001	 9.9575613340e-001
 2.0082292568e+000	 7.5842977204e-001	 9.1360367697e-001
 2.0001018851e+000	 7.7961085591e-001	 8.3184192200e-001
 1.9917323097e+000	 8.0075165518e-001	 7.5067446005e-001
 1.9831204037e+000	 8.2184818059e-001	 6.7040562489e-001
 1.9742661244e+000	 8.4289642374e-001	 5.9245850483e-001
 2.0774118308e+000	 6.3855195731e-001	 1.3375141970e+000
 2.0706474290e+000	 6.6015737647e-001	 1.2713237214e+000
 2.0636403209e+000	 6.8174572031e-001	 1.1987492281e+000
 2.0563898883e+000	 7.0331310944e-001	 1.1221127826e+000
 2.0488955915e+000	 7.2485563304e-001	 1.0424999971e+000
 2.0411569708e+000	 7.4636935069e-001	 9.6092659077e-001
 2.0331736474e+000	 7.6785029434e-001	 8.7844842820e-001
 2.0249453249e+000	 7.8929447030e-001	 7.9615659830e-001
 2.0164717903e+000	 8.1069786128e-001	 7.1517265036e-001
 2.0077529150e+000	 8.3205642847e-001	 6.3664401522e-001
 1.9987886560e+000	 8.5336611368e-001	 5.6172233438e-001
 2.1028989663e+000	 6.4638615754e-001	 1.3070382798e+000
 2.0960515741e+000	 6.6825664704e-001	 1.2407942388e+000
 2.0889584979e+000	 6.9010985172e-001	 1.1687373932e+000
 2.0816191119e+000	 7.1194184460e-001	 1.0927357132e+000
 2.0740328699e+000	 7.3374866688e-001	 1.0137055772e+000
 2.0661993063e+000	 7.5552632981e-001	 9.3260624849e-001
 2.0581180380e+000	 7.7727081664e-001	 8.5043459718e-001
 2.0497887647e+000	 7.9897808469e-001	 7.6821998644e-001
 2.0412112709e+000	 8.2064406738e-001	 6.8701935504e-001
 2.0323854264e+000	 8.4226467635e-001	 6.0791252606e-001
 2.0233111876e+000	 8.6383580362e-001	 5.3199776833e-001
 2.1283861017e+000	 6.5422035778e-001	 1.2797166205e+000
 2.1214557192e+000	 6.7635591761e-001	 1.2136318320e+000
 2.1142766749e+000	 6.9847398312e-001	 1.1424828675e+000
 2.1068483355e+000	 7.2057057976e-001	 1.0674838636e+000
 2.0991701483e+000	 7.4264170073e-001	 9.8947261551e-001
 2.0912416419e+000	 7.6468330893e-001	 9.0932714345e-001
 2.0830624286e+000	 7.8669133894e-001	 8.2796022103e-001
 2.0746322046e+000	 8.0866169908e-001	 7.4631410947e-001
 2.0659507515e+000	 8.3059027348e-001	 6.6535553152e-001
 2.0570179378e+000	 8.5247292423e-001	 5.8607091677e-001
 2.0478337192e+000	 8.7430549357e-001	 5.0946194660e-001
 2.1538732372e+000	 6.6205455801e-001	 1.2548125981e+000
 2.1468598642e+000	 6.8445518817e-001	 1.1890673046e+000
 2.1395948519e+000	 7.0683811453e-001	 1.1189129055e+000
 2.1320775592e+000	 7.2919931492e-001	 1.0451084911e+000
 2.1243074266e+000	 7.5153473458e-001	 9.6839019492e-001
 2.1162839775e+000	 7.7384028805e-001	 8.8953132711e-001
 2.1080068192e+000	 7.9611186124e-001	 8.0933674442e-001
 2.0994756444e+000	 8.1834531347e-001	 7.2863747147e-001
 2.0906902321e+000	 8.4053647958e-001	 6.4828560958e-001
 2.0816504492e+000	 8.6268117211e-001	 5.6914956670e-001
 2.0723562508e+000	 8.8477518351e-001	 4.9210963837e-001
 2.1793603727e+000	 6.6988875825e-001	 1.2314666406e+000
 2.1722640093e+000	 6.9255445874e-001	 1.1661144741e+000
 2.1649130289e+000	 7.1520224594e-001	 1.0968569996e+000
 2.1573067828e+000	 7.3782805008e-001	 1.0242671940e+000
 2.1494447050e+000	 7.6042776842e-001	 9.4895775065e-001
 2.1413263131e+000	 7.8299726717e-001	 8.7157506392e-001
 2.1329512099e+000	 8.0553238355e-001	 7.9279347445e-001
 2.1243190842e+000	 8.2802892786e-001	 7.1330981482e-001
 2.1154297127e+000	 8.5048268568e-001	 6.3383829563e-001
 2.1062829605e+000	 8.7288941999e-001	 5.5510576714e-001
 2.0968787823e+000	 8.9524487345e-001	 4.7784738799e-001
 2.2048475082e+000	 6.7772295848e-001	 1.2090097785e+000
 2.1976681544e+000	 7.0065372930e-001	 1.1436888725e+000
 2.1902312059e+000	 7.2356637734e-001	 1.0750506087e+000
 2.1825360065e+000	 7.4645678524e-001	 1.0035277875e+000
 2.1745819834e+000	 7.6932080227e-001	 9.2958912869e-001
 2.1663686487e+000	 7.9215424629e-001	 8.5373311073e-001
 2.1578956005e+000	 8.1495290585e-001	 7.7648212162e-001
 2.1491625241e+000	 8.3771254225e-001	 6.9837696578e-001
 2.1401691933e+000	 8.6042889178e-001	 6.1997176855e-001
 2.1309154719e+000	 8.8309766787e-001	 5.4182931559e-001
 2.1214013139e+000	 9.0571456340e-001	 4.6451686043e-001
 2.2303346436e+000	 6.8555715871e-001	 1.1865158019e+000
 2.2230722995e+000	 7.0875299987e-001	 1.1206113957e+000
 2.2155493829e+000	 7.3193050875e-001	 1.0521389346e+000
 2.2077652301e+000	 7.5508552040e-001	 9.8137223760e-001
 2.1997192618e+000	 7.7821383611e-001	 9.0861671185e-001
 2.1914109843e+000	 8.0131122541e-001	 8.3420307051e-001
 2.1828399911e+000	 8.2437342815e-001	 7.5848141961e-001
 2.1740059639e+000	 8.4739615664e-001	 6.8181576117e-001
 2.1649086739e+000	 8.7037509788e-001	 6.0457895621e-001
 2.1555479833e+000	 8.9330591575e-001	 5.2714818731e-001
 2.1459238455e+000	 9.1618425334e-001	 4.4990095530e-001
 1.9006985296e+000	 8.1148735391e-001	 6.5271416384e-001
 1.8919422205e+000	 8.3169788466e-001	 5.7205449108e-001
 1.8829528065e+000	 8.5185418521e-001	 4.9093944964e-001
 1.8737304971e+000	 8.7195235673e-001	 4.0904752674e-001
 1.8642755859e+000	 8.9198849053e-001	 3.2612128369e-001
 1.8545884519e+000	 9.1195867032e-001	 2.4196747727e-001
 1.8446695596e+000	 9.3185897448e-001	 1.5645719008e-001
 1.8345194597e+000	 9.5168547831e-001	 6.9525971831e-002
 1.8241387894e+000	 9.7143425637e-001	-1.8826007626e-002
 1.8135282730e+000	 9.9110138481e-001	-1.0853379386e-001
 1.8026887218e+000	 1.0106829438e+000	-1.9946970852e-001
 1.9252210612e+000	 8.2195704385e-001	 6.3813647814e-001
 1.9163517795e+000	 8.4242832788e-001	 5.5812023977e-001
 1.9072463854e+000	 8.6284468205e-001	 4.7795610655e-001
 1.8979050911e+000	 8.8320215720e-001	 3.9723904206e-001
 1.8883281941e+000	 9.0349679424e-001	 3.1562931005e-001
 1.8785160781e+000	 9.2372462635e-001	 2.3285270895e-001
 1.8684692137e+000	 9.4388168129e-001	 1.4870083128e-001
 1.8581881587e+000	 9.6396398374e-001	 6.3031349832e-002
 1.8476735586e+000	 9.8396755761e-001	-2.4231668600e-002
 1.8369261468e+000	 1.0038884284e+000	-1.1309742274e-001
 1.8259467454e+000	 1.0237226258e+000	-2.0351007962e-001
 1.9497435928e+000	 8.3242673380e-001	 6.1798341771e-001
 1.9407613385e+000	 8.5315877110e-001	 5.3949069552e-001
 1.9315399643e+000	 8.7383517888e-001	 4.6101031704e-001
 1.9220796851e+000	 8.9445195768e-001	 3.8207962509e-001
 1.9123808022e+000	 9.1500509795e-001	 3.0230232547e-001
 1.9024437043e+000	 9.3549058237e-001	 2.2134879180e-001
 1.8922688678e+000	 9.5590438809e-001	 1.3895641218e-001
 1.8818568577e+000	 9.7624248917e-001	 5.4929979770e-002
 1.8712083277e+000	 9.9650085886e-001	-3.0857872112e-002
 1.8603240206e+000	 1.0166754721e+000	-1.1846865702e-001
 1.8492047689e+000	 1.0367623078e+000	-2.0788708172e-001
 1.9742661244e+000	 8.4289642374e-001	 5.9245850483e-001
 1.9651708975e+000	 8.6388921433e-001	 5.1636502929e-001
 1.9558335432e+000	 8.8482567572e-001	 4.4029191071e-001
 1.9462542791e+000	 9.0570175815e-001	 3.6374397915e-001
 1.9364334104e+000	 9.2651340167e-001	 2.8629331234e-001
 1.9263713305e+000	 9.4725653839e-001	 2.0757956899e-001
 1.9160685219e+000	 9.6792709490e-001	 1.2731038201e-001
 1.9055255567e+000	 9.8852099460e-001	 4.5261814124e-002
 1.8947430968e+000	 1.0090341601e+000	-3.8721123749e-002
 1.8837218945e+000	 1.0294625157e+000	-1.2472616408e-001
 1.8724627925e+000	 1.0498019898e+000	-2.1276350146e-001
 1.9987886560e+000	 8.5336611368e-001	 5.6172233438e-001
 1.9895804564e+000	 8.7461965755e-001	 4.8889735455e-001
 1.9801271221e+000	 8.9581617255e-001	 4.1594394113e-001
 1.9704288732e+000	 9.1695155863e-001	 3.4235876342e-001
 1.9604860185e+000	 9.3802170538e-001	 2.6770642938e-001
 1.9502989566e+000	 9.5902249441e-001	 1.9161980631e-001
 1.9398681760e+000	 9.7994980170e-001	 1.1380042111e-001
 1.9291942557e+000	 1.0007995000e+000	 3.4018942692e-002
 1.9182778660e+000	 1.0215674613e+000	-4.7886983282e-002
 1.9071197683e+000	 1.0422495593e+000	-1.3200050968e-001
 1.8957208160e+000	 1.0628416718e+000	-2.1834334048e-001
 2.0233111876e+000	 8.6383580362e-001	 5.3199776833e-001
 2.0139900154e+000	 8.8535010078e-001	 4.5922910386e-001
 2.0044207010e+000	 9.0680666939e-001	 3.8825040339e-001
 1.9946034672e+000	 9.2820135910e-001	 3.1800448717e-001
 1.9845386267e+000	 9.4953000909e-001	 2.4659914966e-001
 1.9742265828e+000	 9.7078845043e-001	 1.7349755214e-001
 1.9636678301e+000	 9.9197250851e-001	 9.8417998218e-002
 1.9528629547e+000	 1.0130780055e+000	 2.1145034400e-002
 1.9418126351e+000	 1.0341007626e+000	-5.8456054494e-002
 1.9305176421e+000	 1.0550366030e+000	-1.4046075601e-001
 1.9189788395e+000	 1.0758813538e+000	-2.2486877306e-001
 2.0478337192e+000	 8.7430549357e-001	 5.0946194660e-001
 2.0383995744e+000	 8.9608054400e-001	 4.3578125566e-001
 2.0287142799e+000	 9.1779716623e-001	 3.6406746329e-001
 2.0187780612e+000	 9.3945115958e-001	 2.9355907445e-001
 2.0085912348e+000	 9.6103831281e-001	 2.2351549100e-001
 1.9981542090e+000	 9.8255440646e-001	 1.5319655636e-001
 1.9874674842e+000	 1.0039952153e+000	 8.1110983498e-002
 1.9765316538e+000	 1.0253565109e+000	 6.5515100437e-003
 1.9653474042e+000	 1.0466340638e+000	-7.0578110184e-002
 1.9539155159e+000	 1.0678236466e+000	-1.5031407954e-001
 1.9422368631e+000	 1.0889210358e+000	-2.3261703773e-001
 2.0723562508e+000	 8.8477518351e-001	 4.9210963837e-001
 2.0628091334e+000	 9.0681098723e-001	 4.1767862895e-001
 2.0530078588e+000	 9.2878766306e-001	 3.4528318664e-001
 2.0429526552e+000	 9.5070096006e-001	 2.7422726133e-001
 2.0326438430e+000	 9.7254661652e-001	 2.0383189658e-001
 2.0220818352e+000	 9.9432036248e-001	 1.3343635573e-001
 2.0112671383e+000	 1.0160179221e+000	 6.2396031634e-002
 2.0002003528e+000	 1.0376350163e+000	-9.8999225431e-003
 1.9888821734e+000	 1.0591673651e+000	-8.4437538237e-002
 1.9773133897e+000	 1.0806106902e+000	-1.6180268411e-001
 1.9654948866e+000	 1.1019607178e+000	-2.4189726827e-001
 2.0968787823e+000	 8.9524487345e-001	 4.7784738799e-001
 2.0872186924e+000	 9.1754143045e-001	 4.0278819747e-001
 2.0773014377e+000	 9.3977815990e-001	 3.2972545653e-001
 2.0671272492e+000	 9.6195076053e-001	 2.5804997607e-001
 2.0566964511e+000	 9.8405492023e-001	 1.8716530432e-001
 2.0460094614e+000	 1.0060863185e+000	 1.1648882924e-001
 2.0350667924e+000	 1.0280406289e+000	 4.5450017302e-002
 2.0238690518e+000	 1.0499135217e+000	-2.6493107178e-002
 2.0124169425e+000	 1.0717006663e+000	-9.9874352155e-002
 2.0007112636e+000	 1.0933977339e+000	-1.7519984852e-001
 1.9887529101e+000	 1.1150003998e+000	-2.5304726930e-001
 2.1214013139e+000	 9.0571456340e-001	 4.6451686043e-001
 2.1116282514e+000	 9.2827187367e-001	 3.8891466992e-001
 2.1015950166e+000	 9.5076865673e-001	 3.1516297712e-001
 2.0913018433e+000	 9.7320056100e-001	 2.4276007819e-001
 2.0807490593e+000	 9.9556322394e-001	 1.7121206047e-001
 2.0699370875e+000	 1.0178522745e+000	 1.0002979122e-001
 2.0588664465e+000	 1.0400633357e+000	 2.8747838452e-002
 2.0475377508e+000	 1.0621920272e+000	-4.3100976154e-002
 2.0359517116e+000	 1.0842339676e+000	-1.1596313033e-001
 2.0241091374e+000	 1.1061847775e+000	-1.9026644170e-001
 2.0120109336e+000	 1.1280400818e+000	-2.6641632003e-001
 2.1459238455e+000	 9.1618425334e-001	 4.4990095530e-001
 2.1360378104e+000	 9.3900231690e-001	 3.7380706818e-001
 2.1258885955e+000	 9.6175915357e-001	 2.9931230913e-001
 2.1154764373e+000	 9.8445036148e-001	 2.2604230060e-001
 2.1048016674e+000	 1.0070715277e+000	 1.5362488195e-001
 2.0938647137e+000	 1.0296182305e+000	 8.1687403589e-002
 2.0826661006e+000	 1.0520860425e+000	 9.8741442225e-003
 2.0712064498e+000	 1.0744705326e+000	-6.2176735857e-002
 2.0594864808e+000	 1.0967672688e+000	-1.3481223056e-001
 2.0475070112e+000	 1.1189718211e+000	-2.0836593417e-001
 2.0352689572e+000	 1.1410797639e+000	-2.8315405689e-001
 1.8026887218e+000	 1.0106829438e+000	-1.9946970852e-001
 1.7916193577e+000	 1.0301779370e+000	-2.8882618403e-001
 1.7803227775e+000	 1.0495795149e+000	-3.7426371095e-001
 1.7688000574e+000	 1.0688837832e+000	-4.5628378475e-001
 1.7570523608e+000	 1.0880868613e+000	-5.3531758736e-001
 1.7450809388e+000	 1.1071848845e+000	-6.1172368234e-001
 1.7328871300e+000	 1.1261740068e+000	-6.8578572550e-001
 1.7204723598e+000	 1.1450504030e+000	-7.5771020608e-001
 1.7078381404e+000	 1.1638102713e+000	-8.2762423437e-001
 1.6949860702e+000	 1.1824498355e+000	-8.9557339293e-001
 1.6819178335e+000	 1.2009653480e+000	-9.6151966900e-001
 1.8259467454e+000	 1.0237226258e+000	-2.0351007962e-001
 1.8147345659e+000	 1.0434691405e+000	-2.9261814522e-001
 1.8032922390e+000	 1.0631210347e+000	-3.7796103483e-001
 1.7916208544e+000	 1.0826743639e+000	-4.5999562792e-001
 1.7797215907e+000	 1.1021251972e+000	-5.3910871817e-001
 1.7675957153e+000	 1.1214696203e+000	-6.1561464288e-001
 1.7552445837e+000	 1.1407037375e+000	-6.8975291495e-001
 1.7426696400e+000	 1.1598236741e+000	-7.6168587341e-001
 1.7298724157e+000	 1.1788255794e+000	-8.3149636969e-001
 1.7168545300e+000	 1.1977056286e+000	-8.9918550802e-001
 1.7036176889e+000	 1.2164600255e+000	-9.6467045920e-001
 1.8492047689e+000	 1.0367623078e+000	-2.0788708172e-001
 1.8378497742e+000	 1.0567603441e+000	-2.9625000731e-001
 1.8262617004e+000	 1.0766625546e+000	-3.8100602436e-001
 1.8144416513e+000	 1.0964649445e+000	-4.6255569317e-001
 1.8023908206e+000	 1.1161635331e+000	-5.4123013141e-001
 1.7901104917e+000	 1.1357543561e+000	-6.1728858937e-001
 1.7776020374e+000	 1.1552334681e+000	-6.9091601321e-001
 1.7648669201e+000	 1.1745969453e+000	-7.6222061321e-001
 1.7519066910e+000	 1.1938408876e+000	-8.3123145574e-001
 1.7387229899e+000	 1.2129614217e+000	-8.9789609857e-001
 1.7253175442e+000	 1.2319547029e+000	-9.6207829030e-001
 1.8724627925e+000	 1.0498019898e+000	-2.1276350146e-001
 1.8609649824e+000	 1.0700515476e+000	-2.9997358261e-001
 1.8492311618e+000	 1.0902040744e+000	-3.8374759273e-001
 1.8372624483e+000	 1.1102555251e+000	-4.6441855206e-001
 1.8250600506e+000	 1.1302018690e+000	-5.4225110108e-001
 1.8126252681e+000	 1.1500390919e+000	-6.1743903154e-001
 1.7999594911e+000	 1.1697631988e+000	-6.9010278930e-001
 1.7870642003e+000	 1.1893702164e+000	-7.6028696727e-001
 1.7739409664e+000	 1.2088561958e+000	-8.2795780838e-001
 1.7605914497e+000	 1.2282172147e+000	-8.9300073974e-001
 1.7470173996e+000	 1.2474493804e+000	-9.5521796043e-001
 1.8957208160e+000	 1.0628416718e+000	-2.1834334048e-001
 1.8840801906e+000	 1.0833427511e+000	-3.0407838875e-001
 1.8722006232e+000	 1.1037455942e+000	-3.8656835132e-001
 1.8600832453e+000	 1.1240461058e+000	-4.6606795963e-001
 1.8477292805e+000	 1.1442402050e+000	-5.4276505275e-001
 1.8351400445e+000	 1.1643238277e+000	-6.1677807271e-001
 1.8223169448e+000	 1.1842929294e+000	-6.8815351374e-001
 1.8092614805e+000	 1.2041434875e+000	-7.5686334509e-001
 1.7959752417e+000	 1.2238715039e+000	-8.2280242866e-001
 1.7824599095e+000	 1.2434730078e+000	-8.8578595433e-001
 1.7687172550e+000	 1.2629440579e+000	-9.4554691692e-001
 1.9189788395e+000	 1.0758813538e+000	-2.2486877306e-001
 1.9071953989e+000	 1.0966339547e+000	-3.0888856774e-001
 1.8951700847e+000	 1.1172871140e+000	-3.8988151607e-001
 1.8829040423e+000	 1.1378366864e+000	-4.6801377538e-001
 1.8703985105e+000	 1.1582785409e+000	-5.4338652820e-001
 1.8576548210e+000	 1.1786085635e+000	-6.1603344873e-001
 1.8446743986e+000	 1.1988226600e+000	-6.8591810382e-001
 1.8314587607e+000	 1.2189167586e+000	-7.5293130908e-001
 1.8180095171e+000	 1.2388868121e+000	-8.1688846329e-001
 1.8043283694e+000	 1.2587288009e+000	-8.7752688520e-001
 1.7904171104e+000	 1.2784387354e+000	-9.3450317885e-001
 1.9422368631e+000	 1.0889210358e+000	-2.3261703773e-001
 1.9303106071e+000	 1.1099251582e+000	-3.1475973039e-001
 1.9181395461e+000	 1.1308286339e+000	-3.9412772867e-001
 1.9057248393e+000	 1.1516272671e+000	-4.7078878676e-001
 1.8930677404e+000	 1.1723168768e+000	-5.4474803808e-001
 1.8801695974e+000	 1.1928932993e+000	-6.1594543832e-001
 1.8670318523e+000	 1.2133523907e+000	-6.8425312155e-001
 1.8536560409e+000	 1.2336900297e+000	-7.4947269169e-001
 1.8400437924e+000	 1.2539021203e+000	-8.1133247364e-001
 1.8261968292e+000	 1.2739845939e+000	-8.6948475040e-001
 1.8121169658e+000	 1.2939334128e+000	-9.2350301393e-001
 1.9654948866e+000	 1.1019607178e+000	-2.4189726827e-001
 1.9534258153e+000	 1.1232163617e+000	-3.2207573241e-001
 1.9411090075e+000	 1.1443701537e+000	-3.9977179986e-001
 1.9285456363e+000	 1.1654178477e+000	-4.7494544331e-001
 1.9157369704e+000	 1.1863552127e+000	-5.4749681214e-001
 1.9026843738e+000	 1.2071780351e+000	-6.1726365578e-001
 1.8893893060e+000	 1.2278821213e+000	-6.8401863691e-001
 1.8758533210e+000	 1.2484633008e+000	-7.4746655826e-001
 1.8620780678e+000	 1.2689174284e+000	-8.0724152902e-001
 1.8480652890e+000	 1.2892403870e+000	-8.6290409894e-001
 1.8338168211e+000	 1.3094280903e+000	-9.1393839005e-001
 1.9887529101e+000	 1.1150003998e+000	-2.5304726930e-001
 1.9765410235e+000	 1.1365075653e+000	-3.3124538755e-001
 1.9640784689e+000	 1.1579116735e+000	-4.0729938103e-001
 1.9513664333e+000	 1.1792084284e+000	-4.8105250879e-001
 1.9384062003e+000	 1.2003935486e+000	-5.5229145516e-001
 1.9251991503e+000	 1.2214627709e+000	-6.2074373557e-001
 1.9117467597e+000	 1.2424118520e+000	-6.8607496700e-001
 1.8980506012e+000	 1.2632365720e+000	-7.4788602837e-001
 1.8841123431e+000	 1.2839327366e+000	-8.0571013878e-001
 1.8699337489e+000	 1.3044961801e+000	-8.5900988350e-001
 1.8555166765e+000	 1.3249227678e+000	-9.0717421993e-001
 2.0120109336e+000	 1.1280400818e+000	-2.6641632003e-001
 1.9996562318e+000	 1.1497987688e+000	-3.4269912314e-001
 1.9870479304e+000	 1.1714531933e+000	-4.1721357004e-001
 1.9741872303e+000	 1.1929990090e+000	-4.8969163781e-001
 1.9610754303e+000	 1.2144318846e+000	-5.5979851631e-001
 1.9477139267e+000	 1.2357475067e+000	-6.2714391750e-001
 1.9341042134e+000	 1.2569415826e+000	-6.9127930148e-001
 1.9202478814e+000	 1.2780098431e+000	-7.5169496702e-001
 1.9061466185e+000	 1.2989480448e+000	-8.0781703614e-001
 1.8918022087e+000	 1.3197519731e+000	-8.5900436506e-001
 1.8772165319e+000	 1.3404174452e+000	-9.0465515745e-001
 2.0352689572e+000	 1.1410797639e+000	-2.8315405689e-001
 2.0227714400e+000	 1.1630899723e+000	-3.5761741707e-001
 2.0100173918e+000	 1.1849947132e+000	-4.3025488507e-001
 1.9970080273e+000	 1.2067895896e+000	-5.0145388315e-001
 1.9837446602e+000	 1.2284702205e+000	-5.7068897893e-001
 1.9702287031e+000	 1.2500322424e+000	-6.3722154052e-001
 1.9564616671e+000	 1.2714713133e+000	-7.0048222322e-001
 1.9424451616e+000	 1.2927831142e+000	-7.5984455611e-001
 1.9281808938e+000	 1.3139633529e+000	-8.1462182569e-001
 1.9136706685e+000	 1.3350077662e+000	-8.6406816032e-001
 1.8989163873e+000	 1.3559121227e+000	-9.0791759670e-001
 1.6819178335e+000	 1.2009653480e+000	-9.6151966900e-001
 1.6686351992e+000	 1.2193530910e+000	-1.0277296540e+000
 1.6551400189e+000	 1.2376093784e+000	-1.0954864294e+000
 1.6414342274e+000	 1.2557305588e+000	-1.1631703009e+000
 1.6275198424e+000	 1.2737130187e+000	-1.2291057309e+000
 1.6133989638e+000	 1.2915531845e+000	-1.2915625212e+000
 1.5990737725e+000	 1.3092475249e+000	-1.3487571401e+000
 1.5845465294e+000	 1.3267925536e+000	-1.3988542055e+000
 1.5698195741e+000	 1.3441848306e+000	-1.4409779499e+000
 1.5548953239e+000	 1.3614209657e+000	-1.4766793385e+000
 1.5397762725e+000	 1.3784976194e+000	-1.5037358487e+000
 1.7036176889e+000	 1.2164600255e+000	-9.6467045920e-001
 1.6901636840e+000	 1.2350850044e+000	-1.0306584924e+000
 1.6764943909e+000	 1.2535768317e+000	-1.0987457179e+000
 1.6626117692e+000	 1.2719318089e+000	-1.1670772304e+000
 1.6485178629e+000	 1.2901462759e+000	-1.2337443756e+000
 1.6342147989e+000	 1.3082166128e+000	-1.2967862065e+000
 1.6197047861e+000	 1.3261392431e+000	-1.3541910808e+000
 1.6049901146e+000	 1.3439106350e+000	-1.4047874314e+000
 1.5900731543e+000	 1.3615273047e+000	-1.4498570979e+000
 1.5749563537e+000	 1.3789858178e+000	-1.4870202460e+000
 1.5596422385e+000	 1.3962827920e+000	-1.5134978484e+000
 1.7253175442e+000	 1.2319547029e+000	-9.6207829030e-001
 1.7116921688e+000	 1.2508169178e+000	-1.0269596610e+000
 1.6978487628e+000	 1.2695442851e+000	-1.0945411584e+000
 1.6837893111e+000	 1.2881330591e+000	-1.1628108278e+000
 1.6695158835e+000	 1.3065795330e+000	-1.2297039060e+000
 1.6550306339e+000	 1.3248800412e+000	-1.2931043901e+000
 1.6403357996e+000	 1.3430309612e+000	-1.3515337201e+000
 1.6254336998e+000	 1.3610287165e+000	-1.4060611811e+000
 1.6103267345e+000	 1.3788697788e+000	-1.4542815485e+000
 1.5950173834e+000	 1.3965506700e+000	-1.4932755138e+000
 1.5795082045e+000	 1.4140679646e+000	-1.5201505009e+000
 1.7470173996e+000	 1.2474493804e+000	-9.5521796043e-001
 1.7332206536e+000	 1.2665488313e+000	-1.0182778881e+000
 1.7192031348e+000	 1.2855117384e+000	-1.0846546692e+000
 1.7049668530e+000	 1.3043343092e+000	-1.1522546654e+000
 1.6905139040e+000	 1.3230127902e+000	-1.2189312404e+000
 1.6758464690e+000	 1.3415434695e+000	-1.2829348550e+000
 1.6609668132e+000	 1.3599226793e+000	-1.3451268571e+000
 1.6458772850e+000	 1.3781467980e+000	-1.4032230601e+000
 1.6305803147e+000	 1.3962122529e+000	-1.4542279533e+000
 1.6150784131e+000	 1.4141155221e+000	-1.4951720420e+000
 1.5993741704e+000	 1.4318531372e+000	-1.5231159979e+000
 1.7687172550e+000	 1.2629440579e+000	-9.4554691692e-001
 1.7547491384e+000	 1.2822807447e+000	-1.0062327530e+000
 1.7405575068e+000	 1.3014791917e+000	-1.0708368895e+000
 1.7261443948e+000	 1.3205355593e+000	-1.1372567288e+000
 1.7115119245e+000	 1.3394460474e+000	-1.2035596537e+000
 1.6966623040e+000	 1.3582068979e+000	-1.2703441516e+000
 1.6815978267e+000	 1.3768143974e+000	-1.3356086072e+000
 1.6663208702e+000	 1.3952648795e+000	-1.3963483752e+000
 1.6508338949e+000	 1.4135547269e+000	-1.4495822273e+000
 1.6351394428e+000	 1.4316803742e+000	-1.4923565721e+000
 1.6192401364e+000	 1.4496383098e+000	-1.5217496201e+000
 1.7904171104e+000	 1.2784387354e+000	-9.3450317885e-001
 1.7762776232e+000	 1.2980126581e+000	-9.9241683333e-001
 1.7619118787e+000	 1.3174466451e+000	-1.0548054571e+000
 1.7473219367e+000	 1.3367368095e+000	-1.1196899203e+000
 1.7325099451e+000	 1.3558793046e+000	-1.1872990916e+000
 1.7174781390e+000	 1.3748703262e+000	-1.2560837000e+000
 1.7022288403e+000	 1.3937061155e+000	-1.3230992418e+000
 1.6867644554e+000	 1.4123829610e+000	-1.3854205558e+000
 1.6710874751e+000	 1.4308972010e+000	-1.4401459874e+000
 1.6552004726e+000	 1.4492452264e+000	-1.4844015068e+000
 1.6391061023e+000	 1.4674234824e+000	-1.5153447696e+000
 1.8121169658e+000	 1.2939334128e+000	-9.2350301393e-001
 1.7978061080e+000	 1.3137445715e+000	-9.7839358080e-001
 1.7832662507e+000	 1.3334140984e+000	-1.0382430554e+000
 1.7684994786e+000	 1.3529380596e+000	-1.1027753991e+000
 1.7535079656e+000	 1.3723125617e+000	-1.1710571971e+000
 1.7382939741e+000	 1.3915337546e+000	-1.2402747983e+000
 1.7228598538e+000	 1.4105978337e+000	-1.3076287530e+000
 1.7072080406e+000	 1.4295010425e+000	-1.3703377910e+000
 1.6913410553e+000	 1.4482396751e+000	-1.4256427662e+000
 1.6752615023e+000	 1.4668100785e+000	-1.4708105535e+000
 1.6589720683e+000	 1.4852086550e+000	-1.5031378863e+000
 1.8338168211e+000	 1.3094280903e+000	-9.1393839005e-001
 1.8193345928e+000	 1.3294764849e+000	-9.6569494746e-001
 1.8046206227e+000	 1.3493815518e+000	-1.0237135164e+000
 1.7896770205e+000	 1.3691393097e+000	-1.0876402354e+000
 1.7745059861e+000	 1.3887458189e+000	-1.1549208074e+000
 1.7591098091e+000	 1.4081971829e+000	-1.2229522173e+000
 1.7434908673e+000	 1.4274895518e+000	-1.2891435094e+000
 1.7276516258e+000	 1.4466191240e+000	-1.3509194278e+000
 1.7115946355e+000	 1.4655821492e+000	-1.4057240218e+000
 1.6953225320e+000	 1.4843749307e+000	-1.4510242053e+000
 1.6788380342e+000	 1.5029938276e+000	-1.4843132557e+000
 1.8555166765e+000	 1.3249227678e+000	-9.0717421993e-001
 1.8408630775e+000	 1.3452083983e+000	-9.5622430435e-001
 1.8259749946e+000	 1.3653490051e+000	-1.0126396698e+000
 1.8108545623e+000	 1.3853405599e+000	-1.0743086261e+000
 1.7955040066e+000	 1.4051790761e+000	-1.1388956433e+000
 1.7799256442e+000	 1.4248606113e+000	-1.2040707365e+000
 1.7641218809e+000	 1.4443812699e+000	-1.2675126719e+000
 1.7480952110e+000	 1.4637372054e+000	-1.3269121500e+000
 1.7318482157e+000	 1.4829246232e+000	-1.3799749579e+000
 1.7153835617e+000	 1.5019397828e+000	-1.4244250743e+000
 1.6987040002e+000	 1.5207790002e+000	-1.4580077184e+000
 1.8772165319e+000	 1.3404174452e+000	-9.0465515745e-001
 1.8623915623e+000	 1.3609403118e+000	-9.5160368348e-001
 1.8473293666e+000	 1.3813164584e+000	-1.0049612000e+000
 1.8320321042e+000	 1.4015418100e+000	-1.0627303027e+000
 1.8165020272e+000	 1.4216123332e+000	-1.1229126194e+000
 1.8007414792e+000	 1.4415240397e+000	-1.1835114477e+000
 1.7847528944e+000	 1.4612729880e+000	-1.2425343882e+000
 1.7685387962e+000	 1.4808552869e+000	-1.2979959576e+000
 1.7521017959e+000	 1.5002670973e+000	-1.3479201719e+000
 1.7354445915e+000	 1.5195046350e+000	-1.3903430877e+000
 1.7185699662e+000	 1.5385641728e+000	-1.4233152888e+000
 1.8989163873e+000	 1.3559121227e+000	-9.0791759670e-001
 1.8839200471e+000	 1.3766722252e+000	-9.5172892837e-001
 1.8686837386e+000	 1.3972839118e+000	-1.0005508623e+000
 1.8532096461e+000	 1.4177430601e+000	-1.0527865366e+000
 1.8375000477e+000	 1.4380455904e+000	-1.1068339366e+000
 1.8215573143e+000	 1.4581874680e+000	-1.1610878444e+000
 1.8053839080e+000	 1.4781647061e+000	-1.2139417856e+000
 1.7889823814e+000	 1.4979733684e+000	-1.2637899595e+000
 1.7723553761e+000	 1.5176095714e+000	-1.3090291433e+000
 1.7555056212e+000	 1.5370694871e+000	-1.3480605589e+000
 1.7384359321e+000	 1.5563493455e+000	-1.3792916906e+000
 1.5397762725e+000	 1.3784976194e+000	-1.5037358487e+000
 1.5244672996e+000	 1.3954089816e+000	-1.5298327863e+000
 1.5089687939e+000	 1.4121543980e+000	-1.5629431046e+000
 1.4932834697e+000	 1.4287306986e+000	-1.6009113264e+000
 1.4774141115e+000	 1.4451347731e+000	-1.6415928189e+000
 1.4613635726e+000	 1.4613635726e+000	-1.6828569320e+000
 1.4451347731e+000	 1.4774141115e+000	-1.7225900923e+000
 1.4287306986e+000	 1.4932834697e+000	-1.7586988474e+000
 1.4121543980e+000	 1.5089687939e+000	-1.7891128551e+000
 1.3954089816e+000	 1.5244672996e+000	-1.8117878088e+000
 1.3784976194e+000	 1.5397762725e+000	-1.8247082975e+000
 1.5596422385e+000	 1.3962827920e+000	-1.5134978484e+000
 1.5441357515e+000	 1.4134123421e+000	-1.5367394367e+000
 1.5284372864e+000	 1.4303738054e+000	-1.5649528716e+000
 1.5125495924e+000	 1.4471639710e+000	-1.5965081897e+000
 1.4964754901e+000	 1.4637796884e+000	-1.6297803297e+000
 1.4802178695e+000	 1.4802178695e+000	-1.6631513227e+000
 1.4637796884e+000	 1.4964754901e+000	-1.6950124461e+000
 1.4471639710e+000	 1.5125495924e+000	-1.7237663387e+000
 1.4303738054e+000	 1.5284372864e+000	-1.7478290721e+000
 1.4134123421e+000	 1.5441357515e+000	-1.7656321738e+000
 1.3962827920e+000	 1.5596422385e+000	-1.7756245984e+000
 1.5795082045e+000	 1.4140679646e+000	-1.5201505009e+000
 1.5638042033e+000	 1.4314157026e+000	-1.5420110187e+000
 1.5479057788e+000	 1.4485932128e+000	-1.5670763433e+000
 1.5318157151e+000	 1.4655972434e+000	-1.5941386334e+000
 1.5155368687e+000	 1.4824246038e+000	-1.6219899803e+000
 1.4990721664e+000	 1.4990721664e+000	-1.6494238214e+000
 1.4824246038e+000	 1.5155368687e+000	-1.6752363248e+000
 1.4655972434e+000	 1.5318157151e+000	-1.6982277412e+000
 1.4485932128e+000	 1.5479057788e+000	-1.7172037217e+000
 1.4314157026e+000	 1.5638042033e+000	-1.7309765979e+000
 1.4140679646e+000	 1.5795082045e+000	-1.7383666226e+000
 1.5993741704e+000	 1.4318531372e+000	-1.5231159979e+000
 1.5834726552e+000	 1.4494190631e+000	-1.5447483049e+000
 1.5673742712e+000	 1.4668126202e+000	-1.5681185861e+000
 1.5510818378e+000	 1.4840305158e+000	-1.5923415352e+000
 1.5345982472e+000	 1.5010695191e+000	-1.6165277583e+000
 1.5179264632e+000	 1.5179264632e+000	-1.6397845786e+000
 1.5010695191e+000	 1.5345982472e+000	-1.6612168169e+000
 1.4840305158e+000	 1.5510818378e+000	-1.6799275441e+000
 1.4668126202e+000	 1.5673742712e+000	-1.6950188052e+000
 1.4494190631e+000	 1.5834726552e+000	-1.7055923132e+000
 1.4318531372e+000	 1.5993741704e+000	-1.7107501124e+000
 1.6192401364e+000	 1.4496383098e+000	-1.5217496201e+000
 1.6031411070e+000	 1.4674224236e+000	-1.5439991960e+000
 1.5868427636e+000	 1.4850320276e+000	-1.5668445424e+000
 1.5703479605e+000	 1.5024637881e+000	-1.5896269201e+000
 1.5536596258e+000	 1.5197144344e+000	-1.6116804083e+000
 1.5367807601e+000	 1.5367807601e+000	-1.6323322663e+000
 1.5197144344e+000	 1.5536596258e+000	-1.6509032714e+000
 1.5024637881e+000	 1.5703479605e+000	-1.6667080323e+000
 1.4850320276e+000	 1.5868427636e+000	-1.6790552753e+000
 1.4674224236e+000	 1.6031411070e+000	-1.6872481059e+000
 1.4496383098e+000	 1.6192401364e+000	-1.6905842432e+000
 1.6391061023e+000	 1.4674234824e+000	-1.5153447696e+000
 1.6228095589e+000	 1.4854257841e+000	-1.5387629119e+000
 1.6063112560e+000	 1.5032514350e+000	-1.5619824525e+000
 1.5896140832e+000	 1.5208970605e+000	-1.5844786943e+000
 1.5727210044e+000	 1.5383593497e+000	-1.6057175713e+000
 1.5556350570e+000	 1.5556350570e+000	-1.6251557278e+000
 1.5383593497e+000	 1.5727210044e+000	-1.6422405738e+000
 1.5208970605e+000	 1.5896140832e+000	-1.6564103142e+000
 1.5032514350e+000	 1.6063112560e+000	-1.6670939524e+000
 1.4854257841e+000	 1.6228095589e+000	-1.6737112677e+000
 1.4674234824e+000	 1.6391061023e+000	-1.6756727680e+000
 1.6589720683e+000	 1.4852086550e+000	-1.5031378863e+000
 1.6424780107e+000	 1.5034291446e+000	-1.5279941292e+000
 1.6257797485e+000	 1.5214708424e+000	-1.5522272787e+000
 1.6088802058e+000	 1.5393303329e+000	-1.5753574335e+000
 1.5917823829e+000	 1.5570042650e+000	-1.5968940229e+000
 1.5744893539e+000	 1.5744893539e+000	-1.6163357629e+000
 1.5570042650e+000	 1.5917823829e+000	-1.6331705840e+000
 1.5393303329e+000	 1.6088802058e+000	-1.6468755303e+000
 1.5214708424e+000	 1.6257797485e+000	-1.6569166295e+000
 1.5034291446e+000	 1.6424780107e+000	-1.6627487344e+000
 1.4852086550e+000	 1.6589720683e+000	-1.6638153362e+000
 1.6788380342e+000	 1.5029938276e+000	-1.4843132557e+000
 1.6621464626e+000	 1.5214325051e+000	-1.5106070681e+000
 1.6452482409e+000	 1.5396902497e+000	-1.5362441328e+000
 1.6281463285e+000	 1.5577636052e+000	-1.5607032204e+000
 1.6108437615e+000	 1.5756491803e+000	-1.5834520020e+000
 1.5933436508e+000	 1.5933436508e+000	-1.6039470365e+000
 1.5756491803e+000	 1.6108437615e+000	-1.6216337247e+000
 1.5577636052e+000	 1.6281463285e+000	-1.6359462281e+000
 1.5396902497e+000	 1.6452482409e+000	-1.6463073529e+000
 1.5214325051e+000	 1.6621464626e+000	-1.6521283981e+000
 1.5029938276e+000	 1.6788380342e+000	-1.6528089710e+000
 1.6987040002e+000	 1.5207790002e+000	-1.4580077184e+000
 1.6818149144e+000	 1.5394358656e+000	-1.4854795342e+000
 1.6647167333e+000	 1.5579096571e+000	-1.5126717060e+000
 1.6474124512e+000	 1.5761968776e+000	-1.5389385289e+000
 1.6299051401e+000	 1.5942940957e+000	-1.5636236222e+000
 1.6121979477e+000	 1.6121979477e+000	-1.5860601012e+000
 1.5942940957e+000	 1.6299051401e+000	-1.6055707066e+000
 1.5761968776e+000	 1.6474124512e+000	-1.6214678913e+000
 1.5579096571e+000	 1.6647167333e+000	-1.6330538617e+000
 1.5394358656e+000	 1.6818149144e+000	-1.6396205754e+000
 1.5207790002e+000	 1.6987040002e+000	-1.6404496938e+000
 1.7185699662e+000	 1.5385641728e+000	-1.4233152888e+000
 1.7014833663e+000	 1.5574392261e+000	-1.4514569177e+000
 1.6841852257e+000	 1.5761290645e+000	-1.4801257012e+000
 1.6666785739e+000	 1.5946301500e+000	-1.5084711495e+000
 1.6489665187e+000	 1.6129390110e+000	-1.5356333603e+000
 1.6310522446e+000	 1.6310522446e+000	-1.5607435247e+000
 1.6129390110e+000	 1.6489665187e+000	-1.5829243798e+000
 1.5946301500e+000	 1.6666785739e+000	-1.6012906077e+000
 1.5761290645e+000	 1.6841852257e+000	-1.6149491761e+000
 1.5574392261e+000	 1.7014833663e+000	-1.6229996230e+000
 1.5385641728e+000	 1.7185699662e+000	-1.6245342828e+000
 1.7384359321e+000	 1.5563493455e+000	-1.3792916906e+000
 1.7211518181e+000	 1.5754425866e+000	-1.4073561540e+000
 1.7036537181e+000	 1.5943484719e+000	-1.4372022673e+000
 1.6859446966e+000	 1.6130634224e+000	-1.4676971536e+000
 1.6680278972e+000	 1.6315839263e+000	-1.4977006138e+000
 1.6499065415e+000	 1.6499065415e+000	-1.5260661131e+000
 1.6315839263e+000	 1.6680278972e+000	-1.5516417019e+000
 1.6130634224e+000	 1.6859446966e+000	-1.5732708684e+000
 1.5943484719e+000	 1.7036537181e+000	-1.5897933192e+000
 1.5754425866e+000	 1.7211518181e+000	-1.6000456857e+000
 1.5563493455e+000	 1.7384359321e+000	-1.6028621552e+000
 1.3784976194e+000	 1.5397762725e+000	-1.8247082975e+000
 1.3614209657e+000	 1.5548953239e+000	-1.8319402300e+000
 1.3441848306e+000	 1.5698195741e+000	-1.8380102265e+000
 1.3267925536e+000	 1.5845465294e+000	-1.8420426475e+000
 1.3092475249e+000	 1.5990737725e+000	-1.8469871232e+000
 1.2915531845e+000	 1.6133989638e+000	-1.8520860724e+000
 1.2737130187e+000	 1.6275198424e+000	-1.8553121450e+000
 1.2557305588e+000	 1.6414342274e+000	-1.8546138256e+000
 1.2376093784e+000	 1.6551400189e+000	-1.8479228807e+000
 1.2193530910e+000	 1.6686351992e+000	-1.8331618382e+000
 1.2009653480e+000	 1.6819178335e+000	-1.8082514712e+000
 1.3962827920e+000	 1.5596422385e+000	-1.7756245984e+000
 1.3789858178e+000	 1.5749563537e+000	-1.7818774245e+000
 1.3615273047e+000	 1.5900731543e+000	-1.7885434563e+000
 1.3439106350e+000	 1.6049901146e+000	-1.7942070512e+000
 1.3261392431e+000	 1.6197047861e+000	-1.7978805777e+000
 1.3082166128e+000	 1.6342147989e+000	-1.8018381375e+000
 1.2901462759e+000	 1.6485178629e+000	-1.8048400484e+000
 1.2719318089e+000	 1.6626117692e+000	-1.8046137541e+000
 1.2535768317e+000	 1.6764943909e+000	-1.7988653563e+000
 1.2350850044e+000	 1.6901636840e+000	-1.7852876688e+000
 1.2164600255e+000	 1.7036176889e+000	-1.7615682769e+000
 1.4140679646e+000	 1.5795082045e+000	-1.7383666226e+000
 1.3965506700e+000	 1.5950173834e+000	-1.7434856144e+000
 1.3788697788e+000	 1.6103267345e+000	-1.7502332357e+000
 1.3610287165e+000	 1.6254336998e+000	-1.7571137368e+000
 1.3430309612e+000	 1.6403357996e+000	-1.7626245230e+000
 1.3248800412e+000	 1.6550306339e+000	-1.7657353332e+000
 1.3065795330e+000	 1.6695158835e+000	-1.7679389047e+000
 1.2881330591e+000	 1.6837893111e+000	-1.7674608612e+000
 1.2695442851e+000	 1.6978487628e+000	-1.7618137593e+000
 1.2508169178e+000	 1.7116921688e+000	-1.7484928923e+000
 1.2319547029e+000	 1.7253175442e+000	-1.7249848714e+000
 1.4318531372e+000	 1.5993741704e+000	-1.7107501124e+000
 1.4141155221e+000	 1.6150784131e+000	-1.7146627293e+000
 1.3962122529e+000	 1.6305803147e+000	-1.7210765907e+000
 1.3781467980e+000	 1.6458772850e+000	-1.7284512189e+000
 1.3599226793e+000	 1.6609668132e+000	-1.7352368703e+000
 1.3415434695e+000	 1.6758464690e+000	-1.7398762296e+000
 1.3230127902e+000	 1.6905139040e+000	-1.7413282220e+000
 1.3043343092e+000	 1.7049668530e+000	-1.7401362881e+000
 1.2855117384e+000	 1.7192031348e+000	-1.7340230234e+000
 1.2665488313e+000	 1.7332206536e+000	-1.7203169876e+000
 1.2474493804e+000	 1.7470173996e+000	-1.6963346284e+000
 1.4496383098e+000	 1.6192401364e+000	-1.6905842432e+000
 1.4316803742e+000	 1.6351394428e+000	-1.6932941554e+000
 1.4135547269e+000	 1.6508338949e+000	-1.6990511983e+000
 1.3952648795e+000	 1.6663208702e+000	-1.7063044139e+000
 1.3768143974e+000	 1.6815978267e+000	-1.7134916342e+000
 1.3582068979e+000	 1.6966623040e+000	-1.7190411246e+000
 1.3394460474e+000	 1.7115119245e+000	-1.7213732142e+000
 1.3205355593e+000	 1.7261443948e+000	-1.7193945476e+000
 1.3014791917e+000	 1.7405575068e+000	-1.7125124547e+000
 1.2822807447e+000	 1.7547491384e+000	-1.6980544130e+000
 1.2629440579e+000	 1.7687172550e+000	-1.6731961846e+000
 1.4674234824e+000	 1.6391061023e+000	-1.6756727680e+000
 1.4492452264e+000	 1.6552004726e+000	-1.6772541792e+000
 1.4308972010e+000	 1.6710874751e+000	-1.6821171710e+000
 1.4123829610e+000	 1.6867644554e+000	-1.6887334833e+000
 1.3937061155e+000	 1.7022288403e+000	-1.6955621742e+000
 1.3748703262e+000	 1.7174781390e+000	-1.7010511471e+000
 1.3558793046e+000	 1.7325099451e+000	-1.7036386641e+000
 1.3367368095e+000	 1.7473219367e+000	-1.7017548459e+000
 1.3174466451e+000	 1.7619118787e+000	-1.6940766034e+000
 1.2980126581e+000	 1.7762776232e+000	-1.6787659343e+000
 1.2784387354e+000	 1.7904171104e+000	-1.6529052308e+000
 1.4852086550e+000	 1.6589720683e+000	-1.6638153362e+000
 1.4668100785e+000	 1.6752615023e+000	-1.6644075826e+000
 1.4482396751e+000	 1.6913410553e+000	-1.6682189682e+000
 1.4295010425e+000	 1.7072080406e+000	-1.6737760977e+000
 1.4105978337e+000	 1.7228598538e+000	-1.6795918895e+000
 1.3915337546e+000	 1.7382939741e+000	-1.6841669238e+000
 1.3723125617e+000	 1.7535079656e+000	-1.6859907736e+000
 1.3529380596e+000	 1.7684994786e+000	-1.6835433209e+000
 1.3334140984e+000	 1.7832662507e+000	-1.6752960606e+000
 1.3137445715e+000	 1.7978061080e+000	-1.6592898321e+000
 1.2939334128e+000	 1.8121169658e+000	-1.6325661407e+000
 1.5029938276e+000	 1.6788380342e+000	-1.6528089710e+000
 1.4843749307e+000	 1.6953225320e+000	-1.6526113769e+000
 1.4655821492e+000	 1.7115946355e+000	-1.6552874242e+000
 1.4466191240e+000	 1.7276516258e+000	-1.6594497913e+000
 1.4274895518e+000	 1.7434908673e+000	-1.6636969306e+000
 1.4081971829e+000	 1.7591098091e+000	-1.6666141747e+000
 1.3887458189e+000	 1.7745059861e+000	-1.6667748212e+000
 1.3691393097e+000	 1.7896770205e+000	-1.6627412004e+000
 1.3493815518e+000	 1.8046206227e+000	-1.6530657282e+000
 1.3294764849e+000	 1.8193345928e+000	-1.6362529966e+000
 1.3094280903e+000	 1.8338168211e+000	-1.6090634479e+000
 1.5207790002e+000	 1.6987040002e+000	-1.6404496938e+000
 1.5019397828e+000	 1.7153835617e+000	-1.6397166658e+000
 1.4829246232e+000	 1.7318482157e+000	-1.6412418826e+000
 1.4637372054e+000	 1.7480952110e+000	-1.6437543989e+000
 1.4443812699e+000	 1.7641218809e+000	-1.6459689665e+000
 1.4248606113e+000	 1.7799256442e+000	-1.6465868355e+000
 1.4051790761e+000	 1.7955040066e+000	-1.6442965313e+000
 1.3853405599e+000	 1.8108545623e+000	-1.6377746081e+000
 1.3653490051e+000	 1.8259749946e+000	-1.6256863871e+000
 1.3452083983e+000	 1.8408630775e+000	-1.6066866825e+000
 1.3249227678e+000	 1.8555166765e+000	-1.5790731859e+000
 1.5385641728e+000	 1.7185699662e+000	-1.6245342828e+000
 1.5195046350e+000	 1.7354445915e+000	-1.6235706246e+000
 1.5002670973e+000	 1.7521017959e+000	-1.6239924287e+000
 1.4808552869e+000	 1.7685387962e+000	-1.6246745700e+000
 1.4612729880e+000	 1.7847528944e+000	-1.6244780049e+000
 1.4415240397e+000	 1.8007414792e+000	-1.6222502072e+000
 1.4216123332e+000	 1.8165020272e+000	-1.6168255721e+000
 1.4015418100e+000	 1.8320321042e+000	-1.6070257941e+000
 1.3813164584e+000	 1.8473293666e+000	-1.5916602253e+000
 1.3609403118e+000	 1.8623915623e+000	-1.5695262197e+000
 1.3404174452e+000	 1.8772165319e+000	-1.5394094718e+000
 1.5563493455e+000	 1.7384359321e+000	-1.6028621552e+000
 1.5370694871e+000	 1.7555056212e+000	-1.6020185893e+000
 1.5176095714e+000	 1.7723553761e+000	-1.6014422123e+000
 1.4979733684e+000	 1.7889823814e+000	-1.6001823513e+000
 1.4781647061e+000	 1.8053839080e+000	-1.5972752602e+000
 1.4581874680e+000	 1.8215573143e+000	-1.5917441286e+000
 1.4380455904e+000	 1.8375000477e+000	-1.5825990519e+000
 1.4177430601e+000	 1.8532096461e+000	-1.5688369703e+000
 1.3972839118e+000	 1.8686837386e+000	-1.5494415828e+000
 1.3766722252e+000	 1.8839200471e+000	-1.5233832463e+000
 1.3559121227e+000	 1.8989163873e+000	-1.4896188660e+000
 1.2009653480e+000	 1.6819178335e+000	-1.8082514712e+000
 1.1824498355e+000	 1.6949860702e+000	-1.7803929232e+000
 1.1638102713e+000	 1.7078381404e+000	-1.7569654802e+000
 1.1450504030e+000	 1.7204723598e+000	-1.7361949758e+000
 1.1261740068e+000	 1.7328871300e+000	-1.7163590273e+000
 1.1071848845e+000	 1.7450809388e+000	-1.6957938259e+000
 1.0880868613e+000	 1.7570523608e+000	-1.6729007451e+000
 1.0688837832e+000	 1.7688000574e+000	-1.6461527488e+000
 1.0495795149e+000	 1.7803227775e+000	-1.6141005795e+000
 1.0301779370e+000	 1.7916193577e+000	-1.5753787140e+000
 1.0106829438e+000	 1.8026887218e+000	-1.5287110676e+000
 1.2164600255e+000	 1.7036176889e+000	-1.7615682769e+000
 1.1977056286e+000	 1.7168545300e+000	-1.7351507717e+000
 1.1788255794e+000	 1.7298724157e+000	-1.7137201043e+000
 1.1598236741e+000	 1.7426696400e+000	-1.6953602689e+000
 1.1407037375e+000	 1.7552445837e+000	-1.6782057243e+000
 1.1214696203e+000	 1.7675957153e+000	-1.6604485638e+000
 1.1021251972e+000	 1.7797215907e+000	-1.6403454963e+000
 1.0826743639e+000	 1.7916208544e+000	-1.6162246220e+000
 1.0631210347e+000	 1.8032922390e+000	-1.5864919831e+000
 1.0434691405e+000	 1.8147345659e+000	-1.5496378742e+000
 1.0237226258e+000	 1.8259467454e+000	-1.5042428957e+000
 1.2319547029e+000	 1.7253175442e+000	-1.7249848714e+000
 1.2129614217e+000	 1.7387229899e+000	-1.6990054166e+000
 1.1938408876e+000	 1.7519066910e+000	-1.6785615971e+000
 1.1745969453e+000	 1.7648669201e+000	-1.6616070719e+000
 1.1552334681e+000	 1.7776020374e+000	-1.6461435064e+000
 1.1357543561e+000	 1.7901104917e+000	-1.6302281083e+000
 1.1161635331e+000	 1.8023908206e+000	-1.6119809728e+000
 1.0964649445e+000	 1.8144416513e+000	-1.5895922184e+000
 1.0766625546e+000	 1.8262617004e+000	-1.5613288927e+000
 1.0567603441e+000	 1.8378497742e+000	-1.5255416334e+000
 1.0367623078e+000	 1.8492047689e+000	-1.4806710682e+000
 1.2474493804e+000	 1.7470173996e+000	-1.6963346284e+000
 1.2282172147e+000	 1.7605914497e+000	-1.6700780723e+000
 1.2088561958e+000	 1.7739409664e+000	-1.6498780586e+000
 1.1893702164e+000	 1.7870642003e+000	-1.6335687961e+000
 1.1697631988e+000	 1.7999594911e+000	-1.6190289298e+000
 1.1500390919e+000	 1.8126252681e+000	-1.6041894329e+000
 1.1302018690e+000	 1.8250600506e+000	-1.5870413060e+000
 1.1102555251e+000	 1.8372624483e+000	-1.5656430638e+000
 1.0902040744e+000	 1.8492311618e+000	-1.5381279902e+000
 1.0700515476e+000	 1.8609649824e+000	-1.5027111449e+000
 1.0498019898e+000	 1.8724627925e+000	-1.4576961057e+000
 1.2629440579e+000	 1.7687172550e+000	-1.6731961846e+000
 1.2434730078e+000	 1.7824599095e+000	-1.6462259343e+000
 1.2238715039e+000	 1.7959752417e+000	-1.6257854605e+000
 1.2041434875e+000	 1.8092614805e+000	-1.6095998203e+000
 1.1842929294e+000	 1.8223169448e+000	-1.5954338553e+000
 1.1643238277e+000	 1.8351400445e+000	-1.5811004277e+000
 1.1442402050e+000	 1.8477292805e+000	-1.5644684630e+000
 1.1240461058e+000	 1.8600832453e+000	-1.5434707791e+000
 1.1037455942e+000	 1.8722006232e+000	-1.5161116835e+000
 1.0833427511e+000	 1.8840801906e+000	-1.4804743196e+000
 1.0628416718e+000	 1.8957208160e+000	-1.4347277481e+000
 1.2784387354e+000	 1.7904171104e+000	-1.6529052308e+000
 1.2587288009e+000	 1.8043283694e+000	-1.6250543965e+000
 1.2388868121e+000	 1.8180095171e+000	-1.6041402046e+000
 1.2189167586e+000	 1.8314587607e+000	-1.5877883081e+000
 1.1988226600e+000	 1.8446743986e+000	-1.5736584390e+000
 1.1786085635e+000	 1.8576548210e+000	-1.5594529771e+000
 1.1582785409e+000	 1.8703985105e+000	-1.5429253251e+000
 1.1378366864e+000	 1.8829040423e+000	-1.5218880712e+000
 1.1172871140e+000	 1.8951700847e+000	-1.4942209204e+000
 1.0966339547e+000	 1.9071953989e+000	-1.4578783743e+000
 1.0758813538e+000	 1.9189788395e+000	-1.4108971475e+000
 1.2939334128e+000	 1.8121169658e+000	-1.6325661407e+000
 1.2739845939e+000	 1.8261968292e+000	-1.6039290635e+000
 1.2539021203e+000	 1.8400437924e+000	-1.5825514427e+000
 1.2336900297e+000	 1.8536560409e+000	-1.5659687560e+000
 1.2133523907e+000	 1.8670318523e+000	-1.5517438296e+000
 1.1928932993e+000	 1.8801695974e+000	-1.5374757260e+000
 1.1723168768e+000	 1.8930677404e+000	-1.5208084415e+000
 1.1516272671e+000	 1.9057248393e+000	-1.4994393924e+000
 1.1308286339e+000	 1.9181395461e+000	-1.4711276710e+000
 1.1099251582e+000	 1.9303106071e+000	-1.4337020539e+000
 1.0889210358e+000	 1.9422368631e+000	-1.3850687458e+000
 1.3094280903e+000	 1.8338168211e+000	-1.6090634479e+000
 1.2892403870e+000	 1.8480652890e+000	-1.5799875756e+000
 1.2689174284e+000	 1.8620780678e+000	-1.5583931766e+000
 1.2484633008e+000	 1.8758533210e+000	-1.5417342958e+000
 1.2278821213e+000	 1.8893893060e+000	-1.5274845977e+000
 1.2071780351e+000	 1.9026843738e+000	-1.5131465611e+000
 1.1863552127e+000	 1.9157369704e+000	-1.4962604865e+000
 1.1654178477e+000	 1.9285456363e+000	-1.4744132960e+000
 1.1443701537e+000	 1.9411090075e+000	-1.4452471055e+000
 1.1232163617e+000	 1.9534258153e+000	-1.4064675521e+000
 1.1019607178e+000	 1.9654948866e+000	-1.3558518615e+000
 1.3249227678e+000	 1.8555166765e+000	-1.5790731859e+000
 1.3044961801e+000	 1.8699337489e+000	-1.5501512623e+000
 1.2839327366e+000	 1.8841123431e+000	-1.5288161573e+000
 1.2632365720e+000	 1.8980506012e+000	-1.5124487698e+000
 1.2424118520e+000	 1.9117467597e+000	-1.4984409183e+000
 1.2214627709e+000	 1.9251991503e+000	-1.4842048294e+000
 1.2003935486e+000	 1.9384062003e+000	-1.4671824430e+000
 1.1792084284e+000	 1.9513664333e+000	-1.4448545140e+000
 1.1579116735e+000	 1.9640784689e+000	-1.4147494917e+000
 1.1365075653e+000	 1.9765410235e+000	-1.3744521579e+000
 1.1150003998e+000	 1.9887529101e+000	-1.3216120101e+000
 1.3404174452e+000	 1.8772165319e+000	-1.5394094718e+000
 1.3197519731e+000	 1.8918022087e+000	-1.5111366372e+000
 1.2989480448e+000	 1.9061466185e+000	-1.4907595983e+000
 1.2780098431e+000	 1.9202478814e+000	-1.4752585981e+000
 1.2569415826e+000	 1.9341042134e+000	-1.4619505263e+000
 1.2357475067e+000	 1.9477139267e+000	-1.4481633163e+000
 1.2144318846e+000	 1.9610754303e+000	-1.4312455354e+000
 1.1929990090e+000	 1.9741872303e+000	-1.4085757772e+000
 1.1714531933e+000	 1.9870479304e+000	-1.3775718361e+000
 1.1497987688e+000	 1.9996562318e+000	-1.3356996477e+000
 1.1280400818e+000	 2.0120109336e+000	-1.2806613929e+000
 1.3559121227e+000	 1.8989163873e+000	-1.4896188660e+000
 1.3350077662e+000	 1.9136706685e+000	-1.4594931830e+000
 1.3139633529e+000	 1.9281808938e+000	-1.4409627196e+000
 1.2927831142e+000	 1.9424451616e+000	-1.4271044554e+000
 1.2714713133e+000	 1.9564616671e+000	-1.4151404641e+000
 1.2500322424e+000	 1.9702287031e+000	-1.4023200015e+000
 1.2284702205e+000	 1.9837446602e+000	-1.3859029324e+000
 1.2067895896e+000	 1.9970080273e+000	-1.3631694006e+000
 1.1849947132e+000	 2.0100173918e+000	-1.3313989584e+000
 1.1630899723e+000	 2.0227714400e+000	-1.2880698117e+000
 1.1410797639e+000	 2.0352689572e+000	-1.2309539882e+000
 1.0106829438e+000	 1.8026887218e+000	-1.5287110676e+000
 9.9110138481e-001	 1.8135282730e+000	-1.4803115311e+000
 9.7143425637e-001	 1.8241387894e+000	-1.4359351153e+000
 9.5168547831e-001	 1.8345194597e+000	-1.3938831101e+000
 9.3185897448e-001	 1.8446695596e+000	-1.3525990330e+000
 9.1195867032e-001	 1.8545884519e+000	-1.3106840954e+000
 8.9198849053e-001	 1.8642755859e+000	-1.2669022588e+000
 8.7195235673e-001	 1.8737304971e+000	-1.2201848635e+000
 8.5185418521e-001	 1.8829528065e+000	-1.1696348230e+000
 8.3169788466e-001	 1.8919422205e+000	-1.1145303779e+000
 8.1148735391e-001	 1.9006985296e+000	-1.0543284048e+000
 1.0237226258e+000	 1.8259467454e+000	-1.5042428957e+000
 1.0038884284e+000	 1.8369261468e+000	-1.4569646486e+000
 9.8396755761e-001	 1.8476735586e+000	-1.4140288615e+000
 9.6396398374e-001	 1.8581881587e+000	-1.3736316440e+000
 9.4388168129e-001	 1.8684692137e+000	-1.3341155755e+000
 9.2372462635e-001	 1.8785160781e+000	-1.2939845482e+000
 9.0349679424e-001	 1.8883281941e+000	-1.2519090797e+000
 8.8320215720e-001	 1.8979050911e+000	-1.2067311870e+000
 8.6284468205e-001	 1.9072463854e+000	-1.1574688166e+000
 8.4242832788e-001	 1.9163517795e+000	-1.1033198239e+000
 8.2195704385e-001	 1.9252210612e+000	-1.0436654973e+000
 1.0367623078e+000	 1.8492047689e+000	-1.4806710682e+000
 1.0166754721e+000	 1.8603240206e+000	-1.4338332193e+000
 9.9650085886e-001	 1.8712083277e+000	-1.3917620076e+000
 9.7624248917e-001	 1.8818568577e+000	-1.3524912268e+000
 9.5590438809e-001	 1.8922688678e+000	-1.3142475745e+000
 9.3549058237e-001	 1.9024437043e+000	-1.2754125463e+000
 9.1500509795e-001	 1.9123808022e+000	-1.2345385084e+000
 8.9445195768e-001	 1.9220796851e+000	-1.1903538488e+000
 8.7383517888e-001	 1.9315399643e+000	-1.1417676730e+000
 8.5315877110e-001	 1.9407613385e+000	-1.0878740377e+000
 8.3242673380e-001	 1.9497435928e+000	-1.0279557193e+000
 1.0498019898e+000	 1.8724627925e+000	-1.4576961057e+000
 1.0294625157e+000	 1.8837218945e+000	-1.4107099605e+000
 1.0090341601e+000	 1.8947430968e+000	-1.3689831533e+000
 9.8852099460e-001	 1.9055255567e+000	-1.3303964130e+000
 9.6792709490e-001	 1.9160685219e+000	-1.2930242562e+000
 9.4725653839e-001	 1.9263713305e+000	-1.2551012646e+000
 9.2651340167e-001	 1.9364334104e+000	-1.2150374918e+000
 9.0570175815e-001	 1.9462542791e+000	-1.1714239213e+000
 8.8482567572e-001	 1.9558335432e+000	-1.1230374569e+000
 8.6388921433e-001	 1.9651708975e+000	-1.0688454397e+000
 8.4289642374e-001	 1.9742661244e+000	-1.0080096868e+000
 1.0628416718e+000	 1.8957208160e+000	-1.4347277481e+000
 1.0422495593e+000	 1.9071197683e+000	-1.3870665179e+000
 1.0215674613e+000	 1.9182778660e+000	-1.3452452001e+000
 1.0007995000e+000	 1.9291942557e+000	-1.3069998326e+000
 9.7994980170e-001	 1.9398681760e+000	-1.2701955104e+000
 9.5902249441e-001	 1.9502989566e+000	-1.2329069148e+000
 9.3802170538e-001	 1.9604860185e+000	-1.1933781527e+000
 9.1695155863e-001	 1.9704288732e+000	-1.1500395394e+000
 8.9581617255e-001	 1.9801271221e+000	-1.1015129123e+000
 8.7461965755e-001	 1.9895804564e+000	-1.0466164569e+000
 8.5336611368e-001	 1.9987886560e+000	-9.8436904339e-001
 1.0758813538e+000	 1.9189788395e+000	-1.4108971475e+000
 1.0550366030e+000	 1.9305176421e+000	-1.3621101292e+000
 1.0341007626e+000	 1.9418126351e+000	-1.3198617958e+000
 1.0130780055e+000	 1.9528629547e+000	-1.2816704576e+000
 9.9197250851e-001	 1.9636678301e+000	-1.2452425572e+000
 9.7078845043e-001	 1.9742265828e+000	-1.2084190643e+000
 9.4953000909e-001	 1.9845386267e+000	-1.1692677794e+000
 9.2820135910e-001	 1.9946034672e+000	-1.1260355820e+000
 9.0680666939e-001	 2.0044207010e+000	-1.0773291525e+000
 8.8535010078e-001	 2.0139900154e+000	-1.0230385289e+000
 8.6383580362e-001	 2.0233111876e+000	-9.6241460591e-001
 1.0889210358e+000	 1.9422368631e+000	-1.3850687458e+000
 1.0678236466e+000	 1.9539155159e+000	-1.3347836563e+000
 1.0466340638e+000	 1.9653474042e+000	-1.2918492528e+000
 1.0253565109e+000	 1.9765316538e+000	-1.2535566102e+000
 1.0039952153e+000	 1.9874674842e+000	-1.2173883452e+000
 9.8255440646e-001	 1.9981542090e+000	-1.1809706952e+000
 9.6103831281e-001	 2.0085912348e+000	-1.1426354986e+000
 9.3945115958e-001	 2.0187780612e+000	-1.1014537673e+000
 9.1779716623e-001	 2.0287142799e+000	-1.0559101102e+000
 8.9608054400e-001	 2.0383995744e+000	-1.0046644151e+000
 8.7430549357e-001	 2.0478337192e+000	-9.4657566891e-001
 1.1019607178e+000	 1.9654948866e+000	-1.3558518615e+000
 1.0806106902e+000	 1.9773133897e+000	-1.3037768008e+000
 1.0591673651e+000	 1.9888821734e+000	-1.2599846391e+000
 1.0376350163e+000	 2.0002003528e+000	-1.2215164117e+000
 1.0160179221e+000	 2.0112671383e+000	-1.1861847340e+000
 9.9432036248e-001	 2.0220818352e+000	-1.1521559508e+000
 9.7254661652e-001	 2.0326438430e+000	-1.1172777375e+000
 9.5070096006e-001	 2.0429526552e+000	-1.0796347967e+000
 9.2878766306e-001	 2.0530078588e+000	-1.0374964182e+000
 9.0681098723e-001	 2.0628091334e+000	-9.8933410866e-001
 8.8477518351e-001	 2.0723562508e+000	-9.3382506275e-001
 1.1150003998e+000	 1.9887529101e+000	-1.3216120101e+000
 1.0933977339e+000	 2.0007112636e+000	-1.2675383096e+000
 1.0717006663e+000	 2.0124169425e+000	-1.2232519681e+000
 1.0499135217e+000	 2.0238690518e+000	-1.1860976452e+000
 1.0280406289e+000	 2.0350667924e+000	-1.1533443438e+000
 1.0060863185e+000	 2.0460094614e+000	-1.1224655239e+000
 9.8405492023e-001	 2.0566964511e+000	-1.0910864516e+000
 9.6195076053e-001	 2.0671272492e+000	-1.0570723541e+000
 9.3977815990e-001	 2.0773014377e+000	-1.0184813750e+000
 9.1754143045e-001	 2.0872186924e+000	-9.7358082466e-001
 8.9524487345e-001	 2.0968787823e+000	-9.2085057256e-001
 1.1280400818e+000	 2.0120109336e+000	-1.2806613929e+000
 1.1061847775e+000	 2.0241091374e+000	-1.2252476097e+000
 1.0842339676e+000	 2.0359517116e+000	-1.1813299537e+000
 1.0621920272e+000	 2.0475377508e+000	-1.1457324629e+000
 1.0400633357e+000	 2.0588664465e+000	-1.1154681906e+000
 1.0178522745e+000	 2.0699370875e+000	-1.0877463228e+000
 9.9556322394e-001	 2.0807490593e+000	-1.0599969663e+000
 9.7320056100e-001	 2.0913018433e+000	-1.0298074844e+000
 9.5076865673e-001	 2.1015950166e+000	-9.9502417921e-001
 9.2827187367e-001	 2.1116282514e+000	-9.5369541106e-001
 9.0571456340e-001	 2.1214013139e+000	-9.0408922808e-001
 1.1410797639e+000	 2.0352689572e+000	-1.2309539882e+000
 1.1189718211e+000	 2.0475070112e+000	-1.1739846583e+000
 1.0967672688e+000	 2.0594864808e+000	-1.1301288930e+000
 1.0744705326e+000	 2.0712064498e+000	-1.0959313883e+000
 1.0520860425e+000	 2.0826661006e+000	-1.0681338227e+000
 1.0296182305e+000	 2.0938647137e+000	-1.0436819487e+000
 1.0070715277e+000	 2.1048016674e+000	-1.0197486499e+000
 9.8445036148e-001	 2.1154764373e+000	-9.9367660796e-001
 9.6175915357e-001	 2.1258885955e+000	-9.6307056265e-001
 9.3900231690e-001	 2.1360378104e+000	-9.2574626791e-001
 9.1618425334e-001	 2.1459238455e+000	-8.7974652582e-001
 8.1148735391e-001	 1.9006985296e+000	-1.0543284048e+000
 7.9122343695e-001	 1.9092228696e+000	-9.9526181206e-001
 7.7091303689e-001	 1.9175138679e+000	-9.4279102413e-001
 7.5056001275e-001	 1.9255715656e+000	-8.9548128739e-001
 7.3016820514e-001	 1.9333960849e+000	-8.5211352945e-001
 7.0974143420e-001	 1.9409876284e+000	-8.1168741050e-001
 6.8928349765e-001	 1.9483464780e+000	-7.7342383235e-001
 6.6879816880e-001	 1.9554729937e+000	-7.3676690575e-001
 6.4828919468e-001	 1.9623676129e+000	-6.9846426014e-001
 6.2776029421e-001	 1.9690308487e+000	-6.5414712327e-001
 6.0721515638e-001	 1.9754632889e+000	-6.0408257200e-001
 8.2195704385e-001	 1.9252210612e+000	-1.0436654973e+000
 8.0143168483e-001	 1.9338553809e+000	-9.8490526646e-001
 7.8085924298e-001	 1.9422533485e+000	-9.3264275411e-001
 7.6024362714e-001	 1.9504150054e+000	-8.8533971727e-001
 7.3958872744e-001	 1.9583404755e+000	-8.4167813167e-001
 7.1889841332e-001	 1.9660299640e+000	-8.0056354207e-001
 6.9817653150e-001	 1.9734837563e+000	-7.6112785881e-001
 6.7742690396e-001	 1.9807022174e+000	-7.2273160072e-001
 6.5665332609e-001	 1.9876857899e+000	-6.8407578240e-001
 6.3585956478e-001	 1.9944349938e+000	-6.3935012775e-001
 6.1504935661e-001	 2.0009504244e+000	-5.8792269814e-001
 8.3242673380e-001	 1.9497435928e+000	-1.0279557193e+000
 8.1163993271e-001	 1.9584878923e+000	-9.6853816159e-001
 7.9080544908e-001	 1.9669928291e+000	-9.1535504497e-001
 7.6992724152e-001	 1.9752584453e+000	-8.6678282524e-001
 7.4900924974e-001	 1.9832848661e+000	-8.2142278192e-001
 7.2805539244e-001	 1.9910722996e+000	-7.7810463306e-001
 7.0706956534e-001	 1.9986210347e+000	-7.3588958590e-001
 6.8605563912e-001	 2.0059314410e+000	-6.9461284579e-001
 6.6501745749e-001	 2.0130039669e+000	-6.5484679442e-001
 6.4395883534e-001	 2.0198391388e+000	-6.1183509609e-001
 6.2288355684e-001	 2.0264375598e+000	-5.6256108830e-001
 8.4289642374e-001	 1.9742661244e+000	-1.0080096868e+000
 8.2184818059e-001	 1.9831204037e+000	-9.4714065074e-001
 8.0075165518e-001	 1.9917323097e+000	-8.9208737298e-001
 7.7961085591e-001	 2.0001018851e+000	-8.4115826968e-001
 7.5842977204e-001	 2.0082292568e+000	-7.9377548501e-001
 7.3721237157e-001	 2.0161146352e+000	-7.4959288839e-001
 7.1596259919e-001	 2.0237583131e+000	-7.0766561872e-001
 6.9468437428e-001	 2.0311606646e+000	-6.6727081472e-001
 6.7338158890e-001	 2.0383221439e+000	-6.2790936962e-001
 6.5205810591e-001	 2.0452432839e+000	-5.8732234392e-001
 6.3071775708e-001	 2.0519246953e+000	-5.3975116878e-001
 8.5336611368e-001	 1.9987886560e+000	-9.8436904339e-001
 8.3205642847e-001	 2.0077529150e+000	-9.2206747336e-001
 8.1069786128e-001	 2.0164717903e+000	-8.6678279133e-001
 7.8929447030e-001	 2.0249453249e+000	-8.1689255626e-001
 7.6785029434e-001	 2.0331736474e+000	-7.7097625172e-001
 7.4636935069e-001	 2.0411569708e+000	-7.2783338686e-001
 7.2485563304e-001	 2.0488955915e+000	-6.8648619414e-001
 7.0331310944e-001	 2.0563898883e+000	-6.4618184348e-001
 6.8174572031e-001	 2.0636403209e+000	-6.0639419421e-001
 6.6015737647e-001	 2.0706474290e+000	-5.6641212573e-001
 6.3855195731e-001	 2.0774118308e+000	-5.1999795921e-001
 8.6383580362e-001	 2.0233111876e+000	-9.6241460591e-001
 8.4226467635e-001	 2.0323854264e+000	-9.0226811791e-001
 8.2064406738e-001	 2.0412112709e+000	-8.4876586899e-001
 7.9897808469e-001	 2.0497887647e+000	-8.0024644797e-001
 7.7727081664e-001	 2.0581180380e+000	-7.5526810083e-001
 7.5552632981e-001	 2.0661993063e+000	-7.1261182797e-001
 7.3374866688e-001	 2.0740328699e+000	-6.7128398859e-001
 7.1194184460e-001	 2.0816191119e+000	-6.3051843769e-001
 6.9010985172e-001	 2.0889584979e+000	-5.8977821967e-001
 6.6825664704e-001	 2.0960515741e+000	-5.4875684042e-001
 6.4638615754e-001	 2.1028989663e+000	-5.0334841752e-001
 8.7430549357e-001	 2.0478337192e+000	-9.4657566891e-001
 8.5247292423e-001	 2.0570179378e+000	-8.8843387054e-001
 8.3059027348e-001	 2.0659507515e+000	-8.3648561410e-001
 8.0866169908e-001	 2.0746322046e+000	-7.8906279465e-001
 7.8669133894e-001	 2.0830624286e+000	-7.4471958311e-001
 7.6468330893e-001	 2.0912416419e+000	-7.0223534671e-001
 7.4264170073e-001	 2.0991701483e+000	-6.6061709399e-001
 7.2057057976e-001	 2.1068483355e+000	-6.1910147290e-001
 6.9847398312e-001	 2.1142766749e+000	-5.7715634828e-001
 6.7635591761e-001	 2.1214557192e+000	-5.3448198287e-001
 6.5422035778e-001	 2.1283861017e+000	-4.8941419196e-001
 8.8477518351e-001	 2.0723562508e+000	-9.3382506275e-001
 8.6268117211e-001	 2.0816504492e+000	-8.7769988829e-001
 8.4053647958e-001	 2.0906902321e+000	-8.2726864183e-001
 8.1834531347e-001	 2.0994756444e+000	-7.8087357233e-001
 7.9611186124e-001	 2.1080068192e+000	-7.3708157578e-001
 7.7384028805e-001	 2.1162839775e+000	-6.9468686641e-001
 7.5153473458e-001	 2.1243074266e+000	-6.5271319401e-001
 7.2919931492e-001	 2.1320775592e+000	-6.1041563886e-001
 7.0683811453e-001	 2.1395948519e+000	-5.6728201354e-001
 6.8445518817e-001	 2.1468598642e+000	-5.2303389792e-001
 6.6205455801e-001	 2.1538732372e+000	-4.7739408986e-001
 8.9524487345e-001	 2.0968787823e+000	-9.2085057256e-001
 8.7288941999e-001	 2.1062829605e+000	-8.6692341378e-001
 8.5048268568e-001	 2.1154297127e+000	-8.1815591807e-001
 8.2802892786e-001	 2.1243190842e+000	-7.7291748772e-001
 8.0553238355e-001	 2.1329512099e+000	-7.2980426397e-001
 7.8299726717e-001	 2.1413263131e+000	-6.8764147372e-001
 7.6042776842e-001	 2.1494447050e+000	-6.4548534807e-001
 7.3782805008e-001	 2.1573067828e+000	-6.0262464748e-001
 7.1520224594e-001	 2.1649130289e+000	-5.5858182606e-001
 6.9255445874e-001	 2.1722640093e+000	-5.1311386369e-001
 6.6988875825e-001	 2.1793603727e+000	-4.6621279211e-001
 9.0571456340e-001	 2.1214013139e+000	-9.0408922808e-001
 8.8309766787e-001	 2.1309154719e+000	-8.5270249044e-001
 8.6042889178e-001	 2.1401691933e+000	-8.0592081391e-001
 8.3771254225e-001	 2.1491625241e+000	-7.6215738871e-001
 8.1495290585e-001	 2.1578956005e+000	-7.2005392349e-001
 7.9215424629e-001	 2.1663686487e+000	-6.7848258924e-001
 7.6932080227e-001	 2.1745819834e+000	-6.3654756490e-001
 7.4645678524e-001	 2.1825360065e+000	-5.9358622363e-001
 7.2356637734e-001	 2.1902312059e+000	-5.4916999520e-001
 7.0065372930e-001	 2.1976681544e+000	-5.0310493649e-001
 6.7772295848e-001	 2.2048475082e+000	-4.5543203822e-001
 9.1618425334e-001	 2.1459238455e+000	-8.7974652582e-001
 8.9330591575e-001	 2.1555479833e+000	-8.3139450531e-001
 8.7037509788e-001	 2.1649086739e+000	-7.8708698524e-001
 8.4739615664e-001	 2.1740059639e+000	-7.4529749649e-001
 8.2437342815e-001	 2.1828399911e+000	-7.0472952087e-001
 8.0131122541e-001	 2.1914109843e+000	-6.6431795031e-001
 7.7821383611e-001	 2.1997192618e+000	-6.2323018249e-001
 7.5508552040e-001	 2.2077652301e+000	-5.8086689604e-001
 7.3193050875e-001	 2.2155493829e+000	-5.3686254437e-001
 7.0875299987e-001	 2.2230722995e+000	-4.9108560326e-001
 6.8555715871e-001	 2.2303346436e+000	-4.4363860286e-001
 6.0721515638e-001	 1.9754632889e+000	-6.0408257200e-001
 5.8665743822e-001	 1.9816655944e+000	-5.5091434634e-001
 5.6609076229e-001	 1.9876384961e+000	-4.9697235761e-001
 5.4551871594e-001	 1.9933827953e+000	-4.4272443027e-001
 5.2494485006e-001	 1.9988993627e+000	-3.8905772262e-001
 5.0437267753e-001	 2.0041891369e+000	-3.3758857429e-001
 4.8380567180e-001	 2.0092531230e+000	-2.9057984944e-001
 4.6324726543e-001	 2.0140923913e+000	-2.4988652750e-001
 4.4270084878e-001	 2.0187080752e+000	-2.1764013628e-001
 4.2216976871e-001	 2.0231013705e+000	-1.9625198967e-001
 4.0165732735e-001	 2.0272735331e+000	-1.8839435239e-001
 6.1504935661e-001	 2.0009504244e+000	-5.8792269814e-001
 5.9422640581e-001	 2.0072327511e+000	-5.3392852717e-001
 5.7339438167e-001	 2.0132827143e+000	-4.8064068125e-001
 5.5255691782e-001	 2.0191011256e+000	-4.2834882217e-001
 5.3171761096e-001	 2.0246888670e+000	-3.7773682924e-001
 5.1088001930e-001	 2.0300468890e+000	-3.2986068866e-001
 4.9004766109e-001	 2.0351762100e+000	-2.8612728211e-001
 4.6922401320e-001	 2.0400779137e+000	-2.4827402552e-001
 4.4841250972e-001	 2.0447531485e+000	-2.1834930137e-001
 4.2761654069e-001	 2.0492031255e+000	-1.9869362034e-001
 4.0683945084e-001	 2.0534291166e+000	-1.9192144289e-001
 6.2288355684e-001	 2.0264375598e+000	-5.6256108830e-001
 6.0179537340e-001	 2.0327999078e+000	-5.1083203305e-001
 5.8069800105e-001	 2.0389269325e+000	-4.5986022729e-001
 5.5959511969e-001	 2.0448194559e+000	-4.0982950905e-001
 5.3849037185e-001	 2.0504783712e+000	-3.6132599545e-001
 5.1738736106e-001	 2.0559046411e+000	-3.1531622571e-001
 4.9628965039e-001	 2.0610992969e+000	-2.7312632892e-001
 4.7520076098e-001	 2.0660634361e+000	-2.3642215560e-001
 4.5412417067e-001	 2.0707982218e+000	-2.0719030368e-001
 4.3306331268e-001	 2.0753048804e+000	-1.8771996143e-001
 4.1202157433e-001	 2.0795847002e+000	-1.8058548459e-001
 6.3071775708e-001	 2.0519246953e+000	-5.3975116878e-001
 6.0936434100e-001	 2.0583670645e+000	-4.8918449669e-001
 5.8800162042e-001	 2.0645711507e+000	-4.3932218078e-001
 5.6663332157e-001	 2.0705377862e+000	-3.9027168017e-001
 5.4526313275e-001	 2.0762678754e+000	-3.4254846744e-001
 5.2389470283e-001	 2.0817623933e+000	-2.9705446785e-001
 5.0253163969e-001	 2.0870223838e+000	-2.5505766456e-001
 4.8117750875e-001	 2.0920489586e+000	-2.1817279578e-001
 4.5983583161e-001	 2.0968432952e+000	-1.8834306056e-001
 4.3851008466e-001	 2.1014066354e+000	-1.6782274146e-001
 4.1720369783e-001	 2.1057402838e+000	-1.5916064637e-001
 6.3855195731e-001	 2.0774118308e+000	-5.1999795921e-001
 6.1693330859e-001	 2.0839342212e+000	-4.6992534254e-001
 5.9530523980e-001	 2.0902153689e+000	-4.2039604599e-001
 5.7367152344e-001	 2.0962561165e+000	-3.7146827250e-001
 5.5203589365e-001	 2.1020573797e+000	-3.2361150126e-001
 5.3040204460e-001	 2.1076201454e+000	-2.7768527348e-001
 5.0877362898e-001	 2.1129454707e+000	-2.3491930183e-001
 4.8715425653e-001	 2.1180344810e+000	-1.9689481529e-001
 4.6554749255e-001	 2.1228883685e+000	-1.6552704082e-001
 4.4395685664e-001	 2.1275083903e+000	-1.4304871467e-001
 4.2238582132e-001	 2.1318958674e+000	-1.3199450934e-001
 6.4638615754e-001	 2.1028989663e+000	-5.0334841752e-001
 6.2450227618e-001	 2.1095013779e+000	-4.5352750408e-001
 6.0260885918e-001	 2.1158595871e+000	-4.0397907898e-001
 5.8070972532e-001	 2.1219744468e+000	-3.5473695249e-001
 5.5880865454e-001	 2.1278468839e+000	-3.0624684730e-001
 5.3690938636e-001	 2.1334778975e+000	-2.5934558906e-001
 5.1501561828e-001	 2.1388685576e+000	-2.1524179564e-001
 4.9313100430e-001	 2.1440200035e+000	-1.7549796127e-001
 4.7125915350e-001	 2.1489334418e+000	-1.4201382053e-001
 4.4940362862e-001	 2.1536101453e+000	-1.1701086804e-001
 4.2756794481e-001	 2.1580514510e+000	-1.0301790233e-001
 6.5422035778e-001	 2.1283861017e+000	-4.8941419196e-001
 6.3207124377e-001	 2.1350685346e+000	-4.4001884387e-001
 6.0991247856e-001	 2.1415038053e+000	-3.9051639027e-001
 5.8774792719e-001	 2.1476927771e+000	-3.4093891254e-001
 5.6558141544e-001	 2.1536363881e+000	-2.9172824804e-001
 5.4341672813e-001	 2.1593356496e+000	-2.4371565191e-001
 5.2125760758e-001	 2.1647916446e+000	-1.9810315072e-001
 4.9910775208e-001	 2.1700055259e+000	-1.5644646737e-001
 4.7697081444e-001	 2.1749785151e+000	-1.2063938436e-001
 4.5485040060e-001	 2.1797119003e+000	-9.2899402856e-002
 4.3275006830e-001	 2.1842070346e+000	-7.5754547141e-002
 6.6205455801e-001	 2.1538732372e+000	-4.7739408986e-001
 6.3964021136e-001	 2.1606356913e+000	-4.2900328325e-001
 6.1721609793e-001	 2.1671480235e+000	-3.8002075333e-001
 5.9478612907e-001	 2.1734111074e+000	-3.3049737286e-001
 5.7235417633e-001	 2.1794258924e+000	-2.8088864464e-001
 5.4992406989e-001	 2.1851934017e+000	-2.3203490937e-001
 5.2749959687e-001	 2.1907147315e+000	-1.8514345765e-001
 5.0508449985e-001	 2.1959910484e+000	-1.4177240717e-001
 4.8268247538e-001	 2.2010235884e+000	-1.0381619316e-001
 4.6029717258e-001	 2.2058136552e+000	-7.3492509409e-002
 4.3793219180e-001	 2.2103626182e+000	-5.3330529164e-002
 6.6988875825e-001	 2.1793603727e+000	-4.6621279211e-001
 6.4720917895e-001	 2.1862028480e+000	-4.1968166546e-001
 6.2451971731e-001	 2.1927922417e+000	-3.7209214287e-001
 6.0182433094e-001	 2.1991294377e+000	-3.2341581282e-001
 5.7912693723e-001	 2.2052153966e+000	-2.7413711614e-001
 5.5643141166e-001	 2.2110511539e+000	-2.2511767754e-001
 5.3374158617e-001	 2.2166378184e+000	-1.7757927944e-001
 5.1106124762e-001	 2.2219765708e+000	-1.3308881349e-001
 4.8839413632e-001	 2.2270686617e+000	-9.3545037268e-002
 4.6574394456e-001	 2.2319154102e+000	-6.1166951899e-002
 4.4311431529e-001	 2.2365182018e+000	-3.8483607731e-002
 6.7772295848e-001	 2.2048475082e+000	-4.5543203822e-001
 6.5477814654e-001	 2.2117700047e+000	-4.1087237383e-001
 6.3182333669e-001	 2.2184364599e+000	-3.6593702484e-001
 6.0886253281e-001	 2.2248477680e+000	-3.1929595367e-001
 5.8589969813e-001	 2.2310049008e+000	-2.7147557295e-001
 5.6293875342e-001	 2.2369089060e+000	-2.2336856061e-001
 5.3998357546e-001	 2.2425609053e+000	-1.7621780874e-001
 5.1703799540e-001	 2.2479620932e+000	-1.3160258229e-001
 4.9410579726e-001	 2.2531137351e+000	-9.1426692643e-002
 4.7119071654e-001	 2.2580171652e+000	-5.7908478766e-002
 4.4829643878e-001	 2.2626737853e+000	-3.3572379127e-002
 6.8555715871e-001	 2.2303346436e+000	-4.4363860286e-001
 6.6234711413e-001	 2.2373371614e+000	-4.0103172446e-001
 6.3912695606e-001	 2.2440806781e+000	-3.6038741802e-001
 6.1590073469e-001	 2.2505660983e+000	-3.1735551251e-001
 5.9267245902e-001	 2.2567944051e+000	-2.7251522428e-001
 5.6944609519e-001	 2.2627666581e+000	-2.2679765004e-001
 5.4622556476e-001	 2.2684839922e+000	-1.8147081421e-001
 5.2301474317e-001	 2.2739476157e+000	-1.3812717863e-001
 4.9981745820e-001	 2.2791588084e+000	-9.8673395664e-002
 4.7663748852e-001	 2.2841189201e+000	-6.5322072480e-002
 4.5347856227e-001	 2.2888293689e+000	-4.0585304058e-002
 4.0165732735e-001	 2.0272735331e+000	-1.8839435239e-001
 3.8116985173e-001	 2.0312253015e+000	-1.8121810280e-001
 3.6070746753e-001	 2.0349586909e+000	-1.6199910940e-001
 3.4027332989e-001	 2.0384751296e+000	-1.3394962832e-001
 3.1987054498e-001	 2.0417760999e+000	-1.0049179133e-001
 2.9950216914e-001	 2.0448631363e+000	-6.5240556281e-002
 2.7917120795e-001	 2.0477378234e+000	-3.1986847724e-002
 2.5888061541e-001	 2.0504017950e+000	-4.6808248626e-003
 2.3863329325e-001	 2.0528567318e+000	 1.2584782642e-002
 2.1843209012e-001	 2.0551043599e+000	 1.5591327197e-002
 1.9827980105e-001	 2.0571464492e+000	 1.0935952877e-005
 4.0683945084e-001	 2.0534291166e+000	-1.9192144289e-001
 3.8608764884e-001	 2.0574318702e+000	-1.8527418376e-001
 3.6536126199e-001	 2.0612134272e+000	-1.6611418331e-001
 3.4466348611e-001	 2.0647752345e+000	-1.3761643623e-001
 3.2399746749e-001	 2.0681187935e+000	-1.0318874954e-001
 3.0336630188e-001	 2.0712456583e+000	-6.6455346967e-002
 2.8277303362e-001	 2.0741574342e+000	-3.1240644160e-002
 2.6222065487e-001	 2.0768557760e+000	-1.5531208416e-003
 2.4171210474e-001	 2.0793423861e+000	 1.8430780186e-002
 2.2125026867e-001	 2.0816190127e+000	 2.4382793416e-002
 2.0083797774e-001	 2.0836874487e+000	 1.1839071590e-002
 4.1202157433e-001	 2.0795847002e+000	-1.8058548459e-001
 3.9100544595e-001	 2.0836384389e+000	-1.7323120282e-001
 3.7001505644e-001	 2.0874681636e+000	-1.5320599739e-001
 3.4905364234e-001	 2.0910753395e+000	-1.2364465682e-001
 3.2812439000e-001	 2.0944614871e+000	-8.7935808865e-002
 3.0723043461e-001	 2.0976281804e+000	-4.9706352207e-002
 2.8637485930e-001	 2.1005770451e+000	-1.2806042759e-002
 2.6556069432e-001	 2.1033097570e+000	 1.8707851464e-002
 2.4479091623e-001	 2.1058280403e+000	 4.0585908964e-002
 2.2406844723e-001	 2.1081336655e+000	 4.8402004178e-002
 2.0339615444e-001	 2.1102284483e+000	 3.7568919403e-002
 4.1720369783e-001	 2.1057402838e+000	-1.5916064637e-001
 3.9592324306e-001	 2.1098450077e+000	-1.5009884189e-001
 3.7466885089e-001	 2.1137229000e+000	-1.2845571300e-001
 3.5344379857e-001	 2.1173754444e+000	-9.7320239602e-002
 3.3225131251e-001	 2.1208041806e+000	-6.0054341719e-002
 3.1109456735e-001	 2.1240107024e+000	-2.0278323197e-002
 2.8997668498e-001	 2.1269966559e+000	 1.8143543009e-002
 2.6890073377e-001	 2.1297637380e+000	 5.1117387504e-002
 2.4786972772e-001	 2.1323136945e+000	 7.4334170198e-002
 2.2688662578e-001	 2.1346483183e+000	 8.3284248786e-002
 2.0595433114e-001	 2.1367694478e+000	 7.3272173332e-002
 4.2238582132e-001	 2.1318958674e+000	-1.3199450934e-001
 4.0084104017e-001	 2.1360515764e+000	-1.2048218221e-001
 3.7932264534e-001	 2.1399776363e+000	-9.6666144260e-002
 3.5783395480e-001	 2.1436755493e+000	-6.3581248421e-002
 3.3637823502e-001	 2.1471468742e+000	-2.4552438613e-002
 3.1495870008e-001	 2.1503932245e+000	 1.6818598251e-002
 2.9357851066e-001	 2.1534162668e+000	 5.6666648282e-002
 2.7224077322e-001	 2.1562177190e+000	 9.0876169178e-002
 2.5094853921e-001	 2.1587993488e+000	 1.1509458080e-001
 2.2970480434e-001	 2.1611629711e+000	 1.2474575103e-001
 2.0851250784e-001	 2.1633104473e+000	 1.1504377317e-001
 4.2756794481e-001	 2.1580514510e+000	-1.0301790233e-001
 4.0575883728e-001	 2.1622581451e+000	-8.8590098901e-002
 3.8397643979e-001	 2.1662323727e+000	-6.2268595727e-002
 3.6222411102e-001	 2.1699756543e+000	-2.7023023809e-002
 3.4050515753e-001	 2.1734895678e+000	 1.3871726193e-002
 3.1882283282e-001	 2.1767757465e+000	 5.6847434992e-002
 2.9718033633e-001	 2.1798358776e+000	 9.8054359956e-002
 2.7558081267e-001	 2.1826717000e+000	 1.3337304555e-001
 2.5402735071e-001	 2.1852850030e+000	 1.5842626408e-001
 2.3252298289e-001	 2.1876776239e+000	 1.6859120502e-001
 2.1107068453e-001	 2.1898514469e+000	 1.5901202328e-001
 4.3275006830e-001	 2.1842070346e+000	-7.5754547141e-002
 4.1067663439e-001	 2.1884647138e+000	-5.8243509538e-002
 3.8863023425e-001	 2.1924871090e+000	-2.9329611183e-002
 3.6661426725e-001	 2.1962757592e+000	 8.0966740271e-003
 3.4463208005e-001	 2.1998322613e+000	 5.0826466107e-002
 3.2268696555e-001	 2.2031582686e+000	 9.5342771661e-002
 3.0078216201e-001	 2.2062554884e+000	 1.3783065352e-001
 2.7892085212e-001	 2.2091256810e+000	 1.7418742608e-001
 2.5710616220e-001	 2.2117706572e+000	 2.0003301873e-001
 2.3534116144e-001	 2.2141922767e+000	 2.1072064188e-001
 2.1362886123e-001	 2.2163924464e+000	 2.0134788149e-001
 4.3793219180e-001	 2.2103626182e+000	-5.3330529164e-002
 4.1559443150e-001	 2.2146712825e+000	-3.2883488928e-002
 3.9328402870e-001	 2.2187418454e+000	-1.5576407620e-003
 3.7100442348e-001	 2.2225758641e+000	 3.7852540013e-002
 3.4875900256e-001	 2.2261749549e+000	 8.2223095876e-002
 3.2655109828e-001	 2.2295407906e+000	 1.2810900674e-001
 3.0438398769e-001	 2.2326750993e+000	 1.7175248563e-001
 2.8226089157e-001	 2.2355796621e+000	 2.0909131849e-001
 2.6018497369e-001	 2.2382563115e+000	 2.3576740927e-001
 2.3815934000e-001	 2.2407069295e+000	 2.4713568264e-001
 2.1618703793e-001	 2.2429334459e+000	 2.3827348699e-001
 4.4311431529e-001	 2.2365182018e+000	-3.8483607731e-002
 4.2051222860e-001	 2.2408778513e+000	-1.5579260981e-002
 3.9793782315e-001	 2.2449965817e+000	 1.7690366847e-002
 3.7539457970e-001	 2.2488759691e+000	 5.8646615355e-002
 3.5288592506e-001	 2.2525176484e+000	 1.0427239226e-001
 3.3041523102e-001	 2.2559233126e+000	 1.5121847146e-001
 3.0798581336e-001	 2.2590947101e+000	 1.9580966248e-001
 2.8560093102e-001	 2.2620336431e+000	 2.3405104029e-001
 2.6326378518e-001	 2.2647419657e+000	 2.6163441710e-001
 2.4097751855e-001	 2.2672215823e+000	 2.7394522769e-001
 2.1874521463e-001	 2.2694744455e+000	 2.6606998941e-001
 4.4829643878e-001	 2.2626737853e+000	-3.3572379127e-002
 4.2543002571e-001	 2.2670844200e+000	-9.0360776244e-003
 4.0259161760e-001	 2.2712513181e+000	 2.5402441079e-002
 3.7978473593e-001	 2.2751760740e+000	 6.7203193702e-002
 3.5701284757e-001	 2.2788603420e+000	 1.1348100596e-001
 3.3427936375e-001	 2.2823058347e+000	 1.6100942627e-001
 3.1158763904e-001	 2.2855143209e+000	 2.0622450201e-001
 2.8894097047e-001	 2.2884876241e+000	 2.4522863050e-001
 2.6634259667e-001	 2.2912276199e+000	 2.7379468781e-001
 2.4379569710e-001	 2.2937362351e+000	 2.8737062830e-001
 2.2130339132e-001	 2.2960154450e+000	 2.8108473576e-001
 4.5347856227e-001	 2.2888293689e+000	-4.0585304058e-002
 4.3034782282e-001	 2.2932909887e+000	-1.5602993808e-002
 4.0724541205e-001	 2.2975060545e+000	 1.8905129548e-002
 3.8417489215e-001	 2.3014761789e+000	 6.0563741137e-002
 3.6113977008e-001	 2.3052030356e+000	 1.0664782882e-001
 3.3814349649e-001	 2.3086883567e+000	 1.5408394473e-001
 3.1518946472e-001	 2.3119339318e+000	 1.9945130655e-001
 2.9228100992e-001	 2.3149416051e+000	 2.3898298539e-001
 2.6942140816e-001	 2.3177132742e+000	 2.6856740695e-001
 2.4661387566e-001	 2.3202508879e+000	 2.8375038173e-001
 2.2386156802e-001	 2.3225564445e+000	 2.7973786648e-001
 1.9827980105e-001	 2.0571464492e+000	 1.0935952876e-005
 1.7817616239e-001	 2.0589850721e+000	-1.5978227948e-002
 1.5812692275e-001	 2.0606217602e+000	-1.4730233105e-002
 1.3813475442e-001	 2.0620584056e+000	-1.4810331853e-003
 1.1820227270e-001	 2.0632969374e+000	 1.8513153413e-002
 9.8332035568e-002	 2.0643393199e+000	 3.9993995036e-002
 7.8526543355e-002	 2.0651875510e+000	 5.7719360120e-002
 5.8788238498e-002	 2.0658436604e+000	 6.6481804295e-002
 3.9119505332e-002	 2.0663097081e+000	 6.1127236644e-002
 1.9522669929e-002	 2.0665877828e+000	 3.6573764187e-002
 0.0000000000e+000	 2.0666800000e+000	-1.2169314634e-002
 2.0083797774e-001	 2.0836874487e+000	 1.1839071590e-002
 1.8047496491e-001	 2.0855497932e+000	-7.6337353495e-004
 1.6016705295e-001	 2.0872075977e+000	 4.5627423458e-003
 1.3991694861e-001	 2.0886627785e+000	 2.2523770085e-002
 1.1972730096e-001	 2.0899172897e+000	 4.7769911613e-002
 9.9600700963e-002	 2.0909731208e+000	 7.4913336095e-002
 7.9539681215e-002	 2.0918322956e+000	 9.8546571732e-002
 5.9546715666e-002	 2.0924968700e+000	 1.1326118845e-001
 3.9624219410e-002	 2.0929689307e+000	 1.1366677943e-001
 1.9774548532e-002	 2.0932505931e+000	 9.4410242139e-002
 0.0000000000e+000	 2.0933440000e+000	 5.0195330038e-002
 2.0339615444e-001	 2.1102284483e+000	 3.7568919403e-002
 1.8277376743e-001	 2.1121145144e+000	 2.6696847044e-002
 1.6220718314e-001	 2.1137934352e+000	 3.4027671794e-002
 1.4169914281e-001	 2.1152671514e+000	 5.4221339816e-002
 1.2125232922e-001	 2.1165376419e+000	 8.1846210078e-002
 1.0086936636e-001	 2.1176069217e+000	 1.1139697412e-001
 8.0552819076e-002	 2.1184770403e+000	 1.3731297194e-001
 6.0305192834e-002	 2.1191500797e+000	 1.5399692327e-001
 4.0128933488e-002	 2.1196281532e+000	 1.5583408535e-001
 2.0026427135e-002	 2.1199134033e+000	 1.3721183993e-001
 0.0000000000e+000	 2.1200080000e+000	 9.2539681709e-002
 2.0595433114e-001	 2.1367694478e+000	 7.3272173332e-002
 1.8507256995e-001	 2.1386792356e+000	 6.3003648324e-002
 1.6424731334e-001	 2.1403792726e+000	 7.0896260459e-002
 1.4348133700e-001	 2.1418715243e+000	 9.1577258984e-002
 1.2277735748e-001	 2.1431579941e+000	 1.1954721199e-001
 1.0213803175e-001	 2.1442407226e+000	 1.4919755940e-001
 8.1565956938e-002	 2.1451217849e+000	 1.7482868968e-001
 6.1063670002e-002	 2.1458032894e+000	 1.9066856439e-001
 4.0633647567e-002	 2.1462873758e+000	 1.9089190524e-001
 2.0278305739e-002	 2.1465762135e+000	 1.6963994933e-001
 0.0000000000e+000	 2.1466720000e+000	 1.2104074604e-001
 2.0851250784e-001	 2.1633104473e+000	 1.1504377317e-001
 1.8737137247e-001	 2.1652439568e+000	 1.0472002545e-001
 1.6628744353e-001	 2.1669651101e+000	 1.1229660138e-001
 1.4526353119e-001	 2.1684758971e+000	 1.3238428761e-001
 1.2430238574e-001	 2.1697783463e+000	 1.5943234156e-001
 1.0340669715e-001	 2.1708745235e+000	 1.8774549734e-001
 8.2579094799e-002	 2.1717665295e+000	 2.1150163074e-001
 6.1822147171e-002	 2.1724564990e+000	 2.2477011271e-001
 4.1138361646e-002	 2.1729465983e+000	 2.2153087069e-001
 2.0530184342e-002	 2.1732390237e+000	 1.9569416632e-001
 0.0000000000e+000	 2.1733360000e+000	 1.4112106549e-001
 2.1107068453e-001	 2.1898514469e+000	 1.5901202328e-001
 1.8967017500e-001	 2.1918086779e+000	 1.4838361270e-001
 1.6832757373e-001	 2.1935509476e+000	 1.5526894918e-001
 1.4704572539e-001	 2.1950802700e+000	 1.7428123002e-001
 1.2582741400e-001	 2.1963986986e+000	 1.9983742565e-001
 1.0467536255e-001	 2.1975083244e+000	 2.2617454790e-001
 8.3592232661e-002	 2.1984112742e+000	 2.4736672077e-001
 6.2580624339e-002	 2.1991097087e+000	 2.5734308931e-001
 4.1643075725e-002	 2.1996058209e+000	 2.4990659107e-001
 2.0782062946e-002	 2.1999018340e+000	 2.1875360264e-001
 0.0000000000e+000	 2.2000000000e+000	 1.5749443976e-001
 2.1362886123e-001	 2.2163924464e+000	 2.0134788149e-001
 1.9196897752e-001	 2.2183733991e+000	 1.9051853714e-001
 1.7036770392e-001	 2.2201367851e+000	 1.9678029841e-001
 1.4882791958e-001	 2.2216846429e+000	 2.1477040039e-001
 1.2735244226e-001	 2.2230190508e+000	 2.3889521170e-001
 1.0594402794e-001	 2.2241421253e+000	 2.6334556362e-001
 8.4605370523e-002	 2.2250560188e+000	 2.8211303365e-001
 6.3339101508e-002	 2.2257629184e+000	 2.8900722642e-001
 4.2147789804e-002	 2.2262650434e+000	 2.7767408192e-001
 2.1033941550e-002	 2.2265646442e+000	 2.4161522838e-001
 0.0000000000e+000	 2.2266640000e+000	 1.7420836131e-001
 2.1618703793e-001	 2.2429334459e+000	 2.3827348699e-001
 1.9426778004e-001	 2.2449381203e+000	 2.2764635071e-001
 1.7240783412e-001	 2.2467226226e+000	 2.3373786533e-001
 1.5061011377e-001	 2.2482890157e+000	 2.5123380251e-001
 1.2887747052e-001	 2.2496394030e+000	 2.7455439635e-001
 1.0721269334e-001	 2.2507759262e+000	 2.9786852036e-001
 8.5618508384e-002	 2.2517007635e+000	 3.1510898010e-001
 6.4097578677e-002	 2.2524161280e+000	 3.1998897209e-001
 4.2652503883e-002	 2.2529242659e+000	 3.0601974590e-001
 2.1285820153e-002	 2.2532274544e+000	 2.6652949156e-001
 0.0000000000e+000	 2.2533280000e+000	 1.9468343795e-001
 2.1874521463e-001	 2.2694744455e+000	 2.6606998941e-001
 1.9656658256e-001	 2.2715028415e+000	 2.5629611617e-001
 1.7444796431e-001	 2.2733084601e+000	 2.6300156311e-001
 1.5239230797e-001	 2.2748933886e+000	 2.8094812927e-001
 1.3040249878e-001	 2.2762597552e+000	 3.0459728675e-001
 1.0848135873e-001	 2.2774097270e+000	 3.2812298068e-001
 8.6631646245e-002	 2.2783455081e+000	 3.4542571551e-001
 6.4856055845e-002	 2.2790693377e+000	 3.5014798739e-001
 4.3157217962e-002	 2.2795834885e+000	 3.3569110643e-001
 2.1537698757e-002	 2.2798902646e+000	 2.9523343750e-001
 0.0000000000e+000	 2.2799920000e+000	 2.2175004927e-001
 2.2130339132e-001	 2.2960154450e+000	 2.8108473576e-001
 1.9886538508e-001	 2.2980675626e+000	 2.7301371530e-001
 1.7648809451e-001	 2.2998942975e+000	 2.8139555172e-001
 1.5417450216e-001	 2.3014977615e+000	 3.0109867713e-001
 1.3192752703e-001	 2.3028801075e+000	 3.2665620516e-001
 1.0975002413e-001	 2.3040435279e+000	 3.5227711639e-001
 8.7644784106e-002	 2.3049902527e+000	 3.7185891110e-001
 6.5614533013e-002	 2.3057225474e+000	 3.7900179868e-001
 4.3661932041e-002	 2.3062427110e+000	 3.6702447613e-001
 2.1789577360e-002	 2.3065530749e+000	 3.2898153049e-001
 0.0000000000e+000	 2.3066560000e+000	 2.5768246056e-001
 2.2386156802e-001	 2.3225564445e+000	 2.7973786648e-001
 2.0116418761e-001	 2.3246322838e+000	 2.7437044174e-001
 1.7852822470e-001	 2.3264801350e+000	 2.8571893660e-001
 1.5595669635e-001	 2.3281021343e+000	 3.0879226249e-001
 1.3345255529e-001	 2.3295004597e+000	 3.3822873734e-001
 1.1101868952e-001	 2.3306773288e+000	 3.6830540594e-001
 8.8657921967e-002	 2.3316349974e+000	 3.9294901918e-001
 6.6373010180e-002	 2.3323757570e+000	 4.0574875253e-001
 4.4166646119e-002	 2.3329019336e+000	 3.9997072504e-001
 2.2041455963e-002	 2.3332158851e+000	 3.6857436134e-001
 0.0000000000e+000	 2.3333200000e+000	 3.0423059786e-001
 2.3333200000e+000	 0.0000000000e+000	 1.8970829740e+000
 2.3332158851e+000	 2.2041455963e-002	 1.9104940613e+000
 2.3329019336e+000	 4.4166646119e-002	 1.9276695077e+000
 2.3323757570e+000	 6.6373010180e-002	 1.9465353563e+000
 2.3316349974e+000	 8.8657921967e-002	 1.9652012664e+000
 2.3306773288e+000	 1.1101868952e-001	 1.9819734340e+000
 2.3295004597e+000	 1.3345255529e-001	 1.9953650246e+000
 2.3281021343e+000	 1.5595669635e-001	 2.0041041470e+000
 2.3264801350e+000	 1.7852822470e-001	 2.0071394335e+000
 2.3246322838e+000	 2.0116418761e-001	 2.0036433203e+000
 2.3225564445e+000	 2.2386156802e-001	 1.9930131492e+000
 2.3599880000e+000	 0.0000000000e+000	 1.7963233761e+000
 2.3598826951e+000	 2.2293372352e-002	 1.8202827088e+000
 2.3595651554e+000	 4.4671435911e-002	 1.8476185382e+000
 2.3590329651e+000	 6.7131601130e-002	 1.8760480957e+000
 2.3582837391e+000	 8.9671211813e-002	 1.9035250369e+000
 2.3573151252e+000	 1.1228754524e-001	 1.9282512403e+000
 2.3561248054e+000	 1.3497781233e-001	 1.9486857893e+000
 2.3547104983e+000	 1.5773915790e-001	 1.9635511688e+000
 2.3530699608e+000	 1.8056866094e-001	 1.9718367520e+000
 2.3512009901e+000	 2.0346333498e-001	 1.9727996813e+000
 2.3491014256e+000	 2.2642012848e-001	 1.9659632800e+000
 2.3866560000e+000	 0.0000000000e+000	 1.7349275143e+000
 2.3865495052e+000	 2.2545288740e-002	 1.7624620864e+000
 2.3862283772e+000	 4.5176225704e-002	 1.7936348190e+000
 2.3856901731e+000	 6.7890192080e-002	 1.8259246417e+000
 2.3849324809e+000	 9.0684501658e-002	 1.8571022233e+000
 2.3839529215e+000	 1.1355640095e-001	 1.8852405003e+000
 2.3827491510e+000	 1.3650306936e-001	 1.9087220376e+000
 2.3813188622e+000	 1.5952161945e-001	 1.9262432591e+000
 2.3796597865e+000	 1.8260909719e-001	 1.9368156319e+000
 2.3777696964e+000	 2.0576248236e-001	 1.9397639229e+000
 2.3756464067e+000	 2.2897868894e-001	 1.9347216763e+000
 2.4133240000e+000	 0.0000000000e+000	 1.7129873208e+000
 2.4132163152e+000	 2.2797205128e-002	 1.7379025528e+000
 2.4128915991e+000	 4.5681015496e-002	 1.7672552763e+000
 2.4123473812e+000	 6.8648783029e-002	 1.7982616367e+000
 2.4115812226e+000	 9.1697791503e-002	 1.8284875957e+000
 2.4105907179e+000	 1.1482525666e-001	 1.8558580259e+000
 2.4093734967e+000	 1.3802832640e-001	 1.8786622643e+000
 2.4079272261e+000	 1.6130408099e-001	 1.8955561699e+000
 2.4062496123e+000	 1.8464953343e-001	 1.9055607805e+000
 2.4043384027e+000	 2.0806162973e-001	 1.9080576976e+000
 2.4021913878e+000	 2.3153724940e-001	 1.9027813680e+000
 2.4399920000e+000	 0.0000000000e+000	 1.7306855220e+000
 2.4398831253e+000	 2.3049121516e-002	 1.7475455701e+000
 2.4395548209e+000	 4.6185805287e-002	 1.7700683872e+000
 2.4390045892e+000	 6.9407373978e-002	 1.7951879429e+000
 2.4382299644e+000	 9.2711081348e-002	 1.8202491201e+000
 2.4372285143e+000	 1.1609411237e-001	 1.8430151969e+000
 2.4359978424e+000	 1.3955358343e-001	 1.8616713904e+000
 2.4345355900e+000	 1.6308654254e-001	 1.8748245182e+000
 2.4328394381e+000	 1.8668996967e-001	 1.8814988811e+000
 2.4309071089e+000	 2.1036077711e-001	 1.8811285132e+000
 2.4287363689e+000	 2.3409580986e-001	 1.8735459814e+000
 2.4666600000e+000	 0.0000000000e+000	 1.7882907302e+000
 2.4665499353e+000	 2.3301037904e-002	 1.7923995768e+000
 2.4662180427e+000	 4.6690595079e-002	 1.8037107567e+000
 2.4656617973e+000	 7.0165964927e-002	 1.8188618529e+000
 2.4648787062e+000	 9.3724371192e-002	 1.8349657401e+000
 2.4638663106e+000	 1.1736296808e-001	 1.8496162585e+000
 2.4626221881e+000	 1.4107884046e-001	 1.8608895305e+000
 2.4611439540e+000	 1.6486900409e-001	 1.8673409830e+000
 2.4594292638e+000	 1.8873040592e-001	 1.8679981920e+000
 2.4574758152e+000	 2.1265992448e-001	 1.8623497109e+000
 2.4552813499e+000	 2.3665437032e-001	 1.8503300835e+000
 2.4933280000e+000	 0.0000000000e+000	 1.8861528513e+000
 2.4932167454e+000	 2.3552954292e-002	 1.8735361273e+000
 2.4928812646e+000	 4.7195384870e-002	 1.8698639165e+000
 2.4923190053e+000	 7.0924555876e-002	 1.8714684821e+000
 2.4915274479e+000	 9.4737661037e-002	 1.8752253043e+000
 2.4905041070e+000	 1.1863182380e-001	 1.8785567349e+000
 2.4892465338e+000	 1.4260409750e-001	 1.8794308502e+000
 2.4877523179e+000	 1.6665146563e-001	 1.8763555735e+000
 2.4860190896e+000	 1.9077084216e-001	 1.8683681970e+000
 2.4840445215e+000	 2.1495907186e-001	 1.8550204813e+000
 2.4818263310e+000	 2.3921293079e-001	 1.8363595532e+000
 2.5199960000e+000	 0.0000000000e+000	 2.0246987827e+000
 2.5198835554e+000	 2.3804870680e-002	 1.9920862761e+000
 2.5195444864e+000	 4.7700174662e-002	 1.9702513266e+000
 2.5189762134e+000	 7.1683146825e-002	 1.9552173280e+000
 2.5181761897e+000	 9.5750950882e-002	 1.9436226311e+000
 2.5171419034e+000	 1.1990067951e-001	 1.9327219524e+000
 2.5158708794e+000	 1.4412935453e-001	 1.9203825092e+000
 2.5143606818e+000	 1.6843392718e-001	 1.9050749610e+000
 2.5126089153e+000	 1.9281127840e-001	 1.8858593046e+000
 2.5106132278e+000	 2.1725821923e-001	 1.8623659145e+000
 2.5083713121e+000	 2.4177149125e-001	 1.8347719752e+000
 2.5466640000e+000	 0.0000000000e+000	 2.2044283821e+000
 2.5465503655e+000	 2.4056787068e-002	 2.1492371889e+000
 2.5462077083e+000	 4.8204964454e-002	 2.1066355674e+000
 2.5456334215e+000	 7.2441737774e-002	 2.0723399856e+000
 2.5448249314e+000	 9.6764240726e-002	 2.0427576979e+000
 2.5437796997e+000	 1.2116953522e-001	 2.0149856618e+000
 2.5424952251e+000	 1.4565461156e-001	 1.9868036820e+000
 2.5409690458e+000	 1.7021638873e-001	 1.9566618714e+000
 2.5391987411e+000	 1.9485171464e-001	 1.9236625914e+000
 2.5371819341e+000	 2.1955736661e-001	 1.8875370830e+000
 2.5349162932e+000	 2.4433005171e-001	 1.8486170571e+000
 2.5733320000e+000	 0.0000000000e+000	 2.4259106875e+000
 2.5732171755e+000	 2.4308703457e-002	 2.3462289656e+000
 2.5728709301e+000	 4.8709754246e-002	 2.2808157054e+000
 2.5722906295e+000	 7.3200328724e-002	 2.2250880063e+000
 2.5714736732e+000	 9.7777530572e-002	 2.1752339481e+000
 2.5704174961e+000	 1.2243839093e-001	 2.1282087543e+000
 2.5691195708e+000	 1.4717986860e-001	 2.0817246520e+000
 2.5675774097e+000	 1.7199885027e-001	 2.0342345325e+000
 2.5657885669e+000	 1.9689215089e-001	 1.9849095870e+000
 2.5637506404e+000	 2.2185651398e-001	 1.9336111537e+000
 2.5614612743e+000	 2.4688861217e-001	 1.8808570672e+000
 2.6000000000e+000	 0.0000000000e+000	 2.6897803689e+000
 2.5998839856e+000	 2.4560619845e-002	 2.5843516581e+000
 2.5995341519e+000	 4.9214544039e-002	 2.4946248238e+000
 2.5989478376e+000	 7.3958919674e-002	 2.4157308911e+000
 2.5981224149e+000	 9.8790820418e-002	 2.3436567057e+000
 2.5970552924e+000	 1.2370724665e-001	 2.2752380632e+000
 2.5957439165e+000	 1.4870512563e-001	 2.2081459729e+000
 2.5941857736e+000	 1.7378131182e-001	 2.1408661741e+000
 2.5923783926e+000	 1.9893258713e-001	 2.0726720975e+000
 2.5903193466e+000	 2.2415566136e-001	 2.0035915288e+000
 2.5880062554e+000	 2.4944717263e-001	 1.9343672912e+000
 2.3225564445e+000	 2.2386156802e-001	 1.9930131492e+000
 2.3202508879e+000	 2.4661387566e-001	 1.9790130502e+000
 2.3177132742e+000	 2.6942140816e-001	 1.9647848171e+000
 2.3149416051e+000	 2.9228100992e-001	 1.9491114780e+000
 2.3119339318e+000	 3.1518946472e-001	 1.9309643647e+000
 2.3086883567e+000	 3.3814349649e-001	 1.9094968964e+000
 2.3052030356e+000	 3.6113977008e-001	 1.8840375387e+000
 2.3014761789e+000	 3.8417489215e-001	 1.8540822445e+000
 2.2975060545e+000	 4.0724541205e-001	 1.8192867059e+000
 2.2932909887e+000	 4.3034782282e-001	 1.7794587624e+000
 2.2888293689e+000	 4.5347856227e-001	 1.7345513328e+000
 2.3491014256e+000	 2.2642012848e-001	 1.9659632800e+000
 2.3467695183e+000	 2.4943247698e-001	 1.9551370603e+000
 2.3442029017e+000	 2.7250068152e-001	 1.9434138655e+000
 2.3413995546e+000	 2.9562155042e-001	 1.9296098710e+000
 2.3383575059e+000	 3.1879183072e-001	 1.9127548676e+000
 2.3350748366e+000	 3.4200820890e-001	 1.8920824736e+000
 2.3315496809e+000	 3.6526731169e-001	 1.8670193797e+000
 2.3277802293e+000	 3.8856570697e-001	 1.8371739634e+000
 2.3237647294e+000	 4.1189990463e-001	 1.8023246341e+000
 2.3195014888e+000	 4.3526635767e-001	 1.7624082910e+000
 2.3149888762e+000	 4.5866146316e-001	 1.7175092945e+000
 2.3756464067e+000	 2.2897868894e-001	 1.9347216763e+000
 2.3732881487e+000	 2.5225107830e-001	 1.9255198137e+000
 2.3706925291e+000	 2.7557995488e-001	 1.9151619431e+000
 2.3678575041e+000	 2.9896209093e-001	 1.9024588384e+000
 2.3647810801e+000	 3.2239419672e-001	 1.8864600542e+000
 2.3614613164e+000	 3.4587292131e-001	 1.8664403011e+000
 2.3578963263e+000	 3.6939485330e-001	 1.8418847056e+000
 2.3540842796e+000	 3.9295652178e-001	 1.8124733239e+000
 2.3500234044e+000	 4.1655439722e-001	 1.7780653065e+000
 2.3457119889e+000	 4.4018489252e-001	 1.7386831319e+000
 2.3411483836e+000	 4.6384436404e-001	 1.6944973495e+000
 2.4021913878e+000	 2.3153724940e-001	 1.9027813680e+000
 2.3998067791e+000	 2.5506967962e-001	 1.8935660691e+000
 2.3971821566e+000	 2.7865922823e-001	 1.8832924377e+000
 2.3943154536e+000	 3.0230263143e-001	 1.8707348750e+000
 2.3912046543e+000	 3.2599656273e-001	 1.8549316507e+000
 2.3878477962e+000	 3.4973763372e-001	 1.8351671507e+000
 2.3842429716e+000	 3.7352239491e-001	 1.8109528552e+000
 2.3803883299e+000	 3.9734733659e-001	 1.7820074535e+000
 2.3762820793e+000	 4.2120888981e-001	 1.7482365260e+000
 2.3719224890e+000	 4.4510342737e-001	 1.7097122550e+000
 2.3673078909e+000	 4.6902726493e-001	 1.6666536432e+000
 2.4287363689e+000	 2.3409580986e-001	 1.8735459814e+000
 2.4263254095e+000	 2.5788828094e-001	 1.8625769093e+000
 2.4236717841e+000	 2.8173850159e-001	 1.8509518703e+000
 2.4207734031e+000	 3.0564317194e-001	 1.8373855532e+000
 2.4176282285e+000	 3.2959892873e-001	 1.8208815899e+000
 2.4142342760e+000	 3.5360234613e-001	 1.8007103600e+000
 2.4105896170e+000	 3.7764993651e-001	 1.7763853649e+000
 2.4066923803e+000	 4.0173815140e-001	 1.7476386155e+000
 2.4025407543e+000	 4.2586338240e-001	 1.7143955059e+000
 2.3981329891e+000	 4.5002196221e-001	 1.6767496729e+000
 2.3934673982e+000	 4.7421016581e-001	 1.6349383682e+000
 2.4552813499e+000	 2.3665437032e-001	 1.8503300835e+000
 2.4528440399e+000	 2.6070688226e-001	 1.8357504461e+000
 2.4501614116e+000	 2.8481777495e-001	 1.8211709621e+000
 2.4472313525e+000	 3.0898371244e-001	 1.8052309637e+000
 2.4440518026e+000	 3.3320129473e-001	 1.7868838494e+000
 2.4406207558e+000	 3.5746705854e-001	 1.7653701029e+000
 2.4369362624e+000	 3.8177747812e-001	 1.7401887136e+000
 2.4329964306e+000	 4.0612896622e-001	 1.7110674845e+000
 2.4287994293e+000	 4.3051787498e-001	 1.6779327401e+000
 2.4243434892e+000	 4.5494049706e-001	 1.6408789819e+000
 2.4196269055e+000	 4.7939306669e-001	 1.6001390612e+000
 2.4818263310e+000	 2.3921293079e-001	 1.8363595532e+000
 2.4793626703e+000	 2.6352548358e-001	 1.8161825414e+000
 2.4766510391e+000	 2.8789704831e-001	 1.7968657117e+000
 2.4736893020e+000	 3.1232425294e-001	 1.7769651637e+000
 2.4704753768e+000	 3.3680366073e-001	 1.7553762947e+000
 2.4670072357e+000	 3.6133177094e-001	 1.7313016611e+000
 2.4632829077e+000	 3.8590501973e-001	 1.7042170695e+000
 2.4593004810e+000	 4.1051978103e-001	 1.6738364214e+000
 2.4550581042e+000	 4.3517236757e-001	 1.6400758725e+000
 2.4505539893e+000	 4.5985903191e-001	 1.6030178990e+000
 2.4457864128e+000	 4.8457596758e-001	 1.5628758926e+000
 2.5083713121e+000	 2.4177149125e-001	 1.8347719752e+000
 2.5058813007e+000	 2.6634408490e-001	 1.8068675459e+000
 2.5031406665e+000	 2.9097632166e-001	 1.7808384829e+000
 2.5001472515e+000	 3.1566479345e-001	 1.7551576312e+000
 2.4968989510e+000	 3.4040602674e-001	 1.7286625259e+000
 2.4933937155e+000	 3.6519648335e-001	 1.7005176996e+000
 2.4896295531e+000	 3.9003256133e-001	 1.6701750378e+000
 2.4856045313e+000	 4.1491059584e-001	 1.6373327497e+000
 2.4813167792e+000	 4.3982686015e-001	 1.6018935644e+000
 2.4767644894e+000	 4.6477756676e-001	 1.5639227956e+000
 2.4719459201e+000	 4.8975886846e-001	 1.5236069494e+000
 2.5349162932e+000	 2.4433005171e-001	 1.8486170571e+000
 2.5323999311e+000	 2.6916268622e-001	 1.8106990510e+000
 2.5296302940e+000	 2.9405559502e-001	 1.7757791024e+000
 2.5266052010e+000	 3.1900533395e-001	 1.7422547248e+000
 2.5233225252e+000	 3.4400839274e-001	 1.7089137275e+000
 2.5197801953e+000	 3.6906119576e-001	 1.6748905429e+000
 2.5159761984e+000	 3.9416010294e-001	 1.6396204100e+000
 2.5119085816e+000	 4.1930141065e-001	 1.6027920311e+000
 2.5075754541e+000	 4.4448135274e-001	 1.5642993613e+000
 2.5029749895e+000	 4.6969610161e-001	 1.5241932279e+000
 2.4981054275e+000	 4.9494176935e-001	 1.4826335103e+000
 2.5614612743e+000	 2.4688861217e-001	 1.8808570672e+000
 2.5589185615e+000	 2.7198128754e-001	 1.8304706559e+000
 2.5561199215e+000	 2.9713486838e-001	 1.7842659657e+000
 2.5530631505e+000	 3.2234587446e-001	 1.7405811495e+000
 2.5497460993e+000	 3.4761075874e-001	 1.6981705226e+000
 2.5461666751e+000	 3.7292590817e-001	 1.6561544540e+000
 2.5423228438e+000	 3.9828764455e-001	 1.6139669134e+000
 2.5382126320e+000	 4.2369222546e-001	 1.5713013420e+000
 2.5338341291e+000	 4.4913584533e-001	 1.5280555596e+000
 2.5291854896e+000	 4.7461463645e-001	 1.4842764652e+000
 2.5242649348e+000	 5.0012467023e-001	 1.4401053171e+000
 2.5880062554e+000	 2.4944717263e-001	 1.9343672912e+000
 2.5854371919e+000	 2.7479988887e-001	 1.8688767464e+000
 2.5826095490e+000	 3.0021414174e-001	 1.8087671518e+000
 2.5795211000e+000	 3.2568641496e-001	 1.7523414274e+000
 2.5761696735e+000	 3.5121312474e-001	 1.6983448286e+000
 2.5725531550e+000	 3.7679062058e-001	 1.6459079146e+000
 2.5686694892e+000	 4.0241518616e-001	 1.5944869627e+000
 2.5645166823e+000	 4.2808304028e-001	 1.5438025495e+000
 2.5600928041e+000	 4.5379033791e-001	 1.4937770708e+000
 2.5553959897e+000	 4.7953317130e-001	 1.4444720141e+000
 2.5504244421e+000	 5.0530757112e-001	 1.3960258381e+000
 2.2888293689e+000	 4.5347856227e-001	 1.7345513328e+000
 2.2841189201e+000	 4.7663748852e-001	 1.6873608554e+000
 2.2791588084e+000	 4.9981745820e-001	 1.6400596436e+000
 2.2739476157e+000	 5.2301474317e-001	 1.5918321973e+000
 2.2684839922e+000	 5.4622556476e-001	 1.5419759034e+000
 2.2627666581e+000	 5.6944609519e-001	 1.4899041322e+000
 2.2567944051e+000	 5.9267245902e-001	 1.4351523081e+000
 2.2505660983e+000	 6.1590073469e-001	 1.3773873485e+000
 2.2440806781e+000	 6.3912695606e-001	 1.3164208558e+000
 2.2373371614e+000	 6.6234711413e-001	 1.2522264324e+000
 2.2303346436e+000	 6.8555715871e-001	 1.1865158019e+000
 2.3149888762e+000	 4.5866146316e-001	 1.7175092945e+000
 2.3102245907e+000	 4.8208507759e-001	 1.6704812731e+000
 2.3052077888e+000	 5.0552997598e-001	 1.6234237196e+000
 2.2999370364e+000	 5.2899238754e-001	 1.5754489171e+000
 2.2944109680e+000	 5.5246849044e-001	 1.5257686204e+000
 2.2886282893e+000	 5.7595441315e-001	 1.4736940729e+000
 2.2825877781e+000	 5.9944623593e-001	 1.4186392372e+000
 2.2762882867e+000	 6.2293999239e-001	 1.3601276771e+000
 2.2697287433e+000	 6.4643167109e-001	 1.2978035157e+000
 2.2629081536e+000	 6.6991721718e-001	 1.2314869623e+000
 2.2558256026e+000	 6.9339253419e-001	 1.1644581575e+000
 2.3411483836e+000	 4.6384436404e-001	 1.6944973495e+000
 2.3363302614e+000	 4.8753266667e-001	 1.6483870852e+000
 2.3312567693e+000	 5.1124249375e-001	 1.6023663714e+000
 2.3259264570e+000	 5.3497003191e-001	 1.5554552079e+000
 2.3203379438e+000	 5.5871141613e-001	 1.5067564451e+000
 2.3144899205e+000	 5.8246273111e-001	 1.4554524496e+000
 2.3083811512e+000	 6.0622001284e-001	 1.4008052462e+000
 2.3020104752e+000	 6.2997925010e-001	 1.3421606149e+000
 2.2953768085e+000	 6.5373638611e-001	 1.2789566109e+000
 2.2884791457e+000	 6.7748732023e-001	 1.2112412575e+000
 2.2813165615e+000	 7.0122790966e-001	 1.1435636851e+000
 2.3673078909e+000	 4.6902726493e-001	 1.6666536432e+000
 2.3624359320e+000	 4.9298025574e-001	 1.6219309757e+000
 2.3573057498e+000	 5.1695501152e-001	 1.5774567294e+000
 2.3519158777e+000	 5.4094767629e-001	 1.5321445219e+000
 2.3462649196e+000	 5.6495434181e-001	 1.4849708078e+000
 2.3403515516e+000	 5.8897104907e-001	 1.4349679005e+000
 2.3341745242e+000	 6.1299378974e-001	 1.3812207510e+000
 2.3277326636e+000	 6.3701850780e-001	 1.3228680097e+000
 2.3210248737e+000	 6.6104110114e-001	 1.2591078848e+000
 2.3140501379e+000	 6.8505742327e-001	 1.1908293880e+000
 2.3068075204e+000	 7.0906328514e-001	 1.1230554743e+000
 2.3934673982e+000	 4.7421016581e-001	 1.6349383682e+000
 2.3885416026e+000	 4.9842784481e-001	 1.5917864953e+000
 2.3833547302e+000	 5.2266752930e-001	 1.5490858925e+000
 2.3779052983e+000	 5.4692532066e-001	 1.5056356996e+000
 2.3721918953e+000	 5.7119726749e-001	 1.4602742911e+000
 2.3662131828e+000	 5.9547936703e-001	 1.4118683363e+000
 2.3599678973e+000	 6.1976756665e-001	 1.3593059178e+000
 2.3534548520e+000	 6.4405776551e-001	 1.3014942844e+000
 2.3466729389e+000	 6.6834581616e-001	 1.2373742191e+000
 2.3396211300e+000	 6.9262752632e-001	 1.1694218160e+000
 2.3322984793e+000	 7.1689866062e-001	 1.1020505466e+000
 2.4196269055e+000	 4.7939306669e-001	 1.6001390612e+000
 2.4146472732e+000	 5.0387543389e-001	 1.5584541870e+000
 2.4094037107e+000	 5.2838004707e-001	 1.5174739393e+000
 2.4038947190e+000	 5.5290296503e-001	 1.4758809310e+000
 2.3981188711e+000	 5.7744019317e-001	 1.4323696114e+000
 2.3920748140e+000	 6.0198768499e-001	 1.3856310211e+000
 2.3857612703e+000	 6.2654134356e-001	 1.3343419288e+000
 2.3791770405e+000	 6.5109702321e-001	 1.2771589788e+000
 2.3723210042e+000	 6.7565053119e-001	 1.2130920238e+000
 2.3651921222e+000	 7.0019762936e-001	 1.1460884581e+000
 2.3577894383e+000	 7.2473403609e-001	 1.0795646561e+000
 2.4457864128e+000	 4.8457596758e-001	 1.5628758926e+000
 2.4407529438e+000	 5.0932302296e-001	 1.5222676996e+000
 2.4354526912e+000	 5.3409256484e-001	 1.4826769238e+000
 2.4298841397e+000	 5.5888060940e-001	 1.4426736982e+000
 2.4240458469e+000	 5.8368311886e-001	 1.4008085797e+000
 2.4179364451e+000	 6.0849600294e-001	 1.3555926291e+000
 2.4115546434e+000	 6.3331512046e-001	 1.3054822193e+000
 2.4048992289e+000	 6.5813628092e-001	 1.2488692564e+000
 2.3979690694e+000	 6.8295524621e-001	 1.1854279362e+000
 2.3907631144e+000	 7.0776773240e-001	 1.1198029929e+000
 2.3832803972e+000	 7.3256941157e-001	 1.0545170285e+000
 2.4719459201e+000	 4.8975886846e-001	 1.5236069494e+000
 2.4668586144e+000	 5.1477061203e-001	 1.4833998912e+000
 2.4615016716e+000	 5.3980508261e-001	 1.4445938572e+000
 2.4558735603e+000	 5.6485825377e-001	 1.4056567005e+000
 2.4499728226e+000	 5.8992604454e-001	 1.3650010414e+000
 2.4437980763e+000	 6.1500432090e-001	 1.3209592766e+000
 2.4373480164e+000	 6.4008889737e-001	 1.2717636855e+000
 2.4306214173e+000	 6.6517553862e-001	 1.2155323796e+000
 2.4236171346e+000	 6.9025996123e-001	 1.1533367756e+000
 2.4163341065e+000	 7.1533783545e-001	 1.0894471219e+000
 2.4087713561e+000	 7.4040478704e-001	 1.0257350437e+000
 2.4981054275e+000	 4.9494176935e-001	 1.4826335103e+000
 2.4929642851e+000	 5.2021820111e-001	 1.4418689216e+000
 2.4875506521e+000	 5.4551760038e-001	 1.4029736760e+000
 2.4818629810e+000	 5.7083589814e-001	 1.3643297632e+000
 2.4758997984e+000	 5.9616897022e-001	 1.3242237977e+000
 2.4696597075e+000	 6.2151263886e-001	 1.2808165329e+000
 2.4631413894e+000	 6.4686267428e-001	 1.2321178679e+000
 2.4563436058e+000	 6.7221479633e-001	 1.1761181351e+000
 2.4492651998e+000	 6.9756467626e-001	 1.1156850452e+000
 2.4419050987e+000	 7.2290793849e-001	 1.0538147870e+000
 2.4342623150e+000	 7.4824016252e-001	 9.9195886624e-001
 2.5242649348e+000	 5.0012467023e-001	 1.4401053171e+000
 2.5190699557e+000	 5.2566579018e-001	 1.3975443358e+000
 2.5135996326e+000	 5.5123011816e-001	 1.3574221986e+000
 2.5078524016e+000	 5.7681354251e-001	 1.3180577328e+000
 2.5018267742e+000	 6.0241189591e-001	 1.2776295091e+000
 2.4955213386e+000	 6.2802095682e-001	 1.2341394107e+000
 2.4889347625e+000	 6.5363645118e-001	 1.1853821109e+000
 2.4820657942e+000	 6.7925405403e-001	 1.1297618956e+000
 2.4749132650e+000	 7.0486939128e-001	 1.0712547411e+000
 2.4674760908e+000	 7.3047804154e-001	 1.0116163485e+000
 2.4597532740e+000	 7.5607553799e-001	 9.5184602670e-001
 2.5504244421e+000	 5.0530757112e-001	 1.3960258381e+000
 2.5451756263e+000	 5.3111337925e-001	 1.3501531387e+000
 2.5396486130e+000	 5.5694263593e-001	 1.3074090696e+000
 2.5338418223e+000	 5.8279118688e-001	 1.2660783563e+000
 2.5277537500e+000	 6.0865482159e-001	 1.2242555837e+000
 2.5213829698e+000	 6.3452927478e-001	 1.1798023373e+000
 2.5147281355e+000	 6.6041022809e-001	 1.1303107002e+000
 2.5077879826e+000	 6.8629331174e-001	 1.0752624047e+000
 2.5005613302e+000	 7.1217410630e-001	 1.0187471305e+000
 2.4930470830e+000	 7.3804814458e-001	 9.6148272490e-001
 2.4852442329e+000	 7.6391091347e-001	 9.0397595863e-001
 2.2303346436e+000	 6.8555715871e-001	 1.1865158019e+000
 2.2230722995e+000	 7.0875299987e-001	 1.1206113957e+000
 2.2155493829e+000	 7.3193050875e-001	 1.0521389346e+000
 2.2077652301e+000	 7.5508552040e-001	 9.8137223760e-001
 2.1997192618e+000	 7.7821383611e-001	 9.0861671185e-001
 2.1914109843e+000	 8.0131122541e-001	 8.3420307051e-001
 2.1828399911e+000	 8.2437342815e-001	 7.5848141961e-001
 2.1740059639e+000	 8.4739615664e-001	 6.8181576117e-001
 2.1649086739e+000	 8.7037509788e-001	 6.0457895621e-001
 2.1555479833e+000	 8.9330591575e-001	 5.2714818731e-001
 2.1459238455e+000	 9.1618425334e-001	 4.4990095530e-001
 2.2558256026e+000	 6.9339253419e-001	 1.1644581575e+000
 2.2484802556e+000	 7.1685348544e-001	 1.0978543033e+000
 2.2408713580e+000	 7.4029589490e-001	 1.0294774495e+000
 2.2329982385e+000	 7.6371555000e-001	 9.5944722129e-001
 2.2248603111e+000	 7.8710820405e-001	 8.8790975668e-001
 2.2164570766e+000	 8.1046957821e-001	 8.1503128523e-001
 2.2077881238e+000	 8.3379536366e-001	 7.4099213672e-001
 2.1988531306e+000	 8.5708122372e-001	 6.6598123128e-001
 2.1896518658e+000	 8.8032279606e-001	 5.9019109696e-001
 2.1801841899e+000	 9.0351569502e-001	 5.1381345654e-001
 2.1704500559e+000	 9.2665551389e-001	 4.3703541985e-001
 2.2813165615e+000	 7.0122790966e-001	 1.1435636851e+000
 2.2738882116e+000	 7.2495397102e-001	 1.0767365669e+000
 2.2661933331e+000	 7.4866128104e-001	 1.0088489259e+000
 2.2582312469e+000	 7.7234557960e-001	 9.3989355390e-001
 2.2500013605e+000	 7.9600257198e-001	 8.6988373269e-001
 2.2415031690e+000	 8.1962793101e-001	 7.9884661170e-001
 2.2327362564e+000	 8.4321729918e-001	 7.2681708167e-001
 2.2237002973e+000	 8.6676629079e-001	 6.5383219962e-001
 2.2143950577e+000	 8.9027049423e-001	 5.7992621389e-001
 2.2048203965e+000	 9.1372547428e-001	 5.0512623333e-001
 2.1949762662e+000	 9.3712677444e-001	 4.2944857888e-001
 2.3068075204e+000	 7.0906328514e-001	 1.1230554743e+000
 2.2992961677e+000	 7.3305445659e-001	 1.0564363154e+000
 2.2915153082e+000	 7.5702666719e-001	 9.8937986094e-001
 2.2834642553e+000	 7.8097560919e-001	 9.2177904364e-001
 2.2751424099e+000	 8.0489693991e-001	 8.5354027558e-001
 2.2665492613e+000	 8.2878628382e-001	 7.8457656233e-001
 2.2576843891e+000	 8.5263923470e-001	 7.1480118521e-001
 2.2485474640e+000	 8.7645135786e-001	 6.4412200929e-001
 2.2391382496e+000	 9.0021819241e-001	 5.7243646951e-001
 2.2294566031e+000	 9.2393525355e-001	 4.9962728135e-001
 2.2195024766e+000	 9.4759803499e-001	 4.2555891643e-001
 2.3322984793e+000	 7.1689866062e-001	 1.1020505466e+000
 2.3247041238e+000	 7.4115494217e-001	 1.0360248071e+000
 2.3168372833e+000	 7.6539205334e-001	 9.7009006118e-001
 2.3086972637e+000	 7.8960563879e-001	 9.0406599401e-001
 2.3002834592e+000	 8.1379130784e-001	 8.3777772791e-001
 2.2915953536e+000	 8.3794463662e-001	 7.7104861188e-001
 2.2826325217e+000	 8.6206117021e-001	 7.0369365557e-001
 2.2733946308e+000	 8.8613642494e-001	 6.3551366904e-001
 2.2638814415e+000	 9.1016589059e-001	 5.6629016416e-001
 2.2540928097e+000	 9.3414503282e-001	 4.9578106687e-001
 2.2440286869e+000	 9.5806929554e-001	 4.2371728289e-001
 2.3577894383e+000	 7.2473403609e-001	 1.0795646561e+000
 2.3501120799e+000	 7.4925542774e-001	 1.0144716862e+000
 2.3421592584e+000	 7.7375743949e-001	 9.4989833558e-001
 2.3339302721e+000	 7.9823566838e-001	 8.8561731053e-001
 2.3254245086e+000	 8.2268567577e-001	 8.2139763611e-001
 2.3166414459e+000	 8.4710298942e-001	 7.5699705907e-001
 2.3075806544e+000	 8.7148310573e-001	 6.9215517705e-001
 2.2982417975e+000	 8.9582149201e-001	 6.2658735920e-001
 2.2886246334e+000	 9.2011358876e-001	 5.5997951780e-001
 2.2787290163e+000	 9.4435481208e-001	 4.9198378304e-001
 2.2685548972e+000	 9.6854055608e-001	 4.2221512623e-001
 2.3832803972e+000	 7.3256941157e-001	 1.0545170285e+000
 2.3755200360e+000	 7.5735591331e-001	 9.9065016743e-001
 2.3674812335e+000	 7.8212282563e-001	 9.2762810683e-001
 2.3591632805e+000	 8.0686569798e-001	 8.6520251946e-001
 2.3505655579e+000	 8.3158004370e-001	 8.0311115453e-001
 2.3416875382e+000	 8.5626134222e-001	 7.4106979238e-001
 2.3325287870e+000	 8.8090504125e-001	 6.7876501222e-001
 2.3230889642e+000	 9.0550655908e-001	 6.1584784318e-001
 2.3133678253e+000	 9.3006128694e-001	 5.5192836166e-001
 2.3033652229e+000	 9.5456459135e-001	 4.8657129079e-001
 2.2930811076e+000	 9.7901181663e-001	 4.1929264954e-001
 2.4087713561e+000	 7.4040478704e-001	 1.0257350437e+000
 2.4009279921e+000	 7.6545639888e-001	 9.6334215371e-001
 2.3928032086e+000	 7.9048821178e-001	 9.0201294800e-001
 2.3843962889e+000	 8.1549572757e-001	 8.4150370485e-001
 2.3757066073e+000	 8.4047441163e-001	 7.8154536331e-001
 2.3667336306e+000	 8.6541969502e-001	 7.2183496715e-001
 2.3574769197e+000	 8.9032697676e-001	 6.6202801498e-001
 2.3479361309e+000	 9.1519162615e-001	 6.0173179139e-001
 2.3381110172e+000	 9.4000898511e-001	 5.4049974644e-001
 2.3280014296e+000	 9.6477437061e-001	 4.7782698270e-001
 2.3176073179e+000	 9.8948307718e-001	 4.1314690019e-001
 2.4342623150e+000	 7.4824016252e-001	 9.9195886624e-001
 2.4263359481e+000	 7.7355688446e-001	 9.3124329235e-001
 2.4181251837e+000	 7.9885359793e-001	 8.7170204947e-001
 2.4096292973e+000	 8.2412575717e-001	 8.1312137012e-001
 2.4008476566e+000	 8.4936877956e-001	 7.5524950636e-001
 2.3917797229e+000	 8.7457804782e-001	 6.9778760044e-001
 2.3824250523e+000	 8.9974891228e-001	 6.4038156094e-001
 2.3727832976e+000	 9.2487669322e-001	 5.8261502425e-001
 2.3628542091e+000	 9.4995668329e-001	 5.2400347315e-001
 2.3526376362e+000	 9.7498414988e-001	 4.6398957538e-001
 2.3421335283e+000	 9.9995433773e-001	 4.0193979571e-001
 2.4597532740e+000	 7.5607553799e-001	 9.5184602670e-001
 2.4517439042e+000	 7.8165737003e-001	 8.9296797380e-001
 2.4434471588e+000	 8.0721898407e-001	 8.3526562151e-001
 2.4348623057e+000	 8.3275578676e-001	 7.7858022949e-001
 2.4259887060e+000	 8.5826314749e-001	 7.2270115543e-001
 2.4168258152e+000	 8.8373640062e-001	 6.6735608967e-001
 2.4073731850e+000	 9.0917084779e-001	 6.1220240119e-001
 2.3976304643e+000	 9.3456176030e-001	 5.5681967995e-001
 2.3875974010e+000	 9.5990438146e-001	 5.0070355219e-001
 2.3772738428e+000	 9.8519392915e-001	 4.4326083560e-001
 2.3666597386e+000	 1.0104255983e+000	 3.8379988958e-001
 2.4852442329e+000	 7.6391091347e-001	 9.0397595863e-001
 2.4771518603e+000	 7.8975785560e-001	 8.4705427717e-001
 2.4687691339e+000	 8.1558437022e-001	 7.9120023694e-001
 2.4600953141e+000	 8.4138581636e-001	 7.3633493439e-001
 2.4511297553e+000	 8.6715751542e-001	 6.8231230531e-001
 2.4418719075e+000	 8.9289475342e-001	 6.2890866042e-001
 2.4323213176e+000	 9.1859278331e-001	 5.7581344488e-001
 2.4224776311e+000	 9.4424682737e-001	 5.2262131245e-001
 2.4123405929e+000	 9.6985207964e-001	 4.6882559593e-001
 2.4019100494e+000	 9.9540370841e-001	 4.1381324488e-001
 2.3911859489e+000	 1.0208968588e+000	 3.5685574207e-001
 2.1459238455e+000	 9.1618425334e-001	 4.4990095530e-001
 2.1360378104e+000	 9.3900231690e-001	 3.7380706818e-001
 2.1258885955e+000	 9.6175915357e-001	 2.9931230913e-001
 2.1154764373e+000	 9.8445036148e-001	 2.2604230060e-001
 2.1048016674e+000	 1.0070715277e+000	 1.5362488195e-001
 2.0938647137e+000	 1.0296182305e+000	 8.1687403589e-002
 2.0826661006e+000	 1.0520860425e+000	 9.8741442225e-003
 2.0712064498e+000	 1.0744705326e+000	-6.2176735857e-002
 2.0594864808e+000	 1.0967672688e+000	-1.3481223056e-001
 2.0475070112e+000	 1.1189718211e+000	-2.0836593417e-001
 2.0352689572e+000	 1.1410797639e+000	-2.8315405689e-001
 2.1704500559e+000	 9.2665551389e-001	 4.3703541985e-001
 2.1604510311e+000	 9.4973436985e-001	 3.6085896961e-001
 2.1501858188e+000	 9.7275129914e-001	 2.8598104279e-001
 2.1396546578e+000	 9.9570184959e-001	 2.1215705630e-001
 2.1288578838e+000	 1.0185815578e+000	 1.3913385288e-001
 2.1177959294e+000	 1.0413859516e+000	 6.6669616095e-002
 2.1064693250e+000	 1.0641105529e+000	-5.4948112755e-003
 2.0948786995e+000	 1.0867508800e+000	-7.7611917948e-002
 2.0830247805e+000	 1.1093024502e+000	-1.4993034402e-001
 2.0709083951e+000	 1.1317607830e+000	-2.2269123007e-001
 2.0585304698e+000	 1.1541214020e+000	-2.9612395877e-001
 2.1949762662e+000	 9.3712677444e-001	 4.2944857888e-001
 2.1848642519e+000	 9.6046642279e-001	 3.5388890406e-001
 2.1744830421e+000	 9.8374344471e-001	 2.7933553950e-001
 2.1638328784e+000	 1.0069533377e+000	 2.0565946649e-001
 2.1529141003e+000	 1.0300915879e+000	 1.3271630261e-001
 2.1417271451e+000	 1.0531536727e+000	 6.0364455111e-002
 2.1302725494e+000	 1.0761350633e+000	-1.1560754024e-002
 2.1185509491e+000	 1.0990312274e+000	-8.3224823564e-002
 2.1065630802e+000	 1.1218376317e+000	-1.5479619402e-001
 2.0943097789e+000	 1.1445497449e+000	-2.2644231729e-001
 2.0817919823e+000	 1.1671630402e+000	-2.9832505435e-001
 2.2195024766e+000	 9.4759803499e-001	 4.2555891643e-001
 2.2092774727e+000	 9.7119847574e-001	 3.5118936897e-001
 2.1987802654e+000	 9.9473559028e-001	 2.7754639181e-001
 2.1880110990e+000	 1.0182048258e+000	 2.0459770643e-001
 2.1769703167e+000	 1.0416016180e+000	 1.3230737428e-001
 2.1656583608e+000	 1.0649213938e+000	 6.0603700568e-002
 2.1540757738e+000	 1.0881595737e+000	-1.0595250280e-002
 2.1422231988e+000	 1.1113115748e+000	-8.1385349375e-002
 2.1301013799e+000	 1.1343728131e+000	-1.5187290715e-001
 2.1177111628e+000	 1.1573387067e+000	-2.2217039601e-001
 2.1050534949e+000	 1.1802046783e+000	-2.9239143171e-001
 2.2440286869e+000	 9.5806929554e-001	 4.2371728289e-001
 2.2336906935e+000	 9.8193052869e-001	 3.5099464984e-001
 2.2230774887e+000	 1.0057277359e+000	 2.7873578981e-001
 2.2121893196e+000	 1.0294563139e+000	 2.0699674748e-001
 2.2010265331e+000	 1.0531116482e+000	 1.3581929103e-001
 2.1895895765e+000	 1.0766891149e+000	 6.5202022910e-002
 2.1778789982e+000	 1.1001840841e+000	-4.8760867741e-003
 2.1658954485e+000	 1.1235919221e+000	-7.4458579586e-002
 2.1536396796e+000	 1.1469079945e+000	-1.4360767383e-001
 2.1411125466e+000	 1.1701276686e+000	-2.1239957028e-001
 2.1283150075e+000	 1.1932463165e+000	-2.8091894182e-001
 2.2685548972e+000	 9.6854055608e-001	 4.2221512623e-001
 2.2581039143e+000	 9.9266258164e-001	 3.5148923985e-001
 2.2473747120e+000	 1.0167198814e+000	 2.8098085904e-001
 2.2363675401e+000	 1.0407078020e+000	 2.1083656407e-001
 2.2250827495e+000	 1.0646216783e+000	 1.4114545628e-001
 2.2135207922e+000	 1.0884568360e+000	 7.1966154990e-002
 2.2016822226e+000	 1.1122085945e+000	 3.3220913754e-003
 2.1895676981e+000	 1.1358722695e+000	-6.4795231942e-002
 2.1771779793e+000	 1.1594431759e+000	-1.3242200036e-001
 2.1645139305e+000	 1.1829166305e+000	-1.9961690340e-001
 2.1515765201e+000	 1.2062879546e+000	-2.6645505446e-001
 2.2930811076e+000	 9.7901181663e-001	 4.1929264954e-001
 2.2825171351e+000	 1.0033946346e+000	 3.5081619657e-001
 2.2716719353e+000	 1.0277120270e+000	 2.8234383153e-001
 2.2605457607e+000	 1.0519592901e+000	 2.1408177396e-001
 2.2491389659e+000	 1.0761317084e+000	 1.4616940858e-001
 2.2374520078e+000	 1.1002245571e+000	 7.8704047648e-002
 2.2254854470e+000	 1.1242331049e+000	 1.1737138291e-002
 2.2132399478e+000	 1.1481526169e+000	-5.4722096404e-002
 2.2007162790e+000	 1.1719783574e+000	-1.2070194186e-001
 2.1879153143e+000	 1.1957055924e+000	-1.8626244293e-001
 2.1748380327e+000	 1.2193295928e+000	-2.5148867261e-001
 2.3176073179e+000	 9.8948307718e-001	 4.1314690019e-001
 2.3069303559e+000	 1.0141266875e+000	 3.4707972609e-001
 2.2959691586e+000	 1.0387041726e+000	 2.8084730526e-001
 2.2847239813e+000	 1.0632107782e+000	 2.1468501347e-001
 2.2731951823e+000	 1.0876417385e+000	 1.4877375049e-001
 2.2613832235e+000	 1.1119922782e+000	 8.3234010203e-002
 2.2492886714e+000	 1.1362576153e+000	 1.8128760821e-002
 2.2369121975e+000	 1.1604329643e+000	-4.6532467073e-002
 2.2242545787e+000	 1.1845135388e+000	-1.1078831775e-001
 2.2113166982e+000	 1.2084945542e+000	-1.7471921763e-001
 2.1980995453e+000	 1.2323712309e+000	-2.3843990846e-001
 2.3421335283e+000	 9.9995433773e-001	 4.0193979571e-001
 2.3313435766e+000	 1.0248587405e+000	 3.3837688017e-001
 2.3202663819e+000	 1.0496963181e+000	 2.7450543277e-001
 2.3089022019e+000	 1.0744622664e+000	 2.1059562133e-001
 2.2972513987e+000	 1.0991517687e+000	 1.4684905312e-001
 2.2853144392e+000	 1.1237599992e+000	 8.3393836946e-002
 2.2730918958e+000	 1.1482821256e+000	 2.0287868200e-002
 2.2605844471e+000	 1.1727133117e+000	-4.2476567832e-002
 2.2477928784e+000	 1.1970487202e+000	-1.0496691099e-001
 2.2347180820e+000	 1.2212835161e+000	-1.6730320829e-001
 2.2213610579e+000	 1.2454128691e+000	-2.2964982375e-001
 2.3666597386e+000	 1.0104255983e+000	 3.8379988958e-001
 2.3557567974e+000	 1.0355907934e+000	 3.2276965596e-001
 2.3445636051e+000	 1.0606884637e+000	 2.6132652367e-001
 2.3330804224e+000	 1.0857137545e+000	 1.9976829090e-001
 2.3213076151e+000	 1.1106617988e+000	 1.3830273852e-001
 2.3092456549e+000	 1.1355277203e+000	 7.7049920660e-002
 2.2968951202e+000	 1.1603066360e+000	 1.6045918144e-002
 2.2842566968e+000	 1.1849936591e+000	-4.4751972185e-002
 2.2713311781e+000	 1.2095839016e+000	-1.0545865220e-001
 2.2581194659e+000	 1.2340724780e+000	-1.6625329444e-001
 2.2446225705e+000	 1.2584545072e+000	-2.2737013727e-001
 2.3911859489e+000	 1.0208968588e+000	 3.5685574207e-001
 2.3801700182e+000	 1.0463228464e+000	 2.9831783167e-001
 2.3688608284e+000	 1.0716806093e+000	 2.3932142977e-001
 2.3572586430e+000	 1.0969652426e+000	 1.8017169294e-001
 2.3453638315e+000	 1.1221718289e+000	 1.2106794108e-001
 2.3331768706e+000	 1.1472954414e+000	 6.2106354090e-002
 2.3206983446e+000	 1.1723311464e+000	 3.2842596522e-003
 2.3079289465e+000	 1.1972740064e+000	-5.5494017688e-002
 2.2948694778e+000	 1.2221190831e+000	-1.1440978982e-001
 2.2815208497e+000	 1.2468614399e+000	-1.7372117864e-001
 2.2678840830e+000	 1.2714961454e+000	-2.3375290153e-001
 2.0352689572e+000	 1.1410797639e+000	-2.8315405689e-001
 2.0227714400e+000	 1.1630899723e+000	-3.5761741707e-001
 2.0100173918e+000	 1.1849947132e+000	-4.3025488507e-001
 1.9970080273e+000	 1.2067895896e+000	-5.0145388315e-001
 1.9837446602e+000	 1.2284702205e+000	-5.7068897893e-001
 1.9702287031e+000	 1.2500322424e+000	-6.3722154052e-001
 1.9564616671e+000	 1.2714713133e+000	-7.0048222322e-001
 1.9424451616e+000	 1.2927831142e+000	-7.5984455611e-001
 1.9281808938e+000	 1.3139633529e+000	-8.1462182569e-001
 1.9136706685e+000	 1.3350077662e+000	-8.6406816032e-001
 1.8989163873e+000	 1.3559121227e+000	-9.0791759670e-001
 2.0585304698e+000	 1.1541214020e+000	-2.9612395877e-001
 2.0458901159e+000	 1.1763831698e+000	-3.6885495281e-001
 2.0329902990e+000	 1.1985382644e+000	-4.3956298545e-001
 2.0198322477e+000	 1.2205822391e+000	-5.0857514455e-001
 2.0064172909e+000	 1.2425106623e+000	-5.7620953424e-001
 1.9927468571e+000	 1.2643191212e+000	-6.4249154573e-001
 1.9788224748e+000	 1.2860032236e+000	-7.0583844047e-001
 1.9646457717e+000	 1.3075586015e+000	-7.6533205968e-001
 1.9502184746e+000	 1.3289809136e+000	-8.2018241396e-001
 1.9355424090e+000	 1.3502658479e+000	-8.6965599292e-001
 1.9206194979e+000	 1.3714091246e+000	-9.1253897784e-001
 2.0817919823e+000	 1.1671630402e+000	-2.9832505435e-001
 2.0690087917e+000	 1.1896763672e+000	-3.6929610348e-001
 2.0559632062e+000	 1.2120818157e+000	-4.3826199643e-001
 2.0426564682e+000	 1.2343748885e+000	-5.0549392708e-001
 2.0290899215e+000	 1.2565511042e+000	-5.7125940737e-001
 2.0152650111e+000	 1.2786059999e+000	-6.3581408996e-001
 2.0011832824e+000	 1.3005351339e+000	-6.9939322320e-001
 1.9868463818e+000	 1.3223340888e+000	-7.6092669838e-001
 1.9722560554e+000	 1.3439984743e+000	-8.1816180692e-001
 1.9574141494e+000	 1.3655239295e+000	-8.6956876187e-001
 1.9423226086e+000	 1.3869061265e+000	-9.1315502417e-001
 2.1050534949e+000	 1.1802046783e+000	-2.9239143171e-001
 2.0921274676e+000	 1.2029695646e+000	-3.6164290412e-001
 2.0789361133e+000	 1.2256253669e+000	-4.2909692107e-001
 2.0654806886e+000	 1.2481675379e+000	-4.9499993515e-001
 2.0517625522e+000	 1.2705915461e+000	-5.5959947750e-001
 2.0377831651e+000	 1.2928928786e+000	-6.2313525261e-001
 2.0235440901e+000	 1.3150670442e+000	-6.8582982603e-001
 2.0090469919e+000	 1.3371095762e+000	-7.4786474631e-001
 1.9942936363e+000	 1.3590160350e+000	-8.0825585436e-001
 1.9792858898e+000	 1.3807820112e+000	-8.6267891616e-001
 1.9640257193e+000	 1.4024031284e+000	-9.0843380252e-001
 2.1283150075e+000	 1.1932463165e+000	-2.8091894182e-001
 2.1152461435e+000	 1.2162627620e+000	-3.4854851214e-001
 2.1019090205e+000	 1.2391689182e+000	-4.1475424219e-001
 2.0883049091e+000	 1.2619601874e+000	-4.7978869700e-001
 2.0744351829e+000	 1.2846319880e+000	-5.4390977025e-001
 2.0603013190e+000	 1.3071797573e+000	-6.0737092913e-001
 2.0459048977e+000	 1.3295989545e+000	-6.7041101105e-001
 2.0312476020e+000	 1.3518850635e+000	-7.3253388052e-001
 2.0163312171e+000	 1.3740335957e+000	-7.9200132134e-001
 2.0011576303e+000	 1.3960400929e+000	-8.4786514952e-001
 1.9857288300e+000	 1.4179001304e+000	-8.9704459772e-001
 2.1515765201e+000	 1.2062879546e+000	-2.6645505446e-001
 2.1383648193e+000	 1.2295559594e+000	-3.3260683726e-001
 2.1248819277e+000	 1.2527124694e+000	-3.9785127594e-001
 2.1111291295e+000	 1.2757528368e+000	-4.6247767669e-001
 2.0971078136e+000	 1.2986724299e+000	-5.2678444468e-001
 2.0828194730e+000	 1.3214666360e+000	-5.9106835364e-001
 2.0682657054e+000	 1.3441308648e+000	-6.5529230127e-001
 2.0534482121e+000	 1.3666605508e+000	-7.1720309342e-001
 2.0383687979e+000	 1.3890511563e+000	-7.7558763362e-001
 2.0230293707e+000	 1.4112981745e+000	-8.2956890278e-001
 2.0074319407e+000	 1.4333971323e+000	-8.7828086965e-001
 2.1748380327e+000	 1.2193295928e+000	-2.5148867261e-001
 2.1614834952e+000	 1.2428491568e+000	-3.1634212073e-001
 2.1478548349e+000	 1.2662560207e+000	-3.8092546884e-001
 2.1339533500e+000	 1.2895454862e+000	-4.4559524069e-001
 2.1197804442e+000	 1.3127128717e+000	-5.1072037998e-001
 2.1053376270e+000	 1.3357535147e+000	-5.7664989647e-001
 2.0906265131e+000	 1.3586627752e+000	-6.4136158668e-001
 2.0756488222e+000	 1.3814360382e+000	-7.0276097512e-001
 2.0604063787e+000	 1.4040687170e+000	-7.6003589350e-001
 2.0449011111e+000	 1.4265562562e+000	-8.1237870040e-001
 2.0291350514e+000	 1.4488941342e+000	-8.5899031418e-001
 2.1980995453e+000	 1.2323712309e+000	-2.3843990846e-001
 2.1846021710e+000	 1.2561423542e+000	-3.0219846759e-001
 2.1708277421e+000	 1.2797995719e+000	-3.6642364239e-001
 2.1567775704e+000	 1.3033381357e+000	-4.3156956997e-001
 2.1424530749e+000	 1.3267533136e+000	-4.9810570919e-001
 2.1278557810e+000	 1.3500403934e+000	-5.6525539192e-001
 2.1129873207e+000	 1.3731946855e+000	-6.2951909108e-001
 2.0978494323e+000	 1.3962115255e+000	-6.9000681696e-001
 2.0824439595e+000	 1.4190862777e+000	-7.4599996527e-001
 2.0667728516e+000	 1.4418143379e+000	-7.9678055842e-001
 2.0508381620e+000	 1.4643911361e+000	-8.4163545312e-001
 2.2213610579e+000	 1.2454128691e+000	-2.2964982375e-001
 2.2077208469e+000	 1.2694355516e+000	-2.9252933536e-001
 2.1938006493e+000	 1.2933431232e+000	-3.5669118919e-001
 2.1796017909e+000	 1.3171307851e+000	-4.2271752179e-001
 2.1651257056e+000	 1.3407937555e+000	-4.9092186829e-001
 2.1503739350e+000	 1.3643272722e+000	-5.5748839220e-001
 2.1353481284e+000	 1.3877265958e+000	-6.2059786666e-001
 2.1200500424e+000	 1.4109870128e+000	-6.7965442832e-001
 2.1044815404e+000	 1.4341038384e+000	-7.3405383566e-001
 2.0886445920e+000	 1.4570724195e+000	-7.8318729913e-001
 2.0725412727e+000	 1.4798881380e+000	-8.2644584455e-001
 2.2446225705e+000	 1.2584545072e+000	-2.2737013727e-001
 2.2308395228e+000	 1.2827287490e+000	-2.8958698235e-001
 2.2167735565e+000	 1.3068866744e+000	-3.5396122409e-001
 2.2024260114e+000	 1.3309234345e+000	-4.2123344463e-001
 2.1877983362e+000	 1.3548341974e+000	-4.8933153445e-001
 2.1728920890e+000	 1.3786141509e+000	-5.5419166855e-001
 2.1577089361e+000	 1.4022585061e+000	-6.1534477052e-001
 2.1422506525e+000	 1.4257625001e+000	-6.7233593051e-001
 2.1265191212e+000	 1.4491213991e+000	-7.2469532106e-001
 2.1105163324e+000	 1.4723305012e+000	-7.7194211810e-001
 2.0942443834e+000	 1.4953851399e+000	-8.1358900337e-001
 2.2678840830e+000	 1.2714961454e+000	-2.3375290153e-001
 2.2539581986e+000	 1.2960219464e+000	-2.9551187849e-001
 2.2397464637e+000	 1.3204302257e+000	-3.6034369350e-001
 2.2252502318e+000	 1.3447160840e+000	-4.2830234409e-001
 2.2104709669e+000	 1.3688746392e+000	-4.9399230500e-001
 2.1954102429e+000	 1.3929010296e+000	-5.5612206016e-001
 2.1800697437e+000	 1.4167904164e+000	-6.1442426205e-001
 2.1644512626e+000	 1.4405379875e+000	-6.6860552913e-001
 2.1485567020e+000	 1.4641389598e+000	-7.1834976648e-001
 2.1323880729e+000	 1.4875885829e+000	-7.6332215946e-001
 2.1159474941e+000	 1.5108821418e+000	-8.0317380086e-001
 1.8989163873e+000	 1.3559121227e+000	-9.0791759670e-001
 1.8839200471e+000	 1.3766722252e+000	-9.5172892837e-001
 1.8686837386e+000	 1.3972839118e+000	-1.0005508623e+000
 1.8532096461e+000	 1.4177430601e+000	-1.0527865366e+000
 1.8375000477e+000	 1.4380455904e+000	-1.1068339366e+000
 1.8215573143e+000	 1.4581874680e+000	-1.1610878444e+000
 1.8053839080e+000	 1.4781647061e+000	-1.2139417856e+000
 1.7889823814e+000	 1.4979733684e+000	-1.2637899595e+000
 1.7723553761e+000	 1.5176095714e+000	-1.3090291433e+000
 1.7555056212e+000	 1.5370694871e+000	-1.3480605589e+000
 1.7384359321e+000	 1.5563493455e+000	-1.3792916906e+000
 1.9206194979e+000	 1.3714091246e+000	-9.1253897784e-001
 1.9054517615e+000	 1.3924064986e+000	-9.5366874548e-001
 1.8900413140e+000	 1.4132537605e+000	-9.9835982954e-001
 1.8743903649e+000	 1.4339467407e+000	-1.0453978708e+000
 1.8585012183e+000	 1.4544813128e+000	-1.0935591922e+000
 1.8423762720e+000	 1.4748533961e+000	-1.1416120898e+000
 1.8260180165e+000	 1.4950589583e+000	-1.1883181221e+000
 1.8094290334e+000	 1.5150940179e+000	-1.2324333864e+000
 1.7926119946e+000	 1.5349546471e+000	-1.2727097730e+000
 1.7755696604e+000	 1.5546369742e+000	-1.3078961855e+000
 1.7583048783e+000	 1.5741371861e+000	-1.3367397171e+000
 1.9423226086e+000	 1.3869061265e+000	-9.1315502417e-001
 1.9269834759e+000	 1.4081407721e+000	-9.5359797036e-001
 1.9113988895e+000	 1.4292236092e+000	-9.9630002843e-001
 1.8955710837e+000	 1.4501504213e+000	-1.0403364789e+000
 1.8795023888e+000	 1.4709170352e+000	-1.0847700181e+000
 1.8631952297e+000	 1.4915193242e+000	-1.1286515595e+000
 1.8466521250e+000	 1.5119532104e+000	-1.1710210353e+000
 1.8298756855e+000	 1.5322146673e+000	-1.2109081861e+000
 1.8128686131e+000	 1.5522997228e+000	-1.2473333296e+000
 1.7956336995e+000	 1.5722044614e+000	-1.2793080971e+000
 1.7781738244e+000	 1.5919250267e+000	-1.3058361287e+000
 1.9640257193e+000	 1.4024031284e+000	-9.0843380252e-001
 1.9485151903e+000	 1.4238750455e+000	-9.4997685594e-001
 1.9327564649e+000	 1.4451934579e+000	-9.9264910546e-001
 1.9167518025e+000	 1.4663541018e+000	-1.0357256148e+000
 1.9005035594e+000	 1.4873527576e+000	-1.0784664777e+000
 1.8840141875e+000	 1.5081852524e+000	-1.1201172984e+000
 1.8672862335e+000	 1.5288474625e+000	-1.1599096705e+000
 1.8503223375e+000	 1.5493353168e+000	-1.1970616453e+000
 1.8331252317e+000	 1.5696447985e+000	-1.2307781772e+000
 1.8156977387e+000	 1.5897719485e+000	-1.2602515364e+000
 1.7980427706e+000	 1.6097128674e+000	-1.2846616805e+000
 1.9857288300e+000	 1.4179001304e+000	-8.9704459772e-001
 1.9700469047e+000	 1.4396093189e+000	-9.4127535247e-001
 1.9541140404e+000	 1.4611633066e+000	-9.8570173294e-001
 1.9379325214e+000	 1.4825577824e+000	-1.0297115968e+000
 1.9215047299e+000	 1.5037884800e+000	-1.0726763115e+000
 1.9048331452e+000	 1.5248511805e+000	-1.1139510776e+000
 1.8879203420e+000	 1.5457417147e+000	-1.1528752506e+000
 1.8707689896e+000	 1.5664559662e+000	-1.1887726485e+000
 1.8533818502e+000	 1.5869898742e+000	-1.2209518351e+000
 1.8357617779e+000	 1.6073394356e+000	-1.2487063668e+000
 1.8179117167e+000	 1.6275007080e+000	-1.2713149938e+000
 2.0074319407e+000	 1.4333971323e+000	-8.7828086965e-001
 1.9915786191e+000	 1.4553435924e+000	-9.2597505987e-001
 1.9754716158e+000	 1.4771331553e+000	-9.7377125784e-001
 1.9591132402e+000	 1.4987614629e+000	-1.0204652182e+000
 1.9425059005e+000	 1.5202242024e+000	-1.0654561789e+000
 1.9256521029e+000	 1.5415171086e+000	-1.1081265466e+000
 1.9085544505e+000	 1.5626359668e+000	-1.1478422231e+000
 1.8912156416e+000	 1.5835766157e+000	-1.1839529121e+000
 1.8736384687e+000	 1.6043349499e+000	-1.2157923983e+000
 1.8558258171e+000	 1.6249069228e+000	-1.2426787835e+000
 1.8377806629e+000	 1.6452885487e+000	-1.2639146711e+000
 2.0291350514e+000	 1.4488941342e+000	-8.5899031418e-001
 2.0131103335e+000	 1.4710778658e+000	-9.0470792505e-001
 1.9968291913e+000	 1.4931030040e+000	-9.5519143878e-001
 1.9802939590e+000	 1.5149651435e+000	-1.0061832634e+000
 1.9635070710e+000	 1.5366599249e+000	-1.0548930209e+000
 1.9464710607e+000	 1.5581830367e+000	-1.1006505153e+000
 1.9291885590e+000	 1.5795302189e+000	-1.1427695413e+000
 1.9116622936e+000	 1.6006972652e+000	-1.1805483504e+000
 1.8938950873e+000	 1.6216800256e+000	-1.2132700798e+000
 1.8758898563e+000	 1.6424744099e+000	-1.2402031323e+000
 1.8576496090e+000	 1.6630763893e+000	-1.2606014935e+000
 2.0508381620e+000	 1.4643911361e+000	-8.4163545312e-001
 2.0346420479e+000	 1.4868121393e+000	-8.8516524907e-001
 2.0181867667e+000	 1.5090728527e+000	-9.3281092569e-001
 2.0014746778e+000	 1.5311688241e+000	-9.8512091819e-001
 1.9845082416e+000	 1.5530956473e+000	-1.0391055363e+000
 1.9672900184e+000	 1.5748489648e+000	-1.0895643574e+000
 1.9498226675e+000	 1.5964244711e+000	-1.1356520702e+000
 1.9321089457e+000	 1.6178179146e+000	-1.1765405634e+000
 1.9141517058e+000	 1.6390251014e+000	-1.2113888669e+000
 1.8959538955e+000	 1.6600418970e+000	-1.2393438248e+000
 1.8775185552e+000	 1.6808642300e+000	-1.2595406955e+000
 2.0725412727e+000	 1.4798881380e+000	-8.2644584455e-001
 2.0561737623e+000	 1.5025464127e+000	-8.6823301959e-001
 2.0395443422e+000	 1.5250427014e+000	-9.1361670821e-001
 2.0226553967e+000	 1.5473725046e+000	-9.6298165429e-001
 2.0055094121e+000	 1.5695313697e+000	-1.0167087513e+000
 1.9881089761e+000	 1.5915148930e+000	-1.0729455267e+000
 1.9704567760e+000	 1.6133187232e+000	-1.1245221064e+000
 1.9525555977e+000	 1.6349385641e+000	-1.1699484373e+000
 1.9344083244e+000	 1.6563701771e+000	-1.2081882821e+000
 1.9160179347e+000	 1.6776093842e+000	-1.2381973470e+000
 1.8973875014e+000	 1.6986520706e+000	-1.2589243098e+000
 2.0942443834e+000	 1.4953851399e+000	-8.1358900337e-001
 2.0777054766e+000	 1.5182806861e+000	-8.5390198541e-001
 2.0609019176e+000	 1.5410125501e+000	-8.9757460786e-001
 2.0438361155e+000	 1.5635761852e+000	-9.4475362780e-001
 2.0265105827e+000	 1.5859670921e+000	-9.9558295925e-001
 2.0089279339e+000	 1.6081808211e+000	-1.0502092815e+000
 1.9910908845e+000	 1.6302129753e+000	-1.1074510061e+000
 1.9730022498e+000	 1.6520592135e+000	-1.1588298496e+000
 1.9546649429e+000	 1.6737152528e+000	-1.2017452415e+000
 1.9360819738e+000	 1.6951768713e+000	-1.2348943501e+000
 1.9172564475e+000	 1.7164399113e+000	-1.2569735782e+000
 2.1159474941e+000	 1.5108821418e+000	-8.0317380086e-001
 2.0992371910e+000	 1.5340149596e+000	-8.4211180881e-001
 2.0822594931e+000	 1.5569823987e+000	-8.8447514909e-001
 2.0650168343e+000	 1.5797798658e+000	-9.3010035762e-001
 2.0475117532e+000	 1.6024028145e+000	-9.7882269418e-001
 2.0297468916e+000	 1.6248467492e+000	-1.0304828997e+000
 2.0117249930e+000	 1.6471072275e+000	-1.0849342511e+000
 1.9934489018e+000	 1.6691798630e+000	-1.1412834713e+000
 1.9749215615e+000	 1.6910603285e+000	-1.1901760034e+000
 1.9561460130e+000	 1.7127443585e+000	-1.2276018218e+000
 1.9371253937e+000	 1.7342277519e+000	-1.2519414244e+000
 1.7384359321e+000	 1.5563493455e+000	-1.3792916906e+000
 1.7211518181e+000	 1.5754425866e+000	-1.4073561540e+000
 1.7036537181e+000	 1.5943484719e+000	-1.4372022673e+000
 1.6859446966e+000	 1.6130634224e+000	-1.4676971536e+000
 1.6680278972e+000	 1.6315839263e+000	-1.4977006138e+000
 1.6499065415e+000	 1.6499065415e+000	-1.5260661131e+000
 1.6315839263e+000	 1.6680278972e+000	-1.5516417019e+000
 1.6130634224e+000	 1.6859446966e+000	-1.5732708684e+000
 1.5943484719e+000	 1.7036537181e+000	-1.5897933192e+000
 1.5754425866e+000	 1.7211518181e+000	-1.6000456857e+000
 1.5563493455e+000	 1.7384359321e+000	-1.6028621552e+000
 1.7583048783e+000	 1.5741371861e+000	-1.3367397171e+000
 1.7408232205e+000	 1.5934486479e+000	-1.3640128067e+000
 1.7231251311e+000	 1.6125706125e+000	-1.3943971831e+000
 1.7052137095e+000	 1.6314994600e+000	-1.4264870136e+000
 1.6870921353e+000	 1.6502316386e+000	-1.4588712564e+000
 1.6687636668e+000	 1.6687636668e+000	-1.4901351210e+000
 1.6502316386e+000	 1.6870921353e+000	-1.5188614502e+000
 1.6314994600e+000	 1.7052137095e+000	-1.5436320182e+000
 1.6125706125e+000	 1.7231251311e+000	-1.5630287407e+000
 1.5934486479e+000	 1.7408232205e+000	-1.5756347936e+000
 1.5741371861e+000	 1.7583048783e+000	-1.5800356390e+000
 1.7781738244e+000	 1.5919250267e+000	-1.3058361287e+000
 1.7604946229e+000	 1.6114547092e+000	-1.3318899957e+000
 1.7425965441e+000	 1.6307927531e+000	-1.3620626083e+000
 1.7244827224e+000	 1.6499354976e+000	-1.3947679579e+000
 1.7061563734e+000	 1.6688793510e+000	-1.4284161864e+000
 1.6876207921e+000	 1.6876207921e+000	-1.4614153642e+000
 1.6688793510e+000	 1.7061563734e+000	-1.4921731757e+000
 1.6499354976e+000	 1.7244827224e+000	-1.5190985080e+000
 1.6307927531e+000	 1.7425965441e+000	-1.5406029363e+000
 1.6114547092e+000	 1.7604946229e+000	-1.5551021029e+000
 1.5919250267e+000	 1.7781738244e+000	-1.5610169872e+000
 1.7980427706e+000	 1.6097128674e+000	-1.2846616805e+000
 1.7801660254e+000	 1.6294607705e+000	-1.3092109163e+000
 1.7620679571e+000	 1.6490148936e+000	-1.3385455914e+000
 1.7437517353e+000	 1.6683715353e+000	-1.3709893451e+000
 1.7252206114e+000	 1.6875270633e+000	-1.4048626030e+000
 1.7064779174e+000	 1.7064779174e+000	-1.4384845178e+000
 1.6875270633e+000	 1.7252206114e+000	-1.4701748057e+000
 1.6683715353e+000	 1.7437517353e+000	-1.4982554724e+000
 1.6490148936e+000	 1.7620679571e+000	-1.5210524234e+000
 1.6294607705e+000	 1.7801660254e+000	-1.5368969537e+000
 1.6097128674e+000	 1.7980427706e+000	-1.5441271145e+000
 1.8179117167e+000	 1.6275007080e+000	-1.2713149938e+000
 1.7998374278e+000	 1.6474668317e+000	-1.2942090396e+000
 1.7815393701e+000	 1.6672370342e+000	-1.3221965797e+000
 1.7630207482e+000	 1.6868075729e+000	-1.3535978973e+000
 1.7442848495e+000	 1.7061747756e+000	-1.3867300021e+000
 1.7253350427e+000	 1.7253350427e+000	-1.4199085828e+000
 1.7061747756e+000	 1.7442848495e+000	-1.4514498435e+000
 1.6868075729e+000	 1.7630207482e+000	-1.4796722184e+000
 1.6672370342e+000	 1.7815393701e+000	-1.5028979588e+000
 1.6474668317e+000	 1.7998374278e+000	-1.5194545862e+000
 1.6275007080e+000	 1.8179117167e+000	-1.5276762114e+000
 1.8377806629e+000	 1.6452885487e+000	-1.2639146711e+000
 1.8195088302e+000	 1.6654728930e+000	-1.2851306672e+000
 1.8010107831e+000	 1.6854591748e+000	-1.3113723674e+000
 1.7822897611e+000	 1.7052436106e+000	-1.3410409873e+000
 1.7633490876e+000	 1.7248224880e+000	-1.3725337416e+000
 1.7441921681e+000	 1.7441921681e+000	-1.4042456601e+000
 1.7248224880e+000	 1.7633490876e+000	-1.4345712768e+000
 1.7052436106e+000	 1.7822897611e+000	-1.4619061866e+000
 1.6854591748e+000	 1.8010107831e+000	-1.4846484634e+000
 1.6654728930e+000	 1.8195088302e+000	-1.5011999334e+000
 1.6452885487e+000	 1.8377806629e+000	-1.5099673035e+000
 1.8576496090e+000	 1.6630763893e+000	-1.2606014935e+000
 1.8391802326e+000	 1.6834789543e+000	-1.2802375435e+000
 1.8204821961e+000	 1.7036813154e+000	-1.3044390773e+000
 1.8015587740e+000	 1.7236796482e+000	-1.3317699388e+000
 1.7824133256e+000	 1.7434702003e+000	-1.3607886028e+000
 1.7630492934e+000	 1.7630492934e+000	-1.3900497097e+000
 1.7434702003e+000	 1.7824133256e+000	-1.4181054633e+000
 1.7236796482e+000	 1.8015587740e+000	-1.4435068858e+000
 1.7036813154e+000	 1.8204821961e+000	-1.4648049233e+000
 1.6834789543e+000	 1.8391802326e+000	-1.4805513991e+000
 1.6630763893e+000	 1.8576496090e+000	-1.4892998108e+000
 1.8775185552e+000	 1.6808642300e+000	-1.2595406955e+000
 1.8588516350e+000	 1.7014850156e+000	-1.2778095191e+000
 1.8399536091e+000	 1.7219034560e+000	-1.2997751732e+000
 1.8208277868e+000	 1.7421156858e+000	-1.3242433393e+000
 1.8014775637e+000	 1.7621179126e+000	-1.3500123490e+000
 1.7819064187e+000	 1.7819064187e+000	-1.3758742949e+000
 1.7621179126e+000	 1.8014775637e+000	-1.4006159948e+000
 1.7421156858e+000	 1.8208277868e+000	-1.4230198042e+000
 1.7219034560e+000	 1.8399536091e+000	-1.4418642700e+000
 1.7014850156e+000	 1.8588516350e+000	-1.4559246228e+000
 1.6808642300e+000	 1.8775185552e+000	-1.4639731075e+000
 1.8973875014e+000	 1.6986520706e+000	-1.2589243098e+000
 1.8785230374e+000	 1.7194910769e+000	-1.2761472642e+000
 1.8594250221e+000	 1.7401255965e+000	-1.2957745004e+000
 1.8400967997e+000	 1.7605517235e+000	-1.3169303635e+000
 1.8205418018e+000	 1.7807656250e+000	-1.3387292816e+000
 1.8007635440e+000	 1.8007635440e+000	-1.3602763134e+000
 1.7807656250e+000	 1.8205418018e+000	-1.3806675406e+000
 1.7605517235e+000	 1.8400967997e+000	-1.3989902985e+000
 1.7401255965e+000	 1.8594250221e+000	-1.4143232402e+000
 1.7194910769e+000	 1.8785230374e+000	-1.4257362323e+000
 1.6986520706e+000	 1.8973875014e+000	-1.4322900819e+000
 1.9172564475e+000	 1.7164399113e+000	-1.2569735782e+000
 1.8981944399e+000	 1.7374971381e+000	-1.2735750261e+000
 1.8788964350e+000	 1.7583477371e+000	-1.2908493538e+000
 1.8593658126e+000	 1.7789877611e+000	-1.3083141084e+000
 1.8396060398e+000	 1.7994133373e+000	-1.3254737933e+000
 1.8196206693e+000	 1.8196206693e+000	-1.3418197164e+000
 1.7994133373e+000	 1.8396060398e+000	-1.3568296738e+000
 1.7789877611e+000	 1.8593658126e+000	-1.3699674620e+000
 1.7583477371e+000	 1.8788964350e+000	-1.3806822181e+000
 1.7374971381e+000	 1.8981944399e+000	-1.3884075840e+000
 1.7164399113e+000	 1.9172564475e+000	-1.3925606977e+000
 1.9371253937e+000	 1.7342277519e+000	-1.2519414244e+000
 1.9178658423e+000	 1.7555031994e+000	-1.2684434287e+000
 1.8983678480e+000	 1.7765698777e+000	-1.2834335690e+000
 1.8786348255e+000	 1.7974237988e+000	-1.2968949365e+000
 1.8586702779e+000	 1.8180610496e+000	-1.3087939190e+000
 1.8384777946e+000	 1.8384777946e+000	-1.3190792161e+000
 1.8180610496e+000	 1.8586702779e+000	-1.3276806793e+000
 1.7974237988e+000	 1.8786348255e+000	-1.3345079737e+000
 1.7765698777e+000	 1.8983678480e+000	-1.3394490596e+000
 1.7555031994e+000	 1.9178658423e+000	-1.3423684938e+000
 1.7342277519e+000	 1.9371253937e+000	-1.3431055539e+000
 1.5563493455e+000	 1.7384359321e+000	-1.6028621552e+000
 1.5370694871e+000	 1.7555056212e+000	-1.6020185893e+000
 1.5176095714e+000	 1.7723553761e+000	-1.6014422123e+000
 1.4979733684e+000	 1.7889823814e+000	-1.6001823513e+000
 1.4781647061e+000	 1.8053839080e+000	-1.5972752602e+000
 1.4581874680e+000	 1.8215573143e+000	-1.5917441286e+000
 1.4380455904e+000	 1.8375000477e+000	-1.5825990519e+000
 1.4177430601e+000	 1.8532096461e+000	-1.5688369703e+000
 1.3972839118e+000	 1.8686837386e+000	-1.5494415828e+000
 1.3766722252e+000	 1.8839200471e+000	-1.5233832463e+000
 1.3559121227e+000	 1.8989163873e+000	-1.4896188660e+000
 1.5741371861e+000	 1.7583048783e+000	-1.5800356390e+000
 1.5546369742e+000	 1.7755696604e+000	-1.5797306347e+000
 1.5349546471e+000	 1.7926119946e+000	-1.5786382543e+000
 1.5150940179e+000	 1.8094290334e+000	-1.5759661607e+000
 1.4950589583e+000	 1.8260180165e+000	-1.5709101626e+000
 1.4748533961e+000	 1.8423762720e+000	-1.5626538142e+000
 1.4544813128e+000	 1.8585012183e+000	-1.5503679687e+000
 1.4339467407e+000	 1.8743903649e+000	-1.5332102925e+000
 1.4132537605e+000	 1.8900413140e+000	-1.5103247504e+000
 1.3924064986e+000	 1.9054517615e+000	-1.4808410694e+000
 1.3714091246e+000	 1.9206194979e+000	-1.4438741936e+000
 1.5919250267e+000	 1.7781738244e+000	-1.5610169872e+000
 1.5722044614e+000	 1.7956336995e+000	-1.5616060936e+000
 1.5522997228e+000	 1.8128686131e+000	-1.5607200516e+000
 1.5322146673e+000	 1.8298756855e+000	-1.5576658650e+000
 1.5119532104e+000	 1.8466521250e+000	-1.5517401879e+000
 1.4915193242e+000	 1.8631952297e+000	-1.5422286112e+000
 1.4709170352e+000	 1.8795023888e+000	-1.5284048933e+000
 1.4501504213e+000	 1.8955710837e+000	-1.5095301416e+000
 1.4292236092e+000	 1.9113988895e+000	-1.4848519566e+000
 1.4081407721e+000	 1.9269834759e+000	-1.4536035495e+000
 1.3869061265e+000	 1.9423226086e+000	-1.4150028445e+000
 1.6097128674e+000	 1.7980427706e+000	-1.5441271145e+000
 1.5897719485e+000	 1.8156977387e+000	-1.5458160490e+000
 1.5696447985e+000	 1.8331252317e+000	-1.5457104666e+000
 1.5493353168e+000	 1.8503223375e+000	-1.5431597608e+000
 1.5288474625e+000	 1.8672862335e+000	-1.5375047664e+000
 1.5081852524e+000	 1.8840141875e+000	-1.5280768273e+000
 1.4873527576e+000	 1.9005035594e+000	-1.5141967943e+000
 1.4663541018e+000	 1.9167518025e+000	-1.4951739634e+000
 1.4451934579e+000	 1.9327564649e+000	-1.4703049669e+000
 1.4238750455e+000	 1.9485151903e+000	-1.4388726277e+000
 1.4024031284e+000	 1.9640257193e+000	-1.4001447926e+000
 1.6275007080e+000	 1.8179117167e+000	-1.5276762114e+000
 1.6073394356e+000	 1.8357617779e+000	-1.5305250888e+000
 1.5869898742e+000	 1.8533818502e+000	-1.5316299480e+000
 1.5664559662e+000	 1.8707689896e+000	-1.5303275826e+000
 1.5457417147e+000	 1.8879203420e+000	-1.5259483075e+000
 1.5248511805e+000	 1.9048331452e+000	-1.5178148978e+000
 1.5037884800e+000	 1.9215047299e+000	-1.5052414438e+000
 1.4825577824e+000	 1.9379325214e+000	-1.4875321330e+000
 1.4611633066e+000	 1.9541140404e+000	-1.4639799723e+000
 1.4396093189e+000	 1.9700469047e+000	-1.4338654622e+000
 1.4179001304e+000	 1.9857288300e+000	-1.3964552396e+000
 1.6452885487e+000	 1.8377806629e+000	-1.5099673035e+000
 1.6249069228e+000	 1.8558258171e+000	-1.5138945757e+000
 1.6043349499e+000	 1.8736384687e+000	-1.5164995108e+000
 1.5835766157e+000	 1.8912156416e+000	-1.5170531971e+000
 1.5626359668e+000	 1.9085544505e+000	-1.5148226148e+000
 1.5415171086e+000	 1.9256521029e+000	-1.5090695352e+000
 1.5202242024e+000	 1.9425059005e+000	-1.4990493196e+000
 1.4987614629e+000	 1.9591132402e+000	-1.4840096304e+000
 1.4771331553e+000	 1.9754716158e+000	-1.4631890659e+000
 1.4553435924e+000	 1.9915786191e+000	-1.4358157355e+000
 1.4333971323e+000	 2.0074319407e+000	-1.4008089816e+000
 1.6630763893e+000	 1.8576496090e+000	-1.4892998108e+000
 1.6424744099e+000	 1.8758898563e+000	-1.4940859357e+000
 1.6216800256e+000	 1.8938950873e+000	-1.4983437531e+000
 1.6006972652e+000	 1.9116622936e+000	-1.5012273508e+000
 1.5795302189e+000	 1.9291885590e+000	-1.5018893728e+000
 1.5581830367e+000	 1.9464710607e+000	-1.4994799661e+000
 1.5366599249e+000	 1.9635070710e+000	-1.4931456083e+000
 1.5149651435e+000	 1.9802939590e+000	-1.4820278300e+000
 1.4931030040e+000	 1.9968291913e+000	-1.4652618434e+000
 1.4710778658e+000	 2.0131103335e+000	-1.4409583117e+000
 1.4488941342e+000	 2.0291350514e+000	-1.4063741184e+000
 1.6808642300e+000	 1.8775185552e+000	-1.4639731075e+000
 1.6600418970e+000	 1.8959538955e+000	-1.4692639643e+000
 1.6390251014e+000	 1.9141517058e+000	-1.4751939068e+000
 1.6178179146e+000	 1.9321089457e+000	-1.4807504679e+000
 1.5964244711e+000	 1.9498226675e+000	-1.4849226988e+000
 1.5748489648e+000	 1.9672900184e+000	-1.4867002480e+000
 1.5530956473e+000	 1.9845082416e+000	-1.4850723014e+000
 1.5311688241e+000	 2.0014746778e+000	-1.4790122993e+000
 1.5090728527e+000	 2.0181867667e+000	-1.4654371878e+000
 1.4868121393e+000	 2.0346420479e+000	-1.4420849102e+000
 1.4643911361e+000	 2.0508381620e+000	-1.4082658411e+000
 1.6986520706e+000	 1.8973875014e+000	-1.4322900819e+000
 1.6776093842e+000	 1.9160179347e+000	-1.4376001482e+000
 1.6563701771e+000	 1.9344083244e+000	-1.4450909198e+000
 1.6349385641e+000	 1.9525555977e+000	-1.4535354953e+000
 1.6133187232e+000	 1.9704567760e+000	-1.4617117560e+000
 1.5915148930e+000	 1.9881089761e+000	-1.4684016608e+000
 1.5695313697e+000	 2.0055094121e+000	-1.4721823280e+000
 1.5473725046e+000	 2.0226553967e+000	-1.4689905361e+000
 1.5250427014e+000	 2.0395443422e+000	-1.4569591512e+000
 1.5025464127e+000	 2.0561737623e+000	-1.4351947086e+000
 1.4798881380e+000	 2.0725412727e+000	-1.4028026783e+000
 1.7164399113e+000	 1.9172564475e+000	-1.3925606977e+000
 1.6951768713e+000	 1.9360819738e+000	-1.3972760023e+000
 1.6737152528e+000	 1.9546649429e+000	-1.4060885671e+000
 1.6520592135e+000	 1.9730022498e+000	-1.4175107897e+000
 1.6302129753e+000	 1.9910908845e+000	-1.4300634229e+000
 1.6081808211e+000	 2.0089279339e+000	-1.4417041353e+000
 1.5859670921e+000	 2.0265105827e+000	-1.4476962372e+000
 1.5635761852e+000	 2.0438361155e+000	-1.4463226636e+000
 1.5410125501e+000	 2.0609019176e+000	-1.4364322112e+000
 1.5182806861e+000	 2.0777054766e+000	-1.4168728296e+000
 1.4953851399e+000	 2.0942443834e+000	-1.3864991021e+000
 1.7342277519e+000	 1.9371253937e+000	-1.3431055539e+000
 1.7127443585e+000	 1.9561460130e+000	-1.3464864200e+000
 1.6910603285e+000	 1.9749215615e+000	-1.3562565892e+000
 1.6691798630e+000	 1.9934489018e+000	-1.3706230454e+000
 1.6471072275e+000	 2.0117249930e+000	-1.3867852321e+000
 1.6248467492e+000	 2.0297468916e+000	-1.3995226293e+000
 1.6024028145e+000	 2.0475117532e+000	-1.4070637185e+000
 1.5797798658e+000	 2.0650168343e+000	-1.4079471518e+000
 1.5569823987e+000	 2.0822594931e+000	-1.4007096816e+000
 1.5340149596e+000	 2.0992371910e+000	-1.3838949662e+000
 1.5108821418e+000	 2.1159474941e+000	-1.3560619790e+000
 1.3559121227e+000	 1.8989163873e+000	-1.4896188660e+000
 1.3350077662e+000	 1.9136706685e+000	-1.4594931830e+000
 1.3139633529e+000	 1.9281808938e+000	-1.4409627196e+000
 1.2927831142e+000	 1.9424451616e+000	-1.4271044554e+000
 1.2714713133e+000	 1.9564616671e+000	-1.4151404641e+000
 1.2500322424e+000	 1.9702287031e+000	-1.4023200015e+000
 1.2284702205e+000	 1.9837446602e+000	-1.3859029324e+000
 1.2067895896e+000	 1.9970080273e+000	-1.3631694006e+000
 1.1849947132e+000	 2.0100173918e+000	-1.3313989584e+000
 1.1630899723e+000	 2.0227714400e+000	-1.2880698117e+000
 1.1410797639e+000	 2.0352689572e+000	-1.2309539882e+000
 1.3714091246e+000	 1.9206194979e+000	-1.4438741936e+000
 1.3502658479e+000	 1.9355424090e+000	-1.4108308171e+000
 1.3289809136e+000	 1.9502184746e+000	-1.3931411355e+000
 1.3075586015e+000	 1.9646457717e+000	-1.3827171705e+000
 1.2860032236e+000	 1.9788224748e+000	-1.3736107978e+000
 1.2643191212e+000	 1.9927468571e+000	-1.3629858967e+000
 1.2425106623e+000	 2.0064172909e+000	-1.3479369873e+000
 1.2205822391e+000	 2.0198322477e+000	-1.3253076450e+000
 1.1985382644e+000	 2.0329902990e+000	-1.2925850876e+000
 1.1763831698e+000	 2.0458901159e+000	-1.2474014868e+000
 1.1541214020e+000	 2.0585304698e+000	-1.1874367232e+000
 1.3869061265e+000	 1.9423226086e+000	-1.4150028445e+000
 1.3655239295e+000	 1.9574141494e+000	-1.3803783469e+000
 1.3439984743e+000	 1.9722560554e+000	-1.3612932613e+000
 1.3223340888e+000	 1.9868463818e+000	-1.3555604284e+000
 1.3005351339e+000	 2.0011832824e+000	-1.3517203607e+000
 1.2786059999e+000	 2.0152650111e+000	-1.3446826450e+000
 1.2565511042e+000	 2.0290899215e+000	-1.3313412781e+000
 1.2343748885e+000	 2.0426564682e+000	-1.3091639574e+000
 1.2120818157e+000	 2.0559632062e+000	-1.2756456347e+000
 1.1896763672e+000	 2.0690087917e+000	-1.2283185808e+000
 1.1671630402e+000	 2.0817919823e+000	-1.1647613962e+000
 1.4024031284e+000	 1.9640257193e+000	-1.4001447926e+000
 1.3807820112e+000	 1.9792858898e+000	-1.3652455042e+000
 1.3590160350e+000	 1.9942936363e+000	-1.3455534572e+000
 1.3371095762e+000	 2.0090469919e+000	-1.3403518021e+000
 1.3150670442e+000	 2.0235440901e+000	-1.3425223444e+000
 1.2928928786e+000	 2.0377831651e+000	-1.3398439248e+000
 1.2705915461e+000	 2.0517625522e+000	-1.3294255624e+000
 1.2481675379e+000	 2.0654806886e+000	-1.3086276513e+000
 1.2256253669e+000	 2.0789361133e+000	-1.2748393044e+000
 1.2029695646e+000	 2.0921274676e+000	-1.2254882447e+000
 1.1802046783e+000	 2.1050534949e+000	-1.1580495710e+000
 1.4179001304e+000	 1.9857288300e+000	-1.3964552396e+000
 1.3960400929e+000	 2.0011576303e+000	-1.3625495217e+000
 1.3740335957e+000	 2.0163312171e+000	-1.3420572034e+000
 1.3518850635e+000	 2.0312476020e+000	-1.3340080900e+000
 1.3295989545e+000	 2.0459048977e+000	-1.3381261280e+000
 1.3071797573e+000	 2.0603013190e+000	-1.3417322127e+000
 1.2846319880e+000	 2.0744351829e+000	-1.3358167259e+000
 1.2619601874e+000	 2.0883049091e+000	-1.3176240635e+000
 1.2391689182e+000	 2.1019090205e+000	-1.2844313773e+000
 1.2162627620e+000	 2.1152461435e+000	-1.2335582237e+000
 1.1932463165e+000	 2.1283150075e+000	-1.1623750069e+000
 1.4333971323e+000	 2.0074319407e+000	-1.4008089816e+000
 1.4112981745e+000	 2.0230293707e+000	-1.3666818774e+000
 1.3890511563e+000	 2.0383687979e+000	-1.3441639012e+000
 1.3666605508e+000	 2.0534482121e+000	-1.3333381194e+000
 1.3441308648e+000	 2.0682657054e+000	-1.3342357608e+000
 1.3214666360e+000	 2.0828194730e+000	-1.3438111284e+000
 1.2986724299e+000	 2.0971078136e+000	-1.3442178754e+000
 1.2757528368e+000	 2.1111291295e+000	-1.3301338002e+000
 1.2527124694e+000	 2.1248819277e+000	-1.2987190338e+000
 1.2295559594e+000	 2.1383648193e+000	-1.2471824195e+000
 1.2062879546e+000	 2.1515765201e+000	-1.1727895515e+000
 1.4488941342e+000	 2.0291350514e+000	-1.4063741184e+000
 1.4265562562e+000	 2.0449011111e+000	-1.3716836732e+000
 1.4040687170e+000	 2.0604063787e+000	-1.3475873372e+000
 1.3814360382e+000	 2.0756488222e+000	-1.3342042210e+000
 1.3586627752e+000	 2.0906265131e+000	-1.3316033041e+000
 1.3357535147e+000	 2.1053376270e+000	-1.3398065390e+000
 1.3127128717e+000	 2.1197804442e+000	-1.3484334962e+000
 1.2895454862e+000	 2.1339533500e+000	-1.3402179195e+000
 1.2662560207e+000	 2.1478548349e+000	-1.3120566412e+000
 1.2428491568e+000	 2.1614834952e+000	-1.2610463645e+000
 1.2193295928e+000	 2.1748380327e+000	-1.1843488851e+000
 1.4643911361e+000	 2.0508381620e+000	-1.4082658411e+000
 1.4418143379e+000	 2.0667728516e+000	-1.3736218069e+000
 1.4190862777e+000	 2.0824439595e+000	-1.3483753475e+000
 1.3962115255e+000	 2.0978494323e+000	-1.3326685451e+000
 1.3731946855e+000	 2.1129873207e+000	-1.3265970493e+000
 1.3500403934e+000	 2.1278557810e+000	-1.3302133069e+000
 1.3267533136e+000	 2.1424530749e+000	-1.3423946547e+000
 1.3033381357e+000	 2.1567775704e+000	-1.3420431221e+000
 1.2797995719e+000	 2.1708277421e+000	-1.3188810069e+000
 1.2561423542e+000	 2.1846021710e+000	-1.2698926122e+000
 1.2323712309e+000	 2.1980995453e+000	-1.1921381267e+000
 1.4798881380e+000	 2.0725412727e+000	-1.4028026783e+000
 1.4570724195e+000	 2.0886445920e+000	-1.3687633923e+000
 1.4341038384e+000	 2.1044815404e+000	-1.3427749554e+000
 1.4109870128e+000	 2.1200500424e+000	-1.3249897248e+000
 1.3877265958e+000	 2.1353481284e+000	-1.3155193005e+000
 1.3643272722e+000	 2.1503739350e+000	-1.3144379013e+000
 1.3407937555e+000	 2.1651257056e+000	-1.3217853242e+000
 1.3171307851e+000	 2.1796017909e+000	-1.3299069503e+000
 1.2933431232e+000	 2.1938006493e+000	-1.3137365999e+000
 1.2694355516e+000	 2.2077208469e+000	-1.2685460518e+000
 1.2454128691e+000	 2.2213610579e+000	-1.1912973117e+000
 1.4953851399e+000	 2.0942443834e+000	-1.3864991021e+000
 1.4723305012e+000	 2.1105163324e+000	-1.3535721667e+000
 1.4491213991e+000	 2.1265191212e+000	-1.3272289155e+000
 1.4257625001e+000	 2.1422506525e+000	-1.3076196376e+000
 1.4022585061e+000	 2.1577089361e+000	-1.2948615011e+000
 1.3786141509e+000	 2.1728920890e+000	-1.2890421002e+000
 1.3548341974e+000	 2.1877983362e+000	-1.2902225342e+000
 1.3309234345e+000	 2.2024260114e+000	-1.2982629935e+000
 1.3068866744e+000	 2.2167735565e+000	-1.2913007435e+000
 1.2827287490e+000	 2.2308395228e+000	-1.2519391508e+000
 1.2584545072e+000	 2.2446225705e+000	-1.1770467515e+000
 1.5108821418e+000	 2.1159474941e+000	-1.3560619790e+000
 1.4875885829e+000	 2.1323880729e+000	-1.3247050012e+000
 1.4641389598e+000	 2.1485567020e+000	-1.2983723584e+000
 1.4405379875e+000	 2.1644512626e+000	-1.2772002573e+000
 1.4167904164e+000	 2.1800697437e+000	-1.2613013701e+000
 1.3929010296e+000	 2.1954102429e+000	-1.2507685737e+000
 1.3688746392e+000	 2.2104709669e+000	-1.2456781683e+000
 1.3447160840e+000	 2.2252502318e+000	-1.2460925509e+000
 1.3204302257e+000	 2.2397464637e+000	-1.2464087801e+000
 1.2960219464e+000	 2.2539581986e+000	-1.2151371322e+000
 1.2714961454e+000	 2.2678840830e+000	-1.1447122827e+000
 1.1410797639e+000	 2.0352689572e+000	-1.2309539882e+000
 1.1189718211e+000	 2.0475070112e+000	-1.1739846583e+000
 1.0967672688e+000	 2.0594864808e+000	-1.1301288930e+000
 1.0744705326e+000	 2.0712064498e+000	-1.0959313883e+000
 1.0520860425e+000	 2.0826661006e+000	-1.0681338227e+000
 1.0296182305e+000	 2.0938647137e+000	-1.0436819487e+000
 1.0070715277e+000	 2.1048016674e+000	-1.0197486499e+000
 9.8445036148e-001	 2.1154764373e+000	-9.9367660796e-001
 9.6175915357e-001	 2.1258885955e+000	-9.6307056265e-001
 9.3900231690e-001	 2.1360378104e+000	-9.2574626791e-001
 9.1618425334e-001	 2.1459238455e+000	-8.7974652582e-001
 1.1541214020e+000	 2.0585304698e+000	-1.1874367232e+000
 1.1317607830e+000	 2.0709083951e+000	-1.1279870189e+000
 1.1093024502e+000	 2.0830247805e+000	-1.0832679107e+000
 1.0867508800e+000	 2.0948786995e+000	-1.0495585444e+000
 1.0641105529e+000	 2.1064693250e+000	-1.0233427629e+000
 1.0413859516e+000	 2.1177959294e+000	-1.0013160906e+000
 1.0185815578e+000	 2.1288578838e+000	-9.8039176842e-001
 9.9570184959e-001	 2.1396546578e+000	-9.5772576148e-001
 9.7275129914e-001	 2.1501858188e+000	-9.3064726975e-001
 9.4973436985e-001	 2.1604510311e+000	-8.9676578294e-001
 9.2665551389e-001	 2.1704500559e+000	-8.5390922865e-001
 1.1671630402e+000	 2.0817919823e+000	-1.1647613962e+000
 1.1445497449e+000	 2.0943097789e+000	-1.1017536844e+000
 1.1218376317e+000	 2.1065630802e+000	-1.0549092218e+000
 1.0990312274e+000	 2.1185509491e+000	-1.0202841384e+000
 1.0761350633e+000	 2.1302725494e+000	-9.9414601956e-001
 1.0531536727e+000	 2.1417271451e+000	-9.7298066222e-001
 1.0300915879e+000	 2.1529141003e+000	-9.5349784530e-001
 1.0069533377e+000	 2.1638328784e+000	-9.3265422050e-001
 9.8374344471e-001	 2.1744830421e+000	-9.0759053863e-001
 9.6046642279e-001	 2.1848642519e+000	-8.7572823212e-001
 9.3712677444e-001	 2.1949762662e+000	-8.3471374223e-001
 1.1802046783e+000	 2.1050534949e+000	-1.1580495710e+000
 1.1573387067e+000	 2.1177111628e+000	-1.0908739253e+000
 1.1343728131e+000	 2.1301013799e+000	-1.0410896890e+000
 1.1113115748e+000	 2.1422231988e+000	-1.0045722048e+000
 1.0881595737e+000	 2.1540757738e+000	-9.7741411786e-001
 1.0649213938e+000	 2.1656583608e+000	-9.5593177773e-001
 1.0416016180e+000	 2.1769703167e+000	-9.3667061978e-001
 1.0182048258e+000	 2.1880110990e+000	-9.1640960902e-001
 9.9473559028e-001	 2.1987802654e+000	-8.9218614892e-001
 9.7119847574e-001	 2.2092774727e+000	-8.6121979844e-001
 9.4759803499e-001	 2.2195024766e+000	-8.2102506972e-001
 1.1932463165e+000	 2.1283150075e+000	-1.1623750069e+000
 1.1701276686e+000	 2.1411125466e+000	-1.0908599150e+000
 1.1469079945e+000	 2.1536396796e+000	-1.0377404461e+000
 1.1235919221e+000	 2.1658954485e+000	-9.9875318724e-001
 1.1001840841e+000	 2.1778789982e+000	-9.6985701060e-001
 1.0766891149e+000	 2.1895895765e+000	-9.4723898741e-001
 1.0531116482e+000	 2.2010265331e+000	-9.2731925079e-001
 1.0294563139e+000	 2.2121893196e+000	-9.0675489754e-001
 1.0057277359e+000	 2.2230774887e+000	-8.8246235460e-001
 9.8193052869e-001	 2.2336906935e+000	-8.5154817565e-001
 9.5806929554e-001	 2.2440286869e+000	-8.1141027712e-001
 1.2062879546e+000	 2.1515765201e+000	-1.1727895515e+000
 1.1829166305e+000	 2.1645139305e+000	-1.0971729668e+000
 1.1594431759e+000	 2.1771779793e+000	-1.0407134109e+000
 1.1358722695e+000	 2.1895676981e+000	-9.9905066170e-001
 1.1122085945e+000	 2.2016822226e+000	-9.6805094301e-001
 1.0884568360e+000	 2.2135207922e+000	-9.4381221425e-001
 1.0646216783e+000	 2.2250827495e+000	-9.2266837789e-001
 1.0407078020e+000	 2.2363675401e+000	-9.0119250621e-001
 1.0167198814e+000	 2.2473747120e+000	-8.7619918952e-001
 9.9266258164e-001	 2.2581039143e+000	-8.4476907992e-001
 9.6854055608e-001	 2.2685548972e+000	-8.0416471688e-001
 1.2193295928e+000	 2.1748380327e+000	-1.1843488851e+000
 1.1957055924e+000	 2.1879153143e+000	-1.1052495590e+000
 1.1719783574e+000	 2.2007162790e+000	-1.0458075307e+000
 1.1481526169e+000	 2.2132399478e+000	-1.0016077362e+000
 1.1242331049e+000	 2.2254854470e+000	-9.6846494245e-001
 1.1002245571e+000	 2.2374520078e+000	-9.4242826807e-001
 1.0761317084e+000	 2.2491389659e+000	-9.1978459340e-001
 1.0519592901e+000	 2.2605457607e+000	-8.9706097292e-001
 1.0277120270e+000	 2.2716719353e+000	-8.7102616256e-001
 1.0033946346e+000	 2.2825171351e+000	-8.3871219024e-001
 9.7901181663e-001	 2.2930811076e+000	-7.9733765398e-001
 1.2323712309e+000	 2.1980995453e+000	-1.1921381267e+000
 1.2084945542e+000	 2.2113166982e+000	-1.1105271661e+000
 1.1845135388e+000	 2.2242545787e+000	-1.0487947771e+000
 1.1604329643e+000	 2.2369121975e+000	-1.0025131504e+000
 1.1362576153e+000	 2.2492886714e+000	-9.6748696081e-001
 1.1119922782e+000	 2.2613832235e+000	-9.3975696839e-001
 1.0876417385e+000	 2.2731951823e+000	-9.1560248285e-001
 1.0632107782e+000	 2.2847239813e+000	-8.9154281558e-001
 1.0387041726e+000	 2.2959691586e+000	-8.6433784375e-001
 1.0141266875e+000	 2.3069303559e+000	-8.3098781081e-001
 9.8948307718e-001	 2.3176073179e+000	-7.8875733854e-001
 1.2454128691e+000	 2.2213610579e+000	-1.1912973117e+000
 1.2212835161e+000	 2.2347180820e+000	-1.1084699085e+000
 1.1970487202e+000	 2.2477928784e+000	-1.0454459113e+000
 1.1727133117e+000	 2.2605844471e+000	-9.9782709773e-001
 1.1482821256e+000	 2.2730918958e+000	-9.6144969505e-001
 1.1237599992e+000	 2.2853144392e+000	-9.3238690468e-001
 1.0991517687e+000	 2.2972513987e+000	-9.0695026556e-001
 1.0744622664e+000	 2.3089022019e+000	-8.8168999312e-001
 1.0496963181e+000	 2.3202663819e+000	-8.5339443124e-001
 1.0248587405e+000	 2.3313435766e+000	-8.1908875371e-001
 9.9995433773e-001	 2.3421335283e+000	-7.7605556575e-001
 1.2584545072e+000	 2.2446225705e+000	-1.1770467515e+000
 1.2340724780e+000	 2.2581194659e+000	-1.0945940346e+000
 1.2095839016e+000	 2.2713311781e+000	-1.0315560344e+000
 1.1849936591e+000	 2.2842566968e+000	-9.8360678922e-001
 1.1603066360e+000	 2.2968951202e+000	-9.4665610918e-001
 1.1355277203e+000	 2.3092456549e+000	-9.1685086035e-001
 1.1106617988e+000	 2.3213076151e+000	-8.9057506426e-001
 1.0857137545e+000	 2.3330804224e+000	-8.6444896420e-001
 1.0606884637e+000	 2.3445636051e+000	-8.3532720901e-001
 1.0355907934e+000	 2.3557567974e+000	-8.0029630402e-001
 1.0104255983e+000	 2.3666597386e+000	-7.5667147580e-001
 1.2714961454e+000	 2.2678840830e+000	-1.1447122827e+000
 1.2468614399e+000	 2.2815208497e+000	-1.0644932478e+000
 1.2221190831e+000	 2.2948694778e+000	-1.0029699398e+000
 1.1972740064e+000	 2.3079289465e+000	-9.5593177844e-001
 1.1723311464e+000	 2.3206983446e+000	-9.1940467917e-001
 1.1472954414e+000	 2.3331768706e+000	-8.8965092455e-001
 1.1221718289e+000	 2.3453638315e+000	-8.6316783048e-001
 1.0969652426e+000	 2.3572586430e+000	-8.3668537257e-001
 1.0716806093e+000	 2.3688608284e+000	-8.0716293848e-001
 1.0463228464e+000	 2.3801700182e+000	-7.7178536966e-001
 1.0208968588e+000	 2.3911859489e+000	-7.2795845281e-001
 9.1618425334e-001	 2.1459238455e+000	-8.7974652582e-001
 8.9330591575e-001	 2.1555479833e+000	-8.3139450531e-001
 8.7037509788e-001	 2.1649086739e+000	-7.8708698524e-001
 8.4739615664e-001	 2.1740059639e+000	-7.4529749649e-001
 8.2437342815e-001	 2.1828399911e+000	-7.0472952087e-001
 8.0131122541e-001	 2.1914109843e+000	-6.6431795031e-001
 7.7821383611e-001	 2.1997192618e+000	-6.2323018249e-001
 7.5508552040e-001	 2.2077652301e+000	-5.8086689604e-001
 7.3193050875e-001	 2.2155493829e+000	-5.3686254437e-001
 7.0875299987e-001	 2.2230722995e+000	-4.9108560326e-001
 6.8555715871e-001	 2.2303346436e+000	-4.4363860286e-001
 9.2665551389e-001	 2.1704500559e+000	-8.5390922865e-001
 9.0351569502e-001	 2.1801841899e+000	-8.0820632926e-001
 8.8032279606e-001	 2.1896518658e+000	-7.6604367585e-001
 8.5708122372e-001	 2.1988531306e+000	-7.2596305227e-001
 8.3379536366e-001	 2.2077881238e+000	-6.8673650801e-001
 8.1046957821e-001	 2.2164570766e+000	-6.4736727615e-001
 7.8710820405e-001	 2.2248603111e+000	-6.0709036799e-001
 7.6371555000e-001	 2.2329982385e+000	-5.6537289209e-001
 7.4029589490e-001	 2.2408713580e+000	-5.2191414070e-001
 7.1685348544e-001	 2.2484802556e+000	-4.7664548193e-001
 6.9339253419e-001	 2.2558256026e+000	-4.2973009127e-001
 9.3712677444e-001	 2.1949762662e+000	-8.3471374223e-001
 9.1372547428e-001	 2.2048203965e+000	-7.9047617262e-001
 8.9027049423e-001	 2.2143950577e+000	-7.4936651757e-001
 8.6676629079e-001	 2.2237002973e+000	-7.0999462368e-001
 8.4321729918e-001	 2.2327362564e+000	-6.7119904793e-001
 8.1962793101e-001	 2.2415031690e+000	-6.3204740200e-001
 7.9600257198e-001	 2.2500013605e+000	-5.9183642032e-001
 7.7234557960e-001	 2.2582312469e+000	-5.5009180407e-001
 7.4866128104e-001	 2.2661933331e+000	-5.0656788837e-001
 7.2495397102e-001	 2.2738882116e+000	-4.6124717456e-001
 7.0122790966e-001	 2.2813165615e+000	-4.1433976378e-001
 9.4759803499e-001	 2.2195024766e+000	-8.2102506972e-001
 9.2393525355e-001	 2.2294566031e+000	-7.7732460663e-001
 9.0021819241e-001	 2.2391382496e+000	-7.3640728213e-001
 8.7645135786e-001	 2.2485474640e+000	-6.9695167186e-001
 8.5263923470e-001	 2.2576843891e+000	-6.5786162657e-001
 8.2878628382e-001	 2.2665492613e+000	-6.1826600554e-001
 8.0489693991e-001	 2.2751424099e+000	-5.7751818742e-001
 7.8097560919e-001	 2.2834642553e+000	-5.3519541583e-001
 7.5702666719e-001	 2.2915153082e+000	-4.9109803128e-001
 7.3305445659e-001	 2.2992961677e+000	-4.4524863497e-001
 7.0906328514e-001	 2.3068075204e+000	-3.9789122358e-001
 9.5806929554e-001	 2.2440286869e+000	-8.1141027712e-001
 9.3414503282e-001	 2.2540928097e+000	-7.6755650034e-001
 9.1016589059e-001	 2.2638814415e+000	-7.2618609974e-001
 8.8613642494e-001	 2.2733946308e+000	-6.8604795515e-001
 8.6206117021e-001	 2.2826325217e+000	-6.4611089353e-001
 8.3794463662e-001	 2.2915953536e+000	-6.0556276868e-001
 8.1379130784e-001	 2.3002834592e+000	-5.6380937941e-001
 7.8960563879e-001	 2.3086972637e+000	-5.2047328858e-001
 7.6539205334e-001	 2.3168372833e+000	-4.7539259930e-001
 7.4115494217e-001	 2.3247041238e+000	-4.2861973763e-001
 7.1689866062e-001	 2.3322984793e+000	-3.8042028396e-001
 9.6854055608e-001	 2.2685548972e+000	-8.0416471688e-001
 9.4435481208e-001	 2.2787290163e+000	-7.5968687837e-001
 9.2011358876e-001	 2.2886246334e+000	-7.1741687028e-001
 8.9582149201e-001	 2.2982417975e+000	-6.7617641496e-001
 8.7148310573e-001	 2.3075806544e+000	-6.3499994543e-001
 8.4710298942e-001	 2.3166414459e+000	-5.9313298332e-001
 8.2268567577e-001	 2.3254245086e+000	-5.5003042349e-001
 7.9823566838e-001	 2.3339302721e+000	-5.0535479355e-001
 7.7375743949e-001	 2.3421592584e+000	-4.5897454935e-001
 7.4925542774e-001	 2.3501120799e+000	-4.1096245970e-001
 7.2473403609e-001	 2.3577894383e+000	-3.6159412591e-001
 9.7901181663e-001	 2.2930811076e+000	-7.9733765398e-001
 9.5456459135e-001	 2.3033652229e+000	-7.5196615976e-001
 9.3006128694e-001	 2.3133678253e+000	-7.0853203950e-001
 9.0550655908e-001	 2.3230889642e+000	-6.6593341554e-001
 8.8090504125e-001	 2.3325287870e+000	-6.2327195755e-001
 8.5626134222e-001	 2.3416875382e+000	-5.7985050475e-001
 8.3158004370e-001	 2.3505655579e+000	-5.3517067092e-001
 8.0686569798e-001	 2.3591632805e+000	-4.8893050633e-001
 7.8212282563e-001	 2.3674812335e+000	-4.4102228270e-001
 7.5735591331e-001	 2.3755200360e+000	-3.9153045888e-001
 7.3256941157e-001	 2.3832803972e+000	-3.4072987607e-001
 9.8948307718e-001	 2.3176073179e+000	-7.8875733854e-001
 9.6477437061e-001	 2.3280014296e+000	-7.4240482365e-001
 9.4000898511e-001	 2.3381110172e+000	-6.9770678711e-001
 9.1519162615e-001	 2.3479361309e+000	-6.5364238570e-001
 8.9032697676e-001	 2.3574769197e+000	-6.0938321197e-001
 8.6541969502e-001	 2.3667336306e+000	-5.6429010101e-001
 8.4047441163e-001	 2.3757066073e+000	-5.1791000418e-001
 8.1549572757e-001	 2.3843962889e+000	-4.6997301015e-001
 7.9048821178e-001	 2.3928032086e+000	-4.2038958474e-001
 7.6545639888e-001	 2.4009279921e+000	-3.6924809187e-001
 7.4040478704e-001	 2.4087713561e+000	-3.1681264793e-001
 9.9995433773e-001	 2.3421335283e+000	-7.7605556575e-001
 9.7498414988e-001	 2.3526376362e+000	-7.2879754395e-001
 9.4995668329e-001	 2.3628542091e+000	-6.8288267013e-001
 9.2487669322e-001	 2.3727832976e+000	-6.3737690632e-001
 8.9974891228e-001	 2.3824250523e+000	-5.9152556658e-001
 8.7457804782e-001	 2.3917797229e+000	-5.4474924249e-001
 8.4936877956e-001	 2.4008476566e+000	-4.9663988813e-001
 8.2412575717e-001	 2.4096292973e+000	-4.4695715146e-001
 7.9885359793e-001	 2.4181251837e+000	-3.9562502956e-001
 7.7355688446e-001	 2.4263359481e+000	-3.4272891439e-001
 7.4824016252e-001	 2.4342623150e+000	-2.8851308564e-001
 1.0104255983e+000	 2.3666597386e+000	-7.5667147580e-001
 9.8519392915e-001	 2.3772738428e+000	-7.0874683143e-001
 9.5990438146e-001	 2.3875974010e+000	-6.6179076069e-001
 9.3456176030e-001	 2.3976304643e+000	-6.1498328366e-001
 9.0917084779e-001	 2.4073731850e+000	-5.6764840539e-001
 8.8373640062e-001	 2.4168258152e+000	-5.1926937245e-001
 8.5826314749e-001	 2.4259887060e+000	-4.6948390564e-001
 8.3275578676e-001	 2.4348623057e+000	-4.1807978752e-001
 8.0721898407e-001	 2.4434471588e+000	-3.6499088809e-001
 7.8165737003e-001	 2.4517439042e+000	-3.1029370038e-001
 7.5607553799e-001	 2.4597532740e+000	-2.5420444648e-001
 1.0208968588e+000	 2.3911859489e+000	-7.2795845281e-001
 9.9540370841e-001	 2.4019100494e+000	-6.7968621863e-001
 9.6985207964e-001	 2.4123405929e+000	-6.3197431491e-001
 9.4424682737e-001	 2.4224776311e+000	-5.8410264560e-001
 9.1859278331e-001	 2.4323213176e+000	-5.3548010743e-001
 8.9289475342e-001	 2.4418719075e+000	-4.8565669559e-001
 8.6715751542e-001	 2.4511297553e+000	-4.3431781472e-001
 8.4138581636e-001	 2.4600953141e+000	-3.8127906253e-001
 8.1558437022e-001	 2.4687691339e+000	-3.2648157562e-001
 7.8975785560e-001	 2.4771518603e+000	-2.6998801491e-001
 7.6391091347e-001	 2.4852442329e+000	-2.1197925520e-001
 6.8555715871e-001	 2.2303346436e+000	-4.4363860286e-001
 6.6234711413e-001	 2.2373371614e+000	-4.0103172446e-001
 6.3912695606e-001	 2.2440806781e+000	-3.6038741802e-001
 6.1590073469e-001	 2.2505660983e+000	-3.1735551251e-001
 5.9267245902e-001	 2.2567944051e+000	-2.7251522428e-001
 5.6944609519e-001	 2.2627666581e+000	-2.2679765004e-001
 5.4622556476e-001	 2.2684839922e+000	-1.8147081421e-001
 5.2301474317e-001	 2.2739476157e+000	-1.3812717863e-001
 4.9981745820e-001	 2.2791588084e+000	-9.8673395664e-002
 4.7663748852e-001	 2.2841189201e+000	-6.5322072480e-002
 4.5347856227e-001	 2.2888293689e+000	-4.0585304058e-002
 6.9339253419e-001	 2.2558256026e+000	-4.2973009127e-001
 6.6991721718e-001	 2.2629081536e+000	-3.8824148567e-001
 6.4643167109e-001	 2.2697287433e+000	-3.5270589871e-001
 6.2293999239e-001	 2.2762882867e+000	-3.1415935041e-001
 5.9944623593e-001	 2.2825877781e+000	-2.7311963549e-001
 5.7595441315e-001	 2.2886282893e+000	-2.3057263081e-001
 5.5246849044e-001	 2.2944109680e+000	-1.8782380435e-001
 5.2899238754e-001	 2.2999370364e+000	-1.4648722145e-001
 5.0552997598e-001	 2.3052077888e+000	-1.0847704358e-001
 4.8208507759e-001	 2.3102245907e+000	-7.6001261007e-002
 4.5866146316e-001	 2.3149888762e+000	-5.1557389130e-002
 7.0122790966e-001	 2.2813165615e+000	-4.1433976378e-001
 6.7748732023e-001	 2.2884791457e+000	-3.7319787928e-001
 6.5373638611e-001	 2.2953768085e+000	-3.4153056396e-001
 6.2997925010e-001	 2.3020104752e+000	-3.0746341236e-001
 6.0622001284e-001	 2.3083811512e+000	-2.7014928889e-001
 5.8246273111e-001	 2.3144899205e+000	-2.3065366091e-001
 5.5871141613e-001	 2.3203379438e+000	-1.9033950285e-001
 5.3497003191e-001	 2.3259264570e+000	-1.5085794579e-001
 5.1124249375e-001	 2.3312567693e+000	-1.1414169204e-001
 4.8753266667e-001	 2.3363302614e+000	-8.2400906854e-002
 4.6384436404e-001	 2.3411483836e+000	-5.8121287834e-002
 7.0906328514e-001	 2.3068075204e+000	-3.9789122358e-001
 6.8505742327e-001	 2.3140501379e+000	-3.5660792963e-001
 6.6104110114e-001	 2.3210248737e+000	-3.2716331123e-001
 6.3701850780e-001	 2.3277326636e+000	-2.9767091200e-001
 6.1299378974e-001	 2.3341745242e+000	-2.6410662636e-001
 5.8897104907e-001	 2.3403515516e+000	-2.2763717653e-001
 5.6495434181e-001	 2.3462649196e+000	-1.8969975849e-001
 5.4094767629e-001	 2.3519158777e+000	-1.5199449467e-001
 5.1695501152e-001	 2.3573057498e+000	-1.1647994736e-001
 4.9298025574e-001	 2.3624359320e+000	-8.5371374562e-002
 4.6902726493e-001	 2.3673078909e+000	-6.1141397009e-002
 7.1689866062e-001	 2.3322984793e+000	-3.8042028396e-001
 6.9262752632e-001	 2.3396211300e+000	-3.3856111525e-001
 6.6834581616e-001	 2.3466729389e+000	-3.0953740618e-001
 6.4405776551e-001	 2.3534548520e+000	-2.8477227967e-001
 6.1976756665e-001	 2.3599678973e+000	-2.5508113532e-001
 5.9547936703e-001	 2.3662131828e+000	-2.2171032508e-001
 5.7119726749e-001	 2.3721918953e+000	-1.8618467336e-001
 5.4692532066e-001	 2.3779052983e+000	-1.5026170968e-001
 5.2266752930e-001	 2.3833547302e+000	-1.1592947809e-001
 4.9842784481e-001	 2.3885416026e+000	-8.5407376598e-002
 4.7421016581e-001	 2.3934673982e+000	-6.1149661785e-002
 7.2473403609e-001	 2.3577894383e+000	-3.6159412591e-001
 7.0019762936e-001	 2.3651921222e+000	-3.1877953571e-001
 6.7565053119e-001	 2.3723210042e+000	-2.8929386511e-001
 6.5109702321e-001	 2.3791770405e+000	-2.6836730590e-001
 6.2654134356e-001	 2.3857612703e+000	-2.4276958503e-001
 6.0198768499e-001	 2.3920748140e+000	-2.1266927951e-001
 5.7744019317e-001	 2.3981188711e+000	-1.7968897603e-001
 5.5290296503e-001	 2.4038947190e+000	-1.4564854041e-001
 5.2838004707e-001	 2.4094037107e+000	-1.1256543386e-001
 5.0387543389e-001	 2.4146472732e+000	-8.2658370702e-002
 4.7939306669e-001	 2.4196269055e+000	-5.8353916356e-002
 7.3256941157e-001	 2.3832803972e+000	-3.4072987607e-001
 7.0776773240e-001	 2.3907631144e+000	-2.9663543802e-001
 6.8295524621e-001	 2.3979690694e+000	-2.6630059368e-001
 6.5813628092e-001	 2.4048992289e+000	-2.4768680455e-001
 6.3331512046e-001	 2.4115546434e+000	-2.2649582467e-001
 6.0849600294e-001	 2.4179364451e+000	-1.9993716108e-001
 5.8368311886e-001	 2.4240458469e+000	-1.6973805563e-001
 5.5888060940e-001	 2.4298841397e+000	-1.3778217227e-001
 5.3409256484e-001	 2.4354526912e+000	-1.0611264588e-001
 5.0932302296e-001	 2.4407529438e+000	-7.6938808143e-002
 4.8457596758e-001	 2.4457864128e+000	-5.2646150976e-002
 7.4040478704e-001	 2.4087713561e+000	-3.1681264793e-001
 7.1533783545e-001	 2.4163341065e+000	-2.7116823292e-001
 6.9025996123e-001	 2.4236171346e+000	-2.3964690426e-001
 6.6517553862e-001	 2.4306214173e+000	-2.2161383121e-001
 6.4008889737e-001	 2.4373480164e+000	-2.0523017554e-001
 6.1500432090e-001	 2.4437980763e+000	-1.8258160003e-001
 5.8992604454e-001	 2.4499728226e+000	-1.5550368188e-001
 5.6485825377e-001	 2.4558735603e+000	-1.2594189378e-001
 5.3980508261e-001	 2.4615016716e+000	-9.5957625515e-002
 5.1477061203e-001	 2.4668586144e+000	-6.7738243942e-002
 4.8975886846e-001	 2.4719459201e+000	-4.3610710631e-002
 7.4824016252e-001	 2.4342623150e+000	-2.8851308564e-001
 7.2290793849e-001	 2.4419050987e+000	-2.4110103867e-001
 6.9756467626e-001	 2.4492651998e+000	-2.0810581046e-001
 6.7221479633e-001	 2.4563436058e+000	-1.8924448483e-001
 6.4686267428e-001	 2.4631413894e+000	-1.7760844717e-001
 6.2151263886e-001	 2.4696597075e+000	-1.5933196027e-001
 5.9616897022e-001	 2.4758997984e+000	-1.3581943416e-001
 5.7083589814e-001	 2.4818629810e+000	-1.0907272214e-001
 5.4551760038e-001	 2.4875506521e+000	-8.1160375420e-002
 5.2021820111e-001	 2.4929642851e+000	-5.4231319171e-002
 4.9494176935e-001	 2.4981054275e+000	-3.0532430416e-002
 7.5607553799e-001	 2.4597532740e+000	-2.5420444648e-001
 7.3047804154e-001	 2.4674760908e+000	-2.0485678657e-001
 7.0486939128e-001	 2.4749132650e+000	-1.7014912000e-001
 6.7925405403e-001	 2.4820657942e+000	-1.5014852768e-001
 6.5363645118e-001	 2.4889347625e+000	-1.4195060462e-001
 6.2802095682e-001	 2.4955213386e+000	-1.2859625285e-001
 6.0241189591e-001	 2.5018267742e+000	-1.0919586064e-001
 5.7681354251e-001	 2.5078524016e+000	-8.5798804875e-002
 5.5123011816e-001	 2.5135996326e+000	-6.0466027099e-002
 5.2566579018e-001	 2.5190699557e+000	-3.5287624607e-002
 5.0012467023e-001	 2.5242649348e+000	-1.2404712180e-002
 7.6391091347e-001	 2.4852442329e+000	-2.1197925520e-001
 7.3804814458e-001	 2.4930470830e+000	-1.6057391954e-001
 7.1217410630e-001	 2.5005613302e+000	-1.2396214525e-001
 6.8629331174e-001	 2.5077879826e+000	-1.0259716577e-001
 6.6041022809e-001	 2.5147281355e+000	-9.6279112044e-002
 6.3452927478e-001	 2.5213829698e+000	-8.8477760256e-002
 6.0865482159e-001	 2.5277537500e+000	-7.3835387000e-002
 5.8279118688e-001	 2.5338418223e+000	-5.4436613449e-002
 5.5694263593e-001	 2.5396486130e+000	-3.2316317178e-002
 5.3111337925e-001	 2.5451756263e+000	-9.4814542585e-003
 5.0530757112e-001	 2.5504244421e+000	 1.2062453326e-002
 4.5347856227e-001	 2.2888293689e+000	-4.0585304058e-002
 4.3034782282e-001	 2.2932909887e+000	-1.5602993808e-002
 4.0724541205e-001	 2.2975060545e+000	 1.8905129548e-002
 3.8417489215e-001	 2.3014761789e+000	 6.0563741137e-002
 3.6113977008e-001	 2.3052030356e+000	 1.0664782882e-001
 3.3814349649e-001	 2.3086883567e+000	 1.5408394473e-001
 3.1518946472e-001	 2.3119339318e+000	 1.9945130655e-001
 2.9228100992e-001	 2.3149416051e+000	 2.3898298539e-001
 2.6942140816e-001	 2.3177132742e+000	 2.6856740695e-001
 2.4661387566e-001	 2.3202508879e+000	 2.8375038173e-001
 2.2386156802e-001	 2.3225564445e+000	 2.7973786648e-001
 4.5866146316e-001	 2.3149888762e+000	-5.1557389130e-002
 4.3526635767e-001	 2.3195014888e+000	-2.6800529355e-002
 4.1189990463e-001	 2.3237647294e+000	 7.1352455283e-003
 3.8856570697e-001	 2.3277802293e+000	 4.8046198033e-002
 3.6526731169e-001	 2.3315496809e+000	 9.3376131216e-002
 3.4200820890e-001	 2.3350748366e+000	 1.4021473950e-001
 3.1879183072e-001	 2.3383575059e+000	 1.8529579176e-001
 2.9562155042e-001	 2.3413995546e+000	 2.2499540975e-001
 2.7250068152e-001	 2.3442029017e+000	 2.5533069436e-001
 2.4943247698e-001	 2.3467695183e+000	 2.7195893945e-001
 2.2642012848e-001	 2.3491014256e+000	 2.7017765895e-001
 4.6384436404e-001	 2.3411483836e+000	-5.8121287834e-002
 4.4018489252e-001	 2.3457119889e+000	-3.3496123916e-002
 4.1655439722e-001	 2.3500234044e+000	-1.0480000776e-004
 3.9295652178e-001	 2.3540842796e+000	 4.0009661508e-002
 3.6939485330e-001	 2.3578963263e+000	 8.4450216546e-002
 3.4587292131e-001	 2.3614613164e+000	 1.3046104901e-001
 3.2239419672e-001	 2.3647810801e+000	 1.7492262985e-001
 2.9896209093e-001	 2.3678575041e+000	 2.1434687668e-001
 2.7557995488e-001	 2.3706925291e+000	 2.4487269380e-001
 2.5225107830e-001	 2.3732881487e+000	 2.6226215834e-001
 2.2897868894e-001	 2.3756464067e+000	 2.6189760309e-001
 4.6902726493e-001	 2.3673078909e+000	-6.1141397009e-002
 4.4510342737e-001	 2.3719224890e+000	-3.6569149329e-002
 4.2120888981e-001	 2.3762820793e+000	-3.7343591469e-003
 3.9734733659e-001	 2.3803883299e+000	 3.5474925517e-002
 3.7352239491e-001	 2.3842429716e+000	 7.8816401933e-002
 3.4973763372e-001	 2.3878477962e+000	 1.2368544218e-001
 3.2599656273e-001	 2.3912046543e+000	 1.6710680348e-001
 3.0230263143e-001	 2.3943154536e+000	 2.0572644073e-001
 2.7865922823e-001	 2.3971821566e+000	 2.3580373011e-001
 2.5506967962e-001	 2.3998067791e+000	 2.5320439735e-001
 2.3153724940e-001	 2.4021913878e+000	 2.5339442772e-001
 4.7421016581e-001	 2.3934673982e+000	-6.1149661785e-002
 4.5002196221e-001	 2.3981329891e+000	-3.6592358645e-002
 4.2586338240e-001	 2.4025407543e+000	-4.3933675550e-003
 4.0173815140e-001	 2.4066923803e+000	 3.3713632621e-002
 3.7764993651e-001	 2.4105896170e+000	 7.5641931237e-002
 3.5360234613e-001	 2.4142342760e+000	 1.1894015699e-001
 3.2959892873e-001	 2.4176282285e+000	 1.6078039554e-001
 3.0564317194e-001	 2.4207734031e+000	 1.9794640728e-001
 2.8173850159e-001	 2.4236717841e+000	 2.2682228478e-001
 2.5788828094e-001	 2.4263254095e+000	 2.4338187380e-001
 2.3409580986e-001	 2.4287363689e+000	 2.4317926265e-001
 4.7939306669e-001	 2.4196269055e+000	-5.8353916356e-002
 4.5494049706e-001	 2.4243434892e+000	-3.3838199415e-002
 4.3051787498e-001	 2.4287994293e+000	-2.4467217195e-003
 4.0612896622e-001	 2.4329964306e+000	 3.4245747531e-002
 3.8177747812e-001	 2.4369362624e+000	 7.4314220387e-002
 3.5746705854e-001	 2.4406207558e+000	 1.1546804503e-001
 3.3320129473e-001	 2.4440518026e+000	 1.5503516690e-001
 3.0898371244e-001	 2.4472313525e+000	 1.8994648383e-001
 2.8481777495e-001	 2.4501614116e+000	 2.1672066803e-001
 2.6070688226e-001	 2.4528440399e+000	 2.3144981014e-001
 2.3665437032e-001	 2.4552813499e+000	 2.2978622077e-001
 4.8457596758e-001	 2.4457864128e+000	-5.2646150976e-002
 4.5985903191e-001	 2.4505539893e+000	-2.8285130480e-002
 4.3517236757e-001	 2.4550581042e+000	 2.0112651527e-003
 4.1051978103e-001	 2.4593004810e+000	 3.6836878607e-002
 3.8590501973e-001	 2.4632829077e+000	 7.4439878764e-002
 3.6133177094e-001	 2.4670072357e+000	 1.1270322134e-001
 3.3680366073e-001	 2.4704753768e+000	 1.4912476929e-001
 3.1232425294e-001	 2.4736893020e+000	 1.8079749717e-001
 2.8789704831e-001	 2.4766510391e+000	 2.0439018744e-001
 2.6352548358e-001	 2.4793626703e+000	 2.1612900791e-001
 2.3921293079e-001	 2.4818263310e+000	 2.1178033758e-001
 4.8975886846e-001	 2.4719459201e+000	-4.3610710631e-002
 4.6477756676e-001	 2.4767644894e+000	-1.9623941981e-002
 4.3982686015e-001	 2.4813167792e+000	 9.1523344090e-003
 4.1491059584e-001	 2.4856045313e+000	 4.1495458585e-002
 3.9003256133e-001	 2.4896295531e+000	 7.5843523205e-002
 3.6519648335e-001	 2.4933937155e+000	 1.1027144127e-001
 3.4040602674e-001	 2.4968989510e+000	 1.4246662066e-001
 3.1566479345e-001	 2.5001472515e+000	 1.6970470846e-001
 2.9097632166e-001	 2.5031406665e+000	 1.8882585053e-001
 2.6634408490e-001	 2.5058813007e+000	 1.9621189131e-001
 2.4177149125e-001	 2.5083713121e+000	 1.8776491570e-001
 4.9494176935e-001	 2.4981054275e+000	-3.0532430416e-002
 4.6969610161e-001	 2.5029749895e+000	-7.2640783722e-003
 4.4448135274e-001	 2.5075754541e+000	 1.9409685741e-002
 4.1930141065e-001	 2.5119085816e+000	 4.8469794853e-002
 3.9416010294e-001	 2.5159761984e+000	 7.8566399851e-002
 3.6906119576e-001	 2.5197801953e+000	 1.0799022449e-001
 3.4400839274e-001	 2.5233225252e+000	 1.3464346749e-001
 3.1900533395e-001	 2.5266052010e+000	 1.5601075595e-001
 2.9405559502e-001	 2.5296302940e+000	 1.6913063535e-001
 2.6916268622e-001	 2.5323999311e+000	 1.7056805939e-001
 2.4433005171e-001	 2.5349162932e+000	 1.5638831791e-001
 5.0012467023e-001	 2.5242649348e+000	-1.2404712180e-002
 4.7461463645e-001	 2.5291854896e+000	 9.6600358068e-003
 4.4913584533e-001	 2.5338341291e+000	 3.3473318387e-002
 4.2369222546e-001	 2.5382126320e+000	 5.8244998744e-002
 3.9828764455e-001	 2.5423228438e+000	 8.2864827761e-002
 3.7292590817e-001	 2.5461666751e+000	 1.0586874444e-001
 3.4761075874e-001	 2.5497460993e+000	 1.2540465693e-001
 3.2234587446e-001	 2.5530631505e+000	 1.3919825200e-001
 2.9713486838e-001	 2.5561199215e+000	 1.4451936042e-001
 2.7198128754e-001	 2.5589185615e+000	 1.3814938226e-001
 2.4688861217e-001	 2.5614612743e+000	 1.1635024897e-001
 5.0530757112e-001	 2.5504244421e+000	 1.2062453326e-002
 4.7953317130e-001	 2.5553959897e+000	 3.2282667580e-002
 4.5379033791e-001	 2.5600928041e+000	 5.2285314237e-002
 4.2808304028e-001	 2.5645166823e+000	 7.1539802525e-002
 4.0241518616e-001	 2.5686694892e+000	 8.9208477115e-002
 3.7679062058e-001	 2.5725531550e+000	 1.0410750007e-001
 3.5121312474e-001	 2.5761696735e+000	 1.1466713957e-001
 3.2568641496e-001	 2.5795211000e+000	 1.1889205959e-001
 3.0021414174e-001	 2.5826095490e+000	 1.1432218287e-001
 2.7479988887e-001	 2.5854371919e+000	 9.7994674291e-002
 2.4944717263e-001	 2.5880062554e+000	 6.6407562665e-002
 2.2386156802e-001	 2.3225564445e+000	 2.7973786648e-001
 2.0116418761e-001	 2.3246322838e+000	 2.7437044174e-001
 1.7852822470e-001	 2.3264801350e+000	 2.8571893660e-001
 1.5595669635e-001	 2.3281021343e+000	 3.0879226249e-001
 1.3345255529e-001	 2.3295004597e+000	 3.3822873734e-001
 1.1101868952e-001	 2.3306773288e+000	 3.6830540594e-001
 8.8657921967e-002	 2.3316349974e+000	 3.9294901918e-001
 6.6373010180e-002	 2.3323757570e+000	 4.0574875253e-001
 4.4166646119e-002	 2.3329019336e+000	 3.9997072504e-001
 2.2041455963e-002	 2.3332158851e+000	 3.6857436134e-001
 0.0000000000e+000	 2.3333200000e+000	 3.0423059786e-001
 2.2642012848e-001	 2.3491014256e+000	 2.7017765895e-001
 2.0346333498e-001	 2.3512009901e+000	 2.6754728447e-001
 1.8056866094e-001	 2.3530699608e+000	 2.8193285138e-001
 1.5773915790e-001	 2.3547104983e+000	 3.0850519495e-001
 1.3497781233e-001	 2.3561248054e+000	 3.4202832959e-001
 1.1228754524e-001	 2.3573151252e+000	 3.7686668322e-001
 8.9671211813e-002	 2.3582837391e+000	 4.0699419330e-001
 6.7131601130e-002	 2.3590329651e+000	 4.2600535626e-001
 4.4671435911e-002	 2.3595651554e+000	 4.2712830186e-001
 2.2293372352e-002	 2.3598826951e+000	 4.0323994305e-001
 0.0000000000e+000	 2.3599880000e+000	 3.4688320939e-001
 2.2897868894e-001	 2.3756464067e+000	 2.6189760309e-001
 2.0576248236e-001	 2.3777696964e+000	 2.6099168514e-001
 1.8260909719e-001	 2.3796597865e+000	 2.7714827550e-001
 1.5952161945e-001	 2.3813188622e+000	 3.0571015440e-001
 1.3650306936e-001	 2.3827491510e+000	 3.4157546258e-001
 1.1355640095e-001	 2.3839529215e+000	 3.7920265771e-001
 9.0684501658e-002	 2.3849324809e+000	 4.1261754590e-001
 6.7890192080e-002	 2.3856901731e+000	 4.3542249327e-001
 4.5176225704e-002	 2.3862283772e+000	 4.4080789958e-001
 2.2545288740e-002	 2.3865495052e+000	 4.2156599358e-001
 0.0000000000e+000	 2.3866560000e+000	 3.7010696542e-001
 2.3153724940e-001	 2.4021913878e+000	 2.5339442772e-001
 2.0806162973e-001	 2.4043384027e+000	 2.5317083821e-001
 1.8464953343e-001	 2.4062496123e+000	 2.6982033034e-001
 1.6130408099e-001	 2.4079272261e+000	 2.9887258113e-001
 1.3802832640e-001	 2.4093734967e+000	 3.3537316936e-001
 1.1482525666e-001	 2.4105907179e+000	 3.7388604530e-001
 9.1697791503e-002	 2.4115812226e+000	 4.0849830091e-001
 6.8648783029e-002	 2.4123473812e+000	 4.3282735920e-001
 4.5681015496e-002	 2.4128915991e+000	 4.4003067659e-001
 2.2797205128e-002	 2.4132163152e+000	 4.2281802755e-001
 0.0000000000e+000	 2.4133240000e+000	 3.7346639502e-001
 2.3409580986e-001	 2.4287363689e+000	 2.4317926265e-001
 2.1036077711e-001	 2.4309071089e+000	 2.4252801911e-001
 1.8668996967e-001	 2.4328394381e+000	 2.5834136305e-001
 1.6308654254e-001	 2.4345355900e+000	 2.8635582996e-001
 1.3955358343e-001	 2.4359978424e+000	 3.2178271068e-001
 1.1609411237e-001	 2.4372285143e+000	 3.5930780883e-001
 9.2711081348e-002	 2.4382299644e+000	 3.9309373640e-001
 6.9407373978e-002	 2.4390045892e+000	 4.1678488096e-001
 4.6185805287e-002	 2.4395548209e+000	 4.2351515114e-001
 2.3049121516e-002	 2.4398831253e+000	 4.0591858016e-001
 0.0000000000e+000	 2.4399920000e+000	 3.5614281970e-001
 2.3665437032e-001	 2.4552813499e+000	 2.2978622077e-001
 2.1265992448e-001	 2.4574758152e+000	 2.2749255558e-001
 1.8873040592e-001	 2.4594292638e+000	 2.4105225329e-001
 1.6486900409e-001	 2.4611439540e+000	 2.6643376383e-001
 1.4107884046e-001	 2.4626221881e+000	 2.9903741261e-001
 1.1736296808e-001	 2.4638663106e+000	 3.3369220234e-001
 9.3724371192e-002	 2.4648787062e+000	 3.6465540386e-001
 7.0165964927e-002	 2.4656617973e+000	 3.8561508502e-001
 4.6690595079e-002	 2.4662180427e+000	 3.8969569826e-001
 2.3301037904e-002	 2.4665499353e+000	 3.6946681774e-001
 0.0000000000e+000	 2.4666600000e+000	 3.1695506839e-001
 2.3921293079e-001	 2.4818263310e+000	 2.1178033758e-001
 2.1495907186e-001	 2.4840445215e+000	 2.0648908688e-001
 1.9077084216e-001	 2.4860190896e+000	 2.1625293874e-001
 1.6665146563e-001	 2.4877523179e+000	 2.3730249791e-001
 1.4260409750e-001	 2.4892465338e+000	 2.6525558667e-001
 1.1863182380e-001	 2.4905041070e+000	 2.9511083011e-001
 9.4737661037e-002	 2.4915274479e+000	 3.2124429436e-001
 7.0924555876e-002	 2.4923190053e+000	 3.3740934444e-001
 4.7195384870e-002	 2.4928812646e+000	 3.3673985661e-001
 2.3552954292e-002	 2.4932167454e+000	 3.1175688909e-001
 0.0000000000e+000	 2.4933280000e+000	 2.5437886314e-001
 2.4177149125e-001	 2.5083713121e+000	 1.8776491570e-001
 2.1725821923e-001	 2.5106132278e+000	 1.7794616338e-001
 1.9281127840e-001	 2.5126089153e+000	 1.8221221751e-001
 1.6843392718e-001	 2.5143606818e+000	 1.9709135718e-001
 1.4412935453e-001	 2.5158708794e+000	 2.1845260051e-001
 1.1990067951e-001	 2.5171419034e+000	 2.4149579339e-001
 9.5750950882e-002	 2.5181761897e+000	 2.6074502965e-001
 7.1683146825e-002	 2.5189762134e+000	 2.7004558761e-001
 4.7700174662e-002	 2.5195444864e+000	 2.6256453379e-001
 2.3804870680e-002	 2.5198835554e+000	 2.3079511093e-001
 0.0000000000e+000	 2.5199960000e+000	 1.6656497382e-001
 2.4433005171e-001	 2.5349162932e+000	 1.5638831791e-001
 2.1955736661e-001	 2.5371819341e+000	 1.4030423507e-001
 1.9485171464e-001	 2.5391987411e+000	 1.3717688006e-001
 1.7021638873e-001	 2.5409690458e+000	 1.4387310516e-001
 1.4565461156e-001	 2.5424952251e+000	 1.5655216140e-001
 1.2116953522e-001	 2.5437796997e+000	 1.7065199185e-001
 9.6764240726e-002	 2.5448249314e+000	 1.8087914962e-001
 7.2441737774e-002	 2.5456334215e+000	 1.8120254510e-001
 4.8204964454e-002	 2.5462077083e+000	 1.6485119050e-001
 2.4056787068e-002	 2.5465503655e+000	 1.2431607296e-001
 0.0000000000e+000	 2.5466640000e+000	 5.1356232158e-002
 2.4688861217e-001	 2.5614612743e+000	 1.1635024897e-001
 2.2185651398e-001	 2.5637506404e+000	 9.2023073238e-002
 1.9689215089e-001	 2.5657885669e+000	 7.9380219673e-002
 1.7199885027e-001	 2.5675774097e+000	 7.5673496587e-002
 1.4717986860e-001	 2.5691195708e+000	 7.7396869612e-002
 1.2243839093e-001	 2.5704174961e+000	 8.0268640895e-002
 9.7777530572e-002	 2.5714736732e+000	 7.9217561670e-002
 7.3200328724e-002	 2.5722906295e+000	 6.8373103994e-002
 4.8709754246e-002	 2.5728709301e+000	 4.1060077897e-002
 2.4308703457e-002	 2.5732171755e+000	-1.0202259228e-002
 0.0000000000e+000	 2.5733320000e+000	-9.3696512052e-002
 2.4944717263e-001	 2.5880062554e+000	 6.6407562665e-002
 2.2415566136e-001	 2.5903193466e+000	 3.1588665952e-002
 1.9893258713e-001	 2.5923783926e+000	 7.0499657943e-003
 1.7378131182e-001	 2.5941857736e+000	-9.5197973392e-003
 1.4870512563e-001	 2.5957439165e+000	-2.1241905793e-002
 1.2370724665e-001	 2.5970552924e+000	-3.2069938719e-002
 9.8790820418e-002	 2.5981224149e+000	-4.6807787729e-002
 7.3958919674e-002	 2.5989478376e+000	-7.1123165855e-002
 4.9214544039e-002	 2.5995341519e+000	-1.1155640398e-001
 2.4560619845e-002	 2.5998839856e+000	-1.7552437131e-001
 0.0000000000e+000	 2.6000000000e+000	-2.7131941682e-001
 2.6000000000e+000	 0.0000000000e+000	 2.6897803689e+000
 2.5998839856e+000	 2.4560619845e-002	 2.5843516581e+000
 2.5995341519e+000	 4.9214544039e-002	 2.4946248238e+000
 2.5989478376e+000	 7.3958919674e-002	 2.4157308911e+000
 2.5981224149e+000	 9.8790820418e-002	 2.3436567057e+000
 2.5970552924e+000	 1.2370724665e-001	 2.2752380632e+000
 2.5957439165e+000	 1.4870512563e-001	 2.2081459729e+000
 2.5941857736e+000	 1.7378131182e-001	 2.1408661741e+000
 2.5923783926e+000	 1.9893258713e-001	 2.0726720975e+000
 2.5903193466e+000	 2.2415566136e-001	 2.0035915288e+000
 2.5880062554e+000	 2.4944717263e-001	 1.9343672912e+000
 2.6266680000e+000	 0.0000000000e+000	 2.8040789157e+000
 2.6265507956e+000	 2.4812536234e-002	 2.6891099891e+000
 2.6261973738e+000	 4.9719333832e-002	 2.5903434177e+000
 2.6256050456e+000	 7.4717510624e-002	 2.5026106090e+000
 2.6247711567e+000	 9.9804110264e-002	 2.4216881914e+000
 2.6236930888e+000	 1.2497610236e-001	 2.3442878426e+000
 2.6223682622e+000	 1.5023038267e-001	 2.2680386602e+000
 2.6207941375e+000	 1.7556377337e-001	 2.1914622066e+000
 2.6189682184e+000	 2.0097302338e-001	 2.1139404403e+000
 2.6168880529e+000	 2.2645480873e-001	 2.0356768116e+000
 2.6145512364e+000	 2.5200573309e-001	 1.9576508707e+000
 2.6533360000e+000	 0.0000000000e+000	 2.5779394343e+000
 2.6532176057e+000	 2.5064452623e-002	 2.4869459710e+000
 2.6528605956e+000	 5.0224123625e-002	 2.4110362098e+000
 2.6522622537e+000	 7.5476101575e-002	 2.3447027253e+000
 2.6514198985e+000	 1.0081740011e-001	 2.2834772049e+000
 2.6503308852e+000	 1.2624495807e-001	 2.2239167237e+000
 2.6489926079e+000	 1.5175563971e-001	 2.1635819394e+000
 2.6474025015e+000	 1.7734623492e-001	 2.1010073518e+000
 2.6455580441e+000	 2.0301345962e-001	 2.0356638610e+000
 2.6434567592e+000	 2.2875395611e-001	 1.9679139281e+000
 2.6410962175e+000	 2.5456429355e-001	 1.8989597126e+000
 2.6800040000e+000	 0.0000000000e+000	 2.0698626148e+000
 2.6798844157e+000	 2.5316369012e-002	 2.0303491853e+000
 2.6795238174e+000	 5.0728913418e-002	 2.0020046373e+000
 2.6789194617e+000	 7.6234692526e-002	 1.9795373038e+000
 2.6780686402e+000	 1.0183068996e-001	 1.9587533569e+000
 2.6769686815e+000	 1.2751381379e-001	 1.9365096895e+000
 2.6756169535e+000	 1.5328089674e-001	 1.9106656768e+000
 2.6740108654e+000	 1.7912869647e-001	 1.8800336840e+000
 2.6721478699e+000	 2.0505389587e-001	 1.8443281728e+000
 2.6700254655e+000	 2.3105310349e-001	 1.8041132328e+000
 2.6676411986e+000	 2.5712285401e-001	 1.7607483329e+000
 2.7066720000e+000	 0.0000000000e+000	 1.6194069155e+000
 2.7065512258e+000	 2.5568285401e-002	 1.6256108315e+000
 2.7061870393e+000	 5.1233703212e-002	 1.6381876792e+000
 2.7055766698e+000	 7.6993283478e-002	 1.6523883268e+000
 2.7047173820e+000	 1.0284397981e-001	 1.6645289187e+000
 2.7036064779e+000	 1.2878266950e-001	 1.6719433729e+000
 2.7022412992e+000	 1.5480615378e-001	 1.6729350471e+000
 2.7006192293e+000	 1.8091115802e-001	 1.6667274314e+000
 2.6987376957e+000	 2.0709433211e-001	 1.6534137072e+000
 2.6965941718e+000	 2.3335225087e-001	 1.6339049844e+000
 2.6941861797e+000	 2.5968141448e-001	 1.6098769953e+000
 2.7333400000e+000	 0.0000000000e+000	 1.2820194998e+000
 2.7332180358e+000	 2.5820201790e-002	 1.3228622665e+000
 2.7328502611e+000	 5.1738493006e-002	 1.3663161740e+000
 2.7322338778e+000	 7.7751874430e-002	 1.4081131377e+000
 2.7313661237e+000	 1.0385726965e-001	 1.4450114646e+000
 2.7302442743e+000	 1.3005152522e-001	 1.4747482037e+000
 2.7288656449e+000	 1.5633141081e-001	 1.4959909842e+000
 2.7272275933e+000	 1.8269361957e-001	 1.5082891905e+000
 2.7253275214e+000	 2.0913476836e-001	 1.5120243028e+000
 2.7231628781e+000	 2.3565139824e-001	 1.5083591979e+000
 2.7207311608e+000	 2.6223997494e-001	 1.4991861696e+000
 2.7600080000e+000	 0.0000000000e+000	 1.0562934196e+000
 2.7598848459e+000	 2.6072118180e-002	 1.1199849550e+000
 2.7595134829e+000	 5.2243282800e-002	 1.1836201950e+000
 2.7588910859e+000	 7.8510465381e-002	 1.2433506760e+000
 2.7580148655e+000	 1.0487055950e-001	 1.2963089365e+000
 2.7568820706e+000	 1.3132038093e-001	 1.3405609690e+000
 2.7554899906e+000	 1.5785666785e-001	 1.3750585104e+000
 2.7538359572e+000	 1.8447608112e-001	 1.3995910139e+000
 2.7519173472e+000	 2.1117520460e-001	 1.4147371158e+000
 2.7497315844e+000	 2.3795054562e-001	 1.4218153738e+000
 2.7472761419e+000	 2.6479853540e-001	 1.4228340173e+000
 2.7866760000e+000	 0.0000000000e+000	 9.4081676483e-001
 2.7865516559e+000	 2.6324034569e-002	 1.0148578489e+000
 2.7861767048e+000	 5.2748072593e-002	 1.0873322194e+000
 2.7855482939e+000	 7.9269056333e-002	 1.1547494215e+000
 2.7846636072e+000	 1.0588384935e-001	 1.2145479159e+000
 2.7835198670e+000	 1.3258923665e-001	 1.2650478931e+000
 2.7821143363e+000	 1.5938192489e-001	 1.3054043135e+000
 2.7804443211e+000	 1.8625854267e-001	 1.3355600038e+000
 2.7785071730e+000	 2.1321564085e-001	 1.3561986113e+000
 2.7763002906e+000	 2.4024969300e-001	 1.3686971730e+000
 2.7738211230e+000	 2.6735709587e-001	 1.3750780171e+000
 2.8133440000e+000	 0.0000000000e+000	 9.3417289892e-001
 2.8132184660e+000	 2.6575950958e-002	 1.0053576419e+000
 2.8128399266e+000	 5.3252862387e-002	 1.0746873658e+000
 2.8122055020e+000	 8.0027647284e-002	 1.1389675782e+000
 2.8113123490e+000	 1.0689713920e-001	 1.1958737190e+000
 2.8101576634e+000	 1.3385809236e-001	 1.2439046134e+000
 2.8087386819e+000	 1.6090718192e-001	 1.2823365711e+000
 2.8070526851e+000	 1.8804100421e-001	 1.3111779542e+000
 2.8050969987e+000	 2.1525607709e-001	 1.3311239962e+000
 2.8028689969e+000	 2.4254884037e-001	 1.3435116138e+000
 2.8003661041e+000	 2.6991565633e-001	 1.3502739010e+000
 2.8400120000e+000	 0.0000000000e+000	 1.0349406804e+000
 2.8398852760e+000	 2.6827867347e-002	 1.0893590094e+000
 2.8395031484e+000	 5.3757652180e-002	 1.1429236170e+000
 2.8388627100e+000	 8.0786238235e-002	 1.1926732459e+000
 2.8379610907e+000	 1.0791042904e-001	 1.2364504858e+000
 2.8367954597e+000	 1.3512694807e-001	 1.2728561535e+000
 2.8353630276e+000	 1.6243243896e-001	 1.3012047788e+000
 2.8336610490e+000	 1.8982346576e-001	 1.3214810047e+000
 2.8316868245e+000	 2.1729651334e-001	 1.3342966704e+000
 2.8294377032e+000	 2.4484798775e-001	 1.3408482938e+000
 2.8269110851e+000	 2.7247421679e-001	 1.3428746218e+000
 2.8666800000e+000	 0.0000000000e+000	 1.2416946726e+000
 2.8665520861e+000	 2.7079783735e-002	 1.2647348351e+000
 2.8661663703e+000	 5.4262441973e-002	 1.2892820302e+000
 2.8655199181e+000	 8.1544829185e-002	 1.3125445829e+000
 2.8646098325e+000	 1.0892371889e-001	 1.3324612625e+000
 2.8634332561e+000	 1.3639580379e-001	 1.3476568958e+000
 2.8619873733e+000	 1.6395769600e-001	 1.3573995818e+000
 2.8602694129e+000	 1.9160592731e-001	 1.3615593044e+000
 2.8582766502e+000	 2.1933694958e-001	 1.3605676945e+000
 2.8560064095e+000	 2.4714713513e-001	 1.3553786354e+000
 2.8534560662e+000	 2.7503277725e-001	 1.3474293514e+000
 2.5880062554e+000	 2.4944717263e-001	 1.9343672912e+000
 2.5854371919e+000	 2.7479988887e-001	 1.8688767464e+000
 2.5826095490e+000	 3.0021414174e-001	 1.8087671518e+000
 2.5795211000e+000	 3.2568641496e-001	 1.7523414274e+000
 2.5761696735e+000	 3.5121312474e-001	 1.6983448286e+000
 2.5725531550e+000	 3.7679062058e-001	 1.6459079146e+000
 2.5686694892e+000	 4.0241518616e-001	 1.5944869627e+000
 2.5645166823e+000	 4.2808304028e-001	 1.5438025495e+000
 2.5600928041e+000	 4.5379033791e-001	 1.4937770708e+000
 2.5553959897e+000	 4.7953317130e-001	 1.4444720141e+000
 2.5504244421e+000	 5.0530757112e-001	 1.3960258381e+000
 2.6145512364e+000	 2.5200573309e-001	 1.9576508707e+000
 2.6119558223e+000	 2.7761849019e-001	 1.8838029320e+000
 2.6090991765e+000	 3.0329341510e-001	 1.8156551545e+000
 2.6059790495e+000	 3.2902695547e-001	 1.7515357046e+000
 2.6025932477e+000	 3.5481549075e-001	 1.6902424190e+000
 2.5989396348e+000	 3.8065533300e-001	 1.6309782986e+000
 2.5950161345e+000	 4.0654272777e-001	 1.5732842236e+000
 2.5908207327e+000	 4.3247385509e-001	 1.5169696713e+000
 2.5863514790e+000	 4.5844483050e-001	 1.4620422672e+000
 2.5816064898e+000	 4.8445170615e-001	 1.4086370472e+000
 2.5765839494e+000	 5.1049047200e-001	 1.3569463534e+000
 2.6410962175e+000	 2.5456429355e-001	 1.8989597126e+000
 2.6384744527e+000	 2.8043709151e-001	 1.8327971994e+000
 2.6355888040e+000	 3.0637268845e-001	 1.7708920547e+000
 2.6324369990e+000	 3.3236749597e-001	 1.7116932864e+000
 2.6290168219e+000	 3.5841785675e-001	 1.6541489035e+000
 2.6253261146e+000	 3.8452004541e-001	 1.5976333156e+000
 2.6213627799e+000	 4.1067026938e-001	 1.5418717155e+000
 2.6171247830e+000	 4.3686466991e-001	 1.4868622866e+000
 2.6126101540e+000	 4.6309932309e-001	 1.4327971304e+000
 2.6078169899e+000	 4.8937024100e-001	 1.3799828594e+000
 2.6027434567e+000	 5.1567337289e-001	 1.3287618480e+000
 2.6676411986e+000	 2.5712285401e-001	 1.7607483329e+000
 2.6649930831e+000	 2.8325569283e-001	 1.7179118283e+000
 2.6620784314e+000	 3.0945196181e-001	 1.6761817589e+000
 2.6588949485e+000	 3.3570803648e-001	 1.6341524307e+000
 2.6554403960e+000	 3.6202022276e-001	 1.5910261762e+000
 2.6517125944e+000	 3.8838475782e-001	 1.5464543153e+000
 2.6477094252e+000	 4.1479781099e-001	 1.5004525389e+000
 2.6434288333e+000	 4.4125548472e-001	 1.4533139268e+000
 2.6388688289e+000	 4.6775381568e-001	 1.4055205635e+000
 2.6340274900e+000	 4.9428877585e-001	 1.3576547692e+000
 2.6289029640e+000	 5.2085627378e-001	 1.3103110135e+000
 2.6941861797e+000	 2.5968141448e-001	 1.6098769953e+000
 2.6915117135e+000	 2.8607429415e-001	 1.5853004337e+000
 2.6885680589e+000	 3.1253123517e-001	 1.5614358044e+000
 2.6853528980e+000	 3.3904857699e-001	 1.5368195763e+000
 2.6818639702e+000	 3.6562258876e-001	 1.5104417269e+000
 2.6780990742e+000	 3.9224947023e-001	 1.4816870733e+000
 2.6740560706e+000	 4.1892535260e-001	 1.4502734395e+000
 2.6697328837e+000	 4.4564629954e-001	 1.4161862507e+000
 2.6651275039e+000	 4.7240830827e-001	 1.3795877961e+000
 2.6602379901e+000	 4.9920731071e-001	 1.3406974964e+000
 2.6550624713e+000	 5.2603917466e-001	 1.3003371326e+000
 2.7207311608e+000	 2.6223997494e-001	 1.4991861696e+000
 2.7180303439e+000	 2.8889289548e-001	 1.4884595965e+000
 2.7150576864e+000	 3.1561050853e-001	 1.4774276183e+000
 2.7118108475e+000	 3.4238911749e-001	 1.4647949244e+000
 2.7082875444e+000	 3.6922495477e-001	 1.4496917310e+000
 2.7044855541e+000	 3.9611418264e-001	 1.4316173795e+000
 2.7004027160e+000	 4.2305289421e-001	 1.4103808525e+000
 2.6960369340e+000	 4.5003711435e-001	 1.3860377564e+000
 2.6913861789e+000	 4.7706280086e-001	 1.3588233016e+000
 2.6864484902e+000	 5.0412584556e-001	 1.3290807963e+000
 2.6812219787e+000	 5.3122207555e-001	 1.2971851578e+000
 2.7472761419e+000	 2.6479853540e-001	 1.4228340173e+000
 2.7445489743e+000	 2.9171149680e-001	 1.4216367733e+000
 2.7415473139e+000	 3.1868978189e-001	 1.4194214588e+000
 2.7382687970e+000	 3.4572965800e-001	 1.4150424065e+000
 2.7347111186e+000	 3.7282732077e-001	 1.4077499528e+000
 2.7308720339e+000	 3.9997889506e-001	 1.3971366930e+000
 2.7267493613e+000	 4.2718043582e-001	 1.3830807474e+000
 2.7223409843e+000	 4.5442792917e-001	 1.3656855414e+000
 2.7176448538e+000	 4.8171729345e-001	 1.3452155849e+000
 2.7126589902e+000	 5.0904438041e-001	 1.3220277191e+000
 2.7073814860e+000	 5.3640497644e-001	 1.2964972830e+000
 2.7738211230e+000	 2.6735709587e-001	 1.3750780171e+000
 2.7710676047e+000	 2.9453009812e-001	 1.3789792409e+000
 2.7680369414e+000	 3.2176905525e-001	 1.3815078887e+000
 2.7647267465e+000	 3.4907019851e-001	 1.3816453332e+000
 2.7611346927e+000	 3.7642968678e-001	 1.3787378454e+000
 2.7572585137e+000	 4.0384360747e-001	 1.3724459233e+000
 2.7530960067e+000	 4.3130797743e-001	 1.3626907329e+000
 2.7486450347e+000	 4.5881874398e-001	 1.3495971206e+000
 2.7439035288e+000	 4.8637178604e-001	 1.3334326316e+000
 2.7388694903e+000	 5.1396291526e-001	 1.3145419496e+000
 2.7335409933e+000	 5.4158787733e-001	 1.2932761589e+000
 2.8003661041e+000	 2.6991565633e-001	 1.3502739010e+000
 2.7975862351e+000	 2.9734869945e-001	 1.3547473914e+000
 2.7945265689e+000	 3.2484832861e-001	 1.3579051709e+000
 2.7911846960e+000	 3.5241073901e-001	 1.3588288326e+000
 2.7875582669e+000	 3.8003205278e-001	 1.3569321427e+000
 2.7836449935e+000	 4.0770831988e-001	 1.3519138834e+000
 2.7794426520e+000	 4.3543551904e-001	 1.3437079212e+000
 2.7749490850e+000	 4.6320955880e-001	 1.3324299113e+000
 2.7701622037e+000	 4.9102627863e-001	 1.3183200210e+000
 2.7650799904e+000	 5.1888145011e-001	 1.3016810305e+000
 2.7597005006e+000	 5.4677077822e-001	 1.2828111565e+000
 2.8269110851e+000	 2.7247421679e-001	 1.3428746218e+000
 2.8241048655e+000	 3.0016730077e-001	 1.3433134237e+000
 2.8210161963e+000	 3.2792760197e-001	 1.3429576600e+000
 2.8176426455e+000	 3.5575127952e-001	 1.3409579167e+000
 2.8139818411e+000	 3.8363441879e-001	 1.3367625713e+000
 2.8100314733e+000	 4.1157303229e-001	 1.3300746162e+000
 2.8057892974e+000	 4.3956306065e-001	 1.3208058336e+000
 2.8012531354e+000	 4.6760037362e-001	 1.3090276797e+000
 2.7964208787e+000	 4.9568077122e-001	 1.2949182057e+000
 2.7912904905e+000	 5.2379998497e-001	 1.2787043152e+000
 2.7858600079e+000	 5.5195367911e-001	 1.2605986431e+000
 2.8534560662e+000	 2.7503277725e-001	 1.3474293514e+000
 2.8506234959e+000	 3.0298590209e-001	 1.3391600704e+000
 2.8475058238e+000	 3.3100687533e-001	 1.3311342356e+000
 2.8441005950e+000	 3.5909182003e-001	 1.3225355944e+000
 2.8404054153e+000	 3.8723678479e-001	 1.3128096131e+000
 2.8364179532e+000	 4.1543774471e-001	 1.3016247737e+000
 2.8321359428e+000	 4.4369060226e-001	 1.2888313618e+000
 2.8275571857e+000	 4.7199118843e-001	 1.2744170464e+000
 2.8226795537e+000	 5.0033526381e-001	 1.2584585195e+000
 2.8175009906e+000	 5.2871851982e-001	 1.2410684352e+000
 2.8120195152e+000	 5.5713657999e-001	 1.2223368641e+000
 2.5504244421e+000	 5.0530757112e-001	 1.3960258381e+000
 2.5451756263e+000	 5.3111337925e-001	 1.3501531387e+000
 2.5396486130e+000	 5.5694263593e-001	 1.3074090696e+000
 2.5338418223e+000	 5.8279118688e-001	 1.2660783563e+000
 2.5277537500e+000	 6.0865482159e-001	 1.2242555837e+000
 2.5213829698e+000	 6.3452927478e-001	 1.1798023373e+000
 2.5147281355e+000	 6.6041022809e-001	 1.1303107002e+000
 2.5077879826e+000	 6.8629331174e-001	 1.0752624047e+000
 2.5005613302e+000	 7.1217410630e-001	 1.0187471305e+000
 2.4930470830e+000	 7.3804814458e-001	 9.6148272490e-001
 2.4852442329e+000	 7.6391091347e-001	 9.0397595863e-001
 2.5765839494e+000	 5.1049047200e-001	 1.3569463534e+000
 2.5712812969e+000	 5.3656096833e-001	 1.3083947516e+000
 2.5656975935e+000	 5.6265515370e-001	 1.2632858269e+000
 2.5598312430e+000	 5.8876883126e-001	 1.2199588120e+000
 2.5536807257e+000	 6.1489774727e-001	 1.1765085062e+000
 2.5472446010e+000	 6.4103759274e-001	 1.1307354021e+000
 2.5405215086e+000	 6.6718400500e-001	 1.0801038742e+000
 2.5335101711e+000	 6.9333256944e-001	 1.0259722122e+000
 2.5262093954e+000	 7.1947882133e-001	 9.7136751353e-001
 2.5186180751e+000	 7.4561824762e-001	 9.1635829843e-001
 2.5107351918e+000	 7.7174628894e-001	 8.6097802443e-001
 2.6027434567e+000	 5.1567337289e-001	 1.3287618480e+000
 2.5973869675e+000	 5.4200855740e-001	 1.2803088955e+000
 2.5917465740e+000	 5.6836767148e-001	 1.2347513934e+000
 2.5858206636e+000	 5.9474647563e-001	 1.1906290975e+000
 2.5796077015e+000	 6.2114067296e-001	 1.1461791861e+000
 2.5731062321e+000	 6.4754591070e-001	 1.0992786801e+000
 2.5663148816e+000	 6.7395778190e-001	 1.0476878177e+000
 2.5592323595e+000	 7.0037182715e-001	 9.9467069806e-001
 2.5518574606e+000	 7.2678353635e-001	 9.4174765984e-001
 2.5441890673e+000	 7.5318835067e-001	 8.8860544467e-001
 2.5362261507e+000	 7.7958166442e-001	 8.3488055992e-001
 2.6289029640e+000	 5.2085627378e-001	 1.3103110135e+000
 2.6234926381e+000	 5.4745614648e-001	 1.2644610966e+000
 2.6177955544e+000	 5.7408018925e-001	 1.2201367558e+000
 2.6118100843e+000	 6.0072412000e-001	 1.1762276601e+000
 2.6055346773e+000	 6.2738359864e-001	 1.1312585699e+000
 2.5989678633e+000	 6.5405422866e-001	 1.0833233288e+000
 2.5921082547e+000	 6.8073155881e-001	 1.0311829254e+000
 2.5849545479e+000	 7.0741108485e-001	 9.7919613484e-001
 2.5775055259e+000	 7.3408825138e-001	 9.2764103251e-001
 2.5697600595e+000	 7.6075845371e-001	 8.7589801990e-001
 2.5617171096e+000	 7.8741703990e-001	 8.2328151900e-001
 2.6550624713e+000	 5.2603917466e-001	 1.3003371326e+000
 2.6495983087e+000	 5.5290373556e-001	 1.2593289196e+000
 2.6438445349e+000	 5.7979270703e-001	 1.2176948208e+000
 2.6377995049e+000	 6.0670176438e-001	 1.1748274066e+000
 2.6314616530e+000	 6.3362652433e-001	 1.1296874729e+000
 2.6248294945e+000	 6.6056254662e-001	 1.0807288537e+000
 2.6179016277e+000	 6.8750533572e-001	 1.0284772301e+000
 2.6106767363e+000	 7.1445034256e-001	 9.7734703861e-001
 2.6031535911e+000	 7.4139296640e-001	 9.2676390181e-001
 2.5953310516e+000	 7.6832855676e-001	 8.7587596983e-001
 2.5872080686e+000	 7.9525241537e-001	 8.2374901814e-001
 2.6812219787e+000	 5.3122207555e-001	 1.2971851578e+000
 2.6757039793e+000	 5.5835132463e-001	 1.2629134567e+000
 2.6698935154e+000	 5.8550522480e-001	 1.2255278435e+000
 2.6637889256e+000	 6.1267940875e-001	 1.1844420573e+000
 2.6573886288e+000	 6.3986945001e-001	 1.1393639523e+000
 2.6506911256e+000	 6.6707086458e-001	 1.0893324131e+000
 2.6436950007e+000	 6.9427911263e-001	 1.0374187364e+000
 2.6363989248e+000	 7.2148960026e-001	 9.8688411677e-001
 2.6288016563e+000	 7.4869768143e-001	 9.3679759882e-001
 2.6209020438e+000	 7.7589865980e-001	 8.8614789062e-001
 2.6126990275e+000	 8.0308779085e-001	 8.3382420263e-001
 2.7073814860e+000	 5.3640497644e-001	 1.2964972830e+000
 2.7018096500e+000	 5.6379891371e-001	 1.2678156361e+000
 2.6959424958e+000	 5.9121774258e-001	 1.2349068854e+000
 2.6897783462e+000	 6.1865705312e-001	 1.1974618347e+000
 2.6833156046e+000	 6.4611237570e-001	 1.1547722567e+000
 2.6765527568e+000	 6.7357918254e-001	 1.1059172242e+000
 2.6694883738e+000	 7.0105288954e-001	 1.0557011487e+000
 2.6621211132e+000	 7.2852885797e-001	 1.0055322797e+000
 2.6544497215e+000	 7.5600239645e-001	 9.5539082999e-001
 2.6464730359e+000	 7.8346876285e-001	 9.0429364851e-001
 2.6381899864e+000	 8.1092316632e-001	 8.5102416980e-001
 2.7335409933e+000	 5.4158787733e-001	 1.2932761589e+000
 2.7279153206e+000	 5.6924650279e-001	 1.2681676255e+000
 2.7219914763e+000	 5.9693026035e-001	 1.2377654289e+000
 2.7157677669e+000	 6.2463469750e-001	 1.2021537494e+000
 2.7092425803e+000	 6.5235530138e-001	 1.1610148800e+000
 2.7024143880e+000	 6.8008750051e-001	 1.1146671189e+000
 2.6952817468e+000	 7.0782666644e-001	 1.0690566753e+000
 2.6878433016e+000	 7.3556811568e-001	 1.0237932307e+000
 2.6800977867e+000	 7.6330711148e-001	 9.7714867957e-001
 2.6720440281e+000	 7.9103886589e-001	 9.2737312234e-001
 2.6636809453e+000	 8.1875854180e-001	 8.7284494542e-001
 2.7597005006e+000	 5.4677077822e-001	 1.2828111565e+000
 2.7540209912e+000	 5.7469409187e-001	 1.2595074365e+000
 2.7480404567e+000	 6.0264277813e-001	 1.2299030215e+000
 2.7417571876e+000	 6.3061234187e-001	 1.1945026837e+000
 2.7351695561e+000	 6.5859822707e-001	 1.1534098628e+000
 2.7282760191e+000	 6.8659581847e-001	 1.1087953017e+000
 2.7210751199e+000	 7.1460044335e-001	 1.0665508556e+000
 2.7135654900e+000	 7.4260737338e-001	 1.0252466763e+000
 2.7057458519e+000	 7.7061182650e-001	 9.8299138898e-001
 2.6976150202e+000	 7.9860896894e-001	 9.3786266555e-001
 2.6891719043e+000	 8.2659391728e-001	 8.8789752510e-001
 2.7858600079e+000	 5.5195367911e-001	 1.2605986431e+000
 2.7801266618e+000	 5.8014168094e-001	 1.2375833285e+000
 2.7740894372e+000	 6.0835529590e-001	 1.2073306362e+000
 2.7677466082e+000	 6.3658998625e-001	 1.1707881806e+000
 2.7610965319e+000	 6.6484115276e-001	 1.1285064297e+000
 2.7541376503e+000	 6.9310413643e-001	 1.0851136527e+000
 2.7468684929e+000	 7.2137422026e-001	 1.0451781280e+000
 2.7392876785e+000	 7.4964663109e-001	 1.0067400041e+000
 2.7313939171e+000	 7.7791654153e-001	 9.6778417800e-001
 2.7231860124e+000	 8.0617907199e-001	 9.2625618737e-001
 2.7146628632e+000	 8.3442929275e-001	 8.8005333939e-001
 2.8120195152e+000	 5.5713657999e-001	 1.2223368641e+000
 2.8062323324e+000	 5.8558927002e-001	 1.1983480573e+000
 2.8001384177e+000	 6.1406781368e-001	 1.1662642366e+000
 2.7937360289e+000	 6.4256763062e-001	 1.1274930554e+000
 2.7870235076e+000	 6.7108407844e-001	 1.0831883797e+000
 2.7799992815e+000	 6.9961245439e-001	 1.0406066789e+000
 2.7726618660e+000	 7.2814799717e-001	 1.0021083243e+000
 2.7650098669e+000	 7.5668588880e-001	 9.6563182117e-001
 2.7570419823e+000	 7.8522125655e-001	 9.2907564953e-001
 2.7487570045e+000	 8.1374917503e-001	 8.9029132408e-001
 2.7401538221e+000	 8.4226466823e-001	 8.4707535726e-001
 2.4852442329e+000	 7.6391091347e-001	 9.0397595863e-001
 2.4771518603e+000	 7.8975785560e-001	 8.4705427717e-001
 2.4687691339e+000	 8.1558437022e-001	 7.9120023694e-001
 2.4600953141e+000	 8.4138581636e-001	 7.3633493439e-001
 2.4511297553e+000	 8.6715751542e-001	 6.8231230531e-001
 2.4418719075e+000	 8.9289475342e-001	 6.2890866042e-001
 2.4323213176e+000	 9.1859278331e-001	 5.7581344488e-001
 2.4224776311e+000	 9.4424682737e-001	 5.2262131245e-001
 2.4123405929e+000	 9.6985207964e-001	 4.6882559593e-001
 2.4019100494e+000	 9.9540370841e-001	 4.1381324488e-001
 2.3911859489e+000	 1.0208968588e+000	 3.5685574207e-001
 2.5107351918e+000	 7.7174628894e-001	 8.6097802443e-001
 2.5025598164e+000	 7.9785834117e-001	 8.0580540762e-001
 2.4940911090e+000	 8.2394975636e-001	 7.5147526479e-001
 2.4853283225e+000	 8.5001584595e-001	 6.9801407334e-001
 2.4762708047e+000	 8.7605188335e-001	 6.4536488482e-001
 2.4669179998e+000	 9.0205310622e-001	 5.9337610307e-001
 2.4572694503e+000	 9.2801471883e-001	 5.4179160524e-001
 2.4473247978e+000	 9.5393189444e-001	 4.9024230281e-001
 2.4370837848e+000	 9.7979977781e-001	 4.3823922911e-001
 2.4265462560e+000	 1.0056134877e+000	 3.8516822910e-001
 2.4157121593e+000	 1.0313681194e+000	 3.3028138782e-001
 2.5362261507e+000	 7.7958166442e-001	 8.3488055992e-001
 2.5279677725e+000	 8.0595882675e-001	 7.8090461866e-001
 2.5194130841e+000	 8.3231514251e-001	 7.2743356013e-001
 2.5105613309e+000	 8.5864587555e-001	 6.7462551517e-001
 2.5014118540e+000	 8.8494625128e-001	 6.2253823518e-001
 2.4919640921e+000	 9.1121145902e-001	 5.7111705856e-001
 2.4822175829e+000	 9.3743665434e-001	 5.2018434565e-001
 2.4721719645e+000	 9.6361696152e-001	 4.6943048528e-001
 2.4618269767e+000	 9.8974747599e-001	 4.1840656514e-001
 2.4511824626e+000	 1.0158232669e+000	 3.6651276057e-001
 2.4402383696e+000	 1.0418393799e+000	 3.1302034935e-001
 2.5617171096e+000	 7.8741703990e-001	 8.2328151900e-001
 2.5533757285e+000	 8.1405931232e-001	 7.6988495176e-001
 2.5447350592e+000	 8.4068052866e-001	 7.1656243229e-001
 2.5357943393e+000	 8.6727590514e-001	 6.6362976124e-001
 2.5265529034e+000	 8.9384061921e-001	 6.1128463836e-001
 2.5170101845e+000	 9.2036981182e-001	 5.5959376267e-001
 2.5071657156e+000	 9.4685858986e-001	 5.0848153337e-001
 2.4970191312e+000	 9.7330202859e-001	 4.5772046093e-001
 2.4865701686e+000	 9.9969517417e-001	 4.0692338675e-001
 2.4758186692e+000	 1.0260330462e+000	 3.5553224862e-001
 2.4647645800e+000	 1.0523106405e+000	 3.0283710518e-001
 2.5872080686e+000	 7.9525241537e-001	 8.2374901814e-001
 2.5787836846e+000	 8.2215979789e-001	 7.7025419638e-001
 2.5700570343e+000	 8.4904591481e-001	 7.1632871712e-001
 2.5610273477e+000	 8.7590593474e-001	 6.6247181974e-001
 2.5516939527e+000	 9.0273498714e-001	 6.0904607200e-001
 2.5420562768e+000	 9.2952816462e-001	 5.5626354893e-001
 2.5321138482e+000	 9.5628052538e-001	 5.0417375153e-001
 2.5218662979e+000	 9.8298709567e-001	 4.5265338186e-001
 2.5113133605e+000	 1.0096428723e+000	 4.0139807872e-001
 2.5004548758e+000	 1.0362428255e+000	 3.4991149466e-001
 2.4892907903e+000	 1.0627819010e+000	 2.9752147321e-001
 2.6126990275e+000	 8.0308779085e-001	 8.3382420263e-001
 2.6041916407e+000	 8.3026028347e-001	 7.7949807241e-001
 2.5953790094e+000	 8.5741130095e-001	 7.2418230158e-001
 2.5862603561e+000	 8.8453596434e-001	 6.6858509706e-001
 2.5768350021e+000	 9.1162935507e-001	 6.1325849095e-001
 2.5671023691e+000	 9.3868651742e-001	 5.5858354247e-001
 2.5570619809e+000	 9.6570246090e-001	 5.0475742621e-001
 2.5467134646e+000	 9.9267216274e-001	 4.5178253070e-001
 2.5360565524e+000	 1.0195905705e+000	 3.9945185824e-001
 2.5250910825e+000	 1.0464526048e+000	 3.4736744446e-001
 2.5138170006e+000	 1.0732531616e+000	 2.9489564891e-001
 2.6381899864e+000	 8.1092316632e-001	 8.5102416980e-001
 2.6295995968e+000	 8.3836076904e-001	 7.9508346789e-001
 2.6207009845e+000	 8.6577668710e-001	 7.3755970074e-001
 2.6114933645e+000	 8.9316599393e-001	 6.7939533796e-001
 2.6019760514e+000	 9.2052372300e-001	 6.2135615324e-001
 2.5921484614e+000	 9.4784487023e-001	 5.6401539313e-001
 2.5820101135e+000	 9.7512439641e-001	 5.0773998652e-001
 2.5715606314e+000	 1.0023572298e+000	 4.5267892652e-001
 2.5607997443e+000	 1.0295382687e+000	 3.9874881740e-001
 2.5497272891e+000	 1.0566623840e+000	 3.4564899518e-001
 2.5383432110e+000	 1.0837244221e+000	 2.9282124603e-001
 2.6636809453e+000	 8.1875854180e-001	 8.7284494542e-001
 2.6550075528e+000	 8.4646125462e-001	 8.1446172816e-001
 2.6460229596e+000	 8.7414207325e-001	 7.5388768386e-001
 2.6367263729e+000	 9.0179602353e-001	 6.9232461143e-001
 2.6271171008e+000	 9.2941809093e-001	 6.3077598744e-001
 2.6171945537e+000	 9.5700322303e-001	 5.7003004492e-001
 2.6069582462e+000	 9.8454633193e-001	 5.1064505564e-001
 2.5964077981e+000	 1.0120422969e+000	 4.5293060609e-001
 2.5855429362e+000	 1.0394859669e+000	 3.9696495909e-001
 2.5743634957e+000	 1.0668721633e+000	 3.4254355321e-001
 2.5628694213e+000	 1.0941956827e+000	 2.8920633963e-001
 2.6891719043e+000	 8.2659391728e-001	 8.8789752510e-001
 2.6804155089e+000	 8.5456174019e-001	 8.3175165857e-001
 2.6713449347e+000	 8.8250745940e-001	 7.7020739362e-001
 2.6619593813e+000	 9.1042605312e-001	 7.0479533902e-001
 2.6522581501e+000	 9.3831245886e-001	 6.3896199870e-001
 2.6422406460e+000	 9.6616157583e-001	 5.7411253968e-001
 2.6319063788e+000	 9.9396826745e-001	 5.1101767062e-001
 2.6212549648e+000	 1.0217273640e+000	 4.5017443362e-001
 2.6102861281e+000	 1.0494336651e+000	 3.9181975757e-001
 2.5989997023e+000	 1.0770819426e+000	 3.3588360172e-001
 2.5873956317e+000	 1.1046669432e+000	 2.8201251136e-001
 2.7146628632e+000	 8.3442929275e-001	 8.8005333939e-001
 2.7058234650e+000	 8.6266222576e-001	 8.2756109823e-001
 2.6966669098e+000	 8.9087284554e-001	 7.6947084887e-001
 2.6871923897e+000	 9.1905608272e-001	 7.0704325907e-001
 2.6773991995e+000	 9.4720682680e-001	 6.4145176068e-001
 2.6672867384e+000	 9.7531992863e-001	 5.7376124659e-001
 2.6568545115e+000	 1.0033902030e+000	 5.0642952910e-001
 2.6461021315e+000	 1.0314124310e+000	 4.4206134963e-001
 2.6350293200e+000	 1.0593813632e+000	 3.8107571699e-001
 2.6236359089e+000	 1.0872917218e+000	 3.2355327707e-001
 2.6119218420e+000	 1.1151382038e+000	 2.6926189664e-001
 2.7401538221e+000	 8.4226466823e-001	 8.4707535726e-001
 2.7312314211e+000	 8.7076271134e-001	 7.9757059874e-001
 2.7219888849e+000	 8.9923823169e-001	 7.4238077479e-001
 2.7124253981e+000	 9.2768611232e-001	 6.8289142089e-001
 2.7025402488e+000	 9.5610119473e-001	 6.2039792109e-001
 2.6923328307e+000	 9.8447828143e-001	 5.5608402616e-001
 2.6818026442e+000	 1.0128121385e+000	 4.9099243783e-001
 2.6709492982e+000	 1.0410974981e+000	 4.2602597090e-001
 2.6597725119e+000	 1.0693290614e+000	 3.6254450437e-001
 2.6482721155e+000	 1.0975015011e+000	 3.0349495364e-001
 2.6364480523e+000	 1.1256094643e+000	 2.4904423389e-001
 2.3911859489e+000	 1.0208968588e+000	 3.5685574207e-001
 2.3801700182e+000	 1.0463228464e+000	 2.9831783167e-001
 2.3688608284e+000	 1.0716806093e+000	 2.3932142977e-001
 2.3572586430e+000	 1.0969652426e+000	 1.8017169294e-001
 2.3453638315e+000	 1.1221718289e+000	 1.2106794108e-001
 2.3331768706e+000	 1.1472954414e+000	 6.2106354090e-002
 2.3206983446e+000	 1.1723311464e+000	 3.2842596522e-003
 2.3079289465e+000	 1.1972740064e+000	-5.5494017688e-002
 2.2948694778e+000	 1.2221190831e+000	-1.1440978982e-001
 2.2815208497e+000	 1.2468614399e+000	-1.7372117864e-001
 2.2678840830e+000	 1.2714961454e+000	-2.3375290153e-001
 2.4157121593e+000	 1.0313681194e+000	 3.3028138782e-001
 2.4045832390e+000	 1.0570548993e+000	 2.7387429105e-001
 2.3931580517e+000	 1.0826727548e+000	 2.1702302068e-001
 2.3814368636e+000	 1.1082167307e+000	 1.6001621514e-001
 2.3694200479e+000	 1.1336818591e+000	 1.0301938518e-001
 2.3571080863e+000	 1.1590631625e+000	 4.6078094578e-002
 2.3445015691e+000	 1.1843556568e+000	-1.0877131036e-002
 2.3316011962e+000	 1.2095543538e+000	-6.8024199972e-002
 2.3184077775e+000	 1.2346542645e+000	-1.2564120272e-001
 2.3049222336e+000	 1.2596504017e+000	-1.8409657564e-001
 2.2911455956e+000	 1.2845377836e+000	-2.4383775789e-001
 2.4402383696e+000	 1.0418393799e+000	 3.1302034935e-001
 2.4289964598e+000	 1.0677869523e+000	 2.5814988794e-001
 2.4174552750e+000	 1.0936649004e+000	 2.0291457807e-001
 2.4056150842e+000	 1.1194682188e+000	 1.4755259042e-001
 2.3934762643e+000	 1.1451918892e+000	 9.2159980317e-002
 2.3810393020e+000	 1.1708308836e+000	 3.6694449913e-002
 2.3683047935e+000	 1.1963801672e+000	-1.9019014642e-002
 2.3552734458e+000	 1.2218347012e+000	-7.5280667106e-002
 2.3419460772e+000	 1.2471894459e+000	-1.3250673857e-001
 2.3283236174e+000	 1.2724393636e+000	-1.9121845689e-001
 2.3144071082e+000	 1.2975794217e+000	-2.5202943242e-001
 2.4647645800e+000	 1.0523106405e+000	 3.0283710518e-001
 2.4534096806e+000	 1.0785190052e+000	 2.4900945406e-001
 2.4417524983e+000	 1.1046570460e+000	 1.9496443545e-001
 2.4297933047e+000	 1.1307197069e+000	 1.4085628583e-001
 2.4175324807e+000	 1.1567019193e+000	 8.6676392663e-002
 2.4049705176e+000	 1.1825986047e+000	 3.2257737548e-002
 2.3921080179e+000	 1.2084046776e+000	-2.2718628552e-002
 2.3789456955e+000	 1.2341150486e+000	-7.8715118043e-002
 2.3654843769e+000	 1.2597246273e+000	-1.3632720455e-001
 2.3517250013e+000	 1.2852283255e+000	-1.9627116041e-001
 2.3376686208e+000	 1.3106210599e+000	-2.5937002526e-001
 2.4892907903e+000	 1.0627819010e+000	 2.9752147321e-001
 2.4778229014e+000	 1.0892510582e+000	 2.4435004844e-001
 2.4660497216e+000	 1.1156491916e+000	 1.9118062552e-001
 2.4539715253e+000	 1.1419711950e+000	 1.3805045396e-001
 2.4415886971e+000	 1.1682119494e+000	 8.4811402959e-002
 2.4289017333e+000	 1.1943663258e+000	 3.1135187384e-002
 2.4159112423e+000	 1.2204291880e+000	-2.3479206959e-002
 2.4026179452e+000	 1.2463953960e+000	-7.9695942664e-002
 2.3890226766e+000	 1.2722598088e+000	-1.3833065715e-001
 2.3751263852e+000	 1.2980172874e+000	-2.0033677716e-001
 2.3609301334e+000	 1.3236626980e+000	-2.6678992046e-001
 2.5138170006e+000	 1.0732531616e+000	 2.9489564891e-001
 2.5022361221e+000	 1.0999831111e+000	 2.4210849979e-001
 2.4903469449e+000	 1.1266413371e+000	 1.8961891926e-001
 2.4781497459e+000	 1.1532226831e+000	 1.3731446238e-001
 2.4656449135e+000	 1.1797219796e+000	 8.4872921316e-002
 2.4528329490e+000	 1.2061340469e+000	 3.1768437949e-002
 2.4397144667e+000	 1.2324536984e+000	-2.2720005982e-002
 2.4262901949e+000	 1.2586757434e+000	-7.9497769702e-002
 2.4125609764e+000	 1.2847949902e+000	-1.3964147325e-001
 2.3985277690e+000	 1.3108062492e+000	-2.0438374431e-001
 2.3841916460e+000	 1.3367043362e+000	-2.7497835890e-001
 2.5383432110e+000	 1.0837244221e+000	 2.9282124603e-001
 2.5266493429e+000	 1.1107151641e+000	 2.4026894309e-001
 2.5146441682e+000	 1.1376334827e+000	 1.8839085145e-001
 2.5023279664e+000	 1.1644741712e+000	 1.3689240255e-001
 2.4897011299e+000	 1.1912320097e+000	 8.5242974734e-002
 2.4767641647e+000	 1.2179017679e+000	 3.2682999045e-002
 2.4635176911e+000	 1.2444782088e+000	-2.1766368350e-002
 2.4499624445e+000	 1.2709560908e+000	-7.9291060130e-002
 2.4360992761e+000	 1.2973301716e+000	-1.4126947249e-001
 2.4219291529e+000	 1.3235952111e+000	-2.0925549589e-001
 2.4074531586e+000	 1.3497459743e+000	-2.8201037455e-001
 2.5628694213e+000	 1.0941956827e+000	 2.8920633963e-001
 2.5510625637e+000	 1.1214472170e+000	 2.3687035063e-001
 2.5389413915e+000	 1.1486256283e+000	 1.8567173365e-001
 2.5265061870e+000	 1.1757256594e+000	 1.3510157937e-001
 2.5137573464e+000	 1.2027420398e+000	 8.4386669180e-002
 2.5006953804e+000	 1.2296694890e+000	 3.2497683103e-002
 2.4873209155e+000	 1.2565027191e+000	-2.1839825000e-002
 2.4736346942e+000	 1.2832364381e+000	-8.0131742975e-002
 2.4596375758e+000	 1.3098653530e+000	-1.4409908761e-001
 2.4453305367e+000	 1.3363841730e+000	-2.1555117627e-001
 2.4307146712e+000	 1.3627876125e+000	-2.8680895246e-001
 2.5873956317e+000	 1.1046669432e+000	 2.8201251136e-001
 2.5754757845e+000	 1.1321792700e+000	 2.3001405802e-001
 2.5632386148e+000	 1.1596177739e+000	 1.7970865532e-001
 2.5506844076e+000	 1.1869771475e+000	 1.3034098285e-001
 2.5378135628e+000	 1.2142520700e+000	 8.0861127927e-002
 2.5246265961e+000	 1.2414372101e+000	 2.9934007325e-002
 2.5111241399e+000	 1.2685272295e+000	-2.4048231149e-002
 2.4973069439e+000	 1.2955167855e+000	-8.2950890744e-002
 2.4831758755e+000	 1.3224005345e+000	-1.4887857950e-001
 2.4687319206e+000	 1.3491731349e+000	-2.2112774255e-001
 2.4539761837e+000	 1.3758292506e+000	-2.8912130333e-001
 2.6119218420e+000	 1.1151382038e+000	 2.6926189664e-001
 2.5998890053e+000	 1.1429113229e+000	 2.1787128534e-001
 2.5875358381e+000	 1.1706099194e+000	 1.6882847394e-001
 2.5748626282e+000	 1.1982286356e+000	 1.2109974293e-001
 2.5618697792e+000	 1.2257621001e+000	 7.3324407696e-002
 2.5485578118e+000	 1.2532049312e+000	 2.3825568529e-002
 2.5349273643e+000	 1.2805517399e+000	-2.9375934568e-002
 2.5209791935e+000	 1.3077971329e+000	-8.8544431854e-002
 2.5067141752e+000	 1.3349357159e+000	-1.5617609289e-001
 2.4921333044e+000	 1.3619620967e+000	-2.2478230067e-001
 2.4772376963e+000	 1.3888708888e+000	-2.8865390652e-001
 2.6364480523e+000	 1.1256094643e+000	 2.4904423389e-001
 2.6243022261e+000	 1.1536433759e+000	 1.9869065395e-001
 2.6118330614e+000	 1.1816020650e+000	 1.5144579484e-001
 2.5990408487e+000	 1.2094801237e+000	 1.0596556863e-001
 2.5859259956e+000	 1.2372721302e+000	 6.0544394059e-002
 2.5724890275e+000	 1.2649726523e+000	 1.3127392479e-002
 2.5587305887e+000	 1.2925762503e+000	-3.8673973956e-002
 2.5446514432e+000	 1.3200774803e+000	-9.7562897662e-002
 2.5302524749e+000	 1.3474708973e+000	-1.6393352342e-001
 2.5155346883e+000	 1.3747510586e+000	-2.2627096675e-001
 2.5004992089e+000	 1.4019125270e+000	-2.8507425038e-001
 2.2678840830e+000	 1.2714961454e+000	-2.3375290153e-001
 2.2539581986e+000	 1.2960219464e+000	-2.9551187849e-001
 2.2397464637e+000	 1.3204302257e+000	-3.6034369350e-001
 2.2252502318e+000	 1.3447160840e+000	-4.2830234409e-001
 2.2104709669e+000	 1.3688746392e+000	-4.9399230500e-001
 2.1954102429e+000	 1.3929010296e+000	-5.5612206016e-001
 2.1800697437e+000	 1.4167904164e+000	-6.1442426205e-001
 2.1644512626e+000	 1.4405379875e+000	-6.6860552913e-001
 2.1485567020e+000	 1.4641389598e+000	-7.1834976648e-001
 2.1323880729e+000	 1.4875885829e+000	-7.6332215946e-001
 2.1159474941e+000	 1.5108821418e+000	-8.0317380086e-001
 2.2911455956e+000	 1.2845377836e+000	-2.4383775789e-001
 2.2770768745e+000	 1.3093151438e+000	-3.0607404374e-001
 2.2627193709e+000	 1.3339737769e+000	-3.7238585487e-001
 2.2480744523e+000	 1.3585087334e+000	-4.3902414028e-001
 2.2331435976e+000	 1.3829150811e+000	-5.0194777135e-001
 2.2179283969e+000	 1.4071879083e+000	-5.6108591642e-001
 2.2024305514e+000	 1.4313223268e+000	-6.1633059960e-001
 2.1866518727e+000	 1.4553134748e+000	-6.6753931349e-001
 2.1705942828e+000	 1.4791565204e+000	-7.1453839836e-001
 2.1542598133e+000	 1.5028466645e+000	-7.5712715236e-001
 2.1376506048e+000	 1.5263791437e+000	-7.9508263081e-001
 2.3144071082e+000	 1.2975794217e+000	-2.5202943242e-001
 2.3001955503e+000	 1.3226083413e+000	-3.1633110518e-001
 2.2856922780e+000	 1.3475173282e+000	-3.8420815657e-001
 2.2708986727e+000	 1.3723013828e+000	-4.4885661560e-001
 2.2558162283e+000	 1.3969555230e+000	-5.0947809963e-001
 2.2404465509e+000	 1.4214747870e+000	-5.6612941692e-001
 2.2247913591e+000	 1.4458542371e+000	-6.1882148984e-001
 2.2088524828e+000	 1.4700889621e+000	-6.6752206412e-001
 2.1926318636e+000	 1.4941740811e+000	-7.1215924815e-001
 2.1761315537e+000	 1.5181047462e+000	-7.5262584488e-001
 2.1593537155e+000	 1.5418761456e+000	-7.8878443100e-001
 2.3376686208e+000	 1.3106210599e+000	-2.5937002526e-001
 2.3233142262e+000	 1.3359015387e+000	-3.2712175892e-001
 2.3086651852e+000	 1.3610608794e+000	-3.9452265450e-001
 2.2937228932e+000	 1.3860940323e+000	-4.5747427285e-001
 2.2784888589e+000	 1.4109959649e+000	-5.1617889122e-001
 2.2629647049e+000	 1.4357616657e+000	-5.7078191170e-001
 2.2471521667e+000	 1.4603861474e+000	-6.2137383503e-001
 2.2310530929e+000	 1.4848644494e+000	-6.6799316468e-001
 2.2146694445e+000	 1.5091916418e+000	-7.1063020848e-001
 2.1980032942e+000	 1.5333628279e+000	-7.4923173748e-001
 2.1810568261e+000	 1.5573731475e+000	-7.8370645334e-001
 2.3609301334e+000	 1.3236626980e+000	-2.6678992046e-001
 2.3464329021e+000	 1.3491947361e+000	-3.3696601963e-001
 2.3316380924e+000	 1.3746044307e+000	-4.0305274876e-001
 2.3165471136e+000	 1.3998866817e+000	-4.6451351648e-001
 2.3011614896e+000	 1.4250364067e+000	-5.2161080500e-001
 2.2854828589e+000	 1.4500485444e+000	-5.7454068413e-001
 2.2695129744e+000	 1.4749180577e+000	-6.2343500463e-001
 2.2532537030e+000	 1.4996399368e+000	-6.6836459593e-001
 2.2367070253e+000	 1.5242092025e+000	-7.0934343255e-001
 2.2198750346e+000	 1.5486209095e+000	-7.4633372579e-001
 2.2027599368e+000	 1.5728701494e+000	-7.7925188823e-001
 2.3841916460e+000	 1.3367043362e+000	-2.7497835890e-001
 2.3695515779e+000	 1.3624879335e+000	-3.4473793624e-001
 2.3546109996e+000	 1.3881479819e+000	-4.0948188204e-001
 2.3393713341e+000	 1.4136793311e+000	-4.6957421621e-001
 2.3238341203e+000	 1.4390768486e+000	-5.2530118628e-001
 2.3080010129e+000	 1.4643354232e+000	-5.7687266428e-001
 2.2918737821e+000	 1.4894499680e+000	-6.2442465468e-001
 2.2754543131e+000	 1.5144154241e+000	-6.6802288462e-001
 2.2587446061e+000	 1.5392267632e+000	-7.0766743827e-001
 2.2417467750e+000	 1.5638789912e+000	-7.4329838770e-001
 2.2244630475e+000	 1.5883671513e+000	-7.7480236430e-001
 2.4074531586e+000	 1.3497459743e+000	-2.8201037455e-001
 2.3926702538e+000	 1.3757811309e+000	-3.5017251196e-001
 2.3775839068e+000	 1.4016915332e+000	-4.1345513010e-001
 2.3621955545e+000	 1.4274719806e+000	-4.7222135031e-001
 2.3465067509e+000	 1.4531172905e+000	-5.2674577884e-001
 2.3305191669e+000	 1.4786223019e+000	-5.7721622807e-001
 2.3142345897e+000	 1.5039818783e+000	-6.2373663411e-001
 2.2976549232e+000	 1.5291909114e+000	-6.6633113923e-001
 2.2807821869e+000	 1.5542443239e+000	-7.0494929748e-001
 2.2636185155e+000	 1.5791370729e+000	-7.3947235228e-001
 2.2461661582e+000	 1.6038641532e+000	-7.6972052508e-001
 2.4307146712e+000	 1.3627876125e+000	-2.8680895246e-001
 2.4157889297e+000	 1.3890743283e+000	-3.5296439578e-001
 2.4005568140e+000	 1.4152350845e+000	-4.1458086238e-001
 2.3850197750e+000	 1.4412646300e+000	-4.7198672306e-001
 2.3691793816e+000	 1.4671577324e+000	-5.2541051464e-001
 2.3530373208e+000	 1.4929091806e+000	-5.7498307626e-001
 2.3365953974e+000	 1.5185137887e+000	-6.2074097222e-001
 2.3198555333e+000	 1.5439663988e+000	-6.6263116662e-001
 2.3028197677e+000	 1.5692618846e+000	-7.0051690470e-001
 2.2854902559e+000	 1.5943951545e+000	-7.3418474502e-001
 2.2678692689e+000	 1.6193611551e+000	-7.6335267706e-001
 2.4539761837e+000	 1.3758292506e+000	-2.8912130333e-001
 2.4389076055e+000	 1.4023675257e+000	-3.5276956014e-001
 2.4235297212e+000	 1.4287786357e+000	-4.1243246786e-001
 2.4078439955e+000	 1.4550572794e+000	-4.6837075149e-001
 2.3918520123e+000	 1.4811981742e+000	-5.2073337586e-001
 2.3755554748e+000	 1.5071960593e+000	-5.6956018811e-001
 2.3589562050e+000	 1.5330456990e+000	-6.1478594175e-001
 2.3420561434e+000	 1.5587418861e+000	-6.5624566445e-001
 2.3248573486e+000	 1.5842794452e+000	-6.9368132000e-001
 2.3073619963e+000	 1.6096532362e+000	-7.2674970437e-001
 2.2895723795e+000	 1.6348581571e+000	-7.5503150467e-001
 2.4772376963e+000	 1.3888708888e+000	-2.8865390652e-001
 2.4620262814e+000	 1.4156607231e+000	-3.4920703516e-001
 2.4465026284e+000	 1.4423221870e+000	-4.0655014194e-001
 2.4306682159e+000	 1.4688499289e+000	-4.6084431696e-001
 2.4145246430e+000	 1.4952386161e+000	-5.1212632482e-001
 2.3980736288e+000	 1.5214829380e+000	-5.6031184479e-001
 2.3813170127e+000	 1.5475776093e+000	-6.0520019286e-001
 2.3642567535e+000	 1.5735173734e+000	-6.4648048405e-001
 2.3468949294e+000	 1.5992970059e+000	-6.8373918119e-001
 2.3292337368e+000	 1.6249113179e+000	-7.1646896488e-001
 2.3112754902e+000	 1.6503551590e+000	-7.4407884770e-001
 2.5004992089e+000	 1.4019125270e+000	-2.8507425038e-001
 2.4851449573e+000	 1.4289539205e+000	-3.4186069599e-001
 2.4694755356e+000	 1.4558657382e+000	-3.9644273047e-001
 2.4534924364e+000	 1.4826425783e+000	-4.4885067718e-001
 2.4371972736e+000	 1.5092790580e+000	-4.9897729696e-001
 2.4205917828e+000	 1.5357698167e+000	-5.4658171796e-001
 2.4036778204e+000	 1.5621095196e+000	-5.9129495313e-001
 2.3864573637e+000	 1.5882928607e+000	-6.3262695949e-001
 2.3689325102e+000	 1.6143145666e+000	-6.6997518078e-001
 2.3511054772e+000	 1.6401693995e+000	-7.0263450259e-001
 2.3329786009e+000	 1.6658521609e+000	-7.2980853697e-001
 2.1159474941e+000	 1.5108821418e+000	-8.0317380086e-001
 2.0992371910e+000	 1.5340149596e+000	-8.4211180881e-001
 2.0822594931e+000	 1.5569823987e+000	-8.8447514909e-001
 2.0650168343e+000	 1.5797798658e+000	-9.3010035762e-001
 2.0475117532e+000	 1.6024028145e+000	-9.7882269418e-001
 2.0297468916e+000	 1.6248467492e+000	-1.0304828997e+000
 2.0117249930e+000	 1.6471072275e+000	-1.0849342511e+000
 1.9934489018e+000	 1.6691798630e+000	-1.1412834713e+000
 1.9749215615e+000	 1.6910603285e+000	-1.1901760034e+000
 1.9561460130e+000	 1.7127443585e+000	-1.2276018218e+000
 1.9371253937e+000	 1.7342277519e+000	-1.2519414244e+000
 2.1376506048e+000	 1.5263791437e+000	-7.9508263081e-001
 2.1207689054e+000	 1.5497492330e+000	-8.3263150185e-001
 2.1036170685e+000	 1.5729522474e+000	-8.7383818917e-001
 2.0861975531e+000	 1.5959835463e+000	-9.1821849342e-001
 2.0685129238e+000	 1.6188385369e+000	-9.6528845903e-001
 2.0505658493e+000	 1.6415126773e+000	-1.0145723475e+000
 2.0323591015e+000	 1.6640014796e+000	-1.0656109286e+000
 2.0138955539e+000	 1.6863005124e+000	-1.1179700100e+000
 1.9951781800e+000	 1.7084054042e+000	-1.1708109896e+000
 1.9762100522e+000	 1.7303118456e+000	-1.2141386280e+000
 1.9569943398e+000	 1.7520155926e+000	-1.2424692929e+000
 2.1593537155e+000	 1.5418761456e+000	-7.8878443100e-001
 2.1423006198e+000	 1.5654835065e+000	-8.2493801766e-001
 2.1249746440e+000	 1.5889220961e+000	-8.6499290268e-001
 2.1073782719e+000	 1.6121872269e+000	-9.0819288342e-001
 2.0895140944e+000	 1.6352742593e+000	-9.5378288317e-001
 2.0713848071e+000	 1.6581786054e+000	-1.0010180993e+000
 2.0529932100e+000	 1.6808957317e+000	-1.0491734910e+000
 2.0343422059e+000	 1.7034211619e+000	-1.0975535207e+000
 2.0154347985e+000	 1.7257504799e+000	-1.1455020591e+000
 1.9962740914e+000	 1.7478793327e+000	-1.1921373574e+000
 1.9768632860e+000	 1.7698034332e+000	-1.2268646239e+000
 2.1810568261e+000	 1.5573731475e+000	-7.8370645334e-001
 2.1638323342e+000	 1.5812177799e+000	-8.1847726742e-001
 2.1463322194e+000	 1.6048919448e+000	-8.5739371953e-001
 2.1285589908e+000	 1.6283909074e+000	-8.9947464067e-001
 2.1105152649e+000	 1.6517099817e+000	-9.4374023294e-001
 2.0922037648e+000	 1.6748445336e+000	-9.8922235480e-001
 2.0736273186e+000	 1.6977899839e+000	-1.0349751697e+000
 2.0547888580e+000	 1.7205418114e+000	-1.0800860651e+000
 2.0356914171e+000	 1.7430955556e+000	-1.1236867443e+000
 2.0163381306e+000	 1.7654468199e+000	-1.1649643933e+000
 1.9967322321e+000	 1.7875912739e+000	-1.2029511745e+000
 2.2027599368e+000	 1.5728701494e+000	-7.7925188823e-001
 2.1853640486e+000	 1.5969520533e+000	-8.1267155206e-001
 2.1676897948e+000	 1.6208617935e+000	-8.5047238876e-001
 2.1497397096e+000	 1.6445945880e+000	-8.9149364818e-001
 2.1315164355e+000	 1.6681457041e+000	-9.3457555955e-001
 2.1130227225e+000	 1.6915104617e+000	-9.7857072002e-001
 2.0942614271e+000	 1.7146842360e+000	-1.0223558723e+000
 2.0752355100e+000	 1.7376624608e+000	-1.0648439705e+000
 2.0559480356e+000	 1.7604406313e+000	-1.1049964307e+000
 2.0364021698e+000	 1.7830143070e+000	-1.1418354582e+000
 2.0166011783e+000	 1.8053791145e+000	-1.1744563450e+000
 2.2244630475e+000	 1.5883671513e+000	-7.7480236430e-001
 2.2068957630e+000	 1.6126863268e+000	-8.0692227928e-001
 2.1890473703e+000	 1.6368316422e+000	-8.4364088853e-001
 2.1709204284e+000	 1.6607982686e+000	-8.8366163426e-001
 2.1525176060e+000	 1.6845814265e+000	-9.2568790917e-001
 2.1338416803e+000	 1.7081763898e+000	-9.6843551835e-001
 2.1148955356e+000	 1.7315784881e+000	-1.0106455576e+000
 2.0956821621e+000	 1.7547831103e+000	-1.0510975998e+000
 2.0762046542e+000	 1.7777857070e+000	-1.0886230783e+000
 2.0564662089e+000	 1.8005817941e+000	-1.1221187524e+000
 2.0364701244e+000	 1.8231669552e+000	-1.1505601378e+000
 2.2461661582e+000	 1.6038641532e+000	-7.6972052508e-001
 2.2284274774e+000	 1.6284206002e+000	-8.0061275198e-001
 2.2104049457e+000	 1.6528014909e+000	-8.3629440315e-001
 2.1921011472e+000	 1.6770019491e+000	-8.7537531214e-001
 2.1735187766e+000	 1.7010171489e+000	-9.1646359627e-001
 2.1546606380e+000	 1.7248423179e+000	-9.5817916566e-001
 2.1355296441e+000	 1.7484727403e+000	-9.9916767778e-001
 2.1161288141e+000	 1.7719037597e+000	-1.0381148220e+000
 2.0964612727e+000	 1.7951307827e+000	-1.0737608146e+000
 2.0765302481e+000	 1.8181492813e+000	-1.1049149813e+000
 2.0563390706e+000	 1.8409547958e+000	-1.1304703034e+000
 2.2678692689e+000	 1.6193611551e+000	-7.6335267706e-001
 2.2499591918e+000	 1.6441548737e+000	-7.9311102296e-001
 2.2317625212e+000	 1.6687713396e+000	-8.2781436266e-001
 2.2132818661e+000	 1.6932056297e+000	-8.6601957977e-001
 2.1945199471e+000	 1.7174528713e+000	-9.0627953603e-001
 2.1754795957e+000	 1.7415082460e+000	-9.4715760504e-001
 2.1561637526e+000	 1.7653669924e+000	-9.8724268273e-001
 2.1365754661e+000	 1.7890244092e+000	-1.0251645510e+000
 2.1167178912e+000	 1.8124758584e+000	-1.0596094671e+000
 2.0965942873e+000	 1.8357167684e+000	-1.0893358477e+000
 2.0762080167e+000	 1.8587426365e+000	-1.1131899149e+000
 2.2895723795e+000	 1.6348581571e+000	-7.5503150467e-001
 2.2714909061e+000	 1.6598891471e+000	-7.8377281182e-001
 2.2531200966e+000	 1.6847411883e+000	-8.1757154083e-001
 2.2344625849e+000	 1.7094093102e+000	-8.5497077552e-001
 2.2155211177e+000	 1.7338885937e+000	-8.9450663175e-001
 2.1962985535e+000	 1.7581741742e+000	-9.3472379735e-001
 2.1767978611e+000	 1.7822612445e+000	-9.7419158189e-001
 2.1570221182e+000	 1.8061450586e+000	-1.0115203447e+000
 2.1369745098e+000	 1.8298209341e+000	-1.0453781651e+000
 2.1166583265e+000	 1.8532842555e+000	-1.0745076159e+000
 2.0960769629e+000	 1.8765304771e+000	-1.0977424977e+000
 2.3112754902e+000	 1.6503551590e+000	-7.4407884770e-001
 2.2930226205e+000	 1.6756234205e+000	-7.7194447974e-001
 2.2744776721e+000	 1.7007110370e+000	-8.0492920777e-001
 2.2556433037e+000	 1.7256129908e+000	-8.4159998640e-001
 2.2365222882e+000	 1.7503243161e+000	-8.8051321391e-001
 2.2171175112e+000	 1.7748401023e+000	-9.2023126373e-001
 2.1974319696e+000	 1.7991554966e+000	-9.5933956090e-001
 2.1774687702e+000	 1.8232657081e+000	-9.9646406351e-001
 2.1572311283e+000	 1.8471660099e+000	-1.0302890046e+000
 2.1367223657e+000	 1.8708517427e+000	-1.0595747462e+000
 2.1159459091e+000	 1.8943183178e+000	-1.0831755958e+000
 2.3329786009e+000	 1.6658521609e+000	-7.2980853697e-001
 2.3145543349e+000	 1.6913576940e+000	-7.5696605852e-001
 2.2958352475e+000	 1.7166808857e+000	-7.8924633350e-001
 2.2768240225e+000	 1.7418166714e+000	-8.2527640509e-001
 2.2575234588e+000	 1.7667600385e+000	-8.6366852721e-001
 2.2379364689e+000	 1.7915060304e+000	-9.0303767686e-001
 2.2180660781e+000	 1.8160497488e+000	-9.4201964861e-001
 2.1979154223e+000	 1.8403863575e+000	-9.7928958268e-001
 2.1774877469e+000	 1.8645110856e+000	-1.0135807729e+000
 2.1567864049e+000	 1.8884192298e+000	-1.0437035974e+000
 2.1358148552e+000	 1.9121061584e+000	-1.0685644133e+000
 1.9371253937e+000	 1.7342277519e+000	-1.2519414244e+000
 1.9178658423e+000	 1.7555031994e+000	-1.2684434287e+000
 1.8983678480e+000	 1.7765698777e+000	-1.2834335690e+000
 1.8786348255e+000	 1.7974237988e+000	-1.2968949365e+000
 1.8586702779e+000	 1.8180610496e+000	-1.3087939190e+000
 1.8384777946e+000	 1.8384777946e+000	-1.3190792161e+000
 1.8180610496e+000	 1.8586702779e+000	-1.3276806793e+000
 1.7974237988e+000	 1.8786348255e+000	-1.3345079737e+000
 1.7765698777e+000	 1.8983678480e+000	-1.3394490596e+000
 1.7555031994e+000	 1.9178658423e+000	-1.3423684938e+000
 1.7342277519e+000	 1.9371253937e+000	-1.3431055539e+000
 1.9569943398e+000	 1.7520155926e+000	-1.2424692929e+000
 1.9375372447e+000	 1.7735092607e+000	-1.2605660063e+000
 1.9178392610e+000	 1.7947920183e+000	-1.2747893639e+000
 1.8979038384e+000	 1.8158598364e+000	-1.2855823144e+000
 1.8777345160e+000	 1.8367087620e+000	-1.2933677069e+000
 1.8573349200e+000	 1.8573349200e+000	-1.2985464769e+000
 1.8367087620e+000	 1.8777345160e+000	-1.3014956473e+000
 1.8158598364e+000	 1.8979038384e+000	-1.3025661414e+000
 1.7947920183e+000	 1.9178392610e+000	-1.3020804065e+000
 1.7735092607e+000	 1.9375372447e+000	-1.3003298515e+000
 1.7520155926e+000	 1.9569943398e+000	-1.2975721007e+000
 1.9768632860e+000	 1.7698034332e+000	-1.2268646239e+000
 1.9572086471e+000	 1.7915153220e+000	-1.2492635200e+000
 1.9373106740e+000	 1.8130141588e+000	-1.2655480988e+000
 1.9171728513e+000	 1.8342958741e+000	-1.2765405102e+000
 1.8967987540e+000	 1.8553564743e+000	-1.2830404434e+000
 1.8761920453e+000	 1.8761920453e+000	-1.2858226261e+000
 1.8553564743e+000	 1.8967987540e+000	-1.2856341251e+000
 1.8342958741e+000	 1.9171728513e+000	-1.2831914441e+000
 1.8130141588e+000	 1.9373106740e+000	-1.2791774216e+000
 1.7915153220e+000	 1.9572086471e+000	-1.2742379307e+000
 1.7698034332e+000	 1.9768632860e+000	-1.2689783857e+000
 1.9967322321e+000	 1.7875912739e+000	-1.2029511745e+000
 1.9768800495e+000	 1.8095213832e+000	-1.2322191040e+000
 1.9567820870e+000	 1.8312362994e+000	-1.2532685244e+000
 1.9364418642e+000	 1.8527319117e+000	-1.2672225100e+000
 1.9158629921e+000	 1.8740041867e+000	-1.2751803434e+000
 1.8950491706e+000	 1.8950491706e+000	-1.2782144671e+000
 1.8740041867e+000	 1.9158629921e+000	-1.2773672191e+000
 1.8527319117e+000	 1.9364418642e+000	-1.2736473500e+000
 1.8312362994e+000	 1.9567820870e+000	-1.2680263226e+000
 1.8095213832e+000	 1.9768800495e+000	-1.2614343990e+000
 1.7875912739e+000	 1.9967322321e+000	-1.2547565207e+000
 2.0166011783e+000	 1.8053791145e+000	-1.1744563450e+000
 1.9965514519e+000	 1.8275274445e+000	-1.2071839309e+000
 1.9762535000e+000	 1.8494584400e+000	-1.2355812871e+000
 1.9557108771e+000	 1.8711679493e+000	-1.2551561400e+000
 1.9349272302e+000	 1.8926518990e+000	-1.2672323967e+000
 1.9139062959e+000	 1.9139062959e+000	-1.2731064083e+000
 1.8926518990e+000	 1.9349272302e+000	-1.2740432747e+000
 1.8711679493e+000	 1.9557108771e+000	-1.2712729111e+000
 1.8494584400e+000	 1.9762535000e+000	-1.2659858775e+000
 1.8275274445e+000	 1.9965514519e+000	-1.2593289746e+000
 1.8053791145e+000	 2.0166011783e+000	-1.2501916234e+000
 2.0364701244e+000	 1.8231669552e+000	-1.1505601378e+000
 2.0162228544e+000	 1.8455335058e+000	-1.1777984852e+000
 1.9957249130e+000	 1.8676805806e+000	-1.2101902779e+000
 1.9749798900e+000	 1.8896039870e+000	-1.2379452980e+000
 1.9539914682e+000	 1.9112996113e+000	-1.2567195216e+000
 1.9327634212e+000	 1.9327634212e+000	-1.2679615830e+000
 1.9112996113e+000	 1.9539914682e+000	-1.2730890085e+000
 1.8896039870e+000	 1.9749798900e+000	-1.2734839616e+000
 1.8676805806e+000	 1.9957249130e+000	-1.2704887252e+000
 1.8455335058e+000	 2.0162228544e+000	-1.2632698708e+000
 1.8231669552e+000	 2.0364701244e+000	-1.2487935575e+000
 2.0563390706e+000	 1.8409547958e+000	-1.1304703034e+000
 2.0358942568e+000	 1.8635395671e+000	-1.1535174789e+000
 2.0151963260e+000	 1.8859027211e+000	-1.1801918049e+000
 1.9942489029e+000	 1.9080400246e+000	-1.2132713160e+000
 1.9730557063e+000	 1.9299473237e+000	-1.2412438547e+000
 1.9516205466e+000	 1.9516205466e+000	-1.2603231074e+000
 1.9299473237e+000	 1.9730557063e+000	-1.2720107812e+000
 1.9080400246e+000	 1.9942489029e+000	-1.2777744521e+000
 1.8859027211e+000	 2.0151963260e+000	-1.2771565691e+000
 1.8635395671e+000	 2.0358942568e+000	-1.2667889752e+000
 1.8409547958e+000	 2.0563390706e+000	-1.2481444567e+000
 2.0762080167e+000	 1.8587426365e+000	-1.1131899149e+000
 2.0555656592e+000	 1.8815456284e+000	-1.1334887529e+000
 2.0346677390e+000	 1.9041248617e+000	-1.1556484917e+000
 2.0135179158e+000	 1.9264760623e+000	-1.1832689131e+000
 1.9921199444e+000	 1.9485950360e+000	-1.2184881691e+000
 1.9704776719e+000	 1.9704776719e+000	-1.2478154706e+000
 1.9485950360e+000	 1.9921199444e+000	-1.2683959996e+000
 1.9264760623e+000	 2.0135179158e+000	-1.2802129356e+000
 1.9041248617e+000	 2.0346677390e+000	-1.2794633139e+000
 1.8815456284e+000	 2.0555656592e+000	-1.2675134473e+000
 1.8587426365e+000	 2.0762080167e+000	-1.2460781447e+000
 2.0960769629e+000	 1.8765304771e+000	-1.0977424977e+000
 2.0752370616e+000	 1.8995516896e+000	-1.1166285486e+000
 2.0541391520e+000	 1.9223470023e+000	-1.1357954062e+000
 2.0327869287e+000	 1.9449120999e+000	-1.1588158151e+000
 2.0111841824e+000	 1.9672427483e+000	-1.1893261442e+000
 1.9893347972e+000	 1.9893347972e+000	-1.2281460459e+000
 1.9672427483e+000	 2.0111841824e+000	-1.2588753252e+000
 1.9449120999e+000	 2.0327869287e+000	-1.2741785066e+000
 1.9223470023e+000	 2.0541391520e+000	-1.2750666257e+000
 1.8995516896e+000	 2.0752370616e+000	-1.2633312327e+000
 1.8765304771e+000	 2.0960769629e+000	-1.2405906967e+000
 2.1159459091e+000	 1.8943183178e+000	-1.0831755958e+000
 2.0949084640e+000	 1.9175577509e+000	-1.1018829385e+000
 2.0736105650e+000	 1.9405691429e+000	-1.1194892812e+000
 2.0520559416e+000	 1.9633481375e+000	-1.1394714921e+000
 2.0302484205e+000	 1.9858904607e+000	-1.1653780497e+000
 2.0081919225e+000	 2.0081919225e+000	-1.2002729619e+000
 1.9858904607e+000	 2.0302484205e+000	-1.2367861137e+000
 1.9633481375e+000	 2.0520559416e+000	-1.2573109988e+000
 1.9405691429e+000	 2.0736105650e+000	-1.2619349021e+000
 1.9175577509e+000	 2.0949084640e+000	-1.2522904482e+000
 1.8943183178e+000	 2.1159459091e+000	-1.2298363199e+000
 2.1358148552e+000	 1.9121061584e+000	-1.0685644133e+000
 2.1145798665e+000	 1.9355638122e+000	-1.0882313973e+000
 2.0930819779e+000	 1.9587912834e+000	-1.1056253277e+000
 2.0713249545e+000	 1.9817841752e+000	-1.1240598735e+000
 2.0493126586e+000	 2.0045381730e+000	-1.1467543034e+000
 2.0270490478e+000	 2.0270490478e+000	-1.1716370992e+000
 2.0045381730e+000	 2.0493126586e+000	-1.2001961696e+000
 1.9817841752e+000	 2.0713249545e+000	-1.2276803331e+000
 1.9587912834e+000	 2.0930819779e+000	-1.2381931518e+000
 1.9355638122e+000	 2.1145798665e+000	-1.2325950970e+000
 1.9121061584e+000	 2.1358148552e+000	-1.2121233141e+000
 1.7342277519e+000	 1.9371253937e+000	-1.3431055539e+000
 1.7127443585e+000	 1.9561460130e+000	-1.3464864200e+000
 1.6910603285e+000	 1.9749215615e+000	-1.3562565892e+000
 1.6691798630e+000	 1.9934489018e+000	-1.3706230454e+000
 1.6471072275e+000	 2.0117249930e+000	-1.3867852321e+000
 1.6248467492e+000	 2.0297468916e+000	-1.3995226293e+000
 1.6024028145e+000	 2.0475117532e+000	-1.4070637185e+000
 1.5797798658e+000	 2.0650168343e+000	-1.4079471518e+000
 1.5569823987e+000	 2.0822594931e+000	-1.4007096816e+000
 1.5340149596e+000	 2.0992371910e+000	-1.3838949662e+000
 1.5108821418e+000	 2.1159474941e+000	-1.3560619790e+000
 1.7520155926e+000	 1.9569943398e+000	-1.2975721007e+000
 1.7303118456e+000	 1.9762100522e+000	-1.2994589545e+000
 1.7084054042e+000	 1.9951781800e+000	-1.3100878490e+000
 1.6863005124e+000	 2.0138955539e+000	-1.3258962921e+000
 1.6640014796e+000	 2.0323591015e+000	-1.3412992488e+000
 1.6415126773e+000	 2.0505658493e+000	-1.3543618525e+000
 1.6188385369e+000	 2.0685129238e+000	-1.3633122423e+000
 1.5959835463e+000	 2.0861975531e+000	-1.3663733675e+000
 1.5729522474e+000	 2.1036170685e+000	-1.3617731720e+000
 1.5497492330e+000	 2.1207689054e+000	-1.3477544013e+000
 1.5263791437e+000	 2.1376506048e+000	-1.3225839685e+000
 1.7698034332e+000	 1.9768632860e+000	-1.2689783857e+000
 1.7478793327e+000	 1.9962740914e+000	-1.2699483081e+000
 1.7257504799e+000	 2.0154347985e+000	-1.2798991748e+000
 1.7034211619e+000	 2.0343422059e+000	-1.2929435855e+000
 1.6808957317e+000	 2.0529932100e+000	-1.3069656621e+000
 1.6581786054e+000	 2.0713848071e+000	-1.3199353831e+000
 1.6352742593e+000	 2.0895140944e+000	-1.3298114103e+000
 1.6121872269e+000	 2.1073782719e+000	-1.3345526069e+000
 1.5889220961e+000	 2.1249746440e+000	-1.3321292116e+000
 1.5654835065e+000	 2.1423006198e+000	-1.3205335939e+000
 1.5418761456e+000	 2.1593537155e+000	-1.2977905243e+000
 1.7875912739e+000	 1.9967322321e+000	-1.2547565207e+000
 1.7654468199e+000	 2.0163381306e+000	-1.2533798567e+000
 1.7430955556e+000	 2.0356914171e+000	-1.2588786389e+000
 1.7205418114e+000	 2.0547888580e+000	-1.2689677566e+000
 1.6977899839e+000	 2.0736273186e+000	-1.2814142001e+000
 1.6748445336e+000	 2.0922037648e+000	-1.2939648341e+000
 1.6517099817e+000	 2.1105152649e+000	-1.3043591897e+000
 1.6283909074e+000	 2.1285589908e+000	-1.3103419576e+000
 1.6048919448e+000	 2.1463322194e+000	-1.3096751010e+000
 1.5812177799e+000	 2.1638323342e+000	-1.3001495096e+000
 1.5573731475e+000	 2.1810568261e+000	-1.2795961235e+000
 1.8053791145e+000	 2.0166011783e+000	-1.2501916234e+000
 1.7830143070e+000	 2.0364021698e+000	-1.2431429712e+000
 1.7604406313e+000	 2.0559480356e+000	-1.2444254547e+000
 1.7376624608e+000	 2.0752355100e+000	-1.2516607587e+000
 1.7146842360e+000	 2.0942614271e+000	-1.2624391210e+000
 1.6915104617e+000	 2.1130227225e+000	-1.2743333203e+000
 1.6681457041e+000	 2.1315164355e+000	-1.2849124256e+000
 1.6445945880e+000	 2.1497397096e+000	-1.2917552164e+000
 1.6208617935e+000	 2.1676897948e+000	-1.2924631871e+000
 1.5969520533e+000	 2.1853640486e+000	-1.2846730530e+000
 1.5728701494e+000	 2.2027599368e+000	-1.2660686799e+000
 1.8231669552e+000	 2.0364701244e+000	-1.2487935575e+000
 1.8005817941e+000	 2.0564662089e+000	-1.2367538826e+000
 1.7777857070e+000	 2.0762046542e+000	-1.2342852935e+000
 1.7547831103e+000	 2.0956821621e+000	-1.2388789531e+000
 1.7315784881e+000	 2.1148955356e+000	-1.2479960144e+000
 1.7081763898e+000	 2.1338416803e+000	-1.2590825454e+000
 1.6845814265e+000	 2.1525176060e+000	-1.2695841912e+000
 1.6607982686e+000	 2.1709204284e+000	-1.2769604767e+000
 1.6368316422e+000	 2.1890473703e+000	-1.2786986591e+000
 1.6126863268e+000	 2.2068957630e+000	-1.2723270409e+000
 1.5883671513e+000	 2.2244630475e+000	-1.2554276609e+000
 1.8409547958e+000	 2.0563390706e+000	-1.2481444567e+000
 1.8181492813e+000	 2.0765302481e+000	-1.2320050807e+000
 1.7951307827e+000	 2.0964612727e+000	-1.2263678450e+000
 1.7719037597e+000	 2.1161288141e+000	-1.2286396642e+000
 1.7484727403e+000	 2.1355296441e+000	-1.2361986479e+000
 1.7248423179e+000	 2.1546606380e+000	-1.2464099214e+000
 1.7010171489e+000	 2.1735187766e+000	-1.2566411588e+000
 1.6770019491e+000	 2.1921011472e+000	-1.2642777282e+000
 1.6528014909e+000	 2.2104049457e+000	-1.2667373496e+000
 1.6284206002e+000	 2.2284274774e+000	-1.2614841745e+000
 1.6038641532e+000	 2.2461661582e+000	-1.2460421970e+000
 1.8587426365e+000	 2.0762080167e+000	-1.2460781447e+000
 1.8357167684e+000	 2.0965942873e+000	-1.2268523670e+000
 1.8124758584e+000	 2.1167178912e+000	-1.2187431352e+000
 1.7890244092e+000	 2.1365754661e+000	-1.2191177899e+000
 1.7653669924e+000	 2.1561637526e+000	-1.2253158556e+000
 1.7415082460e+000	 2.1754795957e+000	-1.2346657181e+000
 1.7174528713e+000	 2.1945199471e+000	-1.2445009914e+000
 1.6932056297e+000	 2.2132818661e+000	-1.2521764665e+000
 1.6687713396e+000	 2.2317625212e+000	-1.2550835378e+000
 1.6441548737e+000	 2.2499591918e+000	-1.2506650093e+000
 1.6193611551e+000	 2.2678692689e+000	-1.2364291872e+000
 1.8765304771e+000	 2.0960769629e+000	-1.2405906967e+000
 1.8532842555e+000	 2.1166583265e+000	-1.2194109475e+000
 1.8298209341e+000	 2.1369745098e+000	-1.2096379087e+000
 1.8061450586e+000	 2.1570221182e+000	-1.2086424633e+000
 1.7822612445e+000	 2.1767978611e+000	-1.2137684656e+000
 1.7581741742e+000	 2.1962985535e+000	-1.2223502412e+000
 1.7338885937e+000	 2.2155211177e+000	-1.2317297521e+000
 1.7094093102e+000	 2.2344625849e+000	-1.2392733144e+000
 1.6847411883e+000	 2.2531200966e+000	-1.2423877575e+000
 1.6598891471e+000	 2.2714909061e+000	-1.2385359223e+000
 1.6348581571e+000	 2.2895723795e+000	-1.2252513982e+000
 1.8943183178e+000	 2.1159459091e+000	-1.2298363199e+000
 1.8708517427e+000	 2.1367223657e+000	-1.2079515973e+000
 1.8471660099e+000	 2.1572311283e+000	-1.1974320704e+000
 1.8232657081e+000	 2.1774687702e+000	-1.1956937612e+000
 1.7991554966e+000	 2.1974319696e+000	-1.2001262640e+000
 1.7748401023e+000	 2.2171175112e+000	-1.2081110364e+000
 1.7503243161e+000	 2.2365222882e+000	-1.2170393314e+000
 1.7256129908e+000	 2.2556433037e+000	-1.2243296512e+000
 1.7007110370e+000	 2.2744776721e+000	-1.2274446078e+000
 1.6756234205e+000	 2.2930226205e+000	-1.2239070792e+000
 1.6503551590e+000	 2.3112754902e+000	-1.2113155595e+000
 1.9121061584e+000	 2.1358148552e+000	-1.2121233141e+000
 1.8884192298e+000	 2.1567864049e+000	-1.1908968927e+000
 1.8645110856e+000	 2.1774877469e+000	-1.1806551828e+000
 1.8403863575e+000	 2.1979154223e+000	-1.1788994577e+000
 1.8160497488e+000	 2.2180660781e+000	-1.1831049927e+000
 1.7915060304e+000	 2.2379364689e+000	-1.1907401183e+000
 1.7667600385e+000	 2.2575234588e+000	-1.1992848904e+000
 1.7418166714e+000	 2.2768240225e+000	-1.2062492523e+000
 1.7166808857e+000	 2.2958352475e+000	-1.2091905660e+000
 1.6913576940e+000	 2.3145543349e+000	-1.2057303987e+000
 1.6658521609e+000	 2.3329786009e+000	-1.1935704533e+000
 1.5108821418e+000	 2.1159474941e+000	-1.3560619790e+000
 1.4875885829e+000	 2.1323880729e+000	-1.3247050012e+000
 1.4641389598e+000	 2.1485567020e+000	-1.2983723584e+000
 1.4405379875e+000	 2.1644512626e+000	-1.2772002573e+000
 1.4167904164e+000	 2.1800697437e+000	-1.2613013701e+000
 1.3929010296e+000	 2.1954102429e+000	-1.2507685737e+000
 1.3688746392e+000	 2.2104709669e+000	-1.2456781683e+000
 1.3447160840e+000	 2.2252502318e+000	-1.2460925509e+000
 1.3204302257e+000	 2.2397464637e+000	-1.2464087801e+000
 1.2960219464e+000	 2.2539581986e+000	-1.2151371322e+000
 1.2714961454e+000	 2.2678840830e+000	-1.1447122827e+000
 1.5263791437e+000	 2.1376506048e+000	-1.3225839685e+000
 1.5028466645e+000	 2.1542598133e+000	-1.2929886557e+000
 1.4791565204e+000	 2.1705942828e+000	-1.2669060383e+000
 1.4553134748e+000	 2.1866518727e+000	-1.2444308097e+000
 1.4313223268e+000	 2.2024305514e+000	-1.2256453452e+000
 1.4071879083e+000	 2.2179283969e+000	-1.2106236908e+000
 1.3829150811e+000	 2.2331435976e+000	-1.1994349703e+000
 1.3585087334e+000	 2.2480744523e+000	-1.1921461863e+000
 1.3339737769e+000	 2.2627193709e+000	-1.1888243986e+000
 1.3093151438e+000	 2.2770768745e+000	-1.1683244312e+000
 1.2845377836e+000	 2.2911455956e+000	-1.1049247430e+000
 1.5418761456e+000	 2.1593537155e+000	-1.2977905243e+000
 1.5181047462e+000	 2.1761315537e+000	-1.2699091455e+000
 1.4941740811e+000	 2.1926318636e+000	-1.2442044196e+000
 1.4700889621e+000	 2.2088524828e+000	-1.2206872991e+000
 1.4458542371e+000	 2.2247913591e+000	-1.1993689574e+000
 1.4214747870e+000	 2.2404465509e+000	-1.1802651128e+000
 1.3969555230e+000	 2.2558162283e+000	-1.1633997061e+000
 1.3723013828e+000	 2.2708986727e+000	-1.1488079052e+000
 1.3475173282e+000	 2.2856922780e+000	-1.1365384189e+000
 1.3226083413e+000	 2.3001955503e+000	-1.1222177154e+000
 1.2975794217e+000	 2.3144071082e+000	-1.0687734726e+000
 1.5573731475e+000	 2.1810568261e+000	-1.2795961235e+000
 1.5333628279e+000	 2.1980032942e+000	-1.2533707925e+000
 1.5091916418e+000	 2.2146694445e+000	-1.2281703400e+000
 1.4848644494e+000	 2.2310530929e+000	-1.2038809522e+000
 1.4603861474e+000	 2.2471521667e+000	-1.1804028990e+000
 1.4357616657e+000	 2.2629647049e+000	-1.1576552801e+000
 1.4109959649e+000	 2.2784888589e+000	-1.1355800544e+000
 1.3860940323e+000	 2.2937228932e+000	-1.1141453237e+000
 1.3610608794e+000	 2.3086651852e+000	-1.0933478523e+000
 1.3359015387e+000	 2.3233142262e+000	-1.0732148075e+000
 1.3106210599e+000	 2.3376686208e+000	-1.0324920005e+000
 1.5728701494e+000	 2.2027599368e+000	-1.2660686799e+000
 1.5486209095e+000	 2.2198750346e+000	-1.2414308752e+000
 1.5242092025e+000	 2.2367070253e+000	-1.2168584802e+000
 1.4996399368e+000	 2.2532537030e+000	-1.1920730333e+000
 1.4749180577e+000	 2.2695129744e+000	-1.1668253464e+000
 1.4500485444e+000	 2.2854828589e+000	-1.1409007605e+000
 1.4250364067e+000	 2.3011614896e+000	-1.1141236071e+000
 1.3998866817e+000	 2.3165471136e+000	-1.0863608471e+000
 1.3746044307e+000	 2.3316380924e+000	-1.0575248657e+000
 1.3491947361e+000	 2.3464329021e+000	-1.0275754075e+000
 1.3236626980e+000	 2.3609301334e+000	-9.9250205889e-001
 1.5883671513e+000	 2.2244630475e+000	-1.2554276609e+000
 1.5638789912e+000	 2.2417467750e+000	-1.2322978809e+000
 1.5392267632e+000	 2.2587446061e+000	-1.2084737760e+000
 1.5144154241e+000	 2.2754543131e+000	-1.1834734433e+000
 1.4894499680e+000	 2.2918737821e+000	-1.1568607757e+000
 1.4643354232e+000	 2.3080010129e+000	-1.1282513123e+000
 1.4390768486e+000	 2.3238341203e+000	-1.0973172136e+000
 1.4136793311e+000	 2.3393713341e+000	-1.0637913307e+000
 1.3881479819e+000	 2.3546109996e+000	-1.0274703450e+000
 1.3624879335e+000	 2.3695515779e+000	-9.8821696091e-001
 1.3367043362e+000	 2.3841916460e+000	-9.4596114630e-001
 1.6038641532e+000	 2.2461661582e+000	-1.2460421970e+000
 1.5791370729e+000	 2.2636185155e+000	-1.2243297481e+000
 1.5542443239e+000	 2.2807821869e+000	-1.2013698162e+000
 1.5291909114e+000	 2.2976549232e+000	-1.1764392989e+000
 1.5039818783e+000	 2.3142345897e+000	-1.1488787495e+000
 1.4786223019e+000	 2.3305191669e+000	-1.1180989084e+000
 1.4531172905e+000	 2.3465067509e+000	-1.0835862738e+000
 1.4274719806e+000	 2.3621955545e+000	-1.0449076756e+000
 1.4016915332e+000	 2.3775839068e+000	-1.0017138291e+000
 1.3757811309e+000	 2.3926702538e+000	-9.5374184927e-001
 1.3497459743e+000	 2.4074531586e+000	-9.0081671831e-001
 1.6193611551e+000	 2.2678692689e+000	-1.2364291872e+000
 1.5943951545e+000	 2.2854902559e+000	-1.2160321004e+000
 1.5692618846e+000	 2.3028197677e+000	-1.1940472272e+000
 1.5439663988e+000	 2.3198555333e+000	-1.1694734915e+000
 1.5185137887e+000	 2.3365953974e+000	-1.1413926763e+000
 1.4929091806e+000	 2.3530373208e+000	-1.1089767244e+000
 1.4671577324e+000	 2.3691793816e+000	-1.0714939840e+000
 1.4412646300e+000	 2.3850197750e+000	-1.0283143636e+000
 1.4152350845e+000	 2.4005568140e+000	-9.7891336817e-001
 1.3890743283e+000	 2.4157889297e+000	-9.2287499742e-001
 1.3627876125e+000	 2.4307146712e+000	-8.5989349763e-001
 1.6348581571e+000	 2.2895723795e+000	-1.2252513982e+000
 1.6096532362e+000	 2.3073619963e+000	-1.2060564719e+000
 1.5842794452e+000	 2.3248573486e+000	-1.1851520455e+000
 1.5587418861e+000	 2.3420561434e+000	-1.1612232284e+000
 1.5330456990e+000	 2.3589562050e+000	-1.1330585456e+000
 1.5071960593e+000	 2.3755554748e+000	-1.0995580927e+000
 1.4811981742e+000	 2.3918520123e+000	-1.0597405389e+000
 1.4550572794e+000	 2.4078439955e+000	-1.0127489370e+000
 1.4287786357e+000	 2.4235297212e+000	-9.5785531137e-001
 1.4023675257e+000	 2.4389076055e+000	-8.9446400308e-001
 1.3758292506e+000	 2.4539761837e+000	-8.2211376163e-001
 1.6503551590e+000	 2.3112754902e+000	-1.2113155595e+000
 1.6249113179e+000	 2.3292337368e+000	-1.1931985251e+000
 1.5992970059e+000	 2.3468949294e+000	-1.1734740774e+000
 1.5735173734e+000	 2.3642567535e+000	-1.1504785574e+000
 1.5475776093e+000	 2.3813170127e+000	-1.1226736387e+000
 1.5214829380e+000	 2.3980736288e+000	-1.0886554254e+000
 1.4952386161e+000	 2.4145246430e+000	-1.0471622920e+000
 1.4688499289e+000	 2.4306682159e+000	-9.9708142433e-001
 1.4423221870e+000	 2.4465026284e+000	-9.3745402862e-001
 1.4156607231e+000	 2.4620262814e+000	-8.6747918535e-001
 1.3888708888e+000	 2.4772376963e+000	-7.8651633690e-001
 1.6658521609e+000	 2.3329786009e+000	-1.1935704533e+000
 1.6401693995e+000	 2.3511054772e+000	-1.1763962621e+000
 1.6143145666e+000	 2.3689325102e+000	-1.1579452497e+000
 1.5882928607e+000	 2.3864573637e+000	-1.1361708752e+000
 1.5621095196e+000	 2.4036778204e+000	-1.1091752186e+000
 1.5357698167e+000	 2.4205917828e+000	-1.0752191076e+000
 1.5092790580e+000	 2.4371972736e+000	-1.0327308774e+000
 1.4826425783e+000	 2.4534924364e+000	-9.8031371775e-001
 1.4558657382e+000	 2.4694755356e+000	-9.1675157092e-001
 1.4289539205e+000	 2.4851449573e+000	-8.4101355751e-001
 1.4019125270e+000	 2.5004992089e+000	-7.5225691551e-001
 1.2714961454e+000	 2.2678840830e+000	-1.1447122827e+000
 1.2468614399e+000	 2.2815208497e+000	-1.0644932478e+000
 1.2221190831e+000	 2.2948694778e+000	-1.0029699398e+000
 1.1972740064e+000	 2.3079289465e+000	-9.5593177844e-001
 1.1723311464e+000	 2.3206983446e+000	-9.1940467917e-001
 1.1472954414e+000	 2.3331768706e+000	-8.8965092455e-001
 1.1221718289e+000	 2.3453638315e+000	-8.6316783048e-001
 1.0969652426e+000	 2.3572586430e+000	-8.3668537257e-001
 1.0716806093e+000	 2.3688608284e+000	-8.0716293848e-001
 1.0463228464e+000	 2.3801700182e+000	-7.7178536966e-001
 1.0208968588e+000	 2.3911859489e+000	-7.2795845281e-001
 1.2845377836e+000	 2.2911455956e+000	-1.1049247430e+000
 1.2596504017e+000	 2.3049222336e+000	-1.0292172043e+000
 1.2346542645e+000	 2.3184077775e+000	-9.7111131562e-001
 1.2095543538e+000	 2.3316011962e+000	-9.2656778748e-001
 1.1843556568e+000	 2.3445015691e+000	-8.9178311417e-001
 1.1590631625e+000	 2.3571080863e+000	-8.6318784273e-001
 1.1336818591e+000	 2.3694200479e+000	-8.3744361860e-001
 1.1082167307e+000	 2.3814368636e+000	-8.1143918981e-001
 1.0826727548e+000	 2.3931580517e+000	-7.8228555085e-001
 1.0570548993e+000	 2.4045832390e+000	-7.4731040480e-001
 1.0313681194e+000	 2.4157121593e+000	-7.0405211861e-001
 1.2975794217e+000	 2.3144071082e+000	-1.0687734726e+000
 1.2724393636e+000	 2.3283236174e+000	-1.0001859088e+000
 1.2471894459e+000	 2.3419460772e+000	-9.4766360484e-001
 1.2218347012e+000	 2.3552734458e+000	-9.0740686519e-001
 1.1963801672e+000	 2.3683047935e+000	-8.7584881887e-001
 1.1708308836e+000	 2.3810393020e+000	-8.4965187636e-001
 1.1451918892e+000	 2.3934762643e+000	-8.2570295065e-001
 1.1194682188e+000	 2.4056150842e+000	-8.0110764137e-001
 1.0936649004e+000	 2.4174552750e+000	-7.7318357949e-001
 1.0677869523e+000	 2.4289964598e+000	-7.3945312754e-001
 1.0418393799e+000	 2.4402383696e+000	-6.9763562548e-001
 1.3106210599e+000	 2.3376686208e+000	-1.0324920005e+000
 1.2852283255e+000	 2.3517250013e+000	-9.7372912267e-001
 1.2597246273e+000	 2.3654843769e+000	-9.2900369561e-001
 1.2341150486e+000	 2.3789456955e+000	-8.9482395740e-001
 1.2084046776e+000	 2.3921080179e+000	-8.6792584453e-001
 1.1825986047e+000	 2.4049705176e+000	-8.4526741924e-001
 1.1567019193e+000	 2.4175324807e+000	-8.2402205380e-001
 1.1307197069e+000	 2.4297933047e+000	-8.0157058852e-001
 1.1046570460e+000	 2.4417524983e+000	-7.7549267864e-001
 1.0785190052e+000	 2.4534096806e+000	-7.4355754212e-001
 1.0523106405e+000	 2.4647645800e+000	-7.0371431520e-001
 1.3236626980e+000	 2.3609301334e+000	-9.9250205889e-001
 1.2980172874e+000	 2.3751263852e+000	-9.4634010347e-001
 1.2722598088e+000	 2.3890226766e+000	-9.1164868440e-001
 1.2463953960e+000	 2.4026179452e+000	-8.8531248354e-001
 1.2204291880e+000	 2.4159112423e+000	-8.6443666695e-001
 1.1943663258e+000	 2.4289017333e+000	-8.4633905736e-001
 1.1682119494e+000	 2.4415886971e+000	-8.2854106108e-001
 1.1419711950e+000	 2.4539715253e+000	-8.0875758538e-001
 1.1156491916e+000	 2.4660497216e+000	-7.8488618040e-001
 1.0892510582e+000	 2.4778229014e+000	-7.5499563591e-001
 1.0627819010e+000	 2.4892907903e+000	-7.1731425713e-001
 1.3367043362e+000	 2.3841916460e+000	-9.4596114630e-001
 1.3108062492e+000	 2.3985277690e+000	-9.1470098115e-001
 1.2847949902e+000	 2.4125609764e+000	-8.9228087219e-001
 1.2586757434e+000	 2.4262901949e+000	-8.7550884576e-001
 1.2324536984e+000	 2.4397144667e+000	-8.6192610032e-001
 1.2061340469e+000	 2.4528329490e+000	-8.4927477827e-001
 1.1797219796e+000	 2.4656449135e+000	-8.3548640610e-001
 1.1532226831e+000	 2.4781497459e+000	-8.1866934788e-001
 1.1266413371e+000	 2.4903469449e+000	-7.9709552639e-001
 1.0999831111e+000	 2.5022361221e+000	-7.6918666131e-001
 1.0732531616e+000	 2.5138170006e+000	-7.3350026756e-001
 1.3497459743e+000	 2.4074531586e+000	-9.0081671831e-001
 1.3235952111e+000	 2.4219291529e+000	-8.7570799434e-001
 1.2973301716e+000	 2.4360992761e+000	-8.6777260576e-001
 1.2709560908e+000	 2.4499624445e+000	-8.6221677380e-001
 1.2444782088e+000	 2.4635176911e+000	-8.5708504316e-001
 1.2179017679e+000	 2.4767641647e+000	-8.5060901461e-001
 1.1912320097e+000	 2.4897011299e+000	-8.4119305992e-001
 1.1644741712e+000	 2.5023279664e+000	-8.2739907914e-001
 1.1376334827e+000	 2.5146441682e+000	-8.0793057587e-001
 1.1107151641e+000	 2.5266493429e+000	-7.8161632062e-001
 1.0837244221e+000	 2.5383432110e+000	-7.4739386483e-001
 1.3627876125e+000	 2.4307146712e+000	-8.5989349763e-001
 1.3363841730e+000	 2.4453305367e+000	-8.2696248507e-001
 1.3098653530e+000	 2.4596375758e+000	-8.3521097418e-001
 1.2832364381e+000	 2.4736346942e+000	-8.4243151667e-001
 1.2565027191e+000	 2.4873209155e+000	-8.4677406778e-001
 1.2296694890e+000	 2.5006953804e+000	-8.4702553321e-001
 1.2027420398e+000	 2.5137573464e+000	-8.4212662097e-001
 1.1757256594e+000	 2.5265061870e+000	-8.3115366070e-001
 1.1486256283e+000	 2.5389413915e+000	-8.1329979862e-001
 1.1214472170e+000	 2.5510625637e+000	-7.8785586028e-001
 1.0941956827e+000	 2.5628694213e+000	-7.5419116450e-001
 1.3758292506e+000	 2.4539761837e+000	-8.2211376163e-001
 1.3491731349e+000	 2.4687319206e+000	-7.7718581333e-001
 1.3224005345e+000	 2.4831758755e+000	-7.9192237031e-001
 1.2955167855e+000	 2.4973069439e+000	-8.1336389121e-001
 1.2685272295e+000	 2.5111241399e+000	-8.2804686346e-001
 1.2414372101e+000	 2.5246265961e+000	-8.3538017974e-001
 1.2142520700e+000	 2.5378135628e+000	-8.3490526752e-001
 1.1869771475e+000	 2.5506844076e+000	-8.2627471872e-001
 1.1596177739e+000	 2.5632386148e+000	-8.0923036024e-001
 1.1321792700e+000	 2.5754757845e+000	-7.8358108060e-001
 1.1046669432e+000	 2.5873956317e+000	-7.4918071845e-001
 1.3888708888e+000	 2.4772376963e+000	-7.8651633690e-001
 1.3619620967e+000	 2.4921333044e+000	-7.2993405866e-001
 1.3349357159e+000	 2.5067141752e+000	-7.3563727061e-001
 1.3077971329e+000	 2.5209791935e+000	-7.7246419701e-001
 1.2805517399e+000	 2.5349273643e+000	-7.9817354314e-001
 1.2532049312e+000	 2.5485578118e+000	-8.1272348865e-001
 1.2257621001e+000	 2.5618697792e+000	-8.1632158187e-001
 1.1982286356e+000	 2.5748626282e+000	-8.0925957320e-001
 1.1706099194e+000	 2.5875358381e+000	-7.9188810694e-001
 1.1429113229e+000	 2.5998890053e+000	-7.6459126641e-001
 1.1151382038e+000	 2.6119218420e+000	-7.2776130177e-001
 1.4019125270e+000	 2.5004992089e+000	-7.5225691551e-001
 1.3747510586e+000	 2.5155346883e+000	-6.8441164471e-001
 1.3474708973e+000	 2.5302524749e+000	-6.7460172575e-001
 1.3200774803e+000	 2.5446514432e+000	-7.1744600640e-001
 1.2925762503e+000	 2.5587305887e+000	-7.5466382231e-001
 1.2649726523e+000	 2.5724890275e+000	-7.7632316693e-001
 1.2372721302e+000	 2.5859259956e+000	-7.8336425455e-001
 1.2094801237e+000	 2.5990408487e+000	-7.7678207789e-001
 1.1816020650e+000	 2.6118330614e+000	-7.5759745635e-001
 1.1536433759e+000	 2.6243022261e+000	-7.2682804389e-001
 1.1256094643e+000	 2.6364480523e+000	-6.8545965063e-001
 1.0208968588e+000	 2.3911859489e+000	-7.2795845281e-001
 9.9540370841e-001	 2.4019100494e+000	-6.7968621863e-001
 9.6985207964e-001	 2.4123405929e+000	-6.3197431491e-001
 9.4424682737e-001	 2.4224776311e+000	-5.8410264560e-001
 9.1859278331e-001	 2.4323213176e+000	-5.3548010743e-001
 8.9289475342e-001	 2.4418719075e+000	-4.8565669559e-001
 8.6715751542e-001	 2.4511297553e+000	-4.3431781472e-001
 8.4138581636e-001	 2.4600953141e+000	-3.8127906253e-001
 8.1558437022e-001	 2.4687691339e+000	-3.2648157562e-001
 7.8975785560e-001	 2.4771518603e+000	-2.6998801491e-001
 7.6391091347e-001	 2.4852442329e+000	-2.1197925520e-001
 1.0313681194e+000	 2.4157121593e+000	-7.0405211861e-001
 1.0056134877e+000	 2.4265462560e+000	-6.5621960196e-001
 9.7979977781e-001	 2.4370837848e+000	-6.0851894238e-001
 9.5393189444e-001	 2.4473247978e+000	-5.6032292068e-001
 9.2801471883e-001	 2.4572694503e+000	-5.1111757128e-001
 9.0205310622e-001	 2.4669179998e+000	-4.6051117318e-001
 8.7605188335e-001	 2.4762708047e+000	-4.0822756100e-001
 8.5001584595e-001	 2.4853283225e+000	-3.5410003397e-001
 8.2394975636e-001	 2.4940911090e+000	-2.9806595922e-001
 7.9785834117e-001	 2.5025598164e+000	-2.4016215249e-001
 7.7174628894e-001	 2.5107351918e+000	-1.8052110525e-001
 1.0418393799e+000	 2.4402383696e+000	-6.9763562548e-001
 1.0158232669e+000	 2.4511824626e+000	-6.5116063437e-001
 9.8974747599e-001	 2.4618269767e+000	-6.0448336943e-001
 9.6361696152e-001	 2.4721719645e+000	-5.5698832633e-001
 9.3743665434e-001	 2.4822175829e+000	-5.0823723263e-001
 9.1121145902e-001	 2.4919640921e+000	-4.5787607359e-001
 8.8494625128e-001	 2.5014118540e+000	-4.0564709366e-001
 8.5864587555e-001	 2.5105613309e+000	-3.5138174942e-001
 8.3231514251e-001	 2.5194130841e+000	-2.9499449505e-001
 8.0595882675e-001	 2.5279677725e+000	-2.3647748949e-001
 7.7958166442e-001	 2.5362261507e+000	-1.7589629916e-001
 1.0523106405e+000	 2.4647645800e+000	-7.0371431520e-001
 1.0260330462e+000	 2.4758186692e+000	-6.5921644211e-001
 9.9969517417e-001	 2.4865701686e+000	-6.1423884123e-001
 9.7330202859e-001	 2.4970191312e+000	-5.6822381667e-001
 9.4685858986e-001	 2.5071657156e+000	-5.2076767557e-001
 9.2036981182e-001	 2.5170101845e+000	-4.7153546979e-001
 8.9384061921e-001	 2.5265529034e+000	-4.2026966453e-001
 8.6727590514e-001	 2.5357943393e+000	-3.6678204786e-001
 8.4068052866e-001	 2.5447350592e+000	-3.1094661742e-001
 8.1405931232e-001	 2.5533757285e+000	-2.5269354007e-001
 7.8741703990e-001	 2.5617171096e+000	-1.9200426381e-001
 1.0627819010e+000	 2.4892907903e+000	-7.1731425713e-001
 1.0362428255e+000	 2.5004548758e+000	-6.7504461360e-001
 1.0096428723e+000	 2.5113133605e+000	-6.3216339928e-001
 9.8298709567e-001	 2.5218662979e+000	-5.8815279233e-001
 9.5628052538e-001	 2.5321138482e+000	-5.4262671468e-001
 9.2952816462e-001	 2.5420562768e+000	-4.9525262498e-001
 9.0273498714e-001	 2.5516939527e+000	-4.4575689241e-001
 8.7590593474e-001	 2.5610273477e+000	-3.9391556904e-001
 8.4904591481e-001	 2.5700570343e+000	-3.3954629098e-001
 8.2215979789e-001	 2.5787836846e+000	-2.8250141143e-001
 7.9525241537e-001	 2.5872080686e+000	-2.2266245050e-001
 1.0732531616e+000	 2.5138170006e+000	-7.3350026756e-001
 1.0464526048e+000	 2.5250910825e+000	-6.9335577005e-001
 1.0195905705e+000	 2.5360565524e+000	-6.5263806438e-001
 9.9267216274e-001	 2.5467134646e+000	-6.1091144536e-001
 9.6570246090e-001	 2.5570619809e+000	-5.6773464866e-001
 9.3868651742e-001	 2.5671023691e+000	-5.2278222652e-001
 9.1162935507e-001	 2.5768350021e+000	-4.7575005148e-001
 8.8453596434e-001	 2.5862603561e+000	-4.2636417304e-001
 8.5741130095e-001	 2.5953790094e+000	-3.7437164066e-001
 8.3026028347e-001	 2.6041916407e+000	-3.1953272545e-001
 8.0308779085e-001	 2.6126990275e+000	-2.6161463188e-001
 1.0837244221e+000	 2.5383432110e+000	-7.4739386483e-001
 1.0566623840e+000	 2.5497272891e+000	-7.0890820279e-001
 1.0295382687e+000	 2.5607997443e+000	-6.7014180571e-001
 1.0023572298e+000	 2.5715606314e+000	-6.3066313148e-001
 9.7512439641e-001	 2.5820101135e+000	-5.9002756460e-001
 9.4784487023e-001	 2.5921484614e+000	-5.4788268986e-001
 9.2052372300e-001	 2.6019760514e+000	-5.0388144500e-001
 8.9316599393e-001	 2.6114933645e+000	-4.5768745651e-001
 8.6577668710e-001	 2.6207009845e+000	-4.0896468539e-001
 8.3836076904e-001	 2.6295995968e+000	-3.5736864730e-001
 8.1092316632e-001	 2.6381899864e+000	-3.0253930500e-001
 1.0941956827e+000	 2.5628694213e+000	-7.5419116450e-001
 1.0668721633e+000	 2.5743634957e+000	-7.1652454582e-001
 1.0394859669e+000	 2.5855429362e+000	-6.7914443436e-001
 1.0120422969e+000	 2.5964077981e+000	-6.4159148023e-001
 9.8454633193e-001	 2.6069582462e+000	-6.0347068961e-001
 9.5700322303e-001	 2.6171945537e+000	-5.6432852765e-001
 9.2941809093e-001	 2.6271171008e+000	-5.2378585861e-001
 9.0179602353e-001	 2.6367263729e+000	-4.8143335900e-001
 8.7414207325e-001	 2.6460229596e+000	-4.3684116883e-001
 8.4646125462e-001	 2.6550075528e+000	-3.8954901401e-001
 8.1875854180e-001	 2.6636809453e+000	-3.3905819311e-001
 1.1046669432e+000	 2.5873956317e+000	-7.4918071845e-001
 1.0770819426e+000	 2.5989997023e+000	-7.1110842221e-001
 1.0494336651e+000	 2.6102861281e+000	-6.7420623018e-001
 1.0217273640e+000	 2.6212549648e+000	-6.3800232867e-001
 9.9396826745e-001	 2.6319063788e+000	-6.0207178651e-001
 9.6616157583e-001	 2.6422406460e+000	-5.6592277985e-001
 9.3831245886e-001	 2.6522581501e+000	-5.2911208784e-001
 9.1042605312e-001	 2.6619593813e+000	-4.9114885349e-001
 8.8250745940e-001	 2.6713449347e+000	-4.5118833512e-001
 8.5456174019e-001	 2.6804155089e+000	-4.0688491451e-001
 8.2659391728e-001	 2.6891719043e+000	-3.5761244479e-001
 1.1151382038e+000	 2.6119218420e+000	-7.2776130177e-001
 1.0872917218e+000	 2.6236359089e+000	-6.8766106605e-001
 1.0593813632e+000	 2.6350293200e+000	-6.4997180066e-001
 1.0314124310e+000	 2.6461021315e+000	-6.1420319485e-001
 1.0033902030e+000	 2.6568545115e+000	-5.7989459087e-001
 9.7531992863e-001	 2.6672867384e+000	-5.4650480793e-001
 9.4720682680e-001	 2.6773991995e+000	-5.1195962058e-001
 9.1905608272e-001	 2.6871923897e+000	-4.7457941301e-001
 8.9087284554e-001	 2.6966669098e+000	-4.3398499998e-001
 8.6266222576e-001	 2.7058234650e+000	-3.8978591591e-001
 8.3442929275e-001	 2.7146628632e+000	-3.4157475149e-001
 1.1256094643e+000	 2.6364480523e+000	-6.8545965063e-001
 1.0975015011e+000	 2.6482721155e+000	-6.4129792158e-001
 1.0693290614e+000	 2.6597725119e+000	-6.0118558826e-001
 1.0410974981e+000	 2.6709492982e+000	-5.6438897882e-001
 1.0128121385e+000	 2.6818026442e+000	-5.2819777382e-001
 9.8447828143e-001	 2.6923328307e+000	-4.9161508219e-001
 9.5610119473e-001	 2.7025402488e+000	-4.5414294933e-001
 9.2768611232e-001	 2.7124253981e+000	-4.1534547030e-001
 8.9923823169e-001	 2.7219888849e+000	-3.7475134579e-001
 8.7076271134e-001	 2.7312314211e+000	-3.3186821978e-001
 8.4226466823e-001	 2.7401538221e+000	-2.8617664631e-001
 7.6391091347e-001	 2.4852442329e+000	-2.1197925520e-001
 7.3804814458e-001	 2.4930470830e+000	-1.6057391954e-001
 7.1217410630e-001	 2.5005613302e+000	-1.2396214525e-001
 6.8629331174e-001	 2.5077879826e+000	-1.0259716577e-001
 6.6041022809e-001	 2.5147281355e+000	-9.6279112044e-002
 6.3452927478e-001	 2.5213829698e+000	-8.8477760256e-002
 6.0865482159e-001	 2.5277537500e+000	-7.3835387000e-002
 5.8279118688e-001	 2.5338418223e+000	-5.4436613449e-002
 5.5694263593e-001	 2.5396486130e+000	-3.2316317178e-002
 5.3111337925e-001	 2.5451756263e+000	-9.4814542585e-003
 5.0530757112e-001	 2.5504244421e+000	 1.2062453326e-002
 7.7174628894e-001	 2.5107351918e+000	-1.8052110525e-001
 7.4561824762e-001	 2.5186180751e+000	-1.2720930723e-001
 7.1947882133e-001	 2.5262093954e+000	-8.8674230952e-002
 6.9333256944e-001	 2.5335101711e+000	-6.5744252489e-002
 6.6718400500e-001	 2.5405215086e+000	-5.9320549220e-002
 6.4103759274e-001	 2.5472446010e+000	-5.7315584735e-002
 6.1489774727e-001	 2.5536807257e+000	-4.7435875308e-002
 5.8876883126e-001	 2.5598312430e+000	-3.1740102401e-002
 5.6265515370e-001	 2.5656975935e+000	-1.2175743206e-002
 5.3656096833e-001	 2.5712812969e+000	 9.3992733802e-003
 5.1049047200e-001	 2.5765839494e+000	 3.1185057600e-002
 7.7958166442e-001	 2.5362261507e+000	-1.7589629916e-001
 7.5318835067e-001	 2.5441890673e+000	-1.2120738746e-001
 7.2678353635e-001	 2.5518574606e+000	-8.1032681774e-002
 7.0037182715e-001	 2.5592323595e+000	-5.6519508685e-002
 6.7395778190e-001	 2.5663148816e+000	-4.8855734974e-002
 6.4754591070e-001	 2.5731062321e+000	-5.1617307774e-002
 6.2114067296e-001	 2.5796077015e+000	-4.6105124002e-002
 5.9474647563e-001	 2.5858206636e+000	-3.3151367750e-002
 5.6836767148e-001	 2.5917465740e+000	-1.4513574333e-002
 5.4200855740e-001	 2.5973869675e+000	 8.2051914496e-003
 5.1567337289e-001	 2.6027434567e+000	 3.3519354397e-002
 7.8741703990e-001	 2.5617171096e+000	-1.9200426381e-001
 7.6075845371e-001	 2.5697600595e+000	-1.3665745124e-001
 7.3408825138e-001	 2.5775055259e+000	-9.5357375875e-002
 7.0741108485e-001	 2.5849545479e+000	-6.9516254554e-002
 6.8073155881e-001	 2.5921082547e+000	-6.0554027459e-002
 6.5405422866e-001	 2.5989678633e+000	-6.6400119505e-002
 6.2738359864e-001	 2.6055346773e+000	-6.5300489405e-002
 6.0072412000e-001	 2.6118100843e+000	-5.4642265846e-002
 5.7408018925e-001	 2.6177955544e+000	-3.5889240747e-002
 5.4745614648e-001	 2.6234926381e+000	-1.0282174424e-002
 5.2085627378e-001	 2.6289029640e+000	 2.1118283214e-002
 7.9525241537e-001	 2.5872080686e+000	-2.2266245050e-001
 7.6832855676e-001	 2.5953310516e+000	-1.6755308507e-001
 7.4139296640e-001	 2.6031535911e+000	-1.2585903591e-001
 7.1445034256e-001	 2.6106767363e+000	-9.9205464397e-002
 6.8750533572e-001	 2.6179016277e+000	-8.9191746887e-002
 6.6056254662e-001	 2.6248294945e+000	-9.6529900803e-002
 6.3362652433e-001	 2.6314616530e+000	-1.0030386235e-001
 6.0670176438e-001	 2.6377995049e+000	-9.1987022512e-002
 5.7979270703e-001	 2.6438445349e+000	-7.2644255335e-002
 5.5290373556e-001	 2.6495983087e+000	-4.3044849785e-002
 5.2603917466e-001	 2.6550624713e+000	-3.7118588177e-003
 8.0308779085e-001	 2.6126990275e+000	-2.6161463188e-001
 7.7589865980e-001	 2.6209020438e+000	-2.0779990771e-001
 7.4869768143e-001	 2.6288016563e+000	-1.6664645199e-001
 7.2148960026e-001	 2.6363989248e+000	-1.3994252644e-001
 6.9427911263e-001	 2.6436950007e+000	-1.2941626934e-001
 6.6707086458e-001	 2.6506911256e+000	-1.3673565262e-001
 6.3986945001e-001	 2.6573886288e+000	-1.4623189650e-001
 6.1267940875e-001	 2.6637889256e+000	-1.4077170465e-001
 5.8550522480e-001	 2.6698935154e+000	-1.2084973694e-001
 5.5835132463e-001	 2.6757039793e+000	-8.6523133968e-002
 5.3122207555e-001	 2.6812219787e+000	-3.8142030627e-002
 8.1092316632e-001	 2.6381899864e+000	-3.0253930500e-001
 7.8346876285e-001	 2.6464730359e+000	-2.5122340888e-001
 7.5600239645e-001	 2.6544497215e+000	-2.1173380072e-001
 7.2852885797e-001	 2.6621211132e+000	-1.8597409067e-001
 7.0105288954e-001	 2.6694883738e+000	-1.7565909722e-001
 6.7357918254e-001	 2.6765527568e+000	-1.8171388942e-001
 6.4611237570e-001	 2.6833156046e+000	-1.9533143197e-001
 6.1865705312e-001	 2.6897783462e+000	-1.9189324251e-001
 5.9121774258e-001	 2.6959424958e+000	-1.7077740941e-001
 5.6379891371e-001	 2.7018096500e+000	-1.3219552605e-001
 5.3640497644e-001	 2.7073814860e+000	-7.6091079170e-002
 8.1875854180e-001	 2.6636809453e+000	-3.3905819311e-001
 7.9103886589e-001	 2.6720440281e+000	-2.9117513161e-001
 7.6330711148e-001	 2.6800977867e+000	-2.5261472457e-001
 7.3556811568e-001	 2.6878433016e+000	-2.2566395856e-001
 7.0782666644e-001	 2.6952817468e+000	-2.1265512923e-001
 6.8008750051e-001	 2.7024143880e+000	-2.1582995293e-001
 6.5235530138e-001	 2.7092425803e+000	-2.3195868550e-001
 6.2463469750e-001	 2.7157677669e+000	-2.3229323949e-001
 5.9693026035e-001	 2.7219914763e+000	-2.1229778415e-001
 5.6924650279e-001	 2.7279153206e+000	-1.7170578086e-001
 5.4158787733e-001	 2.7335409933e+000	-1.0996797417e-001
 8.2659391728e-001	 2.6891719043e+000	-3.5761244479e-001
 7.9860896894e-001	 2.6976150202e+000	-3.0933638257e-001
 7.7061182650e-001	 2.7057458519e+000	-2.6996350552e-001
 7.4260737338e-001	 2.7135654900e+000	-2.4201738179e-001
 7.1460044335e-001	 2.7210751199e+000	-2.2790805149e-001
 6.8659581847e-001	 2.7282760191e+000	-2.2992750010e-001
 6.5859822707e-001	 2.7351695561e+000	-2.4846411090e-001
 6.3061234187e-001	 2.7417571876e+000	-2.5490777922e-001
 6.0264277813e-001	 2.7480404567e+000	-2.3828220726e-001
 5.7469409187e-001	 2.7540209912e+000	-1.9782429053e-001
 5.4677077822e-001	 2.7597005006e+000	-1.3247631069e-001
 8.3442929275e-001	 2.7146628632e+000	-3.4157475149e-001
 8.0617907199e-001	 2.7231860124e+000	-2.9461208081e-001
 7.7791654153e-001	 2.7313939171e+000	-2.5623913757e-001
 7.4964663109e-001	 2.7392876785e+000	-2.2905257457e-001
 7.2137422026e-001	 2.7468684929e+000	-2.1550945980e-001
 6.9310413643e-001	 2.7541376503e+000	-2.1792217974e-001
 6.6484115276e-001	 2.7610965319e+000	-2.3835734706e-001
 6.3658998625e-001	 2.7677466082e+000	-2.5307596862e-001
 6.0835529590e-001	 2.7740894372e+000	-2.4192289592e-001
 5.8014168094e-001	 2.7801266618e+000	-2.0362417981e-001
 5.5195367911e-001	 2.7858600079e+000	-1.3660219419e-001
 8.4226466823e-001	 2.7401538221e+000	-2.8617664631e-001
 8.1374917503e-001	 2.7487570045e+000	-2.4211230771e-001
 7.8522125655e-001	 2.7570419823e+000	-2.0631264881e-001
 7.5668588880e-001	 2.7650098669e+000	-1.8141754305e-001
 7.2814799717e-001	 2.7726618660e+000	-1.6990208415e-001
 6.9961245439e-001	 2.7799992815e+000	-1.7407092988e-001
 6.7108407844e-001	 2.7870235076e+000	-1.9605366092e-001
 6.4256763062e-001	 2.7937360289e+000	-2.2046942069e-001
 6.1406781368e-001	 2.8001384177e+000	-2.1672937440e-001
 5.8558927002e-001	 2.8062323324e+000	-1.8247851618e-001
 5.5713657999e-001	 2.8120195152e+000	-1.1561222279e-001
 5.0530757112e-001	 2.5504244421e+000	 1.2062453326e-002
 4.7953317130e-001	 2.5553959897e+000	 3.2282667580e-002
 4.5379033791e-001	 2.5600928041e+000	 5.2285314237e-002
 4.2808304028e-001	 2.5645166823e+000	 7.1539802525e-002
 4.0241518616e-001	 2.5686694892e+000	 8.9208477115e-002
 3.7679062058e-001	 2.5725531550e+000	 1.0410750007e-001
 3.5121312474e-001	 2.5761696735e+000	 1.1466713957e-001
 3.2568641496e-001	 2.5795211000e+000	 1.1889205959e-001
 3.0021414174e-001	 2.5826095490e+000	 1.1432218287e-001
 2.7479988887e-001	 2.5854371919e+000	 9.7994674291e-002
 2.4944717263e-001	 2.5880062554e+000	 6.6407562665e-002
 5.1049047200e-001	 2.5765839494e+000	 3.1185057600e-002
 4.8445170615e-001	 2.5816064898e+000	 5.1472664761e-002
 4.5844483050e-001	 2.5863514790e+000	 6.9723835243e-002
 4.3247385509e-001	 2.5908207327e+000	 8.5715470645e-002
 4.0654272777e-001	 2.5950161345e+000	 9.8933294243e-002
 3.8065533300e-001	 2.5989396348e+000	 1.0852689221e-001
 3.5481549075e-001	 2.6025932477e+000	 1.1326408070e-001
 3.2902695547e-001	 2.6059790495e+000	 1.1148524214e-001
 3.0329341510e-001	 2.6090991765e+000	 1.0105825079e-001
 2.7761849019e-001	 2.6119558223e+000	 7.9334580181e-002
 2.5200573309e-001	 2.6145512364e+000	 4.3107154472e-002
 5.1567337289e-001	 2.6027434567e+000	 3.3519354397e-002
 4.8937024100e-001	 2.6078169899e+000	 5.7927159264e-002
 4.6309932309e-001	 2.6126101540e+000	 7.9097946342e-002
 4.3686466991e-001	 2.6171247830e+000	 9.7180594723e-002
 4.1067026938e-001	 2.6213627799e+000	 1.1205199134e-001
 3.8452004541e-001	 2.6253261146e+000	 1.2326575122e-001
 3.5841785675e-001	 2.6290168219e+000	 1.3000017584e-001
 3.3236749597e-001	 2.6324369990e+000	 1.3100614499e-001
 3.0637268845e-001	 2.6355888040e+000	 1.2455561276e-001
 2.8043709151e-001	 2.6384744527e+000	 1.0839134894e-001
 2.5456429355e-001	 2.6410962175e+000	 7.9678534175e-002
 5.2085627378e-001	 2.6289029640e+000	 2.1118283214e-002
 4.9428877585e-001	 2.6340274900e+000	 5.2926037651e-002
 4.6775381568e-001	 2.6388688289e+000	 8.0896114934e-002
 4.4125548472e-001	 2.6434288333e+000	 1.0561805301e-001
 4.1479781099e-001	 2.6477094252e+000	 1.2743207176e-001
 3.8838475782e-001	 2.6517125944e+000	 1.4637096934e-001
 3.6202022276e-001	 2.6554403960e+000	 1.6210116156e-001
 3.3570803648e-001	 2.6588949485e+000	 1.7386361494e-001
 3.0945196181e-001	 2.6620784314e+000	 1.8041539766e-001
 2.8325569283e-001	 2.6649930831e+000	 1.7997254131e-001
 2.5712285401e-001	 2.6676411986e+000	 1.7009593486e-001
 5.2603917466e-001	 2.6550624713e+000	-3.7118588177e-003
 4.9920731071e-001	 2.6602379901e+000	 3.8017074132e-002
 4.7240830827e-001	 2.6651275039e+000	 7.5886066099e-002
 4.4564629954e-001	 2.6697328837e+000	 1.1089488843e-001
 4.1892535260e-001	 2.6740560706e+000	 1.4335430509e-001
 3.9224947023e-001	 2.6780990742e+000	 1.7332725223e-001
 3.6562258876e-001	 2.6818639702e+000	 2.0053289696e-001
 3.3904857699e-001	 2.6853528980e+000	 2.2428248277e-001
 3.1253123517e-001	 2.6885680589e+000	 2.4343488673e-001
 2.8607429415e-001	 2.6915117135e+000	 2.5635453622e-001
 2.5968141448e-001	 2.6941861797e+000	 2.6087138231e-001
 5.3122207555e-001	 2.6812219787e+000	-3.8142030627e-002
 5.0412584556e-001	 2.6864484902e+000	 1.4340738234e-002
 4.7706280086e-001	 2.6913861789e+000	 6.1892297495e-002
 4.5003711435e-001	 2.6960369340e+000	 1.0544742718e-001
 4.2305289421e-001	 2.7004027160e+000	 1.4569870215e-001
 3.9611418264e-001	 2.7044855541e+000	 1.8304468260e-001
 3.6922495477e-001	 2.7082875444e+000	 2.1754148134e-001
 3.4238911749e-001	 2.7118108475e+000	 2.4885733034e-001
 3.1561050853e-001	 2.7150576864e+000	 2.7622978146e-001
 2.8889289548e-001	 2.7180303439e+000	 2.9842519130e-001
 2.6223997494e-001	 2.7207311608e+000	 3.1370015885e-001
 5.3640497644e-001	 2.7073814860e+000	-7.6091079170e-002
 5.0904438041e-001	 2.7126589902e+000	-1.4776913491e-002
 4.8171729345e-001	 2.7176448538e+000	 4.0199435751e-002
 4.5442792917e-001	 2.7223409843e+000	 9.0033362978e-002
 4.2718043582e-001	 2.7267493613e+000	 1.3569382420e-001
 3.9997889506e-001	 2.7308720339e+000	 1.7787351700e-001
 3.7282732077e-001	 2.7347111186e+000	 2.1694245630e-001
 3.4572965800e-001	 2.7382687970e+000	 2.5290453187e-001
 3.1868978189e-001	 2.7415473139e+000	 2.8535664756e-001
 2.9171149680e-001	 2.7445489743e+000	 3.1345005970e-001
 2.6479853540e-001	 2.7472761419e+000	 3.3585355263e-001
 5.4158787733e-001	 2.7335409933e+000	-1.0996797417e-001
 5.1396291526e-001	 2.7388694903e+000	-4.1861233257e-002
 4.8637178604e-001	 2.7439035288e+000	 1.8415675133e-002
 4.5881874398e-001	 2.7486450347e+000	 7.2289301531e-002
 4.3130797743e-001	 2.7530960067e+000	 1.2097624362e-001
 4.0384360747e-001	 2.7572585137e+000	 1.6543564752e-001
 3.7642968678e-001	 2.7611346927e+000	 2.0632512032e-001
 3.4907019851e-001	 2.7647267465e+000	 2.4395960108e-001
 3.2176905525e-001	 2.7680369414e+000	 2.7827275309e-001
 2.9453009812e-001	 2.7710676047e+000	 3.0878046006e-001
 2.6735709587e-001	 2.7738211230e+000	 3.3454603158e-001
 5.4677077822e-001	 2.7597005006e+000	-1.3247631069e-001
 5.1888145011e-001	 2.7650799904e+000	-5.9568816373e-002
 4.9102627863e-001	 2.7701622037e+000	 3.9267226258e-003
 4.6320955880e-001	 2.7749490850e+000	 5.9635303368e-002
 4.3543551904e-001	 2.7794426520e+000	 1.0898910019e-001
 4.0770831988e-001	 2.7836449935e+000	 1.5318263963e-001
 3.8003205278e-001	 2.7875582669e+000	 1.9313139863e-001
 3.5241073901e-001	 2.7911846960e+000	 2.2943333179e-001
 3.2484832861e-001	 2.7945265689e+000	 2.6233285110e-001
 2.9734869945e-001	 2.7975862351e+000	 2.9168680374e-001
 2.6991565633e-001	 2.8003661041e+000	 3.1693201875e-001
 5.5195367911e-001	 2.7858600079e+000	-1.3660219419e-001
 5.2379998497e-001	 2.7912904905e+000	-6.0817250130e-002
 4.9568077122e-001	 2.7964208787e+000	 3.8792904308e-003
 4.6760037362e-001	 2.8012531354e+000	 5.9274770922e-002
 4.3956306065e-001	 2.8057892974e+000	 1.0698140893e-001
 4.1157303229e-001	 2.8100314733e+000	 1.4839451839e-001
 3.8363441879e-001	 2.8139818411e+000	 1.8465416344e-001
 3.5575127952e-001	 2.8176426455e+000	 2.1660970569e-001
 3.2792760197e-001	 2.8210161963e+000	 2.4478672646e-001
 3.0016730077e-001	 2.8241048655e+000	 2.6935583027e-001
 2.7247421679e-001	 2.8269110851e+000	 2.9010286352e-001
 5.5713657999e-001	 2.8120195152e+000	-1.1561222279e-001
 5.2871851982e-001	 2.8175009906e+000	-3.8783837123e-002
 5.0033526381e-001	 2.8226795537e+000	 2.5181692959e-002
 4.7199118843e-001	 2.8275571857e+000	 7.8194425599e-002
 4.4369060226e-001	 2.8321359428e+000	 1.2200747531e-001
 4.1543774471e-001	 2.8364179532e+000	 1.5817867796e-001
 3.8723678479e-001	 2.8404054153e+000	 1.8803569206e-001
 3.5909182003e-001	 2.8441005950e+000	 2.1264395139e-001
 3.3100687533e-001	 2.8475058238e+000	 2.3277690606e-001
 3.0298590209e-001	 2.8506234959e+000	 2.4888801658e-001
 2.7503277725e-001	 2.8534560662e+000	 2.6108399570e-001
 2.4944717263e-001	 2.5880062554e+000	 6.6407562665e-002
 2.2415566136e-001	 2.5903193466e+000	 3.1588665952e-002
 1.9893258713e-001	 2.5923783926e+000	 7.0499657943e-003
 1.7378131182e-001	 2.5941857736e+000	-9.5197973392e-003
 1.4870512563e-001	 2.5957439165e+000	-2.1241905793e-002
 1.2370724665e-001	 2.5970552924e+000	-3.2069938719e-002
 9.8790820418e-002	 2.5981224149e+000	-4.6807787729e-002
 7.3958919674e-002	 2.5989478376e+000	-7.1123165855e-002
 4.9214544039e-002	 2.5995341519e+000	-1.1155640398e-001
 2.4560619845e-002	 2.5998839856e+000	-1.7552437131e-001
 0.0000000000e+000	 2.6000000000e+000	-2.7131941682e-001
 2.5200573309e-001	 2.6145512364e+000	 4.3107154472e-002
 2.2645480873e-001	 2.6168880529e+000	 3.4816903555e-003
 2.0097302338e-001	 2.6189682184e+000	-2.6802247924e-002
 1.7556377337e-001	 2.6207941375e+000	-4.9592708917e-002
 1.5023038267e-001	 2.6223682622e+000	-6.7600335984e-002
 1.2497610236e-001	 2.6236930888e+000	-8.4425456424e-002
 9.9804110264e-002	 2.6247711567e+000	-1.0458057286e-001
 7.4717510624e-002	 2.6256050456e+000	-1.3350798432e-001
 4.9719333832e-002	 2.6261973738e+000	-1.7759231020e-001
 2.4812536234e-002	 2.6265507956e+000	-2.4416773571e-001
 0.0000000000e+000	 2.6266680000e+000	-3.4151986045e-001
 2.5456429355e-001	 2.6410962175e+000	 7.9678534175e-002
 2.2875395611e-001	 2.6434567592e+000	 4.8580176680e-002
 2.0301345962e-001	 2.6455580441e+000	 2.6987723935e-002
 1.7734623492e-001	 2.6474025015e+000	 1.3517875562e-002
 1.5175563971e-001	 2.6489926079e+000	 5.8732760013e-003
 1.2624495807e-001	 2.6503308852e+000	 8.1022502593e-004
 1.0081740011e-001	 2.6514198985e+000	-5.8886618341e-003
 7.5476101575e-002	 2.6522622537e+000	-1.9436544472e-002
 5.0224123625e-002	 2.6528605956e+000	-4.6058951452e-002
 2.5064452623e-002	 2.6532176057e+000	-9.3004674678e-002
 0.0000000000e+000	 2.6533360000e+000	-1.6855083045e-001
 2.5712285401e-001	 2.6676411986e+000	 1.7009593486e-001
 2.3105310349e-001	 2.6700254655e+000	 1.5932504449e-001
 2.0505389587e-001	 2.6721478699e+000	 1.5837922657e-001
 1.7912869647e-001	 2.6740108654e+000	 1.6631192101e-001
 1.5328089674e-001	 2.6756169535e+000	 1.8129257506e-001
 1.2751381379e-001	 2.6769686815e+000	 2.0057168776e-001
 1.0183068996e-001	 2.6780686402e+000	 2.2044705969e-001
 7.6234692526e-002	 2.6789194617e+000	 2.3623110774e-001
 5.0728913418e-002	 2.6795238174e+000	 2.4221912726e-001
 2.5316369012e-002	 2.6798844157e+000	 2.3165840642e-001
 0.0000000000e+000	 2.6800040000e+000	 1.9671810417e-001
 2.5968141448e-001	 2.6941861797e+000	 2.6087138231e-001
 2.3335225087e-001	 2.6965941718e+000	 2.6506493000e-001
 2.0709433211e-001	 2.6987376957e+000	 2.7889971585e-001
 1.8091115802e-001	 2.7006192293e+000	 3.0198336673e-001
 1.5480615378e-001	 2.7022412992e+000	 3.3306089020e-001
 1.2878266950e-001	 2.7036064779e+000	 3.6998012318e-001
 1.0284397981e-001	 2.7047173820e+000	 4.0965818706e-001
 7.6993283478e-002	 2.7055766698e+000	 4.4804879757e-001
 5.1233703212e-002	 2.7061870393e+000	 4.8011030316e-001
 2.5568285401e-002	 2.7065512258e+000	 4.9977435038e-001
 0.0000000000e+000	 2.7066720000e+000	 4.9991508557e-001
 2.6223997494e-001	 2.7207311608e+000	 3.1370015885e-001
 2.3565139824e-001	 2.7231628781e+000	 3.2911216574e-001
 2.0913476836e-001	 2.7253275214e+000	 3.5361212837e-001
 1.8269361957e-001	 2.7272275933e+000	 3.8729145377e-001
 1.5633141081e-001	 2.7288656449e+000	 4.2940614385e-001
 1.3005152522e-001	 2.7302442743e+000	 4.7834286744e-001
 1.0385726965e-001	 2.7313661237e+000	 5.3158581550e-001
 7.7751874430e-002	 2.7322338778e+000	 5.8568417617e-001
 5.1738493006e-002	 2.7328502611e+000	 6.3622009413e-001
 2.5820201790e-002	 2.7332180358e+000	 6.7777700586e-001
 0.0000000000e+000	 2.7333400000e+000	 7.0390825810e-001
 2.6479853540e-001	 2.7472761419e+000	 3.3585355263e-001
 2.3795054562e-001	 2.7497315844e+000	 3.5856432801e-001
 2.1117520460e-001	 2.7519173472e+000	 3.8944040052e-001
 1.8447608112e-001	 2.7538359572e+000	 4.2898562216e-001
 1.5785666785e-001	 2.7554899906e+000	 4.7690155525e-001
 1.3132038093e-001	 2.7568820706e+000	 5.3205440066e-001
 1.0487055950e-001	 2.7580148655e+000	 5.9244246112e-001
 7.8510465381e-002	 2.7588910859e+000	 6.5516396373e-001
 5.2243282800e-002	 2.7595134829e+000	 7.1638509637e-001
 2.6072118180e-002	 2.7598848459e+000	 7.7130814228e-001
 0.0000000000e+000	 2.7600080000e+000	 8.1413961773e-001
 2.6735709587e-001	 2.7738211230e+000	 3.3454603158e-001
 2.4024969300e-001	 2.7763002906e+000	 3.6048170711e-001
 2.1321564085e-001	 2.7785071730e+000	 3.9328825246e-001
 1.8625854267e-001	 2.7804443211e+000	 4.3380948735e-001
 1.5938192489e-001	 2.7821143363e+000	 4.8212602334e-001
 1.3258923665e-001	 2.7835198670e+000	 5.3752329556e-001
 1.0588384935e-001	 2.7846636072e+000	 5.9845985569e-001
 7.9269056333e-002	 2.7855482939e+000	 6.6253573698e-001
 5.2748072593e-002	 2.7861767048e+000	 7.2646073547e-001
 2.6324034569e-002	 2.7865516559e+000	 7.8602248430e-001
 0.0000000000e+000	 2.7866760000e+000	 8.3605422289e-001
 2.6991565633e-001	 2.8003661041e+000	 3.1693201875e-001
 2.4254884037e-001	 2.8028689969e+000	 3.4188388653e-001
 2.1525607709e-001	 2.8050969987e+000	 3.7203568074e-001
 1.8804100421e-001	 2.8070526851e+000	 4.0849735688e-001
 1.6090718192e-001	 2.8087386819e+000	 4.5166077920e-001
 1.3385809236e-001	 2.8101576634e+000	 5.0116911825e-001
 1.0689713920e-001	 2.8113123490e+000	 5.5588620914e-001
 8.0027647284e-002	 2.8122055020e+000	 6.1386566733e-001
 5.3252862387e-002	 2.8128399266e+000	 6.7231959483e-001
 2.6575950958e-002	 2.8132184660e+000	 7.2758674566e-001
 0.0000000000e+000	 2.8133440000e+000	 7.7510004937e-001
 2.7247421679e-001	 2.8269110851e+000	 2.9010286352e-001
 2.4484798775e-001	 2.8294377032e+000	 3.0974652453e-001
 2.1729651334e-001	 2.8316868245e+000	 3.3253565471e-001
 1.8982346576e-001	 2.8336610490e+000	 3.5977094702e-001
 1.6243243896e-001	 2.8353630276e+000	 3.9208622909e-001
 1.3512694807e-001	 2.8367954597e+000	 4.2941950445e-001
 1.0791042904e-001	 2.8379610907e+000	 4.7098362640e-001
 8.0786238235e-002	 2.8388627100e+000	 5.1523638643e-001
 5.3757652180e-002	 2.8395031484e+000	 5.5984983818e-001
 2.6827867347e-002	 2.8398852760e+000	 6.0167871746e-001
 0.0000000000e+000	 2.8400120000e+000	 6.3672785330e-001
 2.7503277725e-001	 2.8534560662e+000	 2.6108399570e-001
 2.4714713513e-001	 2.8560064095e+000	 2.7099832490e-001
 2.1933694958e-001	 2.8582766502e+000	 2.8161100363e-001
 1.9160592731e-001	 2.8602694129e+000	 2.9433628647e-001
 1.6395769600e-001	 2.8619873733e+000	 3.0997897569e-001
 1.3639580379e-001	 2.8634332561e+000	 3.2870739984e-001
 1.0892371889e-001	 2.8646098325e+000	 3.5002566879e-001
 8.1544829185e-002	 2.8655199181e+000	 3.7274497071e-001
 5.4262441973e-002	 2.8661663703e+000	 3.9495372004e-001
 2.7079783735e-002	 2.8665520861e+000	 4.1398640724e-001
 0.0000000000e+000	 2.8666800000e+000	 4.2639104188e-001
 2.8666800000e+000	 0.0000000000e+000	 1.2416946726e+000
 2.8665520861e+000	 2.7079783735e-002	 1.2647348351e+000
 2.8661663703e+000	 5.4262441973e-002	 1.2892820302e+000
 2.8655199181e+000	 8.1544829185e-002	 1.3125445829e+000
 2.8646098325e+000	 1.0892371889e-001	 1.3324612625e+000
 2.8634332561e+000	 1.3639580379e-001	 1.3476568958e+000
 2.8619873733e+000	 1.6395769600e-001	 1.3573995818e+000
 2.8602694129e+000	 1.9160592731e-001	 1.3615593044e+000
 2.8582766502e+000	 2.1933694958e-001	 1.3605676945e+000
 2.8560064095e+000	 2.4714713513e-001	 1.3553786354e+000
 2.8534560662e+000	 2.7503277725e-001	 1.3474293514e+000
 2.8933440000e+000	 0.0000000000e+000	 1.4723765190e+000
 2.8932148963e+000	 2.7331662338e-002	 1.4620737849e+000
 2.8928255928e+000	 5.4767156051e-002	 1.4557335698e+000
 2.8921731278e+000	 8.2303306352e-002	 1.4507404837e+000
 2.8912545771e+000	 1.0993685675e-001	 1.4451310011e+000
 2.8900670570e+000	 1.3766446918e-001	 1.4375505637e+000
 2.8886077255e+000	 1.6548272425e-001	 1.4272128139e+000
 2.8868737858e+000	 1.9338812150e-001	 1.4138607441e+000
 2.8848624877e+000	 2.2137707978e-001	 1.3977294922e+000
 2.8825711307e+000	 2.4944593765e-001	 1.3795104541e+000
 2.8799970658e+000	 2.7759095395e-001	 1.3603163253e+000
 2.9200080000e+000	 0.0000000000e+000	 1.6462886265e+000
 2.9198777065e+000	 2.7583540941e-002	 1.6130924945e+000
 2.9194848154e+000	 5.5271870128e-002	 1.5851867825e+000
 2.9188263374e+000	 8.3061783519e-002	 1.5602063310e+000
 2.9178993218e+000	 1.1094999461e-001	 1.5363561397e+000
 2.9167008579e+000	 1.3893313458e-001	 1.5123701699e+000
 2.9152280777e+000	 1.6700775251e-001	 1.4874728372e+000
 2.9134781587e+000	 1.9517031570e-001	 1.4613429667e+000
 2.9114483252e+000	 2.2341720997e-001	 1.4340799187e+000
 2.9091358519e+000	 2.5174474017e-001	 1.4061715321e+000
 2.9065380653e+000	 2.8014913065e-001	 1.3784634641e+000
 2.9466720000e+000	 0.0000000000e+000	 1.7638717794e+000
 2.9465405168e+000	 2.7835419544e-002	 1.7172113062e+000
 2.9461440379e+000	 5.5776584205e-002	 1.6761755074e+000
 2.9454795471e+000	 8.3820260685e-002	 1.6387174948e+000
 2.9445440664e+000	 1.1196313247e-001	 1.6032753880e+000
 2.9433346587e+000	 1.4020179997e-001	 1.5687330456e+000
 2.9418484300e+000	 1.6853278077e-001	 1.5343840786e+000
 2.9400825315e+000	 1.9695250989e-001	 1.4998989016e+000
 2.9380341627e+000	 2.2545734016e-001	 1.4652945103e+000
 2.9357005730e+000	 2.5404354269e-001	 1.4309066023e+000
 2.9330790648e+000	 2.8270730734e-001	 1.3973635894e+000
 2.9733360000e+000	 0.0000000000e+000	 1.8254958575e+000
 2.9732033270e+000	 2.8087298146e-002	 1.7737939373e+000
 2.9728032604e+000	 5.6281298282e-002	 1.7271914304e+000
 2.9721327568e+000	 8.4578737851e-002	 1.6840217640e+000
 2.9711888111e+000	 1.1297627033e-001	 1.6430144514e+000
 2.9699684596e+000	 1.4147046536e-001	 1.6032579999e+000
 2.9684687822e+000	 1.7005780903e-001	 1.5641667268e+000
 2.9666869044e+000	 1.9873470408e-001	 1.5254512217e+000
 2.9646200002e+000	 2.2749747036e-001	 1.4870921183e+000
 2.9622652942e+000	 2.5634234521e-001	 1.4493167672e+000
 2.9596200644e+000	 2.8526548404e-001	 1.4125783213e+000
 3.0000000000e+000	 0.0000000000e+000	 1.8314629868e+000
 2.9998661372e+000	 2.8339176748e-002	 1.7821501228e+000
 2.9994624830e+000	 5.6786012359e-002	 1.7366862845e+000
 2.9987859664e+000	 8.5337215017e-002	 1.6938411632e+000
 2.9978335557e+000	 1.1398940818e-001	 1.6526875154e+000
 2.9966022605e+000	 1.4273913076e-001	 1.6125665157e+000
 2.9950891344e+000	 1.7158283728e-001	 1.5730576789e+000
 2.9932912773e+000	 2.0051689827e-001	 1.5339530693e+000
 2.9912058377e+000	 2.2953760055e-001	 1.4952354376e+000
 2.9888300154e+000	 2.5864114773e-001	 1.4570598452e+000
 2.9861610639e+000	 2.8782366074e-001	 1.4197382498e+000
 3.0266640000e+000	 0.0000000000e+000	 1.7820105246e+000
 3.0265289474e+000	 2.8591055351e-002	 1.7415381196e+000
 3.0261217055e+000	 5.7290726436e-002	 1.7030739341e+000
 3.0254391761e+000	 8.6095692183e-002	 1.6658736725e+000
 3.0244783003e+000	 1.1500254604e-001	 1.6293986502e+000
 3.0232360614e+000	 1.4400779615e-001	 1.5932838813e+000
 3.0217094866e+000	 1.7310786554e-001	 1.5573114314e+000
 3.0198956501e+000	 2.0229909246e-001	 1.5213887354e+000
 3.0177916751e+000	 2.3157773074e-001	 1.4855314950e+000
 3.0153947365e+000	 2.6093995025e-001	 1.4498506797e+000
 3.0127020634e+000	 2.9038183743e-001	 1.4145430709e+000
 3.0533280000e+000	 0.0000000000e+000	 1.6773138870e+000
 3.0531917577e+000	 2.8842933953e-002	 1.6511670777e+000
 3.0527809281e+000	 5.7795440513e-002	 1.6247323497e+000
 3.0520923857e+000	 8.6854169349e-002	 1.5977948571e+000
 3.0511230450e+000	 1.1601568390e-001	 1.5702431404e+000
 3.0498698623e+000	 1.4527646154e-001	 1.5420402582e+000
 3.0483298389e+000	 1.7463289379e-001	 1.5132009193e+000
 3.0465000230e+000	 2.0408128665e-001	 1.4837742951e+000
 3.0443775126e+000	 2.3361786093e-001	 1.4538320974e+000
 3.0419594577e+000	 2.6323875277e-001	 1.4234614127e+000
 3.0392430630e+000	 2.9294001413e-001	 1.3927616893e+000
 3.0799920000e+000	 0.0000000000e+000	 1.5174892303e+000
 3.0798545679e+000	 2.9094812556e-002	 1.5101992898e+000
 3.0794401506e+000	 5.8300154590e-002	 1.5000054797e+000
 3.0787455954e+000	 8.7612646515e-002	 1.4872594113e+000
 3.0777677896e+000	 1.1702882176e-001	 1.4723087434e+000
 3.0765036632e+000	 1.4654512693e-001	 1.4554716908e+000
 3.0749501911e+000	 1.7615792205e-001	 1.4370183066e+000
 3.0731043959e+000	 2.0586348084e-001	 1.4171582003e+000
 3.0709633501e+000	 2.3565799112e-001	 1.3960342447e+000
 3.0685241789e+000	 2.6553755529e-001	 1.3737217257e+000
 3.0657840625e+000	 2.9549819082e-001	 1.3502322903e+000
 3.1066560000e+000	 0.0000000000e+000	 1.3025959942e+000
 3.1065173781e+000	 2.9346691158e-002	 1.3177523242e+000
 3.1060993732e+000	 5.8804868668e-002	 1.3272050263e+000
 3.1053988051e+000	 8.8371123681e-002	 1.3319026225e+000
 3.1044125343e+000	 1.1804195962e-001	 1.3326768824e+000
 3.1031374641e+000	 1.4781379233e-001	 1.3302210613e+000
 3.1015705433e+000	 1.7768295031e-001	 1.3250757298e+000
 3.0997087687e+000	 2.0764567503e-001	 1.3176218343e+000
 3.0975491876e+000	 2.3769812132e-001	 1.3080805081e+000
 3.0950889001e+000	 2.6783635781e-001	 1.2965190507e+000
 3.0923250620e+000	 2.9805636752e-001	 1.2828623821e+000
 3.1333200000e+000	 0.0000000000e+000	 1.0326393148e+000
 3.1331801883e+000	 2.9598569761e-002	 1.0729010488e+000
 3.1327585957e+000	 5.9309582745e-002	 1.1046121295e+000
 3.1320520147e+000	 8.9129600848e-002	 1.1293417598e+000
 3.1310572789e+000	 1.1905509748e-001	 1.1484237761e+000
 3.1297712650e+000	 1.4908245772e-001	 1.1629389925e+000
 3.1281908955e+000	 1.7920797856e-001	 1.1737059995e+000
 3.1263131416e+000	 2.0942786922e-001	 1.1812800294e+000
 3.1241350251e+000	 2.3973825151e-001	 1.1859593768e+000
 3.1216536212e+000	 2.7013516033e-001	 1.1877987500e+000
 3.1188660616e+000	 3.0061454421e-001	 1.1866288111e+000
 2.8534560662e+000	 2.7503277725e-001	 1.3474293514e+000
 2.8506234959e+000	 3.0298590209e-001	 1.3391600704e+000
 2.8475058238e+000	 3.3100687533e-001	 1.3311342356e+000
 2.8441005950e+000	 3.5909182003e-001	 1.3225355944e+000
 2.8404054153e+000	 3.8723678479e-001	 1.3128096131e+000
 2.8364179532e+000	 4.1543774471e-001	 1.3016247737e+000
 2.8321359428e+000	 4.4369060226e-001	 1.2888313618e+000
 2.8275571857e+000	 4.7199118843e-001	 1.2744170464e+000
 2.8226795537e+000	 5.0033526381e-001	 1.2584585195e+000
 2.8175009906e+000	 5.2871851982e-001	 1.2410684352e+000
 2.8120195152e+000	 5.5713657999e-001	 1.2223368641e+000
 2.8799970658e+000	 2.7759095395e-001	 1.3603163253e+000
 2.8771381487e+000	 3.0580408065e-001	 1.3420698110e+000
 2.8739914781e+000	 3.3408568682e-001	 1.3251098212e+000
 2.8705545760e+000	 3.6243185948e-001	 1.3086652268e+000
 2.8668250261e+000	 3.9083861047e-001	 1.2921896337e+000
 2.8628004752e+000	 4.1930187744e-001	 1.2753276022e+000
 2.8584786363e+000	 4.4781752477e-001	 1.2578785071e+000
 2.8538572906e+000	 4.7638134466e-001	 1.2397572790e+000
 2.8489342900e+000	 5.0498905826e-001	 1.2209512321e+000
 2.8437075593e+000	 5.3363631693e-001	 1.2014721523e+000
 2.8381750988e+000	 5.6231870349e-001	 1.1813027926e+000
 2.9065380653e+000	 2.8014913065e-001	 1.3784634641e+000
 2.9036528015e+000	 3.0862225920e-001	 1.3524128319e+000
 2.9004771323e+000	 3.3716449831e-001	 1.3281875195e+000
 2.8970085570e+000	 3.6577189893e-001	 1.3051190502e+000
 2.8932446369e+000	 3.9444043615e-001	 1.2827265364e+000
 2.8891829973e+000	 4.2316601018e-001	 1.2606882311e+000
 2.8848213299e+000	 4.5194444728e-001	 1.2388108749e+000
 2.8801573956e+000	 4.8077150089e-001	 1.2169960196e+000
 2.8751890264e+000	 5.0964285272e-001	 1.1952024650e+000
 2.8699141281e+000	 5.3855411404e-001	 1.1734039129e+000
 2.8643306824e+000	 5.6750082698e-001	 1.1515409145e+000
 2.9330790648e+000	 2.8270730734e-001	 1.3973635894e+000
 2.9301674543e+000	 3.1144043775e-001	 1.3656970910e+000
 2.9269627865e+000	 3.4024330980e-001	 1.3359454348e+000
 2.9234625380e+000	 3.6911193838e-001	 1.3075921576e+000
 2.9196642478e+000	 3.9804226183e-001	 1.2802710161e+000
 2.9155655193e+000	 4.2703014291e-001	 1.2537433097e+000
 2.9111640234e+000	 4.5607136979e-001	 1.2278731650e+000
 2.9064575005e+000	 4.8516165711e-001	 1.2025998931e+000
 2.9014437627e+000	 5.1429664717e-001	 1.1779064901e+000
 2.8961206968e+000	 5.4347191115e-001	 1.1537833083e+000
 2.8904862660e+000	 5.7268295047e-001	 1.1301858986e+000
 2.9596200644e+000	 2.8526548404e-001	 1.4125783213e+000
 2.9566821071e+000	 3.1425861630e-001	 1.3775111814e+000
 2.9534484408e+000	 3.4332212130e-001	 1.3440535924e+000
 2.9499165190e+000	 3.7245197783e-001	 1.3118821962e+000
 2.9460838586e+000	 4.0164408750e-001	 1.2807862032e+000
 2.9419480414e+000	 4.3089427565e-001	 1.2506509598e+000
 2.9375067170e+000	 4.6019829230e-001	 1.2214396503e+000
 2.9327576054e+000	 4.8955181334e-001	 1.1931721770e+000
 2.9276984991e+000	 5.1895044162e-001	 1.1659002116e+000
 2.9223272655e+000	 5.4838970826e-001	 1.1396773696e+000
 2.9166418496e+000	 5.7786507396e-001	 1.1145234257e+000
 2.9861610639e+000	 2.8782366074e-001	 1.4197382498e+000
 2.9831967599e+000	 3.1707679486e-001	 1.3835243218e+000
 2.9799340950e+000	 3.4640093279e-001	 1.3482737263e+000
 2.9763705001e+000	 3.7579201728e-001	 1.3138889246e+000
 2.9725034694e+000	 4.0524591318e-001	 1.2803469564e+000
 2.9683305634e+000	 4.3475840838e-001	 1.2476897577e+000
 2.9638494106e+000	 4.6432521481e-001	 1.2160127977e+000
 2.9590577103e+000	 4.9394196957e-001	 1.1854510021e+000
 2.9539532354e+000	 5.2360423607e-001	 1.1561608796e+000
 2.9485338342e+000	 5.5330750536e-001	 1.1282977200e+000
 2.9427974332e+000	 5.8304719746e-001	 1.1019866968e+000
 3.0127020634e+000	 2.9038183743e-001	 1.4145430709e+000
 3.0097114127e+000	 3.1989497341e-001	 1.3794863118e+000
 3.0064197492e+000	 3.4947974428e-001	 1.3444590337e+000
 3.0028244811e+000	 3.7913205673e-001	 1.3096137371e+000
 2.9989230803e+000	 4.0884773886e-001	 1.2751391186e+000
 2.9947130855e+000	 4.3862254111e-001	 1.2412576806e+000
 2.9901921041e+000	 4.6845213732e-001	 1.2082218526e+000
 2.9853578153e+000	 4.9833212579e-001	 1.1763075167e+000
 2.9802079718e+000	 5.2825803052e-001	 1.1458037677e+000
 2.9747404029e+000	 5.5822530247e-001	 1.1169976929e+000
 2.9689530167e+000	 5.8822932095e-001	 1.0901529109e+000
 3.0392430630e+000	 2.9294001413e-001	 1.3927616893e+000
 3.0362260655e+000	 3.2271315196e-001	 1.3612274547e+000
 3.0329054035e+000	 3.5255855577e-001	 1.3285538954e+000
 3.0292784621e+000	 3.8247209617e-001	 1.2951591531e+000
 3.0253426911e+000	 4.1244956453e-001	 1.2614587406e+000
 3.0210956075e+000	 4.4248667385e-001	 1.2278710184e+000
 3.0165347977e+000	 4.7257905983e-001	 1.1948213887e+000
 3.0116579202e+000	 5.0272228202e-001	 1.1627440156e+000
 3.0064627082e+000	 5.3291182497e-001	 1.1320798167e+000
 3.0009469717e+000	 5.6314309958e-001	 1.1032694171e+000
 2.9951086003e+000	 5.9341144444e-001	 1.0767397139e+000
 3.0657840625e+000	 2.9549819082e-001	 1.3502322903e+000
 3.0627407183e+000	 3.2553133051e-001	 1.3246584502e+000
 3.0593910577e+000	 3.5563736725e-001	 1.2965935668e+000
 3.0557324431e+000	 3.8581213562e-001	 1.2667282768e+000
 3.0517623019e+000	 4.1605139021e-001	 1.2357112715e+000
 3.0474781295e+000	 4.4635080658e-001	 1.2041632531e+000
 3.0428774912e+000	 4.7670598234e-001	 1.1726898248e+000
 3.0379580251e+000	 5.0711243824e-001	 1.1418920375e+000
 3.0327174445e+000	 5.3756561942e-001	 1.1123732464e+000
 3.0271535404e+000	 5.6806089669e-001	 1.0847408734e+000
 3.0212641839e+000	 5.9859356793e-001	 1.0596016197e+000
 3.0923250620e+000	 2.9805636752e-001	 1.2828623821e+000
 3.0892553711e+000	 3.2834950906e-001	 1.2657702580e+000
 3.0858767119e+000	 3.5871617874e-001	 1.2447038402e+000
 3.0821864241e+000	 3.8915217507e-001	 1.2206242274e+000
 3.0781819128e+000	 4.1965321588e-001	 1.1944107207e+000
 3.0738606516e+000	 4.5021493931e-001	 1.1668839078e+000
 3.0692201848e+000	 4.8083290485e-001	 1.1388279110e+000
 3.0642581301e+000	 5.1150259447e-001	 1.1110104302e+000
 3.0589721809e+000	 5.4221941387e-001	 1.0841991383e+000
 3.0533601091e+000	 5.7297869379e-001	 1.0591729215e+000
 3.0474197675e+000	 6.0377569142e-001	 1.0367264068e+000
 3.1188660616e+000	 3.0061454421e-001	 1.1866288111e+000
 3.1157700239e+000	 3.3116768761e-001	 1.1806339349e+000
 3.1123623662e+000	 3.6179499023e-001	 1.1691006792e+000
 3.1086404051e+000	 3.9249221452e-001	 1.1532495418e+000
 3.1046015236e+000	 4.2325504155e-001	 1.1341787917e+000
 3.1002431736e+000	 4.5407907204e-001	 1.1128973679e+000
 3.0955628784e+000	 4.8495982735e-001	 1.0903571867e+000
 3.0905582350e+000	 5.1589275069e-001	 1.0674833893e+000
 3.0852269172e+000	 5.4687320832e-001	 1.0452009889e+000
 3.0795666778e+000	 5.7789649090e-001	 1.0244563012e+000
 3.0735753511e+000	 6.0895781491e-001	 1.0062314897e+000
 2.8120195152e+000	 5.5713657999e-001	 1.2223368641e+000
 2.8062323324e+000	 5.8558927002e-001	 1.1983480573e+000
 2.8001384177e+000	 6.1406781368e-001	 1.1662642366e+000
 2.7937360289e+000	 6.4256763062e-001	 1.1274930554e+000
 2.7870235076e+000	 6.7108407844e-001	 1.0831883797e+000
 2.7799992815e+000	 6.9961245439e-001	 1.0406066789e+000
 2.7726618660e+000	 7.2814799717e-001	 1.0021083243e+000
 2.7650098669e+000	 7.5668588880e-001	 9.6563182117e-001
 2.7570419823e+000	 7.8522125655e-001	 9.2907564953e-001
 2.7487570045e+000	 8.1374917503e-001	 8.9029132408e-001
 2.7401538221e+000	 8.4226466823e-001	 8.4707535726e-001
 2.8381750988e+000	 5.6231870349e-001	 1.1813027926e+000
 2.8323340874e+000	 5.9103604200e-001	 1.1555933521e+000
 2.8261834910e+000	 6.1977947462e-001	 1.1209581396e+000
 2.8197215513e+000	 6.4854437840e-001	 1.0792817243e+000
 2.8129465945e+000	 6.7732606774e-001	 1.0328764846e+000
 2.8058570336e+000	 7.0611979615e-001	 9.9056191215e-001
 2.7984513702e+000	 7.3492075806e-001	 9.5282995907e-001
 2.7907281972e+000	 7.6372409067e-001	 9.1758051810e-001
 2.7826862005e+000	 7.9252487593e-001	 8.8266577681e-001
 2.7743241612e+000	 8.2131814262e-001	 8.4588419681e-001
 2.7656409576e+000	 8.5009886846e-001	 8.0497331266e-001
 2.8643306824e+000	 5.6750082698e-001	 1.1515409145e+000
 2.8584358423e+000	 5.9648281398e-001	 1.1238460495e+000
 2.8522285643e+000	 6.2549113556e-001	 1.0863663726e+000
 2.8457070738e+000	 6.5452112617e-001	 1.0414797601e+000
 2.8388696815e+000	 6.8356805703e-001	 9.9324530311e-001
 2.8317147857e+000	 7.1262713792e-001	 9.5083131867e-001
 2.8242408744e+000	 7.4169351896e-001	 9.1336056205e-001
 2.8164465275e+000	 7.7076229254e-001	 8.7873616794e-001
 2.8083304187e+000	 7.9982849530e-001	 8.4480677044e-001
 2.7998913179e+000	 8.2888711020e-001	 8.0936140826e-001
 2.7911280930e+000	 8.5793306869e-001	 7.7012315746e-001
 2.8904862660e+000	 5.7268295047e-001	 1.1301858986e+000
 2.8845375973e+000	 6.0192958596e-001	 1.1004507822e+000
 2.8782736376e+000	 6.3120279650e-001	 1.0600447928e+000
 2.8716925962e+000	 6.6049787394e-001	 1.0118498567e+000
 2.8647927684e+000	 6.8981004632e-001	 9.6224720720e-001
 2.8575725378e+000	 7.1913447968e-001	 9.1950171836e-001
 2.8500303787e+000	 7.4846627985e-001	 8.8192356820e-001
 2.8421648578e+000	 7.7780049441e-001	 8.4745849566e-001
 2.8339746369e+000	 8.0713211467e-001	 8.1399187863e-001
 2.8254584746e+000	 8.3645607779e-001	 7.7934457839e-001
 2.8166152285e+000	 8.6576726892e-001	 7.4126740964e-001
 2.9166418496e+000	 5.7786507396e-001	 1.1145234257e+000
 2.9106393523e+000	 6.0737635794e-001	 1.0829050141e+000
 2.9043187109e+000	 6.3691445745e-001	 1.0397016090e+000
 2.8976781186e+000	 6.6647462171e-001	 9.8830418548e-001
 2.8907158553e+000	 6.9605203562e-001	 9.3796605494e-001
 2.8834302899e+000	 7.2564182144e-001	 8.9479558579e-001
 2.8758198829e+000	 7.5523904074e-001	 8.5688175315e-001
 2.8678831881e+000	 7.8483869628e-001	 8.2224980560e-001
 2.8596188551e+000	 8.1443573404e-001	 7.8885975929e-001
 2.8510256313e+000	 8.4402504538e-001	 7.5460320098e-001
 2.8421023640e+000	 8.7360146914e-001	 7.1729860481e-001
 2.9427974332e+000	 5.8304719746e-001	 1.1019866968e+000
 2.9367411072e+000	 6.1282312992e-001	 1.0688548370e+000
 2.9303637842e+000	 6.4262611839e-001	 1.0231924126e+000
 2.9236636411e+000	 6.7245136949e-001	 9.6916612394e-001
 2.9166389422e+000	 7.0229402491e-001	 9.1861482025e-001
 2.9092880420e+000	 7.3214916321e-001	 8.7506833954e-001
 2.9016093871e+000	 7.6201180164e-001	 8.3673416344e-001
 2.8936015184e+000	 7.9187689815e-001	 8.0175153151e-001
 2.8852630733e+000	 8.2173935342e-001	 7.6819062612e-001
 2.8765927880e+000	 8.5159401296e-001	 7.3405035972e-001
 2.8675894995e+000	 8.8143566937e-001	 6.9725455353e-001
 2.9689530167e+000	 5.8822932095e-001	 1.0901529109e+000
 2.9628428622e+000	 6.1826990190e-001	 1.0560907396e+000
 2.9564088576e+000	 6.4833777933e-001	 1.0085151835e+000
 2.9496491635e+000	 6.7842811726e-001	 9.5293838984e-001
 2.9425620291e+000	 7.0853601420e-001	 9.0253320458e-001
 2.9351457942e+000	 7.3865650497e-001	 8.5880561659e-001
 2.9273988914e+000	 7.6878456253e-001	 8.2011303493e-001
 2.9193198487e+000	 7.9891510002e-001	 7.8474077793e-001
 2.9109072915e+000	 8.2904297279e-001	 7.5090238965e-001
 2.9021599447e+000	 8.5916298055e-001	 7.1673844312e-001
 2.8930766349e+000	 8.8926986960e-001	 6.8031360237e-001
 2.9951086003e+000	 5.9341144444e-001	 1.0767397139e+000
 2.9889446171e+000	 6.2371667388e-001	 1.0425433514e+000
 2.9824539309e+000	 6.5404944027e-001	 9.9380527543e-001
 2.9756346860e+000	 6.8440486503e-001	 9.3793886267e-001
 2.9684851161e+000	 7.1477800350e-001	 8.8818523211e-001
 2.9610035463e+000	 7.4516384673e-001	 8.4462053273e-001
 2.9531883956e+000	 7.7555732342e-001	 8.0578069997e-001
 2.9450381790e+000	 8.0595330189e-001	 7.7012685345e-001
 2.9365515097e+000	 8.3634659216e-001	 7.3604679341e-001
 2.9277271014e+000	 8.6673194813e-001	 7.0185485856e-001
 2.9185637704e+000	 8.9710406983e-001	 6.6578989836e-001
 3.0212641839e+000	 5.9859356793e-001	 1.0596016197e+000
 3.0150463721e+000	 6.2916344586e-001	 1.0262791625e+000
 3.0084990042e+000	 6.5976110121e-001	 9.7733037897e-001
 3.0016202084e+000	 6.9038161280e-001	 9.2260352156e-001
 2.9944082030e+000	 7.2101999279e-001	 8.7415682904e-001
 2.9868612984e+000	 7.5167118849e-001	 8.3125092978e-001
 2.9789778998e+000	 7.8233008431e-001	 7.9262648410e-001
 2.9707565093e+000	 8.1299150376e-001	 7.5694779614e-001
 2.9621957279e+000	 8.4365021153e-001	 7.2280554570e-001
 2.9532942581e+000	 8.7430091572e-001	 6.8871774538e-001
 2.9440509059e+000	 9.0493827006e-001	 6.5312865669e-001
 3.0474197675e+000	 6.0377569142e-001	 1.0367264068e+000
 3.0411481271e+000	 6.3461021783e-001	 1.0054962213e+000
 3.0345440775e+000	 6.6547276215e-001	 9.5748546568e-001
 3.0276057309e+000	 6.9635836057e-001	 9.0548472247e-001
 3.0203312899e+000	 7.2726198208e-001	 8.5915338834e-001
 3.0127190505e+000	 7.5817853025e-001	 8.1755661050e-001
 3.0047674041e+000	 7.8910284520e-001	 7.7966359282e-001
 2.9964748396e+000	 8.2002970563e-001	 7.4436689196e-001
 2.9878399461e+000	 8.5095383090e-001	 7.1048644695e-001
 2.9788614148e+000	 8.8186988331e-001	 6.7677168711e-001
 2.9695380413e+000	 9.1277247028e-001	 6.4190143156e-001
 3.0735753511e+000	 6.0895781491e-001	 1.0062314897e+000
 3.0672498820e+000	 6.4005698981e-001	 9.7851981081e-001
 3.0605891508e+000	 6.7118442308e-001	 9.3296979656e-001
 3.0535912533e+000	 7.0233510834e-001	 8.8524906020e-001
 3.0462543768e+000	 7.3350397137e-001	 8.4199732052e-001
 3.0385768026e+000	 7.6468587201e-001	 8.0251656185e-001
 3.0305569083e+000	 7.9587560609e-001	 7.6602598908e-001
 3.0221931699e+000	 8.2706790750e-001	 7.3166918621e-001
 3.0134841643e+000	 8.5825745028e-001	 6.9851951322e-001
 3.0044285715e+000	 8.8943885089e-001	 6.6558342295e-001
 2.9950251768e+000	 9.2060667051e-001	 6.3180138978e-001
 2.7401538221e+000	 8.4226466823e-001	 8.4707535726e-001
 2.7312314211e+000	 8.7076271134e-001	 7.9757059874e-001
 2.7219888849e+000	 8.9923823169e-001	 7.4238077479e-001
 2.7124253981e+000	 9.2768611232e-001	 6.8289142089e-001
 2.7025402488e+000	 9.5610119473e-001	 6.2039792109e-001
 2.6923328307e+000	 9.8447828143e-001	 5.5608402616e-001
 2.6818026442e+000	 1.0128121385e+000	 4.9099243783e-001
 2.6709492982e+000	 1.0410974981e+000	 4.2602597090e-001
 2.6597725119e+000	 1.0693290614e+000	 3.6254450437e-001
 2.6482721155e+000	 1.0975015011e+000	 3.0349495364e-001
 2.6364480523e+000	 1.1256094643e+000	 2.4904423389e-001
 2.7656409576e+000	 8.5009886846e-001	 8.0497331266e-001
 2.7566355662e+000	 8.7886198190e-001	 7.5786646625e-001
 2.7473070619e+000	 9.0760236309e-001	 7.0507382047e-001
 2.7376546217e+000	 9.3631484747e-001	 6.4809033953e-001
 2.7276775272e+000	 9.6499422857e-001	 5.8831880712e-001
 2.7173751663e+000	 9.9363526055e-001	 5.2704821543e-001
 2.7067470348e+000	 1.0222326608e+000	 4.6542482556e-001
 2.6957927380e+000	 1.0507811125e+000	 4.0444964242e-001
 2.6845119925e+000	 1.0792752675e+000	 3.4491308177e-001
 2.6729046269e+000	 1.1077097490e+000	 2.8739278770e-001
 2.6609705839e+000	 1.1360791543e+000	 2.3260109663e-001
 2.7911280930e+000	 8.5793306869e-001	 7.7012315746e-001
 2.7820397112e+000	 8.8696125246e-001	 7.2485363595e-001
 2.7726252389e+000	 9.1596649450e-001	 6.7395411319e-001
 2.7628838453e+000	 9.4494358263e-001	 6.1899497231e-001
 2.7528148056e+000	 9.7388726241e-001	 5.6145309699e-001
 2.7424175019e+000	 1.0027922397e+000	 5.0269020959e-001
 2.7316914254e+000	 1.0316531831e+000	 4.4392440927e-001
 2.7206361779e+000	 1.0604647269e+000	 3.8622428882e-001
 2.7092514731e+000	 1.0892214736e+000	 3.3044773132e-001
 2.6975371383e+000	 1.1179179968e+000	 2.7723561329e-001
 2.6854931155e+000	 1.1465488442e+000	 2.2697237811e-001
 2.8166152285e+000	 8.6576726892e-001	 7.4126740964e-001
 2.8074438563e+000	 8.9506052302e-001	 6.9739132266e-001
 2.7979434159e+000	 9.2433062590e-001	 6.4799819325e-001
 2.7881130690e+000	 9.5357231778e-001	 5.9469994208e-001
 2.7779520840e+000	 9.8278029625e-001	 5.3901446925e-001
 2.7674598375e+000	 1.0119492188e+000	 4.8233810585e-001
 2.7566358160e+000	 1.0410737054e+000	 4.2594721100e-001
 2.7454796177e+000	 1.0701483413e+000	 3.7093010151e-001
 2.7339909537e+000	 1.0991676797e+000	 3.1818876645e-001
 2.7221696496e+000	 1.1281262447e+000	 2.6839919255e-001
 2.7100156471e+000	 1.1570185342e+000	 2.2197773008e-001
 2.8421023640e+000	 8.7360146914e-001	 7.1729860481e-001
 2.8328480014e+000	 9.0315979358e-001	 6.7449043333e-001
 2.8232615929e+000	 9.3269475730e-001	 6.2633529976e-001
 2.8133422926e+000	 9.6220105294e-001	 5.7445288583e-001
 2.8030893623e+000	 9.9167333009e-001	 5.2036922060e-001
 2.7925021731e+000	 1.0211061979e+000	 4.6548999122e-001
 2.7815802066e+000	 1.0504942277e+000	 4.1109888290e-001
 2.7703230575e+000	 1.0798319557e+000	 3.5829428641e-001
 2.7587304343e+000	 1.1091138858e+000	 3.0798692669e-001
 2.7468021610e+000	 1.1383344926e+000	 2.6086044220e-001
 2.7345381787e+000	 1.1674882241e+000	 2.1733682742e-001
 2.8675894995e+000	 8.8143566937e-001	 6.9725455353e-001
 2.8582521465e+000	 9.1125906414e-001	 6.5530834358e-001
 2.8485797698e+000	 9.4105888870e-001	 6.0824165310e-001
 2.8385715162e+000	 9.7082978809e-001	 5.5764823124e-001
 2.8282266407e+000	 1.0005663639e+000	 5.0502952586e-001
 2.8175445086e+000	 1.0302631770e+000	 4.5176886776e-001
 2.8065245973e+000	 1.0599147500e+000	 3.9912690823e-001
 2.7951664974e+000	 1.0895155700e+000	 3.4818272581e-001
 2.7834699149e+000	 1.1190600919e+000	 2.9982771260e-001
 2.7714346724e+000	 1.1485427405e+000	 2.5472636339e-001
 2.7590607103e+000	 1.1779579140e+000	 2.1328081270e-001
 2.8930766349e+000	 8.8926986960e-001	 6.8031360237e-001
 2.8836562915e+000	 9.1935833470e-001	 6.3914368293e-001
 2.8738979468e+000	 9.4942302010e-001	 5.9313475104e-001
 2.8638007399e+000	 9.7945852325e-001	 5.4382099141e-001
 2.8533639191e+000	 1.0094593978e+000	 4.9264672067e-001
 2.8425868442e+000	 1.0394201561e+000	 4.4094146302e-001
 2.8314689879e+000	 1.0693352723e+000	 3.8991283295e-001
 2.8200099372e+000	 1.0991991844e+000	 3.4059167408e-001
 2.8082093955e+000	 1.1290062980e+000	 2.9382254067e-001
 2.7960671837e+000	 1.1587509884e+000	 2.5022465274e-001
 2.7835832419e+000	 1.1884276040e+000	 2.1015554383e-001
 2.9185637704e+000	 8.9710406983e-001	 6.6578989836e-001
 2.9090604366e+000	 9.2745760526e-001	 6.2543112823e-001
 2.8992161238e+000	 9.5778715150e-001	 5.8056767748e-001
 2.8890299635e+000	 9.8808725840e-001	 5.3264057681e-001
 2.8785011975e+000	 1.0183524316e+000	 4.8299953736e-001
 2.8676291798e+000	 1.0485771352e+000	 4.3290428114e-001
 2.8564133785e+000	 1.0787557946e+000	 3.8346452586e-001
 2.8448533770e+000	 1.1088827988e+000	 3.3563948503e-001
 2.8329488761e+000	 1.1389525041e+000	 2.9019993274e-001
 2.8206996951e+000	 1.1689592362e+000	 2.4769434996e-001
 2.8081057735e+000	 1.1988972939e+000	 2.0841169786e-001
 2.9440509059e+000	 9.0493827006e-001	 6.5312865669e-001
 2.9344645817e+000	 9.3555687582e-001	 6.1373620472e-001
 2.9245343008e+000	 9.6615128290e-001	 5.7022342336e-001
 2.9142591871e+000	 9.9671599356e-001	 5.2390462326e-001
 2.9036384759e+000	 1.0272454655e+000	 4.7600836663e-001
 2.8926715154e+000	 1.0577341144e+000	 4.2767641261e-001
 2.8813577691e+000	 1.0881763169e+000	 3.7990846570e-001
 2.8696968168e+000	 1.1185664132e+000	 3.3355836919e-001
 2.8576883567e+000	 1.1488987102e+000	 2.8929673762e-001
 2.8453322065e+000	 1.1791674841e+000	 2.4757651977e-001
 2.8326283051e+000	 1.2093669839e+000	 2.0859491070e-001
 2.9695380413e+000	 9.1277247028e-001	 6.4190143156e-001
 2.9598687268e+000	 9.4365614638e-001	 6.0375009439e-001
 2.9498524778e+000	 9.7451541430e-001	 5.6190921862e-001
 2.9394884108e+000	 1.0053447287e+000	 5.1753283505e-001
 2.9287757543e+000	 1.0361384993e+000	 4.7169612825e-001
 2.9177138510e+000	 1.0668910935e+000	 4.2539236621e-001
 2.9063021597e+000	 1.0975968391e+000	 3.7948205353e-001
 2.8945402567e+000	 1.1282500276e+000	 3.3468617901e-001
 2.8824278373e+000	 1.1588449163e+000	 2.9154938315e-001
 2.8699647178e+000	 1.1893757320e+000	 2.5040496619e-001
 2.8571508367e+000	 1.2198366738e+000	 2.1133595049e-001
 2.9950251768e+000	 9.2060667051e-001	 6.3180138978e-001
 2.9852728719e+000	 9.5175541694e-001	 5.9528445110e-001
 2.9751706548e+000	 9.8287954570e-001	 5.5555087492e-001
 2.9647176344e+000	 1.0139734639e+000	 5.1355579192e-001
 2.9539130326e+000	 1.0450315331e+000	 4.7020403802e-001
 2.9427561866e+000	 1.0760480726e+000	 4.2629492177e-001
 2.9312465504e+000	 1.1070173614e+000	 3.8252594885e-001
 2.9193836965e+000	 1.1379336420e+000	 3.3945822054e-001
 2.9071673179e+000	 1.1687911224e+000	 2.9748515685e-001
 2.8945972292e+000	 1.1995839799e+000	 2.5679697714e-001
 2.8816733683e+000	 1.2303063637e+000	 2.1734092277e-001
 2.6364480523e+000	 1.1256094643e+000	 2.4904423389e-001
 2.6243022261e+000	 1.1536433759e+000	 1.9869065395e-001
 2.6118330614e+000	 1.1816020650e+000	 1.5144579484e-001
 2.5990408487e+000	 1.2094801237e+000	 1.0596556863e-001
 2.5859259956e+000	 1.2372721302e+000	 6.0544394059e-002
 2.5724890275e+000	 1.2649726523e+000	 1.3127392479e-002
 2.5587305887e+000	 1.2925762503e+000	-3.8673973956e-002
 2.5446514432e+000	 1.3200774803e+000	-9.7562897662e-002
 2.5302524749e+000	 1.3474708973e+000	-1.6393352342e-001
 2.5155346883e+000	 1.3747510586e+000	-2.2627096675e-001
 2.5004992089e+000	 1.4019125270e+000	-2.8507425038e-001
 2.6609705839e+000	 1.1360791543e+000	 2.3260109663e-001
 2.6487117851e+000	 1.1643738191e+000	 1.8260538255e-001
 2.6361266403e+000	 1.1925925618e+000	 1.3643263090e-001
 2.6232154428e+000	 1.2207299242e+000	 9.2438801778e-002
 2.6099786037e+000	 1.2487804339e+000	 4.8582423235e-002
 2.5964166536e+000	 1.2767386083e+000	 2.4382874448e-003
 2.5825302428e+000	 1.3045989571e+000	-4.8785162616e-002
 2.5683201422e+000	 1.3323559857e+000	-1.0822483852e-001
 2.5537872440e+000	 1.3600041986e+000	-1.6976100713e-001
 2.5389325621e+000	 1.3875381023e+000	-2.2585210183e-001
 2.5237572325e+000	 1.4149522090e+000	-2.7969251054e-001
 2.6854931155e+000	 1.1465488442e+000	 2.2697237811e-001
 2.6731213441e+000	 1.1751042623e+000	 1.7904491728e-001
 2.6604202192e+000	 1.2035830587e+000	 1.3237056570e-001
 2.6473900368e+000	 1.2319797246e+000	 8.7726907328e-002
 2.6340312119e+000	 1.2602887376e+000	 4.3215523820e-002
 2.6203442798e+000	 1.2885045643e+000	-3.9094303627e-003
 2.6063298969e+000	 1.3166216639e+000	-5.6793544309e-002
 2.5919888412e+000	 1.3446344912e+000	-1.1719674068e-001
 2.5773220132e+000	 1.3725374998e+000	-1.7298080699e-001
 2.5623304359e+000	 1.4003251459e+000	-2.2407172970e-001
 2.5470152560e+000	 1.4279918910e+000	-2.7408348554e-001
 2.7100156471e+000	 1.1570185342e+000	 2.2197773008e-001
 2.6975309030e+000	 1.1858347055e+000	 1.7797941262e-001
 2.6847137981e+000	 1.2145735555e+000	 1.3449477263e-001
 2.6715646308e+000	 1.2432295251e+000	 8.9980404043e-002
 2.6580838200e+000	 1.2717970413e+000	 4.3000075369e-002
 2.6442719060e+000	 1.3002705204e+000	-7.1280877677e-003
 2.6301295510e+000	 1.3286443707e+000	-6.3661759058e-002
 2.6156575402e+000	 1.3569129966e+000	-1.2262304230e-001
 2.6008567823e+000	 1.3850708010e+000	-1.7382437559e-001
 2.5857283097e+000	 1.4131121895e+000	-2.2104528099e-001
 2.5702732795e+000	 1.4410315730e+000	-2.6824867622e-001
 2.7345381787e+000	 1.1674882241e+000	 2.1733682742e-001
 2.7219404620e+000	 1.1965651487e+000	 1.7609872378e-001
 2.7090073770e+000	 1.2255640523e+000	 1.3480090480e-001
 2.6957392248e+000	 1.2544793256e+000	 9.1799782948e-002
 2.6821364282e+000	 1.2833053451e+000	 4.4985050631e-002
 2.6681995322e+000	 1.3120364764e+000	-8.2649001648e-003
 2.6539292051e+000	 1.3406670775e+000	-6.9383893212e-002
 2.6393262393e+000	 1.3691915020e+000	-1.2477754272e-001
 2.6243915514e+000	 1.3976041023e+000	-1.7246556741e-001
 2.6091261836e+000	 1.4258992331e+000	-2.1683557172e-001
 2.5935313031e+000	 1.4540712550e+000	-2.6214221698e-001
 2.7590607103e+000	 1.1779579140e+000	 2.1328081270e-001
 2.7463500210e+000	 1.2072955920e+000	 1.7376581028e-001
 2.7333009559e+000	 1.2365545492e+000	 1.3341639223e-001
 2.7199138188e+000	 1.2657291261e+000	 9.0543568787e-002
 2.7061890363e+000	 1.2948136488e+000	 4.2982639212e-002
 2.6921271584e+000	 1.3238024324e+000	-1.1953419229e-002
 2.6777288592e+000	 1.3526897843e+000	-7.2072499789e-002
 2.6629949383e+000	 1.3814700074e+000	-1.2388626319e-001
 2.6479263206e+000	 1.4101374035e+000	-1.6902326694e-001
 2.6325240574e+000	 1.4386862768e+000	-2.1145543825e-001
 2.6167893266e+000	 1.4671109370e+000	-2.5567351520e-001
 2.7835832419e+000	 1.1884276040e+000	 2.1015554383e-001
 2.7707595800e+000	 1.2180260352e+000	 1.7145146857e-001
 2.7575945348e+000	 1.2475450460e+000	 1.3094745085e-001
 2.7440884129e+000	 1.2769789265e+000	 8.6962924339e-002
 2.7302416445e+000	 1.3063219525e+000	 3.7334713340e-002
 2.7160547845e+000	 1.3355683884e+000	-2.0556199236e-002
 2.7015285133e+000	 1.3647124911e+000	-7.5793678117e-002
 2.6866636373e+000	 1.3937485129e+000	-1.2199715611e-001
 2.6714610897e+000	 1.4226707048e+000	-1.6366591264e-001
 2.6559219312e+000	 1.4514733204e+000	-2.0487036153e-001
 2.6400473501e+000	 1.4801506190e+000	-2.4870988620e-001
 2.8081057735e+000	 1.1988972939e+000	 2.0841169786e-001
 2.7951691390e+000	 1.2287564784e+000	 1.6972389825e-001
 2.7818881137e+000	 1.2585355428e+000	 1.2808930903e-001
 2.7682630069e+000	 1.2882287270e+000	 8.1888746481e-002
 2.7542942527e+000	 1.3178302562e+000	 2.9015683570e-002
 2.7399824107e+000	 1.3473343444e+000	-3.0268834176e-002
 2.7253281674e+000	 1.3767351979e+000	-8.0272302525e-002
 2.7103323363e+000	 1.4060270183e+000	-1.2182629564e-001
 2.6949958588e+000	 1.4352040060e+000	-1.5942596453e-001
 2.6793198050e+000	 1.4642603640e+000	-1.9764653122e-001
 2.6633053737e+000	 1.4931903010e+000	-2.4107918407e-001
 2.8326283051e+000	 1.2093669839e+000	 2.0859491070e-001
 2.8195786980e+000	 1.2394869216e+000	 1.6923830483e-001
 2.8061816926e+000	 1.2695260397e+000	 1.2561528455e-001
 2.7924376009e+000	 1.2994785275e+000	 7.6220227102e-002
 2.7783468608e+000	 1.3293385599e+000	 1.9057673195e-002
 2.7639100369e+000	 1.3591003005e+000	-3.8594880906e-002
 2.7491278215e+000	 1.3887579047e+000	-8.4346023555e-002
 2.7340010353e+000	 1.4183055237e+000	-1.2229609595e-001
 2.7185306280e+000	 1.4477373073e+000	-1.5687825515e-001
 2.7027176788e+000	 1.4770474077e+000	-1.9260768204e-001
 2.6865633972e+000	 1.5062299830e+000	-2.3406359486e-001
 2.8571508367e+000	 1.2198366738e+000	 2.1133595049e-001
 2.8439882570e+000	 1.2502173649e+000	 1.7072653682e-001
 2.8304752715e+000	 1.2805165365e+000	 1.2436589523e-001
 2.8166121949e+000	 1.3107283279e+000	 7.0913446318e-002
 2.8023994690e+000	 1.3408468636e+000	 9.3852556313e-003
 2.7878376631e+000	 1.3708662565e+000	-4.4428725659e-002
 2.7729274756e+000	 1.4007806115e+000	-8.6932780210e-002
 2.7576697343e+000	 1.4305840291e+000	-1.2234088835e-001
 2.7420653971e+000	 1.4602706085e+000	-1.5496765893e-001
 2.7261155527e+000	 1.4898344513e+000	-1.8921146100e-001
 2.7098214207e+000	 1.5192696650e+000	-2.2953615023e-001
 2.8816733683e+000	 1.2303063637e+000	 2.1734092277e-001
 2.8683978159e+000	 1.2609478081e+000	 1.7498675499e-001
 2.8547688504e+000	 1.2915070333e+000	 1.2523800149e-001
 2.8407867890e+000	 1.3219781284e+000	 6.6969996038e-002
 2.8264520771e+000	 1.3523551673e+000	 3.9256611135e-003
 2.8117652893e+000	 1.3826322125e+000	-4.6741417217e-002
 2.7967271297e+000	 1.4128033184e+000	-8.7028840355e-002
 2.7813384333e+000	 1.4428625346e+000	-1.2097506614e-001
 2.7656001662e+000	 1.4728039098e+000	-1.5272087306e-001
 2.7495134265e+000	 1.5026214949e+000	-1.8649236000e-001
 2.7330794442e+000	 1.5323093471e+000	-2.2658245395e-001
 2.5004992089e+000	 1.4019125270e+000	-2.8507425038e-001
 2.4851449573e+000	 1.4289539205e+000	-3.4186069599e-001
 2.4694755356e+000	 1.4558657382e+000	-3.9644273047e-001
 2.4534924364e+000	 1.4826425783e+000	-4.4885067718e-001
 2.4371972736e+000	 1.5092790580e+000	-4.9897729696e-001
 2.4205917828e+000	 1.5357698167e+000	-5.4658171796e-001
 2.4036778204e+000	 1.5621095196e+000	-5.9129495313e-001
 2.3864573637e+000	 1.5882928607e+000	-6.3262695949e-001
 2.3689325102e+000	 1.6143145666e+000	-6.6997518078e-001
 2.3511054772e+000	 1.6401693995e+000	-7.0263450259e-001
 2.3329786009e+000	 1.6658521609e+000	-7.2980853697e-001
 2.5237572325e+000	 1.4149522090e+000	-2.7969251054e-001
 2.5082601655e+000	 1.4422451241e+000	-3.3286574081e-001
 2.4924449970e+000	 1.4694072580e+000	-3.8486049976e-001
 2.4763132334e+000	 1.4964331589e+000	-4.3557139922e-001
 2.4598665036e+000	 1.5233173939e+000	-4.8474181217e-001
 2.4431065592e+000	 1.5500545525e+000	-5.3196854003e-001
 2.4260352741e+000	 1.5766392503e+000	-5.7670817771e-001
 2.4086546438e+000	 1.6030661319e+000	-6.1828512664e-001
 2.3909667855e+000	 1.6293298748e+000	-6.5590119211e-001
 2.3729739370e+000	 1.6554251926e+000	-6.8864668830e-001
 2.3546784563e+000	 1.6813468383e+000	-7.1551296144e-001
 2.5470152560e+000	 1.4279918910e+000	-2.7408348554e-001
 2.5313753737e+000	 1.4555363276e+000	-3.2460172528e-001
 2.5154144584e+000	 1.4829487779e+000	-3.7478164439e-001
 2.4991340303e+000	 1.5102237396e+000	-4.2440234093e-001
 2.4825357335e+000	 1.5373557298e+000	-4.7307778066e-001
 2.4656213356e+000	 1.5643392883e+000	-5.2026220601e-001
 2.4483927278e+000	 1.5911689809e+000	-5.6525735722e-001
 2.4308519240e+000	 1.6178394030e+000	-6.0722145146e-001
 2.4130010609e+000	 1.6443451829e+000	-6.4517985090e-001
 2.3948423969e+000	 1.6706809857e+000	-6.7803733712e-001
 2.3763783116e+000	 1.6968415158e+000	-7.0459189549e-001
 2.5702732795e+000	 1.4410315730e+000	-2.6824867622e-001
 2.5544905819e+000	 1.4688275311e+000	-3.1696484891e-001
 2.5383839198e+000	 1.4964902977e+000	-3.6601073305e-001
 2.5219548273e+000	 1.5240143202e+000	-4.1506943684e-001
 2.5052049635e+000	 1.5513940657e+000	-4.6364478232e-001
 2.4881361121e+000	 1.5786240241e+000	-5.1106746255e-001
 2.4707501815e+000	 1.6056987115e+000	-5.5650312977e-001
 2.4530492042e+000	 1.6326126741e+000	-5.9896235534e-001
 2.4350353362e+000	 1.6593604911e+000	-6.3731238745e-001
 2.4167108567e+000	 1.6859367787e+000	-6.7029061722e-001
 2.3980781670e+000	 1.7123361933e+000	-6.9651965014e-001
 2.5935313031e+000	 1.4540712550e+000	-2.6214221698e-001
 2.5776057902e+000	 1.4821187347e+000	-3.0980920989e-001
 2.5613533813e+000	 1.5100318175e+000	-3.5831531855e-001
 2.5447756243e+000	 1.5378049009e+000	-4.0726651756e-001
 2.5278741934e+000	 1.5654324017e+000	-4.5607503747e-001
 2.5106508885e+000	 1.5929087599e+000	-5.0396627897e-001
 2.4931076352e+000	 1.6202284422e+000	-5.4998778112e-001
 2.4752464844e+000	 1.6473859452e+000	-5.9302017984e-001
 2.4570696116e+000	 1.6743757993e+000	-6.3179007658e-001
 2.4385793165e+000	 1.7011925718e+000	-6.6488472168e-001
 2.4197780224e+000	 1.7278308708e+000	-6.9076840159e-001
 2.6167893266e+000	 1.4671109370e+000	-2.5567351520e-001
 2.6007209984e+000	 1.4954099382e+000	-3.0294945689e-001
 2.5843228427e+000	 1.5235733373e+000	-3.5142861778e-001
 2.5675964213e+000	 1.5515954815e+000	-4.0065803273e-001
 2.5505434234e+000	 1.5794707376e+000	-4.4997618650e-001
 2.5331656649e+000	 1.6071934957e+000	-4.9852069591e-001
 2.5154650889e+000	 1.6347581728e+000	-5.4523817385e-001
 2.4974437645e+000	 1.6621592163e+000	-5.8889620633e-001
 2.4791038869e+000	 1.6893911074e+000	-6.2809735671e-001
 2.4604477764e+000	 1.7164483649e+000	-6.6129509453e-001
 2.4414778778e+000	 1.7433255482e+000	-6.8681153074e-001
 2.6400473501e+000	 1.4801506190e+000	-2.4870988620e-001
 2.6238362066e+000	 1.5087011417e+000	-2.9616344238e-001
 2.6072923041e+000	 1.5371148572e+000	-3.4505219846e-001
 2.5904172183e+000	 1.5653860622e+000	-3.9488178519e-001
 2.5732126533e+000	 1.5935090735e+000	-4.4493408436e-001
 2.5556804414e+000	 1.6214782315e+000	-4.9427569210e-001
 2.5378225426e+000	 1.6492879035e+000	-5.4176869689e-001
 2.5196410447e+000	 1.6769324874e+000	-5.8608369804e-001
 2.5011381623e+000	 1.7044064156e+000	-6.2571497270e-001
 2.4823162362e+000	 1.7317041579e+000	-6.5899768175e-001
 2.4631777331e+000	 1.7588202257e+000	-6.8412698822e-001
 2.6633053737e+000	 1.4931903010e+000	-2.4107918407e-001
 2.6469514149e+000	 1.5219923453e+000	-2.8919487737e-001
 2.6302617655e+000	 1.5506563770e+000	-3.3885867215e-001
 2.6132380153e+000	 1.5791766428e+000	-3.8955167562e-001
 2.5958818832e+000	 1.6075474094e+000	-4.4051560905e-001
 2.5781952178e+000	 1.6357629673e+000	-4.9076206790e-001
 2.5601799963e+000	 1.6638176341e+000	-5.3908423438e-001
 2.5418383249e+000	 1.6917057586e+000	-5.8407096312e-001
 2.5231724376e+000	 1.7194217238e+000	-6.2412314115e-001
 2.5041846960e+000	 1.7469599510e+000	-6.5747220545e-001
 2.4848775885e+000	 1.7743149032e+000	-6.8220068323e-001
 2.6865633972e+000	 1.5062299830e+000	-2.3406359486e-001
 2.6700666231e+000	 1.5352835488e+000	-2.8179976571e-001
 2.6532312270e+000	 1.5641978968e+000	-3.3249439319e-001
 2.6360588123e+000	 1.5929672234e+000	-3.8426045693e-001
 2.6185511132e+000	 1.6215857453e+000	-4.3627148327e-001
 2.6007099942e+000	 1.6500477031e+000	-4.8749934476e-001
 2.5825374500e+000	 1.6783473647e+000	-5.3668315255e-001
 2.5640356051e+000	 1.7064790297e+000	-5.8234443753e-001
 2.5452067129e+000	 1.7344370319e+000	-6.2280473668e-001
 2.5260531559e+000	 1.7622157441e+000	-6.5620546001e-001
 2.5065774439e+000	 1.7898095807e+000	-6.8052989475e-001
 2.7098214207e+000	 1.5192696650e+000	-2.2953615023e-001
 2.6931818313e+000	 1.5485747523e+000	-2.7609743836e-001
 2.6762006884e+000	 1.5777394166e+000	-3.2592830412e-001
 2.6588796093e+000	 1.6067578041e+000	-3.7858249801e-001
 2.6412203431e+000	 1.6356240813e+000	-4.3173910833e-001
 2.6232247706e+000	 1.6643324389e+000	-4.8399867955e-001
 2.6048949037e+000	 1.6928770954e+000	-5.3406030351e-001
 2.5862328852e+000	 1.7212523008e+000	-5.8039178643e-001
 2.5672409883e+000	 1.7494523401e+000	-6.2124849799e-001
 2.5479216157e+000	 1.7774715371e+000	-6.5469462881e-001
 2.5282772993e+000	 1.8053042581e+000	-6.7862670384e-001
 2.7330794442e+000	 1.5323093471e+000	-2.2658245395e-001
 2.7162970396e+000	 1.5618659559e+000	-2.7272567076e-001
 2.6991701498e+000	 1.5912809365e+000	-3.2160506921e-001
 2.6817004063e+000	 1.6205483847e+000	-3.7296164214e-001
 2.6638895731e+000	 1.6496624172e+000	-4.2644540973e-001
 2.6457395471e+000	 1.6786171747e+000	-4.7976579295e-001
 2.6272523575e+000	 1.7074068260e+000	-5.3071004512e-001
 2.6084301654e+000	 1.7360255719e+000	-5.7770502311e-001
 2.5892752636e+000	 1.7644676483e+000	-6.1895225257e-001
 2.5697900756e+000	 1.7927273302e+000	-6.5245062026e-001
 2.5499771547e+000	 1.8207989356e+000	-6.7602144577e-001
 2.3329786009e+000	 1.6658521609e+000	-7.2980853697e-001
 2.3145543349e+000	 1.6913576940e+000	-7.5696605852e-001
 2.2958352475e+000	 1.7166808857e+000	-7.8924633350e-001
 2.2768240225e+000	 1.7418166714e+000	-8.2527640509e-001
 2.2575234588e+000	 1.7667600385e+000	-8.6366852721e-001
 2.2379364689e+000	 1.7915060304e+000	-9.0303767686e-001
 2.2180660781e+000	 1.8160497488e+000	-9.4201964861e-001
 2.1979154223e+000	 1.8403863575e+000	-9.7928958268e-001
 2.1774877469e+000	 1.8645110856e+000	-1.0135807729e+000
 2.1567864049e+000	 1.8884192298e+000	-1.0437035974e+000
 2.1358148552e+000	 1.9121061584e+000	-1.0685644133e+000
 2.3546784563e+000	 1.6813468383e+000	-7.1551296144e-001
 2.3360828197e+000	 1.7070896074e+000	-7.4203789055e-001
 2.3171896195e+000	 1.7326483391e+000	-7.7363965630e-001
 2.2980015644e+000	 1.7580179215e+000	-8.0903856082e-001
 2.2785214793e+000	 1.7831932957e+000	-8.4693526205e-001
 2.2587523040e+000	 1.8081694587e+000	-8.8602926274e-001
 2.2386970916e+000	 1.8329414669e+000	-9.2503802072e-001
 2.2183590075e+000	 1.8575044390e+000	-9.6271652306e-001
 2.1977413270e+000	 1.8818535596e+000	-9.9787716115e-001
 2.1768474346e+000	 1.9059840820e+000	-1.0294097402e+000
 2.1556808212e+000	 1.9298913311e+000	-1.0563014543e+000
 2.3763783116e+000	 1.6968415158e+000	-7.0459189549e-001
 2.3576113045e+000	 1.7228215208e+000	-7.3044140750e-001
 2.3385439915e+000	 1.7486157924e+000	-7.6128176388e-001
 2.3191791063e+000	 1.7742191716e+000	-7.9595674009e-001
 2.2995194998e+000	 1.7996265529e+000	-8.3328501068e-001
 2.2795681390e+000	 1.8248328871e+000	-8.7207961732e-001
 2.2593281052e+000	 1.8498331850e+000	-9.1116809949e-001
 2.2388025927e+000	 1.8746225205e+000	-9.4941312083e-001
 2.2179949072e+000	 1.8991960337e+000	-9.8573341896e-001
 2.1969084643e+000	 1.9235489341e+000	-1.0191249023e+000
 2.1755467871e+000	 1.9476765037e+000	-1.0486817153e+000
 2.3980781670e+000	 1.7123361933e+000	-6.9651965014e-001
 2.3791397893e+000	 1.7385534342e+000	-7.2164217799e-001
 2.3598983634e+000	 1.7645832457e+000	-7.5162425962e-001
 2.3403566481e+000	 1.7904204218e+000	-7.8546203900e-001
 2.3205175204e+000	 1.8160598101e+000	-8.2212049632e-001
 2.3003839741e+000	 1.8414963155e+000	-8.6055390162e-001
 2.2799591187e+000	 1.8667249031e+000	-8.9972697425e-001
 2.2592461779e+000	 1.8917406020e+000	-9.3863657188e-001
 2.2382484874e+000	 1.9165385078e+000	-9.7633372662e-001
 2.2169694940e+000	 1.9411137862e+000	-1.0119458419e+000
 2.1954127531e+000	 1.9654616763e+000	-1.0446988610e+000
 2.4197780224e+000	 1.7278308708e+000	-6.9076840159e-001
 2.4006682741e+000	 1.7542853477e+000	-7.1510752423e-001
 2.3812527354e+000	 1.7805506991e+000	-7.4412463341e-001
 2.3615341900e+000	 1.8066216719e+000	-7.7699583323e-001
 2.3415155409e+000	 1.8324930672e+000	-8.1285939053e-001
 2.3211998091e+000	 1.8581597438e+000	-8.5083718443e-001
 2.3005901323e+000	 1.8836166213e+000	-8.9005690741e-001
 2.2796897631e+000	 1.9088586835e+000	-9.2967483119e-001
 2.2585020676e+000	 1.9338809819e+000	-9.6889894508e-001
 2.2370305238e+000	 1.9586786384e+000	-1.0070122697e+000
 2.2152787191e+000	 1.9832468489e+000	-1.0433961461e+000
 2.4414778778e+000	 1.7433255482e+000	-6.8681153074e-001
 2.4221967589e+000	 1.7700172611e+000	-7.1030997204e-001
 2.4026071074e+000	 1.7965181524e+000	-7.3824980929e-001
 2.3827117319e+000	 1.8228229220e+000	-7.7001340873e-001
 2.3625135614e+000	 1.8489263244e+000	-8.0493801034e-001
 2.3420156442e+000	 1.8748231722e+000	-8.4233818789e-001
 2.3212211458e+000	 1.9005083394e+000	-8.8152910835e-001
 2.3001333483e+000	 1.9259767650e+000	-9.2185039334e-001
 2.2787556478e+000	 1.9512234559e+000	-9.6269037960e-001
 2.2570915535e+000	 1.9762434905e+000	-1.0035105705e+000
 2.2351446850e+000	 2.0010320215e+000	-1.0438604946e+000
 2.4631777331e+000	 1.7588202257e+000	-6.8412698822e-001
 2.4437252437e+000	 1.7857491745e+000	-7.0673072696e-001
 2.4239614793e+000	 1.8124856058e+000	-7.3347972041e-001
 2.4038892737e+000	 1.8390241722e+000	-7.6398762152e-001
 2.3835115820e+000	 1.8653595816e+000	-7.9781504728e-001
 2.3628314792e+000	 1.8914866005e+000	-8.3449306819e-001
 2.3418521594e+000	 1.9174000575e+000	-8.7354754686e-001
 2.3205769335e+000	 1.9430948465e+000	-9.1452411785e-001
 2.2990092280e+000	 1.9685659300e+000	-9.5701359461e-001
 2.2771525832e+000	 1.9938083427e+000	-1.0006775839e+000
 2.2550106510e+000	 2.0188171941e+000	-1.0421342691e+000
 2.4848775885e+000	 1.7743149032e+000	-6.8220068323e-001
 2.4652537285e+000	 1.8014810879e+000	-7.0386317486e-001
 2.4453158513e+000	 1.8284530591e+000	-7.2931090965e-001
 2.4250668156e+000	 1.8552254223e+000	-7.5841258487e-001
 2.4045096025e+000	 1.8817928388e+000	-7.9097532619e-001
 2.3836473142e+000	 1.9081500289e+000	-8.2676922941e-001
 2.3624831729e+000	 1.9342917756e+000	-8.6555280361e-001
 2.3410205187e+000	 1.9602129280e+000	-9.0709909658e-001
 2.3192628082e+000	 1.9859084041e+000	-9.5122227654e-001
 2.2972136130e+000	 2.0113731948e+000	-9.9663474743e-001
 2.2748766169e+000	 2.0366023667e+000	-1.0351106470e+000
 2.5065774439e+000	 1.7898095807e+000	-6.8052989475e-001
 2.4867822132e+000	 1.8172130013e+000	-7.0121640538e-001
 2.4666702233e+000	 1.8444205124e+000	-7.2526015416e-001
 2.4462443575e+000	 1.8714266724e+000	-7.5280738226e-001
 2.4255076230e+000	 1.8982260959e+000	-7.8393359202e-001
 2.4044631493e+000	 1.9248134572e+000	-8.1866916827e-001
 2.3831141864e+000	 1.9511834937e+000	-8.5702595554e-001
 2.3614641039e+000	 1.9773310094e+000	-8.9902456051e-001
 2.3395163884e+000	 2.0032508782e+000	-9.4462465938e-001
 2.3172746427e+000	 2.0289380470e+000	-9.8677351903e-001
 2.2947425829e+000	 2.0543875393e+000	-1.0223169427e+000
 2.5282772993e+000	 1.8053042581e+000	-6.7862670384e-001
 2.5083106980e+000	 1.8329449147e+000	-6.9831875716e-001
 2.4880245952e+000	 1.8603879658e+000	-7.2086811264e-001
 2.4674218994e+000	 1.8876279226e+000	-7.4671980439e-001
 2.4465056436e+000	 1.9146593531e+000	-7.7623832302e-001
 2.4252789843e+000	 1.9414768856e+000	-8.0973434819e-001
 2.4037452000e+000	 1.9680752119e+000	-8.4749249389e-001
 2.3819076891e+000	 1.9944490909e+000	-8.8979982380e-001
 2.3597699686e+000	 2.0205933522e+000	-9.3311676999e-001
 2.3373356724e+000	 2.0465028991e+000	-9.7039207938e-001
 2.3146085489e+000	 2.0721727119e+000	-1.0033559731e+000
 2.5499771547e+000	 1.8207989356e+000	-6.7602144577e-001
 2.5298391828e+000	 1.8486768282e+000	-6.9472138319e-001
 2.5093789672e+000	 1.8763554191e+000	-7.1570299380e-001
 2.4885994412e+000	 1.9038291727e+000	-7.3973010898e-001
 2.4675036641e+000	 1.9310926103e+000	-7.6747556861e-001
 2.4460948194e+000	 1.9581403139e+000	-7.9954910066e-001
 2.4243762135e+000	 1.9849669300e+000	-8.3652627311e-001
 2.4023512743e+000	 2.0115671724e+000	-8.7773673750e-001
 2.3800235488e+000	 2.0379358263e+000	-9.1459323502e-001
 2.3573967021e+000	 2.0640677512e+000	-9.4720919730e-001
 2.3344745148e+000	 2.0899578845e+000	-9.7790242431e-001
 2.1358148552e+000	 1.9121061584e+000	-1.0685644133e+000
 2.1145798665e+000	 1.9355638122e+000	-1.0882313973e+000
 2.0930819779e+000	 1.9587912834e+000	-1.1056253277e+000
 2.0713249545e+000	 1.9817841752e+000	-1.1240598735e+000
 2.0493126586e+000	 2.0045381730e+000	-1.1467543034e+000
 2.0270490478e+000	 2.0270490478e+000	-1.1716370992e+000
 2.0045381730e+000	 2.0493126586e+000	-1.2001961696e+000
 1.9817841752e+000	 2.0713249545e+000	-1.2276803331e+000
 1.9587912834e+000	 2.0930819779e+000	-1.2381931518e+000
 1.9355638122e+000	 2.1145798665e+000	-1.2325950970e+000
 1.9121061584e+000	 2.1358148552e+000	-1.2121233141e+000
 2.1556808212e+000	 1.9298913311e+000	-1.0563014543e+000
 2.1342483183e+000	 1.9535671727e+000	-1.0779416934e+000
 2.1125504704e+000	 1.9770106908e+000	-1.0963616918e+000
 2.0905910772e+000	 2.0002174476e+000	-1.1146469567e+000
 2.0683740371e+000	 2.0231830883e+000	-1.1314564947e+000
 2.0459033447e+000	 2.0459033447e+000	-1.1463198582e+000
 2.0231830883e+000	 2.0683740371e+000	-1.1633814846e+000
 2.0002174476e+000	 2.0905910772e+000	-1.1867006594e+000
 1.9770106908e+000	 2.1125504704e+000	-1.2053374897e+000
 1.9535671727e+000	 2.1342483183e+000	-1.2058652953e+000
 1.9298913311e+000	 2.1556808212e+000	-1.1892405654e+000
 2.1755467871e+000	 1.9476765037e+000	-1.0486817153e+000
 2.1539167702e+000	 1.9715705332e+000	-1.0731734895e+000
 2.1320189628e+000	 1.9952300982e+000	-1.0937420277e+000
 2.1098571999e+000	 2.0186507199e+000	-1.1102171829e+000
 2.0874354157e+000	 2.0418280036e+000	-1.1198692958e+000
 2.0647576416e+000	 2.0647576416e+000	-1.1264174529e+000
 2.0418280036e+000	 2.0874354157e+000	-1.1337126945e+000
 2.0186507199e+000	 2.1098571999e+000	-1.1455254571e+000
 1.9952300982e+000	 2.1320189628e+000	-1.1648828126e+000
 1.9715705332e+000	 2.1539167702e+000	-1.1737639402e+000
 1.9476765037e+000	 2.1755467871e+000	-1.1630467158e+000
 2.1954127531e+000	 1.9654616763e+000	-1.0446988610e+000
 2.1735852220e+000	 1.9895738937e+000	-1.0728172744e+000
 2.1514874552e+000	 2.0134495056e+000	-1.0950032132e+000
 2.1291233226e+000	 2.0370839923e+000	-1.1068295893e+000
 2.1064967943e+000	 2.0604729190e+000	-1.1109379693e+000
 2.0836119385e+000	 2.0836119385e+000	-1.1108919503e+000
 2.0604729190e+000	 2.1064967943e+000	-1.1101932111e+000
 2.0370839923e+000	 2.1291233226e+000	-1.1122686993e+000
 2.0134495056e+000	 2.1514874552e+000	-1.1204581739e+000
 1.9895738937e+000	 2.1735852220e+000	-1.1347956108e+000
 1.9654616763e+000	 2.1954127531e+000	-1.1321866899e+000
 2.2152787191e+000	 1.9832468489e+000	-1.0433961461e+000
 2.1932536739e+000	 2.0075772542e+000	-1.0753131233e+000
 2.1709559476e+000	 2.0316689130e+000	-1.0951380041e+000
 2.1483894453e+000	 2.0555172647e+000	-1.1035399049e+000
 2.1255581729e+000	 2.0791178343e+000	-1.1037137636e+000
 2.1024662354e+000	 2.1024662354e+000	-1.0988123661e+000
 2.0791178343e+000	 2.1255581729e+000	-1.0919335022e+000
 2.0555172647e+000	 2.1483894453e+000	-1.0861073941e+000
 2.0316689130e+000	 2.1709559476e+000	-1.0842844854e+000
 2.0075772542e+000	 2.1932536739e+000	-1.0893236782e+000
 1.9832468489e+000	 2.2152787191e+000	-1.0954476512e+000
 2.2351446850e+000	 2.0010320215e+000	-1.0438604946e+000
 2.2129221257e+000	 2.0255806147e+000	-1.0754920062e+000
 2.1904244401e+000	 2.0498883204e+000	-1.0931251376e+000
 2.1676555679e+000	 2.0739505371e+000	-1.0995035565e+000
 2.1446195514e+000	 2.0977627496e+000	-1.0973492759e+000
 2.1213205323e+000	 2.1213205323e+000	-1.0893499486e+000
 2.0977627496e+000	 2.1446195514e+000	-1.0781463393e+000
 2.0739505371e+000	 2.1676555679e+000	-1.0663200682e+000
 2.0498883204e+000	 2.1904244401e+000	-1.0563817202e+000
 2.0255806147e+000	 2.2129221257e+000	-1.0507594088e+000
 2.0010320215e+000	 2.2351446850e+000	-1.0517878807e+000
 2.2550106510e+000	 2.0188171941e+000	-1.0421342691e+000
 2.2325905776e+000	 2.0435839752e+000	-1.0716930680e+000
 2.2098929325e+000	 2.0681077278e+000	-1.0882359811e+000
 2.1869216906e+000	 2.0923838094e+000	-1.0939712403e+000
 2.1636809300e+000	 2.1164076649e+000	-1.0910939057e+000
 2.1401748292e+000	 2.1401748292e+000	-1.0817735534e+000
 2.1164076649e+000	 2.1636809300e+000	-1.0681421357e+000
 2.0923838094e+000	 2.1869216906e+000	-1.0522821120e+000
 2.0681077278e+000	 2.2098929325e+000	-1.0362149489e+000
 2.0435839752e+000	 2.2325905776e+000	-1.0218900812e+000
 2.0188171941e+000	 2.2550106510e+000	-1.0111744213e+000
 2.2748766169e+000	 2.0366023667e+000	-1.0351106470e+000
 2.2522590294e+000	 2.0615873357e+000	-1.0633124947e+000
 2.2293614249e+000	 2.0863271352e+000	-1.0798307564e+000
 2.2061878133e+000	 2.1108170818e+000	-1.0862845752e+000
 2.1827423086e+000	 2.1350525802e+000	-1.0842893937e+000
 2.1590291261e+000	 2.1590291261e+000	-1.0754451048e+000
 2.1350525802e+000	 2.1827423086e+000	-1.0613243698e+000
 2.1108170818e+000	 2.2061878133e+000	-1.0434612073e+000
 2.0863271352e+000	 2.2293614249e+000	-1.0233399506e+000
 2.0615873357e+000	 2.2522590294e+000	-1.0023846731e+000
 2.0366023667e+000	 2.2748766169e+000	-9.8194916959e-001
 2.2947425829e+000	 2.0543875393e+000	-1.0223169427e+000
 2.2719274813e+000	 2.0795906962e+000	-1.0498287016e+000
 2.2488299173e+000	 2.1045465426e+000	-1.0673544158e+000
 2.2254539360e+000	 2.1292503542e+000	-1.0758718342e+000
 2.2018036872e+000	 2.1536974956e+000	-1.0763654408e+000
 2.1778834230e+000	 2.1778834230e+000	-1.0698151377e+000
 2.1536974956e+000	 2.2018036872e+000	-1.0571850891e+000
 2.1292503542e+000	 2.2254539360e+000	-1.0394128324e+000
 2.1045465426e+000	 2.2488299173e+000	-1.0173987605e+000
 2.0795906962e+000	 2.2719274813e+000	-9.9199607418e-001
 2.0543875393e+000	 2.2947425829e+000	-9.6400130016e-001
 2.3146085489e+000	 2.0721727119e+000	-1.0033559731e+000
 2.2915959331e+000	 2.0975940567e+000	-1.0307984490e+000
 2.2682984098e+000	 2.1227659500e+000	-1.0503325878e+000
 2.2447200587e+000	 2.1476836265e+000	-1.0622437476e+000
 2.2208650657e+000	 2.1723424109e+000	-1.0668354011e+000
 2.1967377199e+000	 2.1967377199e+000	-1.0644184160e+000
 2.1723424109e+000	 2.2208650657e+000	-1.0553004880e+000
 2.1476836265e+000	 2.2447200587e+000	-1.0397758391e+000
 2.1227659500e+000	 2.2682984098e+000	-1.0181152861e+000
 2.0975940567e+000	 2.2915959331e+000	-9.9055678269e-001
 2.0721727119e+000	 2.3146085489e+000	-9.5729653536e-001
 2.3344745148e+000	 2.0899578845e+000	-9.7790242431e-001
 2.3112643850e+000	 2.1155974172e+000	-1.0058530176e+000
 2.2877669022e+000	 2.1409853574e+000	-1.0283675853e+000
 2.2639861814e+000	 2.1661168989e+000	-1.0449893743e+000
 2.2399264443e+000	 2.1909873262e+000	-1.0552920472e+000
 2.2155920168e+000	 2.2155920168e+000	-1.0588696222e+000
 2.1909873262e+000	 2.2399264443e+000	-1.0553265580e+000
 2.1661168989e+000	 2.2639861814e+000	-1.0442680983e+000
 2.1409853574e+000	 2.2877669022e+000	-1.0252909868e+000
 2.1155974172e+000	 2.3112643850e+000	-9.9797465974e-001
 2.0899578845e+000	 2.3344745148e+000	-9.6187301608e-001
 1.9121061584e+000	 2.1358148552e+000	-1.2121233141e+000
 1.8884192298e+000	 2.1567864049e+000	-1.1908968927e+000
 1.8645110856e+000	 2.1774877469e+000	-1.1806551828e+000
 1.8403863575e+000	 2.1979154223e+000	-1.1788994577e+000
 1.8160497488e+000	 2.2180660781e+000	-1.1831049927e+000
 1.7915060304e+000	 2.2379364689e+000	-1.1907401183e+000
 1.7667600385e+000	 2.2575234588e+000	-1.1992848904e+000
 1.7418166714e+000	 2.2768240225e+000	-1.2062492523e+000
 1.7166808857e+000	 2.2958352475e+000	-1.2091905660e+000
 1.6913576940e+000	 2.3145543349e+000	-1.2057303987e+000
 1.6658521609e+000	 2.3329786009e+000	-1.1935704533e+000
 1.9298913311e+000	 2.1556808212e+000	-1.1892405654e+000
 1.9059840820e+000	 2.1768474346e+000	-1.1702343228e+000
 1.8818535596e+000	 2.1977413270e+000	-1.1615017910e+000
 1.8575044390e+000	 2.2183590075e+000	-1.1606639082e+000
 1.8329414669e+000	 2.2386970916e+000	-1.1653155174e+000
 1.8081694587e+000	 2.2587523040e+000	-1.1730451665e+000
 1.7831932957e+000	 2.2785214793e+000	-1.1814545012e+000
 1.7580179215e+000	 2.2980015644e+000	-1.1881771199e+000
 1.7326483391e+000	 2.3171896195e+000	-1.1908967623e+000
 1.7070896074e+000	 2.3360828197e+000	-1.1873647097e+000
 1.6813468383e+000	 2.3546784563e+000	-1.1754162817e+000
 1.9476765037e+000	 2.1755467871e+000	-1.1630467158e+000
 1.9235489341e+000	 2.1969084643e+000	-1.1480446673e+000
 1.8991960337e+000	 2.2179949072e+000	-1.1422737052e+000
 1.8746225205e+000	 2.2388025927e+000	-1.1435033758e+000
 1.8498331850e+000	 2.2593281052e+000	-1.1494761602e+000
 1.8248328871e+000	 2.2795681390e+000	-1.1579280175e+000
 1.7996265529e+000	 2.2995194998e+000	-1.1666084992e+000
 1.7742191716e+000	 2.3191791063e+000	-1.1733002966e+000
 1.7486157924e+000	 2.3385439915e+000	-1.1758380853e+000
 1.7228215208e+000	 2.3576113045e+000	-1.1721265395e+000
 1.6968415158e+000	 2.3763783116e+000	-1.1601573959e+000
 1.9654616763e+000	 2.1954127531e+000	-1.1321866899e+000
 1.9411137862e+000	 2.2169694940e+000	-1.1231181120e+000
 1.9165385078e+000	 2.2382484874e+000	-1.1218855821e+000
 1.8917406020e+000	 2.2592461779e+000	-1.1264350506e+000
 1.8667249031e+000	 2.2799591187e+000	-1.1346835854e+000
 1.8414963155e+000	 2.3003839741e+000	-1.1445406590e+000
 1.8160598101e+000	 2.3205175204e+000	-1.1539289857e+000
 1.7904204218e+000	 2.3403566481e+000	-1.1608047627e+000
 1.7645832457e+000	 2.3598983634e+000	-1.1631771733e+000
 1.7385534342e+000	 2.3791397893e+000	-1.1591270184e+000
 1.7123361933e+000	 2.3980781670e+000	-1.1468243491e+000
 1.9832468489e+000	 2.2152787191e+000	-1.0954476512e+000
 1.9586786384e+000	 2.2370305238e+000	-1.0943844635e+000
 1.9338809819e+000	 2.2585020676e+000	-1.0993897064e+000
 1.9088586835e+000	 2.2796897631e+000	-1.1086124009e+000
 1.8836166213e+000	 2.3005901323e+000	-1.1201700468e+000
 1.8581597438e+000	 2.3211998091e+000	-1.1321706577e+000
 1.8324930672e+000	 2.3415155409e+000	-1.1427343244e+000
 1.8066216719e+000	 2.3615341900e+000	-1.1500141546e+000
 1.7805506991e+000	 2.3812527354e+000	-1.1522164401e+000
 1.7542853477e+000	 2.4006682741e+000	-1.1476199103e+000
 1.7278308708e+000	 2.4197780224e+000	-1.1345939391e+000
 2.0010320215e+000	 2.2351446850e+000	-1.0517878807e+000
 1.9762434905e+000	 2.2570915535e+000	-1.0609095573e+000
 1.9512234559e+000	 2.2787556478e+000	-1.0739726505e+000
 1.9259767650e+000	 2.3001333483e+000	-1.0893220565e+000
 1.9005083394e+000	 2.3212211458e+000	-1.1053004653e+000
 1.8748231722e+000	 2.3420156442e+000	-1.1202383999e+000
 1.8489263244e+000	 2.3625135614e+000	-1.1324765131e+000
 1.8228229220e+000	 2.3827117319e+000	-1.1403872333e+000
 1.7965181524e+000	 2.4026071074e+000	-1.1423956039e+000
 1.7700172611e+000	 2.4221967589e+000	-1.1369991665e+000
 1.7433255482e+000	 2.4414778778e+000	-1.1227867501e+000
 2.0188171941e+000	 2.2550106510e+000	-1.0111744213e+000
 1.9938083427e+000	 2.2771525832e+000	-1.0218917173e+000
 1.9685659300e+000	 2.2990092280e+000	-1.0449519757e+000
 1.9430948465e+000	 2.3205769335e+000	-1.0679807258e+000
 1.9174000575e+000	 2.3418521594e+000	-1.0895695336e+000
 1.8914866005e+000	 2.3628314792e+000	-1.1082943543e+000
 1.8653595816e+000	 2.3835115820e+000	-1.1227385737e+000
 1.8390241722e+000	 2.4038892737e+000	-1.1315153699e+000
 1.8124856058e+000	 2.4239614793e+000	-1.1332892357e+000
 1.7857491745e+000	 2.4437252437e+000	-1.1267965021e+000
 1.7588202257e+000	 2.4631777331e+000	-1.1108647198e+000
 2.0366023667e+000	 2.2748766169e+000	-9.8194916959e-001
 2.0113731948e+000	 2.2972136130e+000	-9.8078781102e-001
 1.9859084041e+000	 2.3192628082e+000	-1.0117729725e+000
 1.9602129280e+000	 2.3410205187e+000	-1.0441321436e+000
 1.9342917756e+000	 2.3624831729e+000	-1.0725988447e+000
 1.9081500289e+000	 2.3836473142e+000	-1.0960163544e+000
 1.8817928388e+000	 2.4045096025e+000	-1.1132319594e+000
 1.8552254223e+000	 2.4250668156e+000	-1.1231200472e+000
 1.8284530591e+000	 2.4453158513e+000	-1.1246043231e+000
 1.8014810879e+000	 2.4652537285e+000	-1.1166789892e+000
 1.7743149032e+000	 2.4848775885e+000	-1.0984287300e+000
 2.0543875393e+000	 2.2947425829e+000	-9.6400130016e-001
 2.0289380470e+000	 2.3172746427e+000	-9.5164895088e-001
 2.0032508782e+000	 2.3395163884e+000	-9.7435133040e-001
 1.9773310094e+000	 2.3614641039e+000	-1.0174440479e+000
 1.9511834937e+000	 2.3831141864e+000	-1.0541340447e+000
 1.9248134572e+000	 2.4044631493e+000	-1.0832068999e+000
 1.8982260959e+000	 2.4255076230e+000	-1.1037939783e+000
 1.8714266724e+000	 2.4462443575e+000	-1.1150503760e+000
 1.8444205124e+000	 2.4666702233e+000	-1.1161778506e+000
 1.8172130013e+000	 2.4867822132e+000	-1.1064466701e+000
 1.7898095807e+000	 2.5065774439e+000	-1.0852162192e+000
 2.0721727119e+000	 2.3146085489e+000	-9.5729653536e-001
 2.0465028991e+000	 2.3373356724e+000	-9.3579129293e-001
 2.0205933522e+000	 2.3597699686e+000	-9.4533888586e-001
 1.9944490909e+000	 2.3819076891e+000	-9.8770518426e-001
 1.9680752119e+000	 2.4037452000e+000	-1.0340420070e+000
 1.9414768856e+000	 2.4252789843e+000	-1.0697904769e+000
 1.9146593531e+000	 2.4465056436e+000	-1.0943852316e+000
 1.8876279226e+000	 2.4674218994e+000	-1.1072806260e+000
 1.8603879658e+000	 2.4880245952e+000	-1.1079743940e+000
 1.8329449147e+000	 2.5083106980e+000	-1.0960301861e+000
 1.8053042581e+000	 2.5282772993e+000	-1.0710988160e+000
 2.0899578845e+000	 2.3344745148e+000	-9.6187301608e-001
 2.0640677512e+000	 2.3573967021e+000	-9.3338850358e-001
 2.0379358263e+000	 2.3800235488e+000	-9.3147128388e-001
 2.0115671724e+000	 2.4023512743e+000	-9.5933626684e-001
 1.9849669300e+000	 2.4243762135e+000	-1.0123080272e+000
 1.9581403139e+000	 2.4460948194e+000	-1.0558108931e+000
 1.9310926103e+000	 2.4675036641e+000	-1.0850870669e+000
 1.9038291727e+000	 2.4885994412e+000	-1.0999077700e+000
 1.8763554191e+000	 2.5093789672e+000	-1.1000837287e+000
 1.8486768282e+000	 2.5298391828e+000	-1.0854884227e+000
 1.8207989356e+000	 2.5499771547e+000	-1.0560799918e+000
 1.6658521609e+000	 2.3329786009e+000	-1.1935704533e+000
 1.6401693995e+000	 2.3511054772e+000	-1.1763962621e+000
 1.6143145666e+000	 2.3689325102e+000	-1.1579452497e+000
 1.5882928607e+000	 2.3864573637e+000	-1.1361708752e+000
 1.5621095196e+000	 2.4036778204e+000	-1.1091752186e+000
 1.5357698167e+000	 2.4205917828e+000	-1.0752191076e+000
 1.5092790580e+000	 2.4371972736e+000	-1.0327308774e+000
 1.4826425783e+000	 2.4534924364e+000	-9.8031371775e-001
 1.4558657382e+000	 2.4694755356e+000	-9.1675157092e-001
 1.4289539205e+000	 2.4851449573e+000	-8.4101355751e-001
 1.4019125270e+000	 2.5004992089e+000	-7.5225691551e-001
 1.6813468383e+000	 2.3546784563e+000	-1.1754162817e+000
 1.6554251926e+000	 2.3729739370e+000	-1.1590541068e+000
 1.6293298748e+000	 2.3909667855e+000	-1.1419816916e+000
 1.6030661319e+000	 2.4086546438e+000	-1.1217794704e+000
 1.5766392503e+000	 2.4260352741e+000	-1.0961995977e+000
 1.5500545525e+000	 2.4431065592e+000	-1.0631771266e+000
 1.5233173939e+000	 2.4598665036e+000	-1.0208397077e+000
 1.4964331589e+000	 2.4763132334e+000	-9.6751575793e-001
 1.4694072580e+000	 2.4924449970e+000	-9.0174106292e-001
 1.4422451241e+000	 2.5082601655e+000	-8.2226378474e-001
 1.4149522090e+000	 2.5237572325e+000	-7.2804786081e-001
 1.6968415158e+000	 2.3763783116e+000	-1.1601573959e+000
 1.6706809857e+000	 2.3948423969e+000	-1.1444070867e+000
 1.6443451829e+000	 2.4130010609e+000	-1.1287226893e+000
 1.6178394030e+000	 2.4308519240e+000	-1.1103636763e+000
 1.5911689809e+000	 2.4483927278e+000	-1.0867826389e+000
 1.5643392883e+000	 2.4656213356e+000	-1.0556374749e+000
 1.5373557298e+000	 2.4825357335e+000	-1.0148019847e+000
 1.5102237396e+000	 2.4991340303e+000	-9.6237482324e-001
 1.4829487779e+000	 2.5154144584e+000	-8.9668676571e-001
 1.4555363276e+000	 2.5313753737e+000	-8.1630625892e-001
 1.4279918910e+000	 2.5470152560e+000	-7.2004324147e-001
 1.7123361933e+000	 2.3980781670e+000	-1.1468243491e+000
 1.6859367787e+000	 2.4167108567e+000	-1.1313680678e+000
 1.6593604911e+000	 2.4350353362e+000	-1.1169177330e+000
 1.6326126741e+000	 2.4530492042e+000	-1.1004622932e+000
 1.6056987115e+000	 2.4707501815e+000	-1.0792035817e+000
 1.5786240241e+000	 2.4881361121e+000	-1.0505694755e+000
 1.5513940657e+000	 2.5052049635e+000	-1.0122253496e+000
 1.5240143202e+000	 2.5219548273e+000	-9.6208377342e-001
 1.4964902977e+000	 2.5383839198e+000	-8.9831240218e-001
 1.4688275311e+000	 2.5544905819e+000	-8.1934003456e-001
 1.4410315730e+000	 2.5702732795e+000	-7.2386081727e-001
 1.7278308708e+000	 2.4197780224e+000	-1.1345939391e+000
 1.7011925718e+000	 2.4385793165e+000	-1.1190007964e+000
 1.6743757993e+000	 2.4570696116e+000	-1.1054731447e+000
 1.6473859452e+000	 2.4752464844e+000	-1.0907782630e+000
 1.6202284422e+000	 2.4931076352e+000	-1.0719145187e+000
 1.5929087599e+000	 2.5106508885e+000	-1.0461254589e+000
 1.5654324017e+000	 2.5278741934e+000	-1.0109120882e+000
 1.5378049009e+000	 2.5447756243e+000	-9.6404327146e-001
 1.5100318175e+000	 2.5613533813e+000	-9.0356421678e-001
 1.4821187347e+000	 2.5776057902e+000	-8.2780300269e-001
 1.4540712550e+000	 2.5935313031e+000	-7.3537513183e-001
 1.7433255482e+000	 2.4414778778e+000	-1.1227867501e+000
 1.7164483649e+000	 2.4604477764e+000	-1.1065173773e+000
 1.6893911074e+000	 2.4791038869e+000	-1.0934494284e+000
 1.6621592163e+000	 2.4974437645e+000	-1.0801758264e+000
 1.6347581728e+000	 2.5154650889e+000	-1.0635372898e+000
 1.6071934957e+000	 2.5331656649e+000	-1.0406373230e+000
 1.5794707376e+000	 2.5505434234e+000	-1.0088552817e+000
 1.5515954815e+000	 2.5675964213e+000	-9.6585745028e-001
 1.5235733373e+000	 2.5843228427e+000	-9.0960607992e-001
 1.4954099382e+000	 2.6007209984e+000	-8.3836635272e-001
 1.4671109370e+000	 2.6167893266e+000	-7.5071124989e-001
 1.7588202257e+000	 2.4631777331e+000	-1.1108647198e+000
 1.7317041579e+000	 2.4823162362e+000	-1.0932757851e+000
 1.7044064156e+000	 2.5011381623e+000	-1.0800586653e+000
 1.6769324874e+000	 2.5196410447e+000	-1.0676777374e+000
 1.6492879035e+000	 2.5378225426e+000	-1.0528604518e+000
 1.6214782315e+000	 2.5556804414e+000	-1.0326131887e+000
 1.5935090735e+000	 2.5732126533e+000	-1.0042350809e+000
 1.5653860622e+000	 2.5904172183e+000	-9.6532973172e-001
 1.5371148572e+000	 2.6072923041e+000	-9.1381477812e-001
 1.5087011417e+000	 2.6238362066e+000	-8.4792925787e-001
 1.4801506190e+000	 2.6400473501e+000	-7.6623876015e-001
 1.7743149032e+000	 2.4848775885e+000	-1.0984287300e+000
 1.7469599510e+000	 2.5041846960e+000	-1.0787774057e+000
 1.7194217238e+000	 2.5231724376e+000	-1.0646619483e+000
 1.6917057586e+000	 2.5418383249e+000	-1.0524625321e+000
 1.6638176341e+000	 2.5601799963e+000	-1.0388363181e+000
 1.6357629673e+000	 2.5781952178e+000	-1.0207341482e+000
 1.6075474094e+000	 2.5958818832e+000	-9.9541509426e-001
 1.5791766428e+000	 2.6132380153e+000	-9.6045878827e-001
 1.5506563770e+000	 2.6302617655e+000	-9.1377547857e-001
 1.5219923453e+000	 2.6469514149e+000	-8.5361377054e-001
 1.4931903010e+000	 2.6633053737e+000	-7.7856602767e-001
 1.7898095807e+000	 2.5065774439e+000	-1.0852162192e+000
 1.7622157441e+000	 2.5260531559e+000	-1.0626646061e+000
 1.7344370319e+000	 2.5452067129e+000	-1.0467668547e+000
 1.7064790297e+000	 2.5640356051e+000	-1.0338618471e+000
 1.6783473647e+000	 2.5825374500e+000	-1.0205780655e+000
 1.6500477031e+000	 2.6007099942e+000	-1.0038510977e+000
 1.6215857453e+000	 2.6185511132e+000	-9.8093888557e-001
 1.5929672234e+000	 2.6360588123e+000	-9.4943463906e-001
 1.5641978968e+000	 2.6532312270e+000	-9.0727735765e-001
 1.5352835488e+000	 2.6700666231e+000	-8.5273711013e-001
 1.5062299830e+000	 2.6865633972e+000	-7.8385353976e-001
 1.8053042581e+000	 2.5282772993e+000	-1.0710988160e+000
 1.7774715371e+000	 2.5479216157e+000	-1.0447183312e+000
 1.7494523401e+000	 2.5672409883e+000	-1.0260249554e+000
 1.7212523008e+000	 2.5862328852e+000	-1.0113577870e+000
 1.6928770954e+000	 2.6048949037e+000	-9.9735690307e-001
 1.6643324389e+000	 2.6232247706e+000	-9.8098165120e-001
 1.6356240813e+000	 2.6412203431e+000	-9.5952657199e-001
 1.6067578041e+000	 2.6588796093e+000	-9.3063487198e-001
 1.5777394166e+000	 2.6762006884e+000	-8.9217089840e-001
 1.5485747523e+000	 2.6931818313e+000	-8.4209050498e-001
 1.5192696650e+000	 2.7098214207e+000	-7.7960965671e-001
 1.8207989356e+000	 2.5499771547e+000	-1.0560799918e+000
 1.7927273302e+000	 2.5697900756e+000	-1.0248557262e+000
 1.7644676483e+000	 2.5892752636e+000	-1.0022293565e+000
 1.7360255719e+000	 2.6084301654e+000	-9.8458033531e-001
 1.7074068260e+000	 2.6272523575e+000	-9.6859930009e-001
 1.6786171747e+000	 2.6457395471e+000	-9.5130712961e-001
 1.6496624172e+000	 2.6638895731e+000	-9.3007151842e-001
 1.6205483847e+000	 2.6817004063e+000	-9.0235709164e-001
 1.5912809365e+000	 2.6991701498e+000	-8.6624828230e-001
 1.5618659559e+000	 2.7162970396e+000	-8.2091930901e-001
 1.5323093471e+000	 2.7330794442e+000	-7.6578692782e-001
 1.4019125270e+000	 2.5004992089e+000	-7.5225691551e-001
 1.3747510586e+000	 2.5155346883e+000	-6.8441164471e-001
 1.3474708973e+000	 2.5302524749e+000	-6.7460172575e-001
 1.3200774803e+000	 2.5446514432e+000	-7.1744600640e-001
 1.2925762503e+000	 2.5587305887e+000	-7.5466382231e-001
 1.2649726523e+000	 2.5724890275e+000	-7.7632316693e-001
 1.2372721302e+000	 2.5859259956e+000	-7.8336425455e-001
 1.2094801237e+000	 2.5990408487e+000	-7.7678207789e-001
 1.1816020650e+000	 2.6118330614e+000	-7.5759745635e-001
 1.1536433759e+000	 2.6243022261e+000	-7.2682804389e-001
 1.1256094643e+000	 2.6364480523e+000	-6.8545965063e-001
 1.4149522090e+000	 2.5237572325e+000	-7.2804786081e-001
 1.3875381023e+000	 2.5389325621e+000	-6.5115983272e-001
 1.3600041986e+000	 2.5537872440e+000	-6.2748960766e-001
 1.3323559857e+000	 2.5683201422e+000	-6.6184969346e-001
 1.3045989571e+000	 2.5825302428e+000	-7.1319010806e-001
 1.2767386083e+000	 2.5964166536e+000	-7.4398305475e-001
 1.2487804339e+000	 2.6099786037e+000	-7.5589712940e-001
 1.2207299242e+000	 2.6232154428e+000	-7.5062792458e-001
 1.1925925618e+000	 2.6361266403e+000	-7.2986522552e-001
 1.1643738191e+000	 2.6487117851e+000	-6.9526027291e-001
 1.1360791543e+000	 2.6609705839e+000	-6.4839347265e-001
 1.4279918910e+000	 2.5470152560e+000	-7.2004324147e-001
 1.4003251459e+000	 2.5623304359e+000	-6.3774002642e-001
 1.3725374998e+000	 2.5773220132e+000	-6.0358812230e-001
 1.3446344912e+000	 2.5919888412e+000	-6.2309416139e-001
 1.3166216639e+000	 2.6063298969e+000	-6.8588417418e-001
 1.2885045643e+000	 2.6203442798e+000	-7.2987813081e-001
 1.2602887376e+000	 2.6340312119e+000	-7.5015994237e-001
 1.2319797246e+000	 2.6473900368e+000	-7.4905909859e-001
 1.2035830587e+000	 2.6604202192e+000	-7.2887312681e-001
 1.1751042623e+000	 2.6731213441e+000	-6.9146978043e-001
 1.1465488442e+000	 2.6854931155e+000	-6.3684959091e-001
 1.4410315730e+000	 2.5702732795e+000	-7.2386081727e-001
 1.4131121895e+000	 2.5857283097e+000	-6.3920055716e-001
 1.3850708010e+000	 2.6008567823e+000	-5.9745913179e-001
 1.3569129966e+000	 2.6156575402e+000	-6.0467627199e-001
 1.3286443707e+000	 2.6301295510e+000	-6.6555114498e-001
 1.3002705204e+000	 2.6442719060e+000	-7.2640303297e-001
 1.2717970413e+000	 2.6580838200e+000	-7.5823911444e-001
 1.2432295251e+000	 2.6715646308e+000	-7.6379591467e-001
 1.2145735555e+000	 2.6847137981e+000	-7.4406698381e-001
 1.1858347055e+000	 2.6975309030e+000	-7.0118941701e-001
 1.1570185342e+000	 2.7100156471e+000	-6.3762908540e-001
 1.4540712550e+000	 2.5935313031e+000	-7.3537513183e-001
 1.4258992331e+000	 2.6091261836e+000	-6.5086366197e-001
 1.3976041023e+000	 2.6243915514e+000	-6.0395214986e-001
 1.3691915020e+000	 2.6393262393e+000	-6.0110471875e-001
 1.3406670775e+000	 2.6539292051e+000	-6.4869050378e-001
 1.3120364764e+000	 2.6681995322e+000	-7.2644906738e-001
 1.2833053451e+000	 2.6821364282e+000	-7.7138051074e-001
 1.2544793256e+000	 2.6957392248e+000	-7.8281099244e-001
 1.2255640523e+000	 2.7090073770e+000	-7.6393088522e-001
 1.1965651487e+000	 2.7219404620e+000	-7.1774948741e-001
 1.1674882241e+000	 2.7345381787e+000	-6.4707911867e-001
 1.4671109370e+000	 2.6167893266e+000	-7.5071124989e-001
 1.4386862768e+000	 2.6325240574e+000	-6.6831852287e-001
 1.4101374035e+000	 2.6479263206e+000	-6.1819682321e-001
 1.3814700074e+000	 2.6629949383e+000	-6.0712883714e-001
 1.3526897843e+000	 2.6777288592e+000	-6.4129571162e-001
 1.3238024324e+000	 2.6921271584e+000	-7.2073154279e-001
 1.2948136488e+000	 2.7061890363e+000	-7.7980048838e-001
 1.2657291261e+000	 2.7199138188e+000	-8.0008187549e-001
 1.2365545492e+000	 2.7333009559e+000	-7.8508690484e-001
 1.2072955920e+000	 2.7463500210e+000	-7.3812693879e-001
 1.1779579140e+000	 2.7590607103e+000	-6.6229736230e-001
 1.4801506190e+000	 2.6400473501e+000	-7.6623876015e-001
 1.4514733204e+000	 2.6559219312e+000	-6.8741461259e-001
 1.4226707048e+000	 2.6714610897e+000	-6.3552281889e-001
 1.3937485129e+000	 2.6866636373e+000	-6.1653286861e-001
 1.3647124911e+000	 2.7015285133e+000	-6.3712745112e-001
 1.3355683884e+000	 2.7160547845e+000	-7.0412173069e-001
 1.3063219525e+000	 2.7302416445e+000	-7.8060787650e-001
 1.2769789265e+000	 2.7440884129e+000	-8.1304856076e-001
 1.2475450460e+000	 2.7575945348e+000	-8.0489734468e-001
 1.2180260352e+000	 2.7707595800e+000	-7.5970043111e-001
 1.1884276040e+000	 2.7835832419e+000	-6.8077452655e-001
 1.4931903010e+000	 2.6633053737e+000	-7.7856602767e-001
 1.4642603640e+000	 2.6793198050e+000	-7.0387286605e-001
 1.4352040060e+000	 2.6949958588e+000	-6.5003273608e-001
 1.4060270183e+000	 2.7103323363e+000	-6.2436092392e-001
 1.3767351979e+000	 2.7253281674e+000	-6.3396474812e-001
 1.3473343444e+000	 2.7399824107e+000	-6.8569248127e-001
 1.3178302562e+000	 2.7542942527e+000	-7.7179349610e-001
 1.2882287270e+000	 2.7682630069e+000	-8.1953509451e-001
 1.2585355428e+000	 2.7818881137e+000	-8.2110839011e-001
 1.2287564784e+000	 2.7951691390e+000	-7.8022878339e-001
 1.1988972939e+000	 2.8081057735e+000	-7.0037407616e-001
 1.5062299830e+000	 2.6865633972e+000	-7.8385353976e-001
 1.4770474077e+000	 2.7027176788e+000	-7.1327706634e-001
 1.4477373073e+000	 2.7185306280e+000	-6.5938878698e-001
 1.4183055237e+000	 2.7340010353e+000	-6.2946775431e-001
 1.3887579047e+000	 2.7491278215e+000	-6.3055784344e-001
 1.3591003005e+000	 2.7639100369e+000	-6.6944634854e-001
 1.3293385599e+000	 2.7783468608e+000	-7.5170485365e-001
 1.2994785275e+000	 2.7924376009e+000	-8.1772627962e-001
 1.2695260397e+000	 2.8061816926e+000	-8.3182776557e-001
 1.2394869216e+000	 2.8195786980e+000	-7.9782972209e-001
 1.2093669839e+000	 2.8326283051e+000	-7.1931221741e-001
 1.5192696650e+000	 2.7098214207e+000	-7.7960965671e-001
 1.4898344513e+000	 2.7261155527e+000	-7.1478424648e-001
 1.4602706085e+000	 2.7420653971e+000	-6.6283042122e-001
 1.4305840291e+000	 2.7576697343e+000	-6.3086020843e-001
 1.4007806115e+000	 2.7729274756e+000	-6.2575772781e-001
 1.3708662565e+000	 2.7878376631e+000	-6.5415742452e-001
 1.3408468636e+000	 2.8023994690e+000	-7.2242378218e-001
 1.3107283279e+000	 2.8166121949e+000	-8.0614470194e-001
 1.2805165365e+000	 2.8304752715e+000	-8.3550269541e-001
 1.2502173649e+000	 2.8439882570e+000	-8.1095891355e-001
 1.2198366738e+000	 2.8571508367e+000	-7.3613814038e-001
 1.5323093471e+000	 2.7330794442e+000	-7.6578692782e-001
 1.5026214949e+000	 2.7495134265e+000	-7.0801107477e-001
 1.4728039098e+000	 2.7656001662e+000	-6.5967795952e-001
 1.4428625346e+000	 2.7813384333e+000	-6.2763427114e-001
 1.4128033184e+000	 2.7967271297e+000	-6.1851030346e-001
 1.3826322125e+000	 2.8117652893e+000	-6.3869792266e-001
 1.3523551673e+000	 2.8264520771e+000	-6.9433005636e-001
 1.3219781284e+000	 2.8407867890e+000	-7.8362805655e-001
 1.2915070333e+000	 2.8547688504e+000	-8.3089815183e-001
 1.2609478081e+000	 2.8683978159e+000	-8.1838926337e-001
 1.2303063637e+000	 2.8816733683e+000	-7.4971450116e-001
 1.1256094643e+000	 2.6364480523e+000	-6.8545965063e-001
 1.0975015011e+000	 2.6482721155e+000	-6.4129792158e-001
 1.0693290614e+000	 2.6597725119e+000	-6.0118558826e-001
 1.0410974981e+000	 2.6709492982e+000	-5.6438897882e-001
 1.0128121385e+000	 2.6818026442e+000	-5.2819777382e-001
 9.8447828143e-001	 2.6923328307e+000	-4.9161508219e-001
 9.5610119473e-001	 2.7025402488e+000	-4.5414294933e-001
 9.2768611232e-001	 2.7124253981e+000	-4.1534547030e-001
 8.9923823169e-001	 2.7219888849e+000	-3.7475134579e-001
 8.7076271134e-001	 2.7312314211e+000	-3.3186821978e-001
 8.4226466823e-001	 2.7401538221e+000	-2.8617664631e-001
 1.1360791543e+000	 2.6609705839e+000	-6.4839347265e-001
 1.1077097490e+000	 2.6729046269e+000	-5.9854621456e-001
 1.0792752675e+000	 2.6845119925e+000	-5.5185013326e-001
 1.0507811125e+000	 2.6957927380e+000	-5.0746335725e-001
 1.0222326608e+000	 2.7067470348e+000	-4.6489092360e-001
 9.9363526055e-001	 2.7173751663e+000	-4.2366471676e-001
 9.6499422857e-001	 2.7276775272e+000	-3.8323986662e-001
 9.3631484747e-001	 2.7376546217e+000	-3.4311693346e-001
 9.0760236309e-001	 2.7473070619e+000	-3.0275418024e-001
 8.7886198190e-001	 2.7566355662e+000	-2.6157916304e-001
 8.5009886846e-001	 2.7656409576e+000	-2.1898230302e-001
 1.1465488442e+000	 2.6854931155e+000	-6.3684959091e-001
 1.1179179968e+000	 2.6975371383e+000	-5.7642113399e-001
 1.0892214736e+000	 2.7092514731e+000	-5.2033026356e-001
 1.0604647269e+000	 2.7206361779e+000	-4.6809991125e-001
 1.0316531831e+000	 2.7316914254e+000	-4.1925388049e-001
 1.0027922397e+000	 2.7424175019e+000	-3.7333062956e-001
 9.7388726241e-001	 2.7528148056e+000	-3.2978982584e-001
 9.4494358263e-001	 2.7628838453e+000	-2.8811942286e-001
 9.1596649450e-001	 2.7726252389e+000	-2.4775686118e-001
 8.8696125246e-001	 2.7820397112e+000	-2.0809805878e-001
 8.5793306869e-001	 2.7911280930e+000	-1.6849054813e-001
 1.1570185342e+000	 2.7100156471e+000	-6.3762908540e-001
 1.1281262447e+000	 2.7221696496e+000	-5.6738462027e-001
 1.0991676797e+000	 2.7339909537e+000	-5.0266178000e-001
 1.0701483413e+000	 2.7454796177e+000	-4.4306540600e-001
 1.0410737054e+000	 2.7566358160e+000	-3.8819112382e-001
 1.0119492188e+000	 2.7674598375e+000	-3.3761547809e-001
 9.8278029625e-001	 2.7779520840e+000	-2.9091570954e-001
 9.5357231778e-001	 2.7881130690e+000	-2.4755509850e-001
 9.2433062590e-001	 2.7979434159e+000	-2.0702006389e-001
 8.9506052302e-001	 2.8074438563e+000	-1.6872282647e-001
 8.6576726892e-001	 2.8166152285e+000	-1.3201484704e-001
 1.1674882241e+000	 2.7345381787e+000	-6.4707911867e-001
 1.1383344926e+000	 2.7468021610e+000	-5.6829620350e-001
 1.1091138858e+000	 2.7587304343e+000	-4.9586374769e-001
 1.0798319557e+000	 2.7703230575e+000	-4.2952154158e-001
 1.0504942277e+000	 2.7815802066e+000	-3.6898919167e-001
 1.0211061979e+000	 2.7925021731e+000	-3.1395594736e-001
 9.9167333009e-001	 2.8030893623e+000	-2.6409711538e-001
 9.6220105294e-001	 2.8133422926e+000	-2.1897035863e-001
 9.3269475730e-001	 2.8232615929e+000	-1.7813634983e-001
 9.0315979358e-001	 2.8328480014e+000	-1.4107104358e-001
 8.7360146914e-001	 2.8421023640e+000	-1.0717622014e-001
 1.1779579140e+000	 2.7590607103e+000	-6.6229736230e-001
 1.1485427405e+000	 2.7714346724e+000	-5.7641708482e-001
 1.1190600919e+000	 2.7834699149e+000	-4.9734510386e-001
 1.0895155700e+000	 2.7951664974e+000	-4.2500821900e-001
 1.0599147500e+000	 2.8065245973e+000	-3.5930126679e-001
 1.0302631770e+000	 2.8175445086e+000	-3.0007662708e-001
 1.0005663639e+000	 2.8282266407e+000	-2.4715747317e-001
 9.7082978809e-001	 2.8385715162e+000	-2.0024416290e-001
 9.4105888870e-001	 2.8485797698e+000	-1.5901965329e-001
 9.1125906414e-001	 2.8582521465e+000	-1.2307055084e-001
 8.8143566937e-001	 2.8675894995e+000	-9.1894919663e-002
 1.1884276040e+000	 2.7835832419e+000	-6.8077452655e-001
 1.1587509884e+000	 2.7960671837e+000	-5.8939093518e-001
 1.1290062980e+000	 2.8082093955e+000	-5.0488680216e-001
 1.0991991844e+000	 2.8200099372e+000	-4.2742700089e-001
 1.0693352723e+000	 2.8314689879e+000	-3.5713192209e-001
 1.0394201561e+000	 2.8425868442e+000	-2.9406665167e-001
 1.0094593978e+000	 2.8533639191e+000	-2.3825125570e-001
 9.7945852325e-001	 2.8638007399e+000	-1.8957641858e-001
 9.4942302010e-001	 2.8738979468e+000	-1.4789480187e-001
 9.1935833470e-001	 2.8836562915e+000	-1.1295006397e-001
 8.8926986960e-001	 2.8930766349e+000	-8.4382087557e-002
 1.1988972939e+000	 2.8081057735e+000	-7.0037407616e-001
 1.1689592362e+000	 2.8206996951e+000	-6.0522494645e-001
 1.1389525041e+000	 2.8329488761e+000	-5.1662417387e-001
 1.1088827988e+000	 2.8448533770e+000	-4.3502475500e-001
 1.0787557946e+000	 2.8564133785e+000	-3.6082201602e-001
 1.0485771352e+000	 2.8676291798e+000	-2.9434245847e-001
 1.0183524316e+000	 2.8785011975e+000	-2.3583294519e-001
 9.8808725840e-001	 2.8890299635e+000	-1.8547642581e-001
 9.5778715150e-001	 2.8992161238e+000	-1.4328706899e-001
 9.2745760526e-001	 2.9090604366e+000	-1.0922979170e-001
 8.9710406983e-001	 2.9185637704e+000	-8.3131395376e-002
 1.2093669839e+000	 2.8326283051e+000	-7.1931221741e-001
 1.1791674841e+000	 2.8453322065e+000	-6.2227111970e-001
 1.1488987102e+000	 2.8576883567e+000	-5.3102949306e-001
 1.1185664132e+000	 2.8696968168e+000	-4.4637746941e-001
 1.0881763169e+000	 2.8813577691e+000	-3.6903372865e-001
 1.0577341144e+000	 2.8926715154e+000	-2.9963401323e-001
 1.0272454655e+000	 2.9036384759e+000	-2.3871992478e-001
 9.9671599356e-001	 2.9142591871e+000	-1.8675137851e-001
 9.6615128290e-001	 2.9245343008e+000	-1.4401175617e-001
 9.3555687582e-001	 2.9344645817e+000	-1.1071205945e-001
 9.0493827006e-001	 2.9440509059e+000	-8.6910667396e-002
 1.2198366738e+000	 2.8571508367e+000	-7.3613814038e-001
 1.1893757320e+000	 2.8699647178e+000	-6.3920777633e-001
 1.1588449163e+000	 2.8824278373e+000	-5.4689473327e-001
 1.1282500276e+000	 2.8945402567e+000	-4.6037422906e-001
 1.0975968391e+000	 2.9063021597e+000	-3.8073573004e-001
 1.0668910935e+000	 2.9177138510e+000	-3.0897113994e-001
 1.0361384993e+000	 2.9287757543e+000	-2.4596320631e-001
 1.0053447287e+000	 2.9394884108e+000	-1.9249491750e-001
 9.7451541430e-001	 2.9498524778e+000	-1.4916380364e-001
 9.4365614638e-001	 2.9598687268e+000	-1.1647193858e-001
 9.1277247028e-001	 2.9695380413e+000	-9.4753487879e-002
 1.2303063637e+000	 2.8816733683e+000	-7.4971450116e-001
 1.1995839799e+000	 2.8945972292e+000	-6.5502127874e-001
 1.1687911224e+000	 2.9071673179e+000	-5.6331450441e-001
 1.1379336420e+000	 2.9193836965e+000	-4.7620134417e-001
 1.1070173614e+000	 2.9312465504e+000	-3.9518847305e-001
 1.0760480726e+000	 2.9427561866e+000	-3.2166994872e-001
 1.0450315331e+000	 2.9539130326e+000	-2.5691523121e-001
 1.0139734639e+000	 2.9647176344e+000	-2.0205731224e-001
 9.8287954570e-001	 2.9751706548e+000	-1.5810742724e-001
 9.5175541694e-001	 2.9852728719e+000	-1.2584788069e-001
 9.2060667051e-001	 2.9950251768e+000	-1.0595079347e-001
 8.4226466823e-001	 2.7401538221e+000	-2.8617664631e-001
 8.1374917503e-001	 2.7487570045e+000	-2.4211230771e-001
 7.8522125655e-001	 2.7570419823e+000	-2.0631264881e-001
 7.5668588880e-001	 2.7650098669e+000	-1.8141754305e-001
 7.2814799717e-001	 2.7726618660e+000	-1.6990208415e-001
 6.9961245439e-001	 2.7799992815e+000	-1.7407092988e-001
 6.7108407844e-001	 2.7870235076e+000	-1.9605366092e-001
 6.4256763062e-001	 2.7937360289e+000	-2.2046942069e-001
 6.1406781368e-001	 2.8001384177e+000	-2.1672937440e-001
 5.8558927002e-001	 2.8062323324e+000	-1.8247851618e-001
 5.5713657999e-001	 2.8120195152e+000	-1.1561222279e-001
 8.5009886846e-001	 2.7656409576e+000	-2.1898230302e-001
 8.2131814262e-001	 2.7743241612e+000	-1.7847181398e-001
 7.9252487593e-001	 2.7826862005e+000	-1.4584703133e-001
 7.6372409067e-001	 2.7907281972e+000	-1.2376599832e-001
 7.3492075806e-001	 2.7984513702e+000	-1.1469759882e-001
 7.0611979615e-001	 2.8058570336e+000	-1.2091535000e-001
 6.7732606774e-001	 2.8129465945e+000	-1.4449221994e-001
 6.4854437840e-001	 2.8197215513e+000	-1.7715982307e-001
 6.1977947462e-001	 2.8261834910e+000	-1.8159901546e-001
 5.9103604200e-001	 2.8323340874e+000	-1.5209925575e-001
 5.6231870349e-001	 2.8381750988e+000	-8.6028966764e-002
 8.5793306869e-001	 2.7911280930e+000	-1.6849054813e-001
 8.2888711020e-001	 2.7998913179e+000	-1.3144488511e-001
 7.9982849530e-001	 2.8083304187e+000	-1.0180732299e-001
 7.7076229254e-001	 2.8164465275e+000	-8.2233781440e-002
 7.4169351896e-001	 2.8242408744e+000	-7.5167407846e-002
 7.1262713792e-001	 2.8317147857e+000	-8.2831824934e-002
 6.8356805703e-001	 2.8388696815e+000	-1.0722540586e-001
 6.5452112617e-001	 2.8457070738e+000	-1.4541541028e-001
 6.2549113556e-001	 2.8522285643e+000	-1.5779376350e-001
 5.9648281398e-001	 2.8584358423e+000	-1.3272652423e-001
 5.6750082698e-001	 2.8643306824e+000	-6.7062265737e-002
 8.6576726892e-001	 2.8166152285e+000	-1.3201484704e-001
 8.3645607779e-001	 2.8254584746e+000	-9.8353754294e-002
 8.0713211467e-001	 2.8339746369e+000	-7.1533895818e-002
 7.7780049441e-001	 2.8421648578e+000	-5.4190283736e-002
 7.4846627985e-001	 2.8500303787e+000	-4.8722351490e-002
 7.1913447968e-001	 2.8575725378e+000	-5.7286660878e-002
 6.8981004632e-001	 2.8647927684e+000	-8.1790631193e-002
 6.6049787394e-001	 2.8716925962e+000	-1.2263403220e-001
 6.3120279650e-001	 2.8782736376e+000	-1.4276984290e-001
 6.0192958596e-001	 2.8845375973e+000	-1.2189220947e-001
 5.7268295047e-001	 2.8904862660e+000	-5.6341576028e-002
 8.7360146914e-001	 2.8421023640e+000	-1.0717622014e-001
 8.4402504538e-001	 2.8510256313e+000	-7.6815687612e-002
 8.1443573404e-001	 2.8596188551e+000	-5.2648630647e-002
 7.8483869628e-001	 2.8678831881e+000	-3.7271826574e-002
 7.5523904074e-001	 2.8758198829e+000	-3.3024517902e-002
 7.2564182144e-001	 2.8834302899e+000	-4.1980581408e-002
 6.9605203562e-001	 2.8907158553e+000	-6.5941705987e-002
 6.6647462171e-001	 2.8976781186e+000	-1.0642997286e-001
 6.3691445745e-001	 2.9043187109e+000	-1.3417832138e-001
 6.0737635794e-001	 2.9106393523e+000	-1.1729930980e-001
 5.7786507396e-001	 2.9166418496e+000	-5.1641682029e-002
 8.8143566937e-001	 2.8675894995e+000	-9.1894919663e-002
 8.5159401296e-001	 2.8765927880e+000	-6.4735708036e-002
 8.2173935342e-001	 2.8852630733e+000	-4.3048687871e-002
 7.9187689815e-001	 2.8936015184e+000	-2.9376479536e-002
 7.6201180164e-001	 2.9016093871e+000	-2.5983110172e-002
 7.3214916321e-001	 2.9092880420e+000	-3.4845645920e-002
 7.0229402491e-001	 2.9166389422e+000	-5.7646811084e-002
 6.7245136949e-001	 2.9236636411e+000	-9.5768651581e-002
 6.4262611839e-001	 2.9303637842e+000	-1.2986638795e-001
 6.1282312992e-001	 2.9367411072e+000	-1.1682432458e-001
 5.8304719746e-001	 2.9427974332e+000	-5.0886184603e-002
 8.8926986960e-001	 2.8930766349e+000	-8.4382087557e-002
 8.5916298055e-001	 2.9021599447e+000	-6.0299275236e-002
 8.2904297279e-001	 2.9109072915e+000	-4.0900208104e-002
 7.9891510002e-001	 2.9193198487e+000	-2.8658781542e-002
 7.6878456253e-001	 2.9273988914e+000	-2.5750188454e-002
 7.3865650497e-001	 2.9351457942e+000	-3.4042014123e-002
 7.0853601420e-001	 2.9425620291e+000	-5.5086287297e-002
 6.7842811726e-001	 2.9496491635e+000	-9.0112550857e-002
 6.4833777933e-001	 2.9564088576e+000	-1.2787838281e-001
 6.1826990190e-001	 2.9628428622e+000	-1.1851936257e-001
 5.8822932095e-001	 2.9689530167e+000	-5.2150671535e-002
 8.9710406983e-001	 2.9185637704e+000	-8.3131395376e-002
 8.6673194813e-001	 2.9277271014e+000	-6.1964923862e-002
 8.3634659216e-001	 2.9365515097e+000	-4.4631946896e-002
 8.0595330189e-001	 2.9450381790e+000	-3.3524370823e-002
 7.7555732342e-001	 2.9531883956e+000	-3.0716294759e-002
 7.4516384673e-001	 2.9610035463e+000	-3.7954566013e-002
 7.1477800350e-001	 2.9684851161e+000	-5.6650251756e-002
 6.8440486503e-001	 2.9756346860e+000	-8.7871096646e-002
 6.5404944027e-001	 2.9824539309e+000	-1.2645659422e-001
 6.2371667388e-001	 2.9889446171e+000	-1.2061398510e-001
 5.9341144444e-001	 2.9951086003e+000	-5.3665589467e-002
 9.0493827006e-001	 2.9440509059e+000	-8.6910667396e-002
 8.7430091572e-001	 2.9532942581e+000	-6.8456862813e-002
 8.4365021153e-001	 2.9621957279e+000	-5.2928847544e-002
 8.1299150376e-001	 2.9707565093e+000	-4.2624529269e-002
 7.8233008431e-001	 2.9789778998e+000	-3.9505967515e-002
 7.5167118849e-001	 2.9868612984e+000	-4.5189386063e-002
 7.2101999279e-001	 2.9944082030e+000	-6.0936051878e-002
 6.9038161280e-001	 3.0016202084e+000	-8.7644097096e-002
 6.5976110121e-001	 3.0084990042e+000	-1.2404183661e-001
 6.2916344586e-001	 3.0150463721e+000	-1.2151680045e-001
 5.9859356793e-001	 3.0212641839e+000	-5.3818835419e-002
 9.1277247028e-001	 2.9695380413e+000	-9.4753487879e-002
 8.8186988331e-001	 2.9788614148e+000	-7.8757537853e-002
 8.5095383090e-001	 2.9878399461e+000	-6.4725555711e-002
 8.2002970563e-001	 2.9964748396e+000	-5.4850646297e-002
 7.8910284520e-001	 3.0047674041e+000	-5.0973152547e-002
 7.5817853025e-001	 3.0127190505e+000	-5.4570119796e-002
 7.2726198208e-001	 3.0203312899e+000	-6.6745566744e-002
 6.9635836057e-001	 3.0276057309e+000	-8.8221646797e-002
 6.6547276215e-001	 3.0345440775e+000	-1.1927382291e-001
 6.3461021783e-001	 3.0411481271e+000	-1.1981682405e-001
 6.0377569142e-001	 3.0474197675e+000	-5.1158084738e-002
 9.2060667051e-001	 2.9950251768e+000	-1.0595079347e-001
 8.8943885089e-001	 3.0044285715e+000	-9.2100159736e-002
 8.5825745028e-001	 3.0134841643e+000	-7.9199879308e-002
 8.2706790750e-001	 3.0221931699e+000	-6.9328607029e-002
 7.9587560609e-001	 3.0305569083e+000	-6.4196516610e-002
 7.6468587201e-001	 3.0385768026e+000	-6.5134210347e-002
 7.3350397137e-001	 3.0462543768e+000	-7.3082364944e-002
 7.0233510834e-001	 3.0535912533e+000	-8.8582204854e-002
 6.7118442308e-001	 3.0605891508e+000	-1.1176690112e-001
 6.4005698981e-001	 3.0672498820e+000	-1.1428461873e-001
 6.0895781491e-001	 3.0735753511e+000	-4.4392871178e-002
 5.5713657999e-001	 2.8120195152e+000	-1.1561222279e-001
 5.2871851982e-001	 2.8175009906e+000	-3.8783837123e-002
 5.0033526381e-001	 2.8226795537e+000	 2.5181692959e-002
 4.7199118843e-001	 2.8275571857e+000	 7.8194425599e-002
 4.4369060226e-001	 2.8321359428e+000	 1.2200747531e-001
 4.1543774471e-001	 2.8364179532e+000	 1.5817867796e-001
 3.8723678479e-001	 2.8404054153e+000	 1.8803569206e-001
 3.5909182003e-001	 2.8441005950e+000	 2.1264395139e-001
 3.3100687533e-001	 2.8475058238e+000	 2.3277690606e-001
 3.0298590209e-001	 2.8506234959e+000	 2.4888801658e-001
 2.7503277725e-001	 2.8534560662e+000	 2.6108399570e-001
 5.6231870349e-001	 2.8381750988e+000	-8.6028966764e-002
 5.3363631693e-001	 2.8437075593e+000	-8.7782910786e-003
 5.0498905826e-001	 2.8489342900e+000	 5.3807306910e-002
 4.7638134466e-001	 2.8538572906e+000	 1.0375435458e-001
 4.4781752477e-001	 2.8584786363e+000	 1.4295131541e-001
 4.1930187744e-001	 2.8628004752e+000	 1.7311404305e-001
 3.9083861047e-001	 2.8668250261e+000	 1.9575467400e-001
 3.6243185948e-001	 2.8705545760e+000	 2.1215332427e-001
 3.3408568682e-001	 2.8739914781e+000	 2.2333198038e-001
 3.0580408065e-001	 2.8771381487e+000	 2.3003000477e-001
 2.7759095395e-001	 2.8799970658e+000	 2.3268070922e-001
 5.6750082698e-001	 2.8643306824e+000	-6.7062265737e-002
 5.3855411404e-001	 2.8699141281e+000	 1.1058586220e-002
 5.0964285272e-001	 2.8751890264e+000	 7.2779492857e-002
 4.8077150089e-001	 2.8801573956e+000	 1.2026896445e-001
 4.5194444728e-001	 2.8848213299e+000	 1.5557723448e-001
 4.2316601018e-001	 2.8891829973e+000	 1.8060580321e-001
 3.9444043615e-001	 2.8932446369e+000	 1.9708042091e-001
 3.6577189893e-001	 2.8970085570e+000	 2.0652682389e-001
 3.3716449831e-001	 2.9004771323e+000	 2.1024856421e-001
 3.0862225920e-001	 2.9036528015e+000	 2.0930630628e-001
 2.8014913065e-001	 2.9065380653e+000	 2.0449800030e-001
 5.7268295047e-001	 2.8904862660e+000	-5.6341576028e-002
 5.4347191115e-001	 2.8961206968e+000	 2.3006517462e-002
 5.1429664717e-001	 2.9014437627e+000	 8.4321609603e-002
 4.8516165711e-001	 2.9064575005e+000	 1.2993353491e-001
 4.5607136979e-001	 2.9111640234e+000	 1.6207444685e-001
 4.2703014291e-001	 2.9155655193e+000	 1.8285277731e-001
 3.9804226183e-001	 2.9196642478e+000	 1.9423063552e-001
 3.6911193838e-001	 2.9234625380e+000	 1.9800390442e-001
 3.4024330980e-001	 2.9269627865e+000	 1.9578432311e-001
 3.1144043775e-001	 2.9301674543e+000	 1.8898287915e-001
 2.8270730734e-001	 2.9330790648e+000	 1.7879387470e-001
 5.7786507396e-001	 2.9166418496e+000	-5.1641682029e-002
 5.4838970826e-001	 2.9223272655e+000	 2.9226427749e-002
 5.1895044162e-001	 2.9276984991e+000	 9.0564225697e-002
 4.8955181334e-001	 2.9327576054e+000	 1.3487597151e-001
 4.6019829230e-001	 2.9375067170e+000	 1.6458954555e-001
 4.3089427565e-001	 2.9419480414e+000	 1.8203517734e-001
 4.0164408750e-001	 2.9460838586e+000	 1.8942761177e-001
 3.7245197783e-001	 2.9499165190e+000	 1.8885091314e-001
 3.4332212130e-001	 2.9534484408e+000	 1.8224514012e-001
 3.1425861630e-001	 2.9566821071e+000	 1.7139416371e-001
 2.8526548404e-001	 2.9596200644e+000	 1.5791394340e-001
 5.8304719746e-001	 2.9427974332e+000	-5.0886184603e-002
 5.5330750536e-001	 2.9485338342e+000	 3.1755923459e-002
 5.2360423607e-001	 2.9539532354e+000	 9.3539679242e-002
 4.9394196957e-001	 2.9590577103e+000	 1.3715055487e-001
 4.6432521481e-001	 2.9638494106e+000	 1.6521954416e-001
 4.3475840838e-001	 2.9683305634e+000	 1.8030704057e-001
 4.0524591318e-001	 2.9725034694e+000	 1.8489014958e-001
 3.7579201728e-001	 2.9763705001e+000	 1.8135257441e-001
 3.4640093279e-001	 2.9799340950e+000	 1.7197624998e-001
 3.1707679486e-001	 2.9831967599e+000	 1.5893394235e-001
 2.8782366074e-001	 2.9861610639e+000	 1.4428207751e-001
 5.8822932095e-001	 2.9689530167e+000	-5.2150671535e-002
 5.5822530247e-001	 2.9747404029e+000	 3.2505123466e-002
 5.2825803052e-001	 2.9802079718e+000	 9.5177020534e-002
 4.9833212579e-001	 2.9853578153e+000	 1.3873209947e-001
 4.6845213732e-001	 2.9901921041e+000	 1.6600535134e-001
 4.3862254111e-001	 2.9947130855e+000	 1.7978911428e-001
 4.0884773886e-001	 2.9989230803e+000	 1.8282593871e-001
 3.7913205673e-001	 3.0028244811e+000	 1.7780395639e-001
 3.4947974428e-001	 3.0064197492e+000	 1.6735386689e-001
 3.1989497341e-001	 3.0097114127e+000	 1.5404670092e-001
 2.9038183743e-001	 3.0127020634e+000	 1.4039157038e-001
 5.9341144444e-001	 2.9951086003e+000	-5.3665589467e-002
 5.6314309958e-001	 3.0009469717e+000	 3.3252821169e-002
 5.3291182497e-001	 3.0064627082e+000	 9.7297314147e-002
 5.0272228202e-001	 3.0116579202e+000	 1.4151049702e-001
 4.7257905983e-001	 3.0165347977e+000	 1.6892565175e-001
 4.4248667385e-001	 3.0210956075e+000	 1.8256216536e-001
 4.1244956453e-001	 3.0253426911e+000	 1.8542438318e-001
 3.8247209617e-001	 3.0292784621e+000	 1.8050289102e-001
 3.5255855577e-001	 3.0329054035e+000	 1.7077727552e-001
 3.2271315196e-001	 3.0362260655e+000	 1.5921946096e-001
 2.9294001413e-001	 3.0392430630e+000	 1.4879677582e-001
 5.9859356793e-001	 3.0212641839e+000	-5.3818835419e-002
 5.6806089669e-001	 3.0271535404e+000	 3.5642957291e-002
 5.3756561942e-001	 3.0327174445e+000	 1.0160927867e-001
 5.0711243824e-001	 3.0379580251e+000	 1.4728562108e-001
 4.7670598234e-001	 3.0428774912e+000	 1.7589116866e-001
 4.4635080658e-001	 3.0474781295e+000	 1.9066068916e-001
 4.1605139021e-001	 3.0517623019e+000	 1.9484983949e-001
 3.8581213562e-001	 3.0557324431e+000	 1.9174281980e-001
 3.5563736725e-001	 3.0593910577e+000	 1.8466135735e-001
 3.2553133051e-001	 3.0627407183e+000	 1.7697405443e-001
 2.9549819082e-001	 3.0657840625e+000	 1.7210519375e-001
 6.0377569142e-001	 3.0474197675e+000	-5.1158084738e-002
 5.7297869379e-001	 3.0533601091e+000	 4.1181384762e-002
 5.4221941387e-001	 3.0589721809e+000	 1.0970524380e-001
 5.1150259447e-001	 3.0642581301e+000	 1.5776257119e-001
 4.8083290485e-001	 3.0692201848e+000	 1.8873928529e-001
 4.5021493931e-001	 3.0738606516e+000	 2.0606699339e-001
 4.1965321588e-001	 3.0781819128e+000	 2.1323524374e-001
 3.8915217507e-001	 3.0821864241e+000	 2.1380603971e-001
 3.5871617874e-001	 3.0858767119e+000	 2.1142952604e-001
 3.2834950906e-001	 3.0892553711e+000	 2.0985981408e-001
 2.9805636752e-001	 3.0923250620e+000	 2.1296997617e-001
 6.0895781491e-001	 3.0735753511e+000	-4.4392871178e-002
 5.7789649090e-001	 3.0795666778e+000	 5.1232908294e-002
 5.4687320832e-001	 3.0852269172e+000	 1.2305740591e-001
 5.1589275069e-001	 3.0905582350e+000	 1.7454723632e-001
 4.8495982735e-001	 3.0955628784e+000	 2.0922900355e-001
 4.5407907204e-001	 3.1002431736e+000	 2.3070563502e-001
 4.2325504155e-001	 3.1046015236e+000	 2.4267610462e-001
 3.9249221452e-001	 3.1086404051e+000	 2.4895732555e-001
 3.6179499023e-001	 3.1123623662e+000	 2.5350704764e-001
 3.3116768761e-001	 3.1157700239e+000	 2.6044665504e-001
 3.0061454421e-001	 3.1188660616e+000	 2.7408282865e-001
 2.7503277725e-001	 2.8534560662e+000	 2.6108399570e-001
 2.4714713513e-001	 2.8560064095e+000	 2.7099832490e-001
 2.1933694958e-001	 2.8582766502e+000	 2.8161100363e-001
 1.9160592731e-001	 2.8602694129e+000	 2.9433628647e-001
 1.6395769600e-001	 2.8619873733e+000	 3.0997897569e-001
 1.3639580379e-001	 2.8634332561e+000	 3.2870739984e-001
 1.0892371889e-001	 2.8646098325e+000	 3.5002566879e-001
 8.1544829185e-002	 2.8655199181e+000	 3.7274497071e-001
 5.4262441973e-002	 2.8661663703e+000	 3.9495372004e-001
 2.7079783735e-002	 2.8665520861e+000	 4.1398640724e-001
 0.0000000000e+000	 2.8666800000e+000	 4.2639104188e-001
 2.7759095395e-001	 2.8799970658e+000	 2.3268070922e-001
 2.4944593765e-001	 2.8825711307e+000	 2.3189235316e-001
 2.2137707978e-001	 2.8848624877e+000	 2.2941856885e-001
 1.9338812150e-001	 2.8868737858e+000	 2.2677138270e-001
 1.6548272425e-001	 2.8886077255e+000	 2.2491503213e-001
 1.3766446918e-001	 2.8900670570e+000	 2.2424114227e-001
 1.0993685675e-001	 2.8912545771e+000	 2.2454279780e-001
 8.2303306352e-002	 2.8921731278e+000	 2.2498725891e-001
 5.4767156051e-002	 2.8928255928e+000	 2.2408711648e-001
 2.7331662338e-002	 2.8932148963e+000	 2.1966972819e-001
 0.0000000000e+000	 2.8933440000e+000	 2.0884482203e-001
 2.8014913065e-001	 2.9065380653e+000	 2.0449800030e-001
 2.5174474017e-001	 2.9091358519e+000	 1.9549248421e-001
 2.2341720997e-001	 2.9114483252e+000	 1.8290298225e-001
 1.9517031570e-001	 2.9134781587e+000	 1.6838236171e-001
 1.6700775251e-001	 2.9152280777e+000	 1.5309975099e-001
 1.3893313458e-001	 2.9167008579e+000	 1.3771814354e-001
 1.1094999461e-001	 2.9178993218e+000	 1.2237049490e-001
 8.3061783519e-002	 2.9188263374e+000	 1.0663404318e-001
 5.5271870128e-002	 2.9194848154e+000	 8.9502634252e-002
 2.7583540941e-002	 2.9198777065e+000	 6.9356882414e-002
 0.0000000000e+000	 2.9200080000e+000	 4.3932048226e-002
 2.8270730734e-001	 2.9330790648e+000	 1.7879387470e-001
 2.5404354269e-001	 2.9357005730e+000	 1.6401012352e-001
 2.2545734016e-001	 2.9380341627e+000	 1.4416822967e-001
 1.9695250989e-001	 2.9400825315e+000	 1.2109914924e-001
 1.6853278077e-001	 2.9418484300e+000	 9.6216700113e-002
 1.4020179997e-001	 2.9433346587e+000	 7.0497841789e-002
 1.1196313247e-001	 2.9445440664e+000	 4.4461023555e-002
 8.3820260685e-002	 2.9454795471e+000	 1.8142312283e-002
 5.5776584205e-002	 2.9461440379e+000	-8.9309344239e-003
 2.7835419544e-002	 2.9465405168e+000	-3.7769030147e-002
 0.0000000000e+000	 2.9466720000e+000	-6.9951680710e-002
 2.8526548404e-001	 2.9596200644e+000	 1.5791394340e-001
 2.5634234521e-001	 2.9622652942e+000	 1.3976276275e-001
 2.2749747036e-001	 2.9646200002e+000	 1.1544271279e-001
 1.9873470408e-001	 2.9666869044e+000	 8.6994177980e-002
 1.7005780903e-001	 2.9684687822e+000	 5.6109721167e-002
 1.4147046536e-001	 2.9699684596e+000	 2.4117307360e-002
 1.1297627033e-001	 2.9711888111e+000	-8.0388523138e-003
 8.4578737851e-002	 2.9721327568e+000	-3.9820145661e-002
 5.6281298282e-002	 2.9728032604e+000	-7.1118344148e-002
 2.8087298146e-002	 2.9732033270e+000	-1.0228351988e-001
 0.0000000000e+000	 2.9733360000e+000	-1.3415522529e-001
 2.8782366074e-001	 2.9861610639e+000	 1.4428207751e-001
 2.5864114773e-001	 2.9888300154e+000	 1.2516446781e-001
 2.2953760055e-001	 2.9912058377e+000	 9.9069577032e-002
 2.0051689827e-001	 2.9932912773e+000	 6.8272556640e-002
 1.7158283728e-001	 2.9950891344e+000	 3.4772935603e-002
 1.4273913076e-001	 2.9966022605e+000	 2.8107624489e-004
 1.1398940818e-001	 2.9978335557e+000	-3.3798222380e-002
 8.5337215017e-002	 2.9987859664e+000	-6.6385304734e-002
 5.6786012359e-002	 2.9994624830e+000	-9.6748690745e-002
 2.8339176748e-002	 2.9998661372e+000	-1.2453176513e-001
 0.0000000000e+000	 3.0000000000e+000	-1.4978326155e-001
 2.9038183743e-001	 3.0127020634e+000	 1.4039157038e-001
 2.6093995025e-001	 3.0153947365e+000	 1.2271687876e-001
 2.3157773074e-001	 3.0177916751e+000	 9.7497556559e-002
 2.0229909246e-001	 3.0198956501e+000	 6.7262762137e-002
 1.7310786554e-001	 3.0217094866e+000	 3.4341280819e-002
 1.4400779615e-001	 3.0232360614e+000	 8.5152170764e-004
 1.1500254604e-001	 3.0244783003e+000	-3.1311836415e-002
 8.6095692183e-002	 3.0254391761e+000	-6.0494904582e-002
 5.7290726436e-002	 3.0261217055e+000	-8.5305635211e-002
 2.8591055351e-002	 3.0265289474e+000	-1.0463908538e-001
 0.0000000000e+000	 3.0266640000e+000	-1.1770703706e-001
 2.9294001413e-001	 3.0392430630e+000	 1.4879677582e-001
 2.6323875277e-001	 3.0419594577e+000	 1.3500069030e-001
 2.3361786093e-001	 3.0443775126e+000	 1.1327230488e-001
 2.0408128665e-001	 3.0465000230e+000	 8.6407823014e-002
 1.7463289379e-001	 3.0483298389e+000	 5.7081544038e-002
 1.4527646154e-001	 3.0498698623e+000	 2.7839731203e-002
 1.1601568390e-001	 3.0511230450e+000	 1.0906032318e-003
 8.6854169349e-002	 3.0520923857e+000	-2.0909929698e-002
 5.7795440513e-002	 3.0527809281e+000	-3.6077092062e-002
 2.8842933953e-002	 3.0531917577e+000	-4.2520865753e-002
 0.0000000000e+000	 3.0533280000e+000	-3.8574563268e-002
 2.9549819082e-001	 3.0657840625e+000	 1.7210519375e-001
 2.6553755529e-001	 3.0685241789e+000	 1.6466758365e-001
 2.3565799112e-001	 3.0709633501e+000	 1.4902818152e-001
 2.0586348084e-001	 3.0731043959e+000	 1.2825696426e-001
 1.7615792205e-001	 3.0749501911e+000	 1.0538386376e-001
 1.4654512693e-001	 3.0765036632e+000	 8.3396857970e-002
 1.1702882176e-001	 3.0777677896e+000	 6.5235632022e-002
 8.7612646515e-002	 3.0787455954e+000	 5.3780403624e-002
 5.8300154590e-002	 3.0794401506e+000	 5.1835585466e-002
 2.9094812556e-002	 3.0798545679e+000	 6.2108033999e-002
 0.0000000000e+000	 3.0799920000e+000	 8.7179721516e-002
 2.9805636752e-001	 3.0923250620e+000	 2.1296997617e-001
 2.6783635781e-001	 3.0950889001e+000	 2.1443258280e-001
 2.3769812132e-001	 3.0975491876e+000	 2.0748046731e-001
 2.0764567503e-001	 3.0997087687e+000	 1.9545768587e-001
 1.7768295031e-001	 3.1015705433e+000	 1.8175367067e-001
 1.4781379233e-001	 3.1031374641e+000	 1.6980591879e-001
 1.1804195962e-001	 3.1044125343e+000	 1.6309766750e-001
 8.8371123681e-002	 3.1053988051e+000	 1.6515012308e-001
 5.8804868668e-002	 3.1060993732e+000	 1.7950889312e-001
 2.9346691158e-002	 3.1065173781e+000	 2.0972435495e-001
 0.0000000000e+000	 3.1066560000e+000	 2.5932578678e-001
 3.0061454421e-001	 3.1188660616e+000	 2.7408282865e-001
 2.7013516033e-001	 3.1216536212e+000	 2.8706680981e-001
 2.3973825151e-001	 3.1241350251e+000	 2.9141798301e-001
 2.0942786922e-001	 3.1263131416e+000	 2.9074824917e-001
 1.7920797856e-001	 3.1281908955e+000	 2.8880404189e-001
 1.4908245772e-001	 3.1297712650e+000	 2.8947401130e-001
 1.1905509748e-001	 3.1310572789e+000	 2.9679108039e-001
 8.9129600848e-002	 3.1320520147e+000	 3.1492841131e-001
 5.9309582745e-002	 3.1327585957e+000	 3.4818890807e-001
 2.9598569761e-002	 3.1331801883e+000	 4.0098797014e-001
 0.0000000000e+000	 3.1333200000e+000	 4.7782931242e-001
 3.1333200000e+000	 0.0000000000e+000	 1.0326393148e+000
 3.1331801883e+000	 2.9598569761e-002	 1.0729010488e+000
 3.1327585957e+000	 5.9309582745e-002	 1.1046121295e+000
 3.1320520147e+000	 8.9129600848e-002	 1.1293417598e+000
 3.1310572789e+000	 1.1905509748e-001	 1.1484237761e+000
 3.1297712650e+000	 1.4908245772e-001	 1.1629389925e+000
 3.1281908955e+000	 1.7920797856e-001	 1.1737059995e+000
 3.1263131416e+000	 2.0942786922e-001	 1.1812800294e+000
 3.1241350251e+000	 2.3973825151e-001	 1.1859593768e+000
 3.1216536212e+000	 2.7013516033e-001	 1.1877987500e+000
 3.1188660616e+000	 3.0061454421e-001	 1.1866288111e+000
 3.1599880000e+000	 0.0000000000e+000	 7.8349708611e-001
 3.1598469984e+000	 2.9850486150e-002	 8.4651004276e-001
 3.1594218175e+000	 5.9814372538e-002	 8.9814631190e-001
 3.1587092228e+000	 8.9888191798e-002	 9.4063987016e-001
 3.1577060207e+000	 1.2006838732e-001	 9.7586506368e-001
 3.1564090613e+000	 1.5035131343e-001	 1.0053234303e+000
 3.1548152412e+000	 1.8073323560e-001	 1.0301398839e+000
 3.1529215055e+000	 2.1121033076e-001	 1.0510678448e+000
 3.1507248508e+000	 2.4177868775e-001	 1.0685027709e+000
 3.1482223275e+000	 2.7243430770e-001	 1.0825034200e+000
 3.1454110426e+000	 3.0317310467e-001	 1.0928200513e+000
 3.1866560000e+000	 0.0000000000e+000	 6.3174001342e-001
 3.1865138084e+000	 3.0102402539e-002	 7.1009055502e-001
 3.1860850394e+000	 6.0319162331e-002	 7.7433360188e-001
 3.1853664308e+000	 9.0646782748e-002	 8.2743108640e-001
 3.1843547624e+000	 1.2108167717e-001	 8.7185557666e-001
 3.1830468577e+000	 1.5162016914e-001	 9.0958194499e-001
 3.1814395869e+000	 1.8225849263e-001	 9.4208934987e-001
 3.1795298695e+000	 2.1299279231e-001	 9.7037308735e-001
 3.1773146766e+000	 2.4381912399e-001	 9.9496572875e-001
 3.1747910338e+000	 2.7473345507e-001	 1.0159668298e+000
 3.1719560237e+000	 3.0573166513e-001	 1.0330803647e+000
 3.2133240000e+000	 0.0000000000e+000	 5.7817927449e-001
 3.2131806185e+000	 3.0354318928e-002	 6.6348421417e-001
 3.2127482612e+000	 6.0823952124e-002	 7.3219108634e-001
 3.2120236389e+000	 9.1405373698e-002	 7.8804453097e-001
 3.2110035042e+000	 1.2209496702e-001	 8.3416423133e-001
 3.2096846540e+000	 1.5288902486e-001	 8.7304182224e-001
 3.2080639326e+000	 1.8378374966e-001	 9.0654910966e-001
 3.2061382334e+000	 2.1477525386e-001	 9.3595712841e-001
 3.2039045023e+000	 2.4585956023e-001	 9.6196541462e-001
 3.2013597401e+000	 2.7703260245e-001	 9.8474073041e-001
 3.1985010048e+000	 3.0829022558e-001	 1.0039643375e+000
 3.2399920000e+000	 0.0000000000e+000	 6.2354875091e-001
 3.2398474285e+000	 3.0606235317e-002	 7.0646794680e-001
 3.2394114830e+000	 6.1328741917e-002	 7.7068423808e-001
 3.2386808470e+000	 9.2163964649e-002	 8.2077118513e-001
 3.2376522459e+000	 1.2310825686e-001	 8.6053554678e-001
 3.2363224504e+000	 1.5415788057e-001	 8.9301984777e-001
 3.2346882783e+000	 1.8530900670e-001	 9.2051730475e-001
 3.2327465973e+000	 2.1655771540e-001	 9.4459860576e-001
 3.2304943281e+000	 2.4789999647e-001	 9.6614987832e-001
 3.2279284464e+000	 2.7933174982e-001	 9.8542103269e-001
 3.2250459859e+000	 3.1084878604e-001	 1.0020835175e+000
 3.2666600000e+000	 0.0000000000e+000	 7.6850818318e-001
 3.2665142386e+000	 3.0858151706e-002	 8.3875673465e-001
 3.2660747049e+000	 6.1833531710e-002	 8.8872932179e-001
 3.2653380550e+000	 9.2922555600e-002	 9.2386598314e-001
 3.2643009877e+000	 1.2412154671e-001	 9.4869145959e-001
 3.2629602468e+000	 1.5542673628e-001	 9.6682386755e-001
 3.2613126239e+000	 1.8683426373e-001	 9.8099682900e-001
 3.2593549612e+000	 2.1834017695e-001	 9.9309451971e-001
 3.2570841539e+000	 2.4994043271e-001	 1.0041989268e+000
 3.2544971527e+000	 2.8163089719e-001	 1.0146484489e+000
 3.2515909670e+000	 3.1340734650e-001	 1.0241068132e+000
 3.2933280000e+000	 0.0000000000e+000	 1.0136461726e+000
 3.2931810486e+000	 3.1110068095e-002	 1.0600062380e+000
 3.2927379267e+000	 6.2338321504e-002	 1.0851956830e+000
 3.2919952631e+000	 9.3681146551e-002	 1.0955498041e+000
 3.2909497294e+000	 1.2513483655e-001	 1.0963330490e+000
 3.2895980431e+000	 1.5669559199e-001	 1.0917542693e+000
 3.2879369696e+000	 1.8835952077e-001	 1.0849965826e+000
 3.2859633252e+000	 2.2012263849e-001	 1.0782612681e+000
 3.2836739796e+000	 2.5198086895e-001	 1.0728249414e+000
 3.2810658589e+000	 2.8393004456e-001	 1.0691090861e+000
 3.2781359481e+000	 3.1596590696e-001	 1.0667608497e+000
 3.3199960000e+000	 0.0000000000e+000	 1.3594830382e+000
 3.3198478587e+000	 3.1361984484e-002	 1.3698152924e+000
 3.3194011485e+000	 6.2843111297e-002	 1.3589079266e+000
 3.3186524711e+000	 9.4439737501e-002	 1.3340113675e+000
 3.3175984712e+000	 1.2614812640e-001	 1.3011421774e+000
 3.3162358395e+000	 1.5796444771e-001	 1.2651053898e+000
 3.3145613153e+000	 1.8988477780e-001	 1.2295326607e+000
 3.3125716891e+000	 2.2190510004e-001	 1.1969356233e+000
 3.3102638054e+000	 2.5402130520e-001	 1.1687736437e+000
 3.3076345652e+000	 2.8622919194e-001	 1.1455349937e+000
 3.3046809291e+000	 3.1852446741e-001	 1.1268302827e+000
 3.3466640000e+000	 0.0000000000e+000	 1.7571267266e+000
 3.3465146687e+000	 3.1613900873e-002	 1.7248606595e+000
 3.3460643704e+000	 6.3347901090e-002	 1.6732939324e+000
 3.3453096792e+000	 9.5198328452e-002	 1.6098956038e+000
 3.3442472129e+000	 1.2716141625e-001	 1.5408050800e+000
 3.3428736359e+000	 1.5923330342e-001	 1.4709003099e+000
 3.3411856610e+000	 1.9141003483e-001	 1.4038691129e+000
 3.3391800530e+000	 2.2368756159e-001	 1.3422840140e+000
 3.3368536311e+000	 2.5606174144e-001	 1.2876809875e+000
 3.3342032715e+000	 2.8852833931e-001	 1.2406425642e+000
 3.3312259102e+000	 3.2108302787e-001	 1.2011580749e+000
 3.3733320000e+000	 0.0000000000e+000	 1.9118127815e+000
 3.3731814788e+000	 3.1865817262e-002	 1.8628205339e+000
 3.3727275922e+000	 6.3852690883e-002	 1.7962227220e+000
 3.3719668872e+000	 9.5956919402e-002	 1.7193239843e+000
 3.3708959547e+000	 1.2817470609e-001	 1.6381219397e+000
 3.3695114322e+000	 1.6050215913e-001	 1.5573744337e+000
 3.3678100066e+000	 1.9293529187e-001	 1.4806696030e+000
 3.3657884170e+000	 2.2547002313e-001	 1.4104991513e+000
 3.3634434569e+000	 2.5810217768e-001	 1.3483352610e+000
 3.3607719778e+000	 2.9082748668e-001	 1.2947116204e+000
 3.3577708913e+000	 3.2364158833e-001	 1.2493090940e+000
 3.4000000000e+000	 0.0000000000e+000	 1.7739374944e+000
 3.3998482888e+000	 3.2117733651e-002	 1.7387876290e+000
 3.3993908141e+000	 6.4357480676e-002	 1.6854885299e+000
 3.3986240953e+000	 9.6715510352e-002	 1.6212561562e+000
 3.3975446965e+000	 1.2918799594e-001	 1.5520282389e+000
 3.3961492286e+000	 1.6177101484e-001	 1.4825302993e+000
 3.3944343523e+000	 1.9446054890e-001	 1.4163441414e+000
 3.3923967809e+000	 2.2725248468e-001	 1.3559792265e+000
 3.3900332827e+000	 2.6014261392e-001	 1.3029473808e+000
 3.3873406841e+000	 2.9312663406e-001	 1.2578413402e+000
 3.3843158724e+000	 3.2620014879e-001	 1.2204176949e+000
 3.1188660616e+000	 3.0061454421e-001	 1.1866288111e+000
 3.1157700239e+000	 3.3116768761e-001	 1.1806339349e+000
 3.1123623662e+000	 3.6179499023e-001	 1.1691006792e+000
 3.1086404051e+000	 3.9249221452e-001	 1.1532495418e+000
 3.1046015236e+000	 4.2325504155e-001	 1.1341787917e+000
 3.1002431736e+000	 4.5407907204e-001	 1.1128973679e+000
 3.0955628784e+000	 4.8495982735e-001	 1.0903571867e+000
 3.0905582350e+000	 5.1589275069e-001	 1.0674833893e+000
 3.0852269172e+000	 5.4687320832e-001	 1.0452009889e+000
 3.0795666778e+000	 5.7789649090e-001	 1.0244563012e+000
 3.0735753511e+000	 6.0895781491e-001	 1.0062314897e+000
 3.1454110426e+000	 3.0317310467e-001	 1.0928200513e+000
 3.1422886543e+000	 3.3398628893e-001	 1.0971339400e+000
 3.1388519936e+000	 3.6487426358e-001	 1.0945083144e+000
 3.1350983546e+000	 3.9583275502e-001	 1.0864032752e+000
 3.1310250978e+000	 4.2685740756e-001	 1.0741157548e+000
 3.1266296535e+000	 4.5794378445e-001	 1.0588229630e+000
 3.1219095237e+000	 4.8908736896e-001	 1.0416254973e+000
 3.1168622853e+000	 5.2028356550e-001	 1.0235885515e+000
 3.1114855922e+000	 5.5152770090e-001	 1.0057795716e+000
 3.1057771779e+000	 5.8281502575e-001	 9.8930063404e-001
 3.0997348584e+000	 6.1414071579e-001	 9.7531375834e-001
 3.1719560237e+000	 3.0573166513e-001	 1.0330803647e+000
 3.1688072847e+000	 3.3680489025e-001	 1.0434749305e+000
 3.1653416211e+000	 3.6795353694e-001	 1.0459392089e+000
 3.1615563041e+000	 3.9917329552e-001	 1.0421441743e+000
 3.1574486720e+000	 4.3045977356e-001	 1.0335562680e+000
 3.1530161333e+000	 4.6180849686e-001	 1.0214921638e+000
 3.1482561691e+000	 4.9321491056e-001	 1.0071734699e+000
 3.1431663357e+000	 5.2467438031e-001	 9.9177969497e-001
 3.1377442671e+000	 5.5618219349e-001	 9.7649771587e-001
 3.1319876780e+000	 5.8773356059e-001	 9.6256590322e-001
 3.1258943657e+000	 6.1932361667e-001	 9.5131099548e-001
 3.1985010048e+000	 3.0829022558e-001	 1.0039643375e+000
 3.1953259151e+000	 3.3962349156e-001	 1.0162751080e+000
 3.1918312486e+000	 3.7103281029e-001	 1.0201293525e+000
 3.1880142536e+000	 4.0251383602e-001	 1.0173707365e+000
 3.1838722461e+000	 4.3406213955e-001	 1.0095965628e+000
 3.1794026131e+000	 4.6567320926e-001	 9.9822467072e-001
 3.1746028144e+000	 4.9734245217e-001	 9.8456055958e-001
 3.1694703860e+000	 5.2906519512e-001	 9.6986295186e-001
 3.1640029421e+000	 5.6083668607e-001	 9.5540591692e-001
 3.1581981781e+000	 5.9265209544e-001	 9.4253558761e-001
 3.1520538730e+000	 6.2450651756e-001	 9.3271943113e-001
 3.2250459859e+000	 3.1084878604e-001	 1.0020835175e+000
 3.2218445455e+000	 3.4244209288e-001	 1.0122217293e+000
 3.2183208761e+000	 3.7411208365e-001	 1.0138949139e+000
 3.2144722031e+000	 4.0585437652e-001	 1.0090716199e+000
 3.2102958203e+000	 4.3766450555e-001	 9.9943170291e-001
 3.2057890929e+000	 4.6953792167e-001	 9.8644621393e-001
 3.2009494598e+000	 5.0146999377e-001	 9.7145781554e-001
 3.1957744364e+000	 5.3345600993e-001	 9.5575982601e-001
 3.1902616171e+000	 5.6549117866e-001	 9.4067188674e-001
 3.1844086782e+000	 5.9757063029e-001	 9.2761015693e-001
 3.1782133803e+000	 6.2968941844e-001	 9.1814986101e-001
 3.2515909670e+000	 3.1340734650e-001	 1.0241068132e+000
 3.2483631759e+000	 3.4526069420e-001	 1.0280712470e+000
 3.2448105036e+000	 3.7719135700e-001	 1.0241321032e+000
 3.2409301526e+000	 4.0919491702e-001	 1.0143252038e+000
 3.2367193945e+000	 4.4126687155e-001	 1.0003548133e+000
 3.2321755727e+000	 4.7340263408e-001	 9.8368741423e-001
 3.2272961052e+000	 5.0559753538e-001	 9.6564633217e-001
 3.2220784867e+000	 5.3784682474e-001	 9.4750518735e-001
 3.2165202920e+000	 5.7014567124e-001	 9.3057803883e-001
 3.2106191783e+000	 6.0248916513e-001	 9.1630398897e-001
 3.2043728877e+000	 6.3487231932e-001	 9.0632393207e-001
 3.2781359481e+000	 3.1596590696e-001	 1.0667608497e+000
 3.2748818063e+000	 3.4807929552e-001	 1.0606494102e+000
 3.2713001311e+000	 3.8027063035e-001	 1.0478169990e+000
 3.2673881021e+000	 4.1253545752e-001	 1.0302991169e+000
 3.2631429687e+000	 4.4486923755e-001	 1.0097562783e+000
 3.2585620526e+000	 4.7726734648e-001	 9.8758261598e-001
 3.2536427505e+000	 5.0972507698e-001	 9.6501567459e-001
 3.2483825370e+000	 5.4223763955e-001	 9.4324524259e-001
 3.2427789670e+000	 5.7480016382e-001	 9.2351895124e-001
 3.2368296784e+000	 6.0740769998e-001	 9.0724226667e-001
 3.2305323950e+000	 6.4005522020e-001	 8.9607041021e-001
 3.3046809291e+000	 3.1852446741e-001	 1.1268302827e+000
 3.3014004367e+000	 3.5089789683e-001	 1.1068513287e+000
 3.2977897585e+000	 3.8334990371e-001	 1.0820053420e+000
 3.2938460516e+000	 4.1587599802e-001	 1.0542497349e+000
 3.2895665428e+000	 4.4847160355e-001	 1.0251229126e+000
 3.2849485324e+000	 4.8113205889e-001	 9.9586869393e-001
 3.2799893959e+000	 5.1385261859e-001	 9.6756227978e-001
 3.2746865874e+000	 5.4662845436e-001	 9.4123548321e-001
 3.2690376420e+000	 5.7945465641e-001	 9.1799880863e-001
 3.2630401785e+000	 6.1232623482e-001	 8.9915785628e-001
 3.2566919023e+000	 6.4523812109e-001	 8.8632143153e-001
 3.3312259102e+000	 3.2108302787e-001	 1.2011580749e+000
 3.3279190671e+000	 3.5371649815e-001	 1.1636415019e+000
 3.3242793860e+000	 3.8642917706e-001	 1.1238322968e+000
 3.3203040011e+000	 4.1921653852e-001	 1.0835216491e+000
 3.3159901170e+000	 4.5207396955e-001	 1.0440371046e+000
 3.3113350122e+000	 4.8499677130e-001	 1.0063838354e+000
 3.3063360413e+000	 5.1798016019e-001	 9.7138783477e-001
 3.3009906377e+000	 5.5101926917e-001	 9.3983861207e-001
 3.2952963169e+000	 5.8410914899e-001	 9.1262882472e-001
 3.2892506786e+000	 6.1724476967e-001	 8.9088816777e-001
 3.2828514096e+000	 6.5042102197e-001	 8.7610873775e-001
 3.3577708913e+000	 3.2364158833e-001	 1.2493090940e+000
 3.3544376975e+000	 3.5653509947e-001	 1.2052286261e+000
 3.3507690135e+000	 3.8950845042e-001	 1.1579180113e+000
 3.3467619505e+000	 4.2255707902e-001	 1.1096040650e+000
 3.3424136912e+000	 4.5567633555e-001	 1.0620540428e+000
 3.3377214920e+000	 4.8886148370e-001	 1.0166867463e+000
 3.3326826866e+000	 5.2210770180e-001	 9.7469763301e-001
 3.3272946881e+000	 5.5541008398e-001	 9.3752244991e-001
 3.3215549919e+000	 5.8876364158e-001	 9.0612464603e-001
 3.3154611787e+000	 6.2216330452e-001	 8.8137199826e-001
 3.3090109169e+000	 6.5560392285e-001	 8.6455989684e-001
 3.3843158724e+000	 3.2620014879e-001	 1.2204176949e+000
 3.3809563279e+000	 3.5935370079e-001	 1.1832481958e+000
 3.3772586410e+000	 3.9258772377e-001	 1.1412884263e+000
 3.3732199000e+000	 4.2589761953e-001	 1.0969085674e+000
 3.3688372654e+000	 4.5927870155e-001	 1.0520229779e+000
 3.3641079719e+000	 4.9272619611e-001	 1.0081978205e+000
 3.3590293320e+000	 5.2623524340e-001	 9.6676728177e-001
 3.3535987384e+000	 5.5980089879e-001	 9.2895925226e-001
 3.3478136668e+000	 5.9341813416e-001	 8.9603136006e-001
 3.3416716788e+000	 6.2708183937e-001	 8.6941825972e-001
 3.3351704242e+000	 6.6078682374e-001	 8.5089108656e-001
 3.0735753511e+000	 6.0895781491e-001	 1.0062314897e+000
 3.0672498820e+000	 6.4005698981e-001	 9.7851981081e-001
 3.0605891508e+000	 6.7118442308e-001	 9.3296979656e-001
 3.0535912533e+000	 7.0233510834e-001	 8.8524906020e-001
 3.0462543768e+000	 7.3350397137e-001	 8.4199732052e-001
 3.0385768026e+000	 7.6468587201e-001	 8.0251656185e-001
 3.0305569083e+000	 7.9587560609e-001	 7.6602598908e-001
 3.0221931699e+000	 8.2706790750e-001	 7.3166918621e-001
 3.0134841643e+000	 8.5825745028e-001	 6.9851951322e-001
 3.0044285715e+000	 8.8943885089e-001	 6.6558342295e-001
 2.9950251768e+000	 9.2060667051e-001	 6.3180138978e-001
 3.0997348584e+000	 6.1414071579e-001	 9.7531375834e-001
 3.0933555526e+000	 6.4550457888e-001	 9.5121084900e-001
 3.0866381313e+000	 6.7689694086e-001	 9.0885695997e-001
 3.0795806740e+000	 7.0831275271e-001	 8.6552557092e-001
 3.0721813526e+000	 7.3974689706e-001	 8.2541071255e-001
 3.0644384338e+000	 7.7119418997e-001	 7.8806078241e-001
 3.0563502813e+000	 8.0264938300e-001	 7.5294213551e-001
 3.0479153583e+000	 8.3410716520e-001	 7.1944787063e-001
 3.0391322295e+000	 8.6556216530e-001	 6.8690470925e-001
 3.0299995637e+000	 8.9700895394e-001	 6.5457762531e-001
 3.0205161357e+000	 9.2844204599e-001	 6.2167189518e-001
 3.1258943657e+000	 6.1932361667e-001	 9.5131099548e-001
 3.1194612233e+000	 6.5095216796e-001	 9.2956259918e-001
 3.1126871118e+000	 6.8260945863e-001	 8.8995455567e-001
 3.1055700946e+000	 7.1429039708e-001	 8.5006562498e-001
 3.0981083284e+000	 7.4598982274e-001	 8.1224520483e-001
 3.0903000650e+000	 7.7770250793e-001	 7.7626046508e-001
 3.0821436544e+000	 8.0942315991e-001	 7.4179846609e-001
 3.0736375467e+000	 8.4114642290e-001	 7.0847674106e-001
 3.0647802947e+000	 8.7286688032e-001	 6.7585181609e-001
 3.0555705559e+000	 9.0457905698e-001	 6.4342530182e-001
 3.0460070947e+000	 9.3627742146e-001	 6.1064720191e-001
 3.1520538730e+000	 6.2450651756e-001	 9.3271943113e-001
 3.1455668939e+000	 6.5639975703e-001	 9.1226272908e-001
 3.1387360922e+000	 6.8832197640e-001	 8.7510311412e-001
 3.1315595153e+000	 7.2026804145e-001	 8.3787400826e-001
 3.1240353041e+000	 7.5223274842e-001	 8.0167687302e-001
 3.1161616961e+000	 7.8421082589e-001	 7.6646875497e-001
 3.1079370274e+000	 8.1619693681e-001	 7.3212979562e-001
 3.0993597352e+000	 8.4818568061e-001	 6.9847578486e-001
 3.0904283599e+000	 8.8017159535e-001	 6.6526848774e-001
 3.0811415480e+000	 9.1214916002e-001	 6.3222335284e-001
 3.0714980536e+000	 9.4411279694e-001	 5.9901422196e-001
 3.1782133803e+000	 6.2968941844e-001	 9.1814986101e-001
 3.1716725645e+000	 6.6184734610e-001	 8.9810848102e-001
 3.1647850727e+000	 6.9403449417e-001	 8.6324634175e-001
 3.1575489359e+000	 7.2624568582e-001	 8.2806082099e-001
 3.1499622799e+000	 7.5847567410e-001	 7.9298836829e-001
 3.1420233273e+000	 7.9071914385e-001	 7.5814572726e-001
 3.1337304005e+000	 8.2297071372e-001	 7.2357729105e-001
 3.1250819236e+000	 8.5522493831e-001	 6.8926980877e-001
 3.1160764251e+000	 8.8747631037e-001	 6.5516469131e-001
 3.1067125402e+000	 9.1971926307e-001	 6.2116749728e-001
 3.0969890125e+000	 9.5194817241e-001	 5.8715419234e-001
 3.2043728877e+000	 6.3487231932e-001	 9.0632393207e-001
 3.1977782351e+000	 6.6729493517e-001	 8.8600572296e-001
 3.1908340532e+000	 6.9974701194e-001	 8.5342920876e-001
 3.1835383566e+000	 7.3222333019e-001	 8.1983928259e-001
 3.1758892557e+000	 7.6471859979e-001	 7.8556643210e-001
 3.1678849585e+000	 7.9722746181e-001	 7.5085560495e-001
 3.1595237735e+000	 8.2974449062e-001	 7.1588538509e-001
 3.1508041120e+000	 8.6226419602e-001	 6.8078504138e-001
 3.1417244903e+000	 8.9478102539e-001	 6.4564899137e-001
 3.1322835323e+000	 9.2728936611e-001	 6.1054823203e-001
 3.1224799714e+000	 9.5978354789e-001	 5.7553830284e-001
 3.2305323950e+000	 6.4005522020e-001	 8.9607041021e-001
 3.2238839057e+000	 6.7274252424e-001	 8.7529584356e-001
 3.2168830336e+000	 7.0545952971e-001	 8.4479602367e-001
 3.2095277773e+000	 7.3820097456e-001	 8.1252352448e-001
 3.2018162314e+000	 7.7096152547e-001	 7.7889940005e-001
 3.1937465896e+000	 8.0373577976e-001	 7.4426396618e-001
 3.1853171466e+000	 8.3651826753e-001	 7.0889867952e-001
 3.1765263004e+000	 8.6930345372e-001	 6.7304572489e-001
 3.1673725556e+000	 9.0208574042e-001	 6.3692482275e-001
 3.1578545245e+000	 9.3485946916e-001	 6.0074677845e-001
 3.1479709303e+000	 9.6761892336e-001	 5.6472330911e-001
 3.2566919023e+000	 6.4523812109e-001	 8.8632143153e-001
 3.2499895763e+000	 6.7819011332e-001	 8.6528504688e-001
 3.2429320141e+000	 7.1117204748e-001	 8.3658849525e-001
 3.2355171979e+000	 7.4417861893e-001	 8.0552637184e-001
 3.2277432072e+000	 7.7720445115e-001	 7.7257469549e-001
 3.2196082208e+000	 8.1024409772e-001	 7.3813494184e-001
 3.2111105196e+000	 8.4329204444e-001	 7.0255883886e-001
 3.2022484889e+000	 8.7634271142e-001	 6.6617069684e-001
 3.1930206208e+000	 9.0939045544e-001	 6.2928675243e-001
 3.1834255166e+000	 9.4242957220e-001	 5.9223101669e-001
 3.1734618893e+000	 9.7545429884e-001	 5.5534713168e-001
 3.2828514096e+000	 6.5042102197e-001	 8.7610873775e-001
 3.2760952470e+000	 6.8363770239e-001	 8.5514242160e-001
 3.2689809945e+000	 7.1688456525e-001	 8.2814378254e-001
 3.2615066186e+000	 7.5015626330e-001	 7.9835711473e-001
 3.2536701830e+000	 7.8344737683e-001	 7.6627631348e-001
 3.2454698520e+000	 8.1675241568e-001	 7.3232840399e-001
 3.2369038926e+000	 8.5006582134e-001	 6.9690147481e-001
 3.2279706773e+000	 8.8338196913e-001	 6.6036996224e-001
 3.2186686860e+000	 9.1669517046e-001	 6.2311673111e-001
 3.2089965088e+000	 9.4999967524e-001	 5.8555140838e-001
 3.1989528482e+000	 9.8328967431e-001	 5.4812444185e-001
 3.3090109169e+000	 6.5560392285e-001	 8.6455989684e-001
 3.3022009176e+000	 6.8908529146e-001	 8.4412892534e-001
 3.2950299750e+000	 7.2259708303e-001	 8.1889253365e-001
 3.2874960392e+000	 7.5613390767e-001	 7.9061926915e-001
 3.2795971588e+000	 7.8969030251e-001	 7.5978229555e-001
 3.2713314832e+000	 8.2326073364e-001	 7.2679714552e-001
 3.2626972657e+000	 8.5683959825e-001	 6.9205302208e-001
 3.2536928657e+000	 8.9042122683e-001	 6.5594125685e-001
 3.2443167512e+000	 9.2399988549e-001	 6.1888033504e-001
 3.2345675009e+000	 9.5756977829e-001	 5.8133690855e-001
 3.2244438071e+000	 9.9112504979e-001	 5.4384223518e-001
 3.3351704242e+000	 6.6078682374e-001	 8.5089108656e-001
 3.3283065882e+000	 6.9453288053e-001	 8.3159568043e-001
 3.3210789555e+000	 7.2830960080e-001	 8.0835691399e-001
 3.3134854599e+000	 7.6211155205e-001	 7.8200832879e-001
 3.3055241345e+000	 7.9593322820e-001	 7.5296219584e-001
 3.2971931143e+000	 8.2976905160e-001	 7.2158405167e-001
 3.2884906387e+000	 8.6361337515e-001	 6.8822760607e-001
 3.2794150542e+000	 8.9746048454e-001	 6.5326660177e-001
 3.2699648164e+000	 9.3130460051e-001	 6.1712299865e-001
 3.2601384931e+000	 9.6513988133e-001	 5.8029086717e-001
 3.2499347660e+000	 9.9896042527e-001	 5.4335539312e-001
 2.9950251768e+000	 9.2060667051e-001	 6.3180138978e-001
 2.9852728719e+000	 9.5175541694e-001	 5.9528445110e-001
 2.9751706548e+000	 9.8287954570e-001	 5.5555087492e-001
 2.9647176344e+000	 1.0139734639e+000	 5.1355579192e-001
 2.9539130326e+000	 1.0450315331e+000	 4.7020403802e-001
 2.9427561866e+000	 1.0760480726e+000	 4.2629492177e-001
 2.9312465504e+000	 1.1070173614e+000	 3.8252594885e-001
 2.9193836965e+000	 1.1379336420e+000	 3.3945822054e-001
 2.9071673179e+000	 1.1687911224e+000	 2.9748515685e-001
 2.8945972292e+000	 1.1995839799e+000	 2.5679697714e-001
 2.8816733683e+000	 1.2303063637e+000	 2.1734092277e-001
 3.0205161357e+000	 9.2844204599e-001	 6.2167189518e-001
 3.0106808279e+000	 9.5985590252e-001	 5.8658074700e-001
 3.0004926299e+000	 9.9124493185e-001	 5.4878137011e-001
 2.9899506428e+000	 1.0226034935e+000	 5.0902121821e-001
 2.9790540820e+000	 1.0539259011e+000	 4.6800469990e-001
 2.9678022789e+000	 1.0852064254e+000	 4.2634315267e-001
 2.9561946830e+000	 1.1164392970e+000	 3.8455573298e-001
 2.9442308632e+000	 1.1476187090e+000	 3.4303579513e-001
 2.9319105098e+000	 1.1787388205e+000	 3.0201940265e-001
 2.9192334358e+000	 1.2097937591e+000	 2.6154927287e-001
 2.9061995786e+000	 1.2407776243e+000	 2.2143413255e-001
 3.0460070947e+000	 9.3627742146e-001	 6.1064720191e-001
 3.0360887840e+000	 9.6795638809e-001	 5.7621717680e-001
 3.0258146050e+000	 9.9961031800e-001	 5.3960988098e-001
 3.0151836512e+000	 1.0312335231e+000	 5.0136904857e-001
 3.0041951313e+000	 1.0628202690e+000	 4.6200448489e-001
 2.9928483712e+000	 1.0943647782e+000	 4.2194683631e-001
 2.9811428157e+000	 1.1258612325e+000	 3.8154596433e-001
 2.9690780299e+000	 1.1573037761e+000	 3.4103821950e-001
 2.9566537017e+000	 1.1886865187e+000	 3.0051471626e-001
 2.9438696424e+000	 1.2200035384e+000	 2.5988469741e-001
 2.9307257889e+000	 1.2512488848e+000	 2.1883395889e-001
 3.0714980536e+000	 9.4411279694e-001	 5.9901422196e-001
 3.0614967401e+000	 9.7605687366e-001	 5.6466385325e-001
 3.0511365801e+000	 1.0079757041e+000	 5.2867511558e-001
 3.0404166596e+000	 1.0398635527e+000	 4.9139101257e-001
 3.0293361807e+000	 1.0717146369e+000	 4.5313171499e-001
 3.0178944636e+000	 1.1035231310e+000	 4.1415374230e-001
 3.0060909483e+000	 1.1352831680e+000	 3.7464612644e-001
 2.9939251966e+000	 1.1669888432e+000	 3.3469850047e-001
 2.9813968936e+000	 1.1986342169e+000	 2.9426911300e-001
 2.9685058490e+000	 1.2302133177e+000	 2.5314756837e-001
 2.9552519993e+000	 1.2617201454e+000	 2.1091225618e-001
 3.0969890125e+000	 9.5194817241e-001	 5.8715419234e-001
 3.0869046962e+000	 9.8415735924e-001	 5.5247994099e-001
 3.0764585552e+000	 1.0163410903e+000	 5.1669455301e-001
 3.0656496680e+000	 1.0484935822e+000	 4.7995572805e-001
 3.0544772300e+000	 1.0806090049e+000	 4.4238474941e-001
 3.0429405559e+000	 1.1126814838e+000	 4.0407434727e-001
 3.0310390810e+000	 1.1447051035e+000	 3.6506063065e-001
 3.0187723634e+000	 1.1766739103e+000	 3.2529637880e-001
 3.0061400855e+000	 1.2085819151e+000	 2.8461877194e-001
 2.9931420557e+000	 1.2404230969e+000	 2.4271146320e-001
 2.9797782096e+000	 1.2721914059e+000	 1.9906094733e-001
 3.1224799714e+000	 9.5978354789e-001	 5.7553830284e-001
 3.1123126523e+000	 9.9225784481e-001	 5.4030893701e-001
 3.1017805303e+000	 1.0247064764e+000	 5.0447778390e-001
 3.0908826764e+000	 1.0571236118e+000	 4.6800321125e-001
 3.0796182794e+000	 1.0895033728e+000	 4.3082607131e-001
 3.0679866482e+000	 1.1218398366e+000	 3.9287547215e-001
 3.0559872136e+000	 1.1541270390e+000	 3.5404197797e-001
 3.0436195301e+000	 1.1863589773e+000	 3.1415098949e-001
 3.0308832774e+000	 1.2185296133e+000	 2.7293016869e-001
 3.0177782623e+000	 1.2506328762e+000	 2.2997079831e-001
 3.0043044200e+000	 1.2826626665e+000	 1.8468302350e-001
 3.1479709303e+000	 9.6761892336e-001	 5.6472330911e-001
 3.1377206083e+000	 1.0003583304e+000	 5.2887393446e-001
 3.1271025054e+000	 1.0330718626e+000	 4.9289281523e-001
 3.1161156848e+000	 1.0657536414e+000	 4.5653936790e-001
 3.1047593287e+000	 1.0983977407e+000	 4.1957635480e-001
 3.0930327405e+000	 1.1309981894e+000	 3.8177389992e-001
 3.0809353463e+000	 1.1635489746e+000	 3.4288390200e-001
 3.0684666968e+000	 1.1960440444e+000	 3.0261350444e-001
 3.0556264693e+000	 1.2284773114e+000	 2.6059219225e-001
 3.0424144689e+000	 1.2608426555e+000	 2.1633239488e-001
 3.0288306303e+000	 1.2931339270e+000	 1.6918353350e-001
 3.1734618893e+000	 9.7545429884e-001	 5.5534713168e-001
 3.1631285644e+000	 1.0084588160e+000	 5.1897287075e-001
 3.1524244805e+000	 1.0414372487e+000	 4.8288067100e-001
 3.1413486932e+000	 1.0743836710e+000	 4.4663046629e-001
 3.1299003781e+000	 1.1072921087e+000	 4.0980851363e-001
 3.1180788328e+000	 1.1401565422e+000	 3.7202997491e-001
 3.1058834789e+000	 1.1729709101e+000	 3.3291449406e-001
 3.0933138635e+000	 1.2057291115e+000	 2.9205975841e-001
 3.0803696612e+000	 1.2384250096e+000	 2.4900824691e-001
 3.0670506755e+000	 1.2710524347e+000	 2.0320703189e-001
 3.0533568406e+000	 1.3036051876e+000	 1.5396056349e-001
 3.1989528482e+000	 9.8328967431e-001	 5.4812444185e-001
 3.1885365205e+000	 1.0165593015e+000	 5.1146973707e-001
 3.1777464556e+000	 1.0498026349e+000	 4.7544513651e-001
 3.1665817016e+000	 1.0830137006e+000	 4.3939759332e-001
 3.1550414274e+000	 1.1161864766e+000	 4.0274173237e-001
 3.1431249251e+000	 1.1493148950e+000	 3.6494118477e-001
 3.1308316116e+000	 1.1823928456e+000	 3.2548931141e-001
 3.1181610302e+000	 1.2154141786e+000	 2.8388285910e-001
 3.1051128531e+000	 1.2483727078e+000	 2.3958833993e-001
 3.0916868821e+000	 1.2812622140e+000	 1.9200098717e-001
 3.0778830510e+000	 1.3140764481e+000	 1.4039620747e-001
 3.2244438071e+000	 9.9112504979e-001	 5.4384223518e-001
 3.2139444766e+000	 1.0246597871e+000	 5.0730640947e-001
 3.2030684307e+000	 1.0581680210e+000	 4.7164759973e-001
 3.1918147100e+000	 1.0916437302e+000	 4.3601109454e-001
 3.1801824768e+000	 1.1250808445e+000	 3.9963548114e-001
 3.1681710175e+000	 1.1584732478e+000	 3.6183572598e-001
 3.1557797442e+000	 1.1918147811e+000	 3.2198446955e-001
 3.1430081969e+000	 1.2250992456e+000	 2.7948578240e-001
 3.1298560450e+000	 1.2583204060e+000	 2.3374115585e-001
 3.1163230887e+000	 1.2914719933e+000	 1.8410756724e-001
 3.1024092613e+000	 1.3245477087e+000	 1.2984752914e-001
 3.2499347660e+000	 9.9896042527e-001	 5.4335539312e-001
 3.2393524327e+000	 1.0327602727e+000	 5.0747210303e-001
 3.2283904058e+000	 1.0665334072e+000	 4.7260187836e-001
 3.2170477184e+000	 1.1002737598e+000	 4.3768499897e-001
 3.2053235261e+000	 1.1339752124e+000	 4.0178351477e-001
 3.1932171098e+000	 1.1676316006e+000	 3.6406605380e-001
 3.1807278769e+000	 1.2012367166e+000	 3.2378971959e-001
 3.1678553637e+000	 1.2347843127e+000	 2.8027395354e-001
 3.1545992369e+000	 1.2682681041e+000	 2.3286611816e-001
 3.1409592953e+000	 1.3016817725e+000	 1.8089862630e-001
 3.1269354717e+000	 1.3350189692e+000	 1.2367532306e-001
 2.8816733683e+000	 1.2303063637e+000	 2.1734092277e-001
 2.8683978159e+000	 1.2609478081e+000	 1.7498675499e-001
 2.8547688504e+000	 1.2915070333e+000	 1.2523800149e-001
 2.8407867890e+000	 1.3219781284e+000	 6.6969996038e-002
 2.8264520771e+000	 1.3523551673e+000	 3.9256611135e-003
 2.8117652893e+000	 1.3826322125e+000	-4.6741417217e-002
 2.7967271297e+000	 1.4128033184e+000	-8.7028840355e-002
 2.7813384333e+000	 1.4428625346e+000	-1.2097506614e-001
 2.7656001662e+000	 1.4728039098e+000	-1.5272087306e-001
 2.7495134265e+000	 1.5026214949e+000	-1.8649236000e-001
 2.7330794442e+000	 1.5323093471e+000	-2.2658245395e-001
 2.9061995786e+000	 1.2407776243e+000	 2.2143413255e-001
 2.8928110367e+000	 1.2716798610e+000	 1.7703333346e-001
 2.8790660737e+000	 1.3024991789e+000	 1.2358761016e-001
 2.8649650095e+000	 1.3332296165e+000	 6.0216778976e-002
 2.8505082935e+000	 1.3638651974e+000	-8.2584266168e-004
 2.8356965050e+000	 1.3943999336e+000	-4.8746228925e-002
 2.8205303541e+000	 1.4248278287e+000	-8.7256852695e-002
 2.8050106830e+000	 1.4551428820e+000	-1.2018973723e-001
 2.7891384659e+000	 1.4853390912e+000	-1.5148091156e-001
 2.7729148103e+000	 1.5154104568e+000	-1.8515330926e-001
 2.7563409568e+000	 1.5453509852e+000	-2.2529808414e-001
 2.9307257889e+000	 1.2512488848e+000	 2.1883395889e-001
 2.9172242575e+000	 1.2824119140e+000	 1.7223438082e-001
 2.9033632970e+000	 1.3134913245e+000	 1.1507930157e-001
 2.8891432301e+000	 1.3444811046e+000	 4.8569680893e-002
 2.8745645099e+000	 1.3753752276e+000	-8.4854920671e-003
 2.8596277206e+000	 1.4061676547e+000	-5.3579979604e-002
 2.8443335785e+000	 1.4368523391e+000	-9.0210459110e-002
 2.8286829326e+000	 1.4674232293e+000	-1.2199501171e-001
 2.8126767656e+000	 1.4978742726e+000	-1.5265763814e-001
 2.7963161942e+000	 1.5281994187e+000	-1.8601104762e-001
 2.7796024694e+000	 1.5583926234e+000	-2.2593776798e-001
 2.9552519993e+000	 1.2617201454e+000	 2.1091225618e-001
 2.9416374783e+000	 1.2931439669e+000	 1.6197841935e-001
 2.9276605203e+000	 1.3244834701e+000	 1.0111567257e-001
 2.9133214507e+000	 1.3557325927e+000	 3.5189285843e-002
 2.8986207263e+000	 1.3868852577e+000	-1.7923199160e-002
 2.8835589363e+000	 1.4179353758e+000	-6.0214327065e-002
 2.8681368029e+000	 1.4488768495e+000	-9.4957164259e-002
 2.8523551823e+000	 1.4797035767e+000	-1.2554837794e-001
 2.8362150654e+000	 1.5104094540e+000	-1.5549273445e-001
 2.8197175780e+000	 1.5409883806e+000	-1.8838576864e-001
 2.8028639820e+000	 1.5714342615e+000	-2.2789467338e-001
 2.9797782096e+000	 1.2721914059e+000	 1.9906094733e-001
 2.9660506991e+000	 1.3038760199e+000	 1.4766435535e-001
 2.9519577435e+000	 1.3354756156e+000	 8.3167556309e-002
 2.9374996712e+000	 1.3669840809e+000	 2.1234246155e-002
 2.9226769427e+000	 1.3983952878e+000	-2.8086771975e-002
 2.9074901520e+000	 1.4297030969e+000	-6.7697549081e-002
 2.8919400273e+000	 1.4609013599e+000	-1.0063979975e-001
 2.8760274320e+000	 1.4919839241e+000	-1.3008134536e-001
 2.8597533651e+000	 1.5229446355e+000	-1.5930058970e-001
 2.8431189619e+000	 1.5537773424e+000	-1.9166905812e-001
 2.8261254946e+000	 1.5844758997e+000	-2.3063205027e-001
 3.0043044200e+000	 1.2826626665e+000	 1.8468302350e-001
 2.9904639199e+000	 1.3146080728e+000	 1.3069188430e-001
 2.9762549668e+000	 1.3464677612e+000	 6.4865293557e-002
 2.9616778918e+000	 1.3782355690e+000	 7.7859893688e-003
 2.9467331591e+000	 1.4099053180e+000	-3.7999838088e-002
 2.9314213677e+000	 1.4414708180e+000	-7.5152381964e-002
 2.9157432517e+000	 1.4729258703e+000	-1.0647426898e-001
 2.8996996817e+000	 1.5042642715e+000	-1.3489708726e-001
 2.8832916648e+000	 1.5354798169e+000	-1.6346583326e-001
 2.8665203457e+000	 1.5665663043e+000	-1.9532130897e-001
 2.8493870072e+000	 1.5975175378e+000	-2.3368052046e-001
 3.0288306303e+000	 1.2931339270e+000	 1.6918353350e-001
 3.0148771406e+000	 1.3253401258e+000	 1.1245188912e-001
 3.0005521901e+000	 1.3574599068e+000	 4.8468036194e-002
 2.9858561124e+000	 1.3894870571e+000	-4.1492089100e-003
 2.9707893755e+000	 1.4214153481e+000	-4.6759766962e-002
 2.9553525834e+000	 1.4532385390e+000	-8.1773855783e-002
 2.9395464761e+000	 1.4849503807e+000	-1.1174728679e-001
 2.9233719313e+000	 1.5165446189e+000	-1.3936807672e-001
 2.9068299645e+000	 1.5480149983e+000	-1.6744085911e-001
 2.8899217296e+000	 1.5793552662e+000	-1.9886912679e-001
 2.8726485198e+000	 1.6105591760e+000	-2.3663535750e-001
 3.0533568406e+000	 1.3036051876e+000	 1.5396056349e-001
 3.0392903614e+000	 1.3360721787e+000	 9.4422214476e-002
 3.0248494134e+000	 1.3684520523e+000	 3.5017062006e-002
 3.0100343330e+000	 1.4007385452e+000	-1.3638226846e-002
 2.9948455920e+000	 1.4329253782e+000	-5.3535591130e-002
 2.9792837991e+000	 1.4650062601e+000	-8.6827126391e-002
 2.9633497005e+000	 1.4969748911e+000	-1.1581411412e-001
 2.9470441810e+000	 1.5288249663e+000	-1.4293371604e-001
 2.9303682642e+000	 1.5605501797e+000	-1.7074334264e-001
 2.9133231134e+000	 1.5921442281e+000	-2.0190272694e-001
 2.8959100323e+000	 1.6236008141e+000	-2.3915375715e-001
 3.0778830510e+000	 1.3140764481e+000	 1.4039620747e-001
 3.0637035822e+000	 1.3468042317e+000	 8.0056089751e-002
 3.0491466367e+000	 1.3794441979e+000	 2.5480976871e-002
 3.0342125535e+000	 1.4119900333e+000	-1.9819099291e-002
 3.0189018084e+000	 1.4444354083e+000	-5.7565926302e-002
 3.0032150148e+000	 1.4767739812e+000	-8.9645304468e-002
 2.9871529249e+000	 1.5089994015e+000	-1.1809628804e-001
 2.9707164307e+000	 1.5411053137e+000	-1.4509796024e-001
 2.9539065639e+000	 1.5730853612e+000	-1.7295375022e-001
 2.9367244973e+000	 1.6049331899e+000	-2.0407332331e-001
 2.9191715449e+000	 1.6366424523e+000	-2.4095209903e-001
 3.1024092613e+000	 1.3245477087e+000	 1.2984752914e-001
 3.0881168030e+000	 1.3575362846e+000	 7.1256002515e-002
 3.0734438600e+000	 1.3904363435e+000	 2.0757634244e-002
 3.0583907741e+000	 1.4232415214e+000	-2.1899021720e-002
 3.0429580248e+000	 1.4559454385e+000	-5.8156890432e-002
 3.0271462304e+000	 1.4885417023e+000	-8.9627281715e-002
 3.0109561493e+000	 1.5210239119e+000	-1.1807934743e-001
 2.9943886803e+000	 1.5533856610e+000	-1.4542693469e-001
 2.9774448636e+000	 1.5856205426e+000	-1.7371284196e-001
 2.9601258812e+000	 1.6177221518e+000	-2.0509050948e-001
 2.9424330575e+000	 1.6496840905e+000	-2.4180319982e-001
 3.1269354717e+000	 1.3350189692e+000	 1.2367532306e-001
 3.1125300238e+000	 1.3682683376e+000	 6.8960485496e-002
 3.0977410833e+000	 1.4014284891e+000	 2.1676051519e-002
 3.0825689947e+000	 1.4344930095e+000	-1.9152355136e-002
 3.0670142412e+000	 1.4674554686e+000	-5.4680021822e-002
 3.0510774461e+000	 1.5003094234e+000	-8.6235554381e-002
 3.0347593738e+000	 1.5330484222e+000	-1.1531055440e-001
 3.0180609300e+000	 1.5656660084e+000	-1.4354654741e-001
 3.0009831633e+000	 1.5981557240e+000	-1.7271916791e-001
 2.9835272650e+000	 1.6305111137e+000	-2.0471963253e-001
 2.9656945701e+000	 1.6627257286e+000	-2.4153355865e-001
 2.7330794442e+000	 1.5323093471e+000	-2.2658245395e-001
 2.7162970396e+000	 1.5618659559e+000	-2.7272567076e-001
 2.6991701498e+000	 1.5912809365e+000	-3.2160506921e-001
 2.6817004063e+000	 1.6205483847e+000	-3.7296164214e-001
 2.6638895731e+000	 1.6496624172e+000	-4.2644540973e-001
 2.6457395471e+000	 1.6786171747e+000	-4.7976579295e-001
 2.6272523575e+000	 1.7074068260e+000	-5.3071004512e-001
 2.6084301654e+000	 1.7360255719e+000	-5.7770502311e-001
 2.5892752636e+000	 1.7644676483e+000	-6.1895225257e-001
 2.5697900756e+000	 1.7927273302e+000	-6.5245062026e-001
 2.5499771547e+000	 1.8207989356e+000	-6.7602144577e-001
 2.7563409568e+000	 1.5453509852e+000	-2.2529808414e-001
 2.7394157154e+000	 1.5751591533e+000	-2.7123115542e-001
 2.7221430570e+000	 1.6048244877e+000	-3.1932378735e-001
 2.7045246267e+000	 1.6343410342e+000	-3.6927905107e-001
 2.6865622037e+000	 1.6637028591e+000	-4.2074549266e-001
 2.6682577011e+000	 1.6929040534e+000	-4.7329890832e-001
 2.6496131651e+000	 1.7219387363e+000	-5.2500496529e-001
 2.6306307755e+000	 1.7508010592e+000	-5.7266990664e-001
 2.6113128445e+000	 1.7794852089e+000	-6.1445098930e-001
 2.5916618160e+000	 1.8079854119e+000	-6.4830145016e-001
 2.5716802653e+000	 1.8362959375e+000	-6.7198627980e-001
 2.7796024694e+000	 1.5583926234e+000	-2.2593776798e-001
 2.7625343913e+000	 1.5884523507e+000	-2.7136047712e-001
 2.7451159642e+000	 1.6183680390e+000	-3.1839039305e-001
 2.7273488472e+000	 1.6481336836e+000	-3.6672567450e-001
 2.7092348344e+000	 1.6777433009e+000	-4.1601329524e-001
 2.6907758550e+000	 1.7071909321e+000	-4.6582992454e-001
 2.6719739728e+000	 1.7364706467e+000	-5.1566189217e-001
 2.6528313856e+000	 1.7655765466e+000	-5.6387888822e-001
 2.6333504253e+000	 1.7945027696e+000	-6.0647400809e-001
 2.6135335564e+000	 1.8232434935e+000	-6.4124768270e-001
 2.5933833760e+000	 1.8517929394e+000	-6.6593449134e-001
 2.8028639820e+000	 1.5714342615e+000	-2.2789467338e-001
 2.7856530671e+000	 1.6017455481e+000	-2.7257466578e-001
 2.7680888714e+000	 1.6319115902e+000	-3.1832845425e-001
 2.7501730676e+000	 1.6619263330e+000	-3.6488155838e-001
 2.7319074651e+000	 1.6917837428e+000	-4.1191194573e-001
 2.7132940090e+000	 1.7214778108e+000	-4.5902990714e-001
 2.6943347804e+000	 1.7510025570e+000	-5.0575693206e-001
 2.6750319957e+000	 1.7803520339e+000	-5.5150374139e-001
 2.6553880061e+000	 1.8095203303e+000	-5.9482608997e-001
 2.6354052969e+000	 1.8385015752e+000	-6.3108285213e-001
 2.6150864867e+000	 1.8672899413e+000	-6.5764025761e-001
 2.8261254946e+000	 1.5844758997e+000	-2.3063205027e-001
 2.8087717430e+000	 1.6150387455e+000	-2.7440352789e-001
 2.7910617786e+000	 1.6454551415e+000	-3.1872903657e-001
 2.7729972881e+000	 1.6757189825e+000	-3.6339303544e-001
 2.7545800958e+000	 1.7058241847e+000	-4.0813638210e-001
 2.7358121630e+000	 1.7357646895e+000	-4.5263509134e-001
 2.7166955881e+000	 1.7655344673e+000	-4.9647800368e-001
 2.6972326058e+000	 1.7951275212e+000	-5.3914353036e-001
 2.6774255869e+000	 1.8245378910e+000	-5.7997565565e-001
 2.6572770373e+000	 1.8537596569e+000	-6.1762046047e-001
 2.6367895974e+000	 1.8827869432e+000	-6.4690447169e-001
 2.8493870072e+000	 1.5975175378e+000	-2.3368052046e-001
 2.8318904189e+000	 1.6283319429e+000	-2.7644280472e-001
 2.8140346857e+000	 1.6589986927e+000	-3.1924772362e-001
 2.7958215085e+000	 1.6895116319e+000	-3.6196959997e-001
 2.7772527264e+000	 1.7198646266e+000	-4.0444344912e-001
 2.7583303170e+000	 1.7500515682e+000	-4.4644250762e-001
 2.7390563958e+000	 1.7800663776e+000	-4.8765457666e-001
 2.7194332159e+000	 1.8099030085e+000	-5.2765735545e-001
 2.6994631677e+000	 1.8395554517e+000	-5.6589295589e-001
 2.6791487777e+000	 1.8690177385e+000	-6.0164180445e-001
 2.6584927081e+000	 1.8982839451e+000	-6.3355850647e-001
 2.8726485198e+000	 1.6105591760e+000	-2.3663535750e-001
 2.8550090947e+000	 1.6416251403e+000	-2.7835132026e-001
 2.8370075929e+000	 1.6725422440e+000	-3.1960162647e-001
 2.8186457290e+000	 1.7033042813e+000	-3.6038077194e-001
 2.7999253571e+000	 1.7339050684e+000	-4.0064860905e-001
 2.7808484710e+000	 1.7643384469e+000	-4.4030653057e-001
 2.7614172034e+000	 1.7945982879e+000	-4.7917236749e-001
 2.7416338260e+000	 1.8246784959e+000	-5.1695418548e-001
 2.7215007486e+000	 1.8545730124e+000	-5.5322318183e-001
 2.7010205182e+000	 1.8842758202e+000	-5.8738590042e-001
 2.6801958187e+000	 1.9137809471e+000	-6.1865599604e-001
 2.8959100323e+000	 1.6236008141e+000	-2.3915375715e-001
 2.8781277706e+000	 1.6549183377e+000	-2.7984811913e-001
 2.8599805001e+000	 1.6860857952e+000	-3.1956638298e-001
 2.8414699494e+000	 1.7170969308e+000	-3.5845295084e-001
 2.8225979878e+000	 1.7479455103e+000	-3.9662264262e-001
 2.8033666250e+000	 1.7786253257e+000	-4.3413541859e-001
 2.7837780111e+000	 1.8091301983e+000	-4.7096970919e-001
 2.7638344362e+000	 1.8394539832e+000	-5.0699454708e-001
 2.7435383294e+000	 1.8695905731e+000	-5.4194071422e-001
 2.7228922586e+000	 1.8995339019e+000	-5.7537113355e-001
 2.7018989294e+000	 1.9292779490e+000	-6.0665074983e-001
 2.9191715449e+000	 1.6366424523e+000	-2.4095209903e-001
 2.9012464465e+000	 1.6682115351e+000	-2.8070959512e-001
 2.8829534073e+000	 1.6996293465e+000	-3.1897314753e-001
 2.8642941699e+000	 1.7308895802e+000	-3.5606626004e-001
 2.8452706184e+000	 1.7619859522e+000	-3.9228834077e-001
 2.8258847789e+000	 1.7929122044e+000	-4.2788784518e-001
 2.8061388188e+000	 1.8236621086e+000	-4.6303391356e-001
 2.7860350463e+000	 1.8542294705e+000	-4.9778670891e-001
 2.7655759102e+000	 1.8846081337e+000	-5.3206667958e-001
 2.7447639990e+000	 1.9147919835e+000	-5.6562298903e-001
 2.7236020401e+000	 1.9447749509e+000	-5.9800137082e-001
 2.9424330575e+000	 1.6496840905e+000	-2.4180319982e-001
 2.9243651223e+000	 1.6815047326e+000	-2.8076661103e-001
 2.9059263145e+000	 1.7131728977e+000	-3.1770557166e-001
 2.8871183903e+000	 1.7446822296e+000	-3.5315138202e-001
 2.8679432491e+000	 1.7760263941e+000	-3.8761718760e-001
 2.8484029329e+000	 1.8071990831e+000	-4.2156942214e-001
 2.8284996264e+000	 1.8381940189e+000	-4.5539762652e-001
 2.8082356564e+000	 1.8690049578e+000	-4.8938286034e-001
 2.7876134910e+000	 1.8996256944e+000	-5.2366494311e-001
 2.7666357395e+000	 1.9300500652e+000	-5.5820878071e-001
 2.7453051508e+000	 1.9602719528e+000	-5.9277004954e-001
 2.9656945701e+000	 1.6627257286e+000	-2.4153355865e-001
 2.9474837982e+000	 1.6947979300e+000	-2.7990161000e-001
 2.9288992217e+000	 1.7267164490e+000	-3.1569677610e-001
 2.9099426108e+000	 1.7584748791e+000	-3.4968638508e-001
 2.8906158798e+000	 1.7900668359e+000	-3.8262603510e-001
 2.8709210869e+000	 1.8214859618e+000	-4.1522921519e-001
 2.8508604341e+000	 1.8527259292e+000	-4.4813517690e-001
 2.8304362665e+000	 1.8837804452e+000	-4.8187528515e-001
 2.8096510718e+000	 1.9146432551e+000	-5.1683809838e-001
 2.7885074799e+000	 1.9453081468e+000	-5.5323344755e-001
 2.7670082615e+000	 1.9757689547e+000	-5.9105580153e-001
 2.5499771547e+000	 1.8207989356e+000	-6.7602144577e-001
 2.5298391828e+000	 1.8486768282e+000	-6.9472138319e-001
 2.5093789672e+000	 1.8763554191e+000	-7.1570299380e-001
 2.4885994412e+000	 1.9038291727e+000	-7.3973010898e-001
 2.4675036641e+000	 1.9310926103e+000	-7.6747556861e-001
 2.4460948194e+000	 1.9581403139e+000	-7.9954910066e-001
 2.4243762135e+000	 1.9849669300e+000	-8.3652627311e-001
 2.4023512743e+000	 2.0115671724e+000	-8.7773673750e-001
 2.3800235488e+000	 2.0379358263e+000	-9.1459323502e-001
 2.3573967021e+000	 2.0640677512e+000	-9.4720919730e-001
 2.3344745148e+000	 2.0899578845e+000	-9.7790242431e-001
 2.5716802653e+000	 1.8362959375e+000	-6.7198627980e-001
 2.5513708972e+000	 1.8644111016e+000	-6.9028680573e-001
 2.5307365427e+000	 1.8923252678e+000	-7.1031750911e-001
 2.5097801601e+000	 1.9200328533e+000	-7.3312598534e-001
 2.4885048347e+000	 1.9475283327e+000	-7.5965810983e-001
 2.4669137771e+000	 1.9748062421e+000	-7.9078720532e-001
 2.4450103220e+000	 2.0018611821e+000	-8.2731158954e-001
 2.4227979263e+000	 2.0286878219e+000	-8.6261726020e-001
 2.4002801674e+000	 2.0552809020e+000	-8.9302000612e-001
 2.3774607413e+000	 2.0816352384e+000	-9.2107317409e-001
 2.3543434610e+000	 2.1077457252e+000	-9.4936456571e-001
 2.5933833760e+000	 1.8517929394e+000	-6.6593449134e-001
 2.5729026116e+000	 1.8801453750e+000	-6.8498733431e-001
 2.5520941181e+000	 1.9082951165e+000	-7.0535396176e-001
 2.5309608789e+000	 1.9362365338e+000	-7.2827736398e-001
 2.5095060052e+000	 1.9639640551e+000	-7.5488816097e-001
 2.4877327348e+000	 1.9914721702e+000	-7.8623530008e-001
 2.4656444305e+000	 2.0187554343e+000	-8.2003625884e-001
 2.4432445784e+000	 2.0458084713e+000	-8.4817567665e-001
 2.4205367859e+000	 2.0726259777e+000	-8.7265637524e-001
 2.3975247805e+000	 2.0992027255e+000	-8.9622868188e-001
 2.3742124071e+000	 2.1255335658e+000	-9.2167459105e-001
 2.6150864867e+000	 1.8672899413e+000	-6.5764025761e-001
 2.5944343260e+000	 1.8958796485e+000	-6.7857905899e-001
 2.5734516935e+000	 1.9242649652e+000	-7.0056286184e-001
 2.5521415977e+000	 1.9524402144e+000	-7.2494307623e-001
 2.5305071758e+000	 1.9803997775e+000	-7.5294815164e-001
 2.5085516926e+000	 2.0081380983e+000	-7.8508727145e-001
 2.4862785390e+000	 2.0356496864e+000	-8.1262849597e-001
 2.4636912304e+000	 2.0629291208e+000	-8.3457985991e-001
 2.4407934044e+000	 2.0899710534e+000	-8.5376587370e-001
 2.4175888197e+000	 2.1167702127e+000	-8.7305862761e-001
 2.3940813533e+000	 2.1433214065e+000	-8.9536048068e-001
 2.6367895974e+000	 1.8827869432e+000	-6.4690447169e-001
 2.6159660404e+000	 1.9116139219e+000	-6.7085156116e-001
 2.5948092690e+000	 1.9402348139e+000	-6.9573460441e-001
 2.5733223165e+000	 1.9686438949e+000	-7.2292776410e-001
 2.5515083463e+000	 1.9968354999e+000	-7.5367169442e-001
 2.5293706503e+000	 2.0248040264e+000	-7.8334228588e-001
 2.5069126475e+000	 2.0525439385e+000	-8.0522984861e-001
 2.4841378824e+000	 2.0800497702e+000	-8.2204357109e-001
 2.4610500230e+000	 2.1073161292e+000	-8.3665546764e-001
 2.4376528589e+000	 2.1343376998e+000	-8.5198612016e-001
 2.4139502994e+000	 2.1611092471e+000	-8.7098635209e-001
 2.6584927081e+000	 1.8982839451e+000	-6.3355850647e-001
 2.6374977548e+000	 1.9273481954e+000	-6.6163172143e-001
 2.6161668444e+000	 1.9562046626e+000	-6.9070333400e-001
 2.5945030353e+000	 1.9848475755e+000	-7.2208581684e-001
 2.5725095169e+000	 2.0132712223e+000	-7.5527137027e-001
 2.5501896080e+000	 2.0414699545e+000	-7.8043518348e-001
 2.5275467561e+000	 2.0694381906e+000	-7.9802685776e-001
 2.5045845345e+000	 2.0971704197e+000	-8.1082380993e-001
 2.4813066415e+000	 2.1246612049e+000	-8.2167291236e-001
 2.4577168980e+000	 2.1519051869e+000	-8.3347186339e-001
 2.4338192456e+000	 2.1788970878e+000	-8.4914992935e-001
 2.6801958187e+000	 1.9137809471e+000	-6.1865599604e-001
 2.6590294692e+000	 1.9430824688e+000	-6.5078753417e-001
 2.6375244199e+000	 1.9721745113e+000	-6.8535081917e-001
 2.6156837542e+000	 2.0010512561e+000	-7.2231467160e-001
 2.5935106874e+000	 2.0297069447e+000	-7.5442763872e-001
 2.5710085658e+000	 2.0581358826e+000	-7.7654398757e-001
 2.5481808646e+000	 2.0863324428e+000	-7.9124844912e-001
 2.5250311865e+000	 2.1142910692e+000	-8.0121817545e-001
 2.5015632601e+000	 2.1420062806e+000	-8.0920411295e-001
 2.4777809372e+000	 2.1694726741e+000	-8.1801155000e-001
 2.4536881917e+000	 2.1966849284e+000	-8.3048000607e-001
 2.7018989294e+000	 1.9292779490e+000	-6.0665074983e-001
 2.6805611835e+000	 1.9588167422e+000	-6.3956112179e-001
 2.6588819953e+000	 1.9881443600e+000	-6.7961033615e-001
 2.6368644730e+000	 2.0172549366e+000	-7.2077806973e-001
 2.6145118580e+000	 2.0461426671e+000	-7.5122868978e-001
 2.5918275235e+000	 2.0748018108e+000	-7.7188773827e-001
 2.5688149731e+000	 2.1032266949e+000	-7.8516333636e-001
 2.5454778386e+000	 2.1314117186e+000	-7.9356223628e-001
 2.5218198786e+000	 2.1593513563e+000	-7.9967049086e-001
 2.4978449764e+000	 2.1870401612e+000	-8.0613325608e-001
 2.4735571379e+000	 2.2144727691e+000	-8.1563390226e-001
 2.7236020401e+000	 1.9447749509e+000	-5.9800137082e-001
 2.7020928979e+000	 1.9745510157e+000	-6.3261568480e-001
 2.6802395708e+000	 2.0041142087e+000	-6.7463782885e-001
 2.6580451918e+000	 2.0334586172e+000	-7.1543897890e-001
 2.6355130285e+000	 2.0625783895e+000	-7.4589850680e-001
 2.6126464812e+000	 2.0914677389e+000	-7.6672396749e-001
 2.5894490816e+000	 2.1201209470e+000	-7.8007743558e-001
 2.5659244906e+000	 2.1485323681e+000	-7.8822690998e-001
 2.5420764971e+000	 2.1766964320e+000	-7.9352635606e-001
 2.5179090156e+000	 2.2046076483e+000	-7.9839483648e-001
 2.4934260840e+000	 2.2322606097e+000	-8.0529491564e-001
 2.7453051508e+000	 1.9602719528e+000	-5.9277004954e-001
 2.7236246123e+000	 1.9902852891e+000	-6.3041407871e-001
 2.7015971462e+000	 2.0200840574e+000	-6.7198754657e-001
 2.6792259106e+000	 2.0496622977e+000	-7.0771634150e-001
 2.6565141991e+000	 2.0790141119e+000	-7.3869790345e-001
 2.6334654390e+000	 2.1081336670e+000	-7.6134618538e-001
 2.6100831901e+000	 2.1370151992e+000	-7.7633129020e-001
 2.5863711426e+000	 2.1656530175e+000	-7.8561585086e-001
 2.5623331157e+000	 2.1940415077e+000	-7.9125628441e-001
 2.5379730548e+000	 2.2221751355e+000	-7.9538132077e-001
 2.5132950302e+000	 2.2500484504e+000	-8.0016976741e-001
 2.7670082615e+000	 1.9757689547e+000	-5.9105580153e-001
 2.7451563267e+000	 2.0060195626e+000	-6.3270448263e-001
 2.7229547217e+000	 2.0360539061e+000	-6.7099409280e-001
 2.7004066295e+000	 2.0658659783e+000	-7.0286293974e-001
 2.6775153696e+000	 2.0954498343e+000	-7.3082114779e-001
 2.6542843967e+000	 2.1247995951e+000	-7.5608137755e-001
 2.6307172986e+000	 2.1539094513e+000	-7.7429750601e-001
 2.6068177947e+000	 2.1827736670e+000	-7.8616284598e-001
 2.5825897342e+000	 2.2113865834e+000	-7.9337250018e-001
 2.5580370939e+000	 2.2397426226e+000	-7.9770230991e-001
 2.5331639763e+000	 2.2678362910e+000	-8.0098604302e-001
 2.3344745148e+000	 2.0899578845e+000	-9.7790242431e-001
 2.3112643850e+000	 2.1155974172e+000	-1.0058530176e+000
 2.2877669022e+000	 2.1409853574e+000	-1.0283675853e+000
 2.2639861814e+000	 2.1661168989e+000	-1.0449893743e+000
 2.2399264443e+000	 2.1909873262e+000	-1.0552920472e+000
 2.2155920168e+000	 2.2155920168e+000	-1.0588696222e+000
 2.1909873262e+000	 2.2399264443e+000	-1.0553265580e+000
 2.1661168989e+000	 2.2639861814e+000	-1.0442680983e+000
 2.1409853574e+000	 2.2877669022e+000	-1.0252909868e+000
 2.1155974172e+000	 2.3112643850e+000	-9.9797465974e-001
 2.0899578845e+000	 2.3344745148e+000	-9.6187301608e-001
 2.3543434610e+000	 2.1077457252e+000	-9.4936456571e-001
 2.3309357874e+000	 2.1336034785e+000	-9.7761758975e-001
 2.3072383152e+000	 2.1592074979e+000	-1.0030287129e+000
 2.2832551943e+000	 2.1845529366e+000	-1.0244360548e+000
 2.2589906824e+000	 2.2096350385e+000	-1.0407198284e+000
 2.2344491421e+000	 2.2344491421e+000	-1.0507928429e+000
 2.2096350385e+000	 2.2589906824e+000	-1.0535911475e+000
 2.1845529366e+000	 2.2832551943e+000	-1.0480649315e+000
 2.1592074979e+000	 2.3072383152e+000	-1.0331697985e+000
 2.1336034785e+000	 2.3309357874e+000	-1.0078585234e+000
 2.1077457252e+000	 2.3543434610e+000	-9.7107339898e-001
 2.3742124071e+000	 2.1255335658e+000	-9.2167459105e-001
 2.3506071898e+000	 2.1516095398e+000	-9.4936489814e-001
 2.3267097282e+000	 2.1774296385e+000	-9.7662126631e-001
 2.3025242072e+000	 2.2029889742e+000	-1.0016977569e+000
 2.2780549204e+000	 2.2282827509e+000	-1.0229000628e+000
 2.2533062674e+000	 2.2533062674e+000	-1.0385763255e+000
 2.2282827509e+000	 2.2780549204e+000	-1.0471080906e+000
 2.2029889742e+000	 2.3025242072e+000	-1.0469015251e+000
 2.1774296385e+000	 2.3267097282e+000	-1.0363790168e+000
 2.1516095398e+000	 2.3506071898e+000	-1.0139712718e+000
 2.1255335658e+000	 2.3742124071e+000	-9.7811001856e-001
 2.3940813533e+000	 2.1433214065e+000	-8.9536048068e-001
 2.3702785922e+000	 2.1696156011e+000	-9.2176420170e-001
 2.3461811411e+000	 2.1956517791e+000	-9.4991925852e-001
 2.3217932201e+000	 2.2214250118e+000	-9.7761378167e-001
 2.2971191585e+000	 2.2469304632e+000	-1.0026949637e+000
 2.2721633927e+000	 2.2721633927e+000	-1.0230599402e+000
 2.2469304632e+000	 2.2971191585e+000	-1.0366468132e+000
 2.2214250118e+000	 2.3217932201e+000	-1.0414259474e+000
 2.1956517791e+000	 2.3461811411e+000	-1.0353916630e+000
 2.1696156011e+000	 2.3702785922e+000	-1.0165544490e+000
 2.1433214065e+000	 2.3940813533e+000	-9.8293380966e-001
 2.4139502994e+000	 2.1611092471e+000	-8.7098635209e-001
 2.3899499946e+000	 2.1876216623e+000	-8.9551698358e-001
 2.3656525541e+000	 2.2138739197e+000	-9.2372625570e-001
 2.3410622330e+000	 2.2398610495e+000	-9.5305166351e-001
 2.3161833966e+000	 2.2655781755e+000	-9.8099511546e-001
 2.2910205180e+000	 2.2910205180e+000	-1.0051136299e+000
 2.2655781755e+000	 2.3161833966e+000	-1.0230101834e+000
 2.2398610495e+000	 2.3410622330e+000	-1.0323248475e+000
 2.2138739197e+000	 2.3656525541e+000	-1.0307263460e+000
 2.1876216623e+000	 2.3899499946e+000	-1.0159041601e+000
 2.1611092471e+000	 2.4139502994e+000	-9.8556130156e-001
 2.4338192456e+000	 2.1788970878e+000	-8.4914992935e-001
 2.4096213971e+000	 2.2056277236e+000	-8.7135449503e-001
 2.3851239671e+000	 2.2320960602e+000	-8.9887294973e-001
 2.3603312458e+000	 2.2582970871e+000	-9.2890472125e-001
 2.3352476346e+000	 2.2842258879e+000	-9.5871695039e-001
 2.3098776433e+000	 2.3098776433e+000	-9.8563475543e-001
 2.2842258879e+000	 2.3352476346e+000	-1.0070316630e+000
 2.2582970871e+000	 2.3603312458e+000	-1.0203203491e+000
 2.2320960602e+000	 2.3851239671e+000	-1.0229438306e+000
 2.2056277236e+000	 2.4096213971e+000	-1.0123672404e+000
 2.1788970878e+000	 2.4338192456e+000	-9.8607031393e-001
 2.4536881917e+000	 2.1966849284e+000	-8.3048000607e-001
 2.4292927995e+000	 2.2236337849e+000	-8.5003528568e-001
 2.4045953801e+000	 2.2503182008e+000	-8.7621471249e-001
 2.3796002587e+000	 2.2767331247e+000	-9.0608958924e-001
 2.3543118727e+000	 2.3028736002e+000	-9.3680020564e-001
 2.3287347687e+000	 2.3287347687e+000	-9.6554542388e-001
 2.3028736002e+000	 2.3543118727e+000	-9.8957245017e-001
 2.2767331247e+000	 2.3796002587e+000	-1.0061669449e+000
 2.2503182008e+000	 2.4045953801e+000	-1.0126436186e+000
 2.2236337849e+000	 2.4292927995e+000	-1.0063374564e+000
 2.1966849284e+000	 2.4536881917e+000	-9.8459570526e-001
 2.4735571379e+000	 2.2144727691e+000	-8.1563390226e-001
 2.4489642019e+000	 2.2416398462e+000	-8.3234272135e-001
 2.4240667931e+000	 2.2685403414e+000	-8.5662913311e-001
 2.3988692716e+000	 2.2951691624e+000	-8.8554372943e-001
 2.3733761107e+000	 2.3215213125e+000	-9.1620536192e-001
 2.3475918940e+000	 2.3475918940e+000	-9.4578980214e-001
 2.3215213125e+000	 2.3733761107e+000	-9.7151861281e-001
 2.2951691624e+000	 2.3988692716e+000	-9.9064839162e-001
 2.2685403414e+000	 2.4240667931e+000	-1.0004605442e+000
 2.2416398462e+000	 2.4489642019e+000	-9.9825173677e-001
 2.2144727691e+000	 2.4735571379e+000	-9.8132517084e-001
 2.4934260840e+000	 2.2322606097e+000	-8.0529491564e-001
 2.4686356043e+000	 2.2596459074e+000	-8.1908248981e-001
 2.4435382061e+000	 2.2867624820e+000	-8.4101353920e-001
 2.4181382845e+000	 2.3136052000e+000	-8.6822292547e-001
 2.3924403488e+000	 2.3401690249e+000	-8.9791106470e-001
 2.3664490193e+000	 2.3664490193e+000	-9.2733141641e-001
 2.3401690249e+000	 2.3924403488e+000	-9.5377821374e-001
 2.3136052000e+000	 2.4181382845e+000	-9.7457460640e-001
 2.2867624820e+000	 2.4435382061e+000	-9.8706138271e-001
 2.2596459074e+000	 2.4686356043e+000	-9.8858643037e-001
 2.2322606097e+000	 2.4934260840e+000	-9.7649508764e-001
 2.5132950302e+000	 2.2500484504e+000	-8.0016976741e-001
 2.4883070067e+000	 2.2776519687e+000	-8.1108009531e-001
 2.4630096191e+000	 2.3049846225e+000	-8.3028250284e-001
 2.4374072974e+000	 2.3320412377e+000	-8.5509875986e-001
 2.4115045869e+000	 2.3588167372e+000	-8.8291152908e-001
 2.3853061446e+000	 2.3853061446e+000	-9.1115043813e-001
 2.3588167372e+000	 2.4115045869e+000	-9.3727842843e-001
 2.3320412377e+000	 2.4374072974e+000	-9.5877856292e-001
 2.3049846225e+000	 2.4630096191e+000	-9.7314146983e-001
 2.2776519687e+000	 2.4883070067e+000	-9.7785359204e-001
 2.2500484504e+000	 2.5132950302e+000	-9.7038640331e-001
 2.5331639763e+000	 2.2678362910e+000	-8.0098604302e-001
 2.5079784091e+000	 2.2956580300e+000	-8.0917834245e-001
 2.4824810320e+000	 2.3232067631e+000	-8.2536533224e-001
 2.4566763103e+000	 2.3504772753e+000	-8.4715607509e-001
 2.4305688249e+000	 2.3774644495e+000	-8.7221392907e-001
 2.4041632699e+000	 2.4041632699e+000	-8.9824095730e-001
 2.3774644495e+000	 2.4305688249e+000	-9.2296265516e-001
 2.3504772753e+000	 2.4566763103e+000	-9.4411318882e-001
 2.3232067631e+000	 2.4824810320e+000	-9.5942133360e-001
 2.2956580300e+000	 2.5079784091e+000	-9.6659729257e-001
 2.2678362910e+000	 2.5331639763e+000	-9.6332056706e-001
 2.0899578845e+000	 2.3344745148e+000	-9.6187301608e-001
 2.0640677512e+000	 2.3573967021e+000	-9.3338850358e-001
 2.0379358263e+000	 2.3800235488e+000	-9.3147128388e-001
 2.0115671724e+000	 2.4023512743e+000	-9.5933626684e-001
 1.9849669300e+000	 2.4243762135e+000	-1.0123080272e+000
 1.9581403139e+000	 2.4460948194e+000	-1.0558108931e+000
 1.9310926103e+000	 2.4675036641e+000	-1.0850870669e+000
 1.9038291727e+000	 2.4885994412e+000	-1.0999077700e+000
 1.8763554191e+000	 2.5093789672e+000	-1.1000837287e+000
 1.8486768282e+000	 2.5298391828e+000	-1.0854884227e+000
 1.8207989356e+000	 2.5499771547e+000	-1.0560799918e+000
 2.1077457252e+000	 2.3543434610e+000	-9.7107339898e-001
 2.0816352384e+000	 2.3774607413e+000	-9.3792604661e-001
 2.0552809020e+000	 2.4002801674e+000	-9.2673320099e-001
 2.0286878219e+000	 2.4227979263e+000	-9.4108442165e-001
 2.0018611821e+000	 2.4450103220e+000	-9.8438815837e-001
 1.9748062421e+000	 2.4669137771e+000	-1.0377707580e+000
 1.9475283327e+000	 2.4885048347e+000	-1.0736635380e+000
 1.9200328533e+000	 2.5097801601e+000	-1.0919933329e+000
 1.8923252678e+000	 2.5307365427e+000	-1.0928433319e+000
 1.8644111016e+000	 2.5513708972e+000	-1.0763579884e+000
 1.8362959375e+000	 2.5716802653e+000	-1.0427656969e+000
 2.1255335658e+000	 2.3742124071e+000	-9.7811001856e-001
 2.0992027255e+000	 2.3975247805e+000	-9.4246424815e-001
 2.0726259777e+000	 2.4205367859e+000	-9.2442660515e-001
 2.0458084713e+000	 2.4432445784e+000	-9.2785367267e-001
 2.0187554343e+000	 2.4656444305e+000	-9.5640824019e-001
 1.9914721702e+000	 2.4877327348e+000	-1.0110033278e+000
 1.9639640551e+000	 2.5095060052e+000	-1.0566120704e+000
 1.9362365338e+000	 2.5309608789e+000	-1.0812813887e+000
 1.9082951165e+000	 2.5520941181e+000	-1.0852705973e+000
 1.8801453750e+000	 2.5729026116e+000	-1.0689026544e+000
 1.8517929394e+000	 2.5933833760e+000	-1.0325878062e+000
 2.1433214065e+000	 2.3940813533e+000	-9.8293380966e-001
 2.1167702127e+000	 2.4175888197e+000	-9.4665146968e-001
 2.0899710534e+000	 2.4407934044e+000	-9.2393597406e-001
 2.0629291208e+000	 2.4636912304e+000	-9.1880566529e-001
 2.0356496864e+000	 2.4862785390e+000	-9.3507447437e-001
 2.0081380983e+000	 2.5085516926e+000	-9.7634007761e-001
 1.9803997775e+000	 2.5305071758e+000	-1.0323352672e+000
 1.9524402144e+000	 2.5521415977e+000	-1.0661200242e+000
 1.9242649652e+000	 2.5734516935e+000	-1.0757063577e+000
 1.8958796485e+000	 2.5944343260e+000	-1.0615050081e+000
 1.8672899413e+000	 2.6150864867e+000	-1.0240213817e+000
 2.1611092471e+000	 2.4139502994e+000	-9.8556130156e-001
 2.1343376998e+000	 2.4376528589e+000	-9.5021321313e-001
 2.1073161292e+000	 2.4610500230e+000	-9.2473331949e-001
 2.0800497702e+000	 2.4841378824e+000	-9.1319874408e-001
 2.0525439385e+000	 2.5069126475e+000	-9.1947358060e-001
 2.0248040264e+000	 2.5293706503e+000	-9.4719650659e-001
 1.9968354999e+000	 2.5515083463e+000	-9.9941318695e-001
 1.9686438949e+000	 2.5733223165e+000	-1.0450396162e+000
 1.9402348139e+000	 2.5948092690e+000	-1.0626767576e+000
 1.9116139219e+000	 2.6159660404e+000	-1.0527340766e+000
 1.8827869432e+000	 2.6367895974e+000	-1.0157270775e+000
 2.1788970878e+000	 2.4338192456e+000	-9.8607031393e-001
 2.1519051869e+000	 2.4577168980e+000	-9.5294733135e-001
 2.1246612049e+000	 2.4813066415e+000	-9.2637296864e-001
 2.0971704197e+000	 2.5045845345e+000	-9.1038236478e-001
 2.0694381906e+000	 2.5275467561e+000	-9.0879094458e-001
 2.0414699545e+000	 2.5501896080e+000	-9.2518162694e-001
 2.0132712223e+000	 2.5725095169e+000	-9.6289374007e-001
 1.9848475755e+000	 2.5945030353e+000	-1.0167476038e+000
 1.9562046626e+000	 2.6161668444e+000	-1.0448880819e+000
 1.9273481954e+000	 2.6374977548e+000	-1.0413402843e+000
 1.8982839451e+000	 2.6584927081e+000	-1.0065463055e+000
 2.1966849284e+000	 2.4536881917e+000	-9.8459570526e-001
 2.1694726741e+000	 2.4777809372e+000	-9.5471931297e-001
 2.1420062806e+000	 2.5015632601e+000	-9.2848643917e-001
 2.1142910692e+000	 2.5250311865e+000	-9.0979161648e-001
 2.0863324428e+000	 2.5481808646e+000	-9.0230484748e-001
 2.0581358826e+000	 2.5710085658e+000	-9.0945854263e-001
 2.0297069447e+000	 2.5935106874e+000	-9.3443625261e-001
 2.0010512561e+000	 2.6156837542e+000	-9.8016326926e-001
 1.9721745113e+000	 2.6375244199e+000	-1.0212217311e+000
 1.9430824688e+000	 2.6590294692e+000	-1.0262505569e+000
 1.9137809471e+000	 2.6801958187e+000	-9.9524704989e-001
 2.2144727691e+000	 2.4735571379e+000	-9.8132517084e-001
 2.1870401612e+000	 2.4978449764e+000	-9.5545763736e-001
 2.1593513563e+000	 2.5218198786e+000	-9.3077740256e-001
 2.1314117186e+000	 2.5454778386e+000	-9.1094184784e-001
 2.1032266949e+000	 2.5688149731e+000	-8.9938081244e-001
 2.0748018108e+000	 2.5918275235e+000	-8.9928339313e-001
 2.0461426671e+000	 2.6145118580e+000	-9.1358662520e-001
 2.0172549366e+000	 2.6368644730e+000	-9.4496612239e-001
 1.9881443600e+000	 2.6588819953e+000	-9.9072933673e-001
 1.9588167422e+000	 2.6805611835e+000	-1.0062779136e+000
 1.9292779490e+000	 2.7018989294e+000	-9.8055375462e-001
 2.2322606097e+000	 2.4934260840e+000	-9.7649508764e-001
 2.2046076483e+000	 2.5179090156e+000	-9.5514919586e-001
 2.1766964320e+000	 2.5420764971e+000	-9.3301673096e-001
 2.1485323681e+000	 2.5659244906e+000	-9.1342339154e-001
 2.1201209470e+000	 2.5894490816e+000	-8.9946606154e-001
 2.0914677389e+000	 2.6126464812e+000	-8.9399960056e-001
 2.0625783895e+000	 2.6355130285e+000	-8.9962560272e-001
 2.0334586172e+000	 2.6580451918e+000	-9.1868320386e-001
 2.0041142087e+000	 2.6802395708e+000	-9.5294694104e-001
 1.9745510157e+000	 2.7020928979e+000	-9.8012729461e-001
 1.9447749509e+000	 2.7236020401e+000	-9.6273509238e-001
 2.2500484504e+000	 2.5132950302e+000	-9.7038640331e-001
 2.2221751355e+000	 2.5379730548e+000	-9.5383477566e-001
 2.1940415077e+000	 2.5623331157e+000	-9.3503762277e-001
 2.1656530175e+000	 2.5863711426e+000	-9.1689638151e-001
 2.1370151992e+000	 2.6100831901e+000	-9.0208407705e-001
 2.1081336670e+000	 2.6334654390e+000	-8.9303223026e-001
 2.0790141119e+000	 2.6565141991e+000	-8.9191982054e-001
 2.0496622977e+000	 2.6792259106e+000	-9.0039380492e-001
 2.0200840574e+000	 2.7015971462e+000	-9.1934928778e-001
 1.9902852891e+000	 2.7236246123e+000	-9.4803545326e-001
 1.9602719528e+000	 2.7453051508e+000	-9.4221644520e-001
 2.2678362910e+000	 2.5331639763e+000	-9.6332056706e-001
 2.2397426226e+000	 2.5580370939e+000	-9.5160460275e-001
 2.2113865834e+000	 2.5825897342e+000	-9.3673080281e-001
 2.1827736670e+000	 2.6068177947e+000	-9.2108565782e-001
 2.1539094513e+000	 2.6307172986e+000	-9.0682926143e-001
 2.1247995951e+000	 2.6542843967e+000	-8.9588245843e-001
 2.0954498343e+000	 2.6775153696e+000	-8.8970237491e-001
 2.0658659783e+000	 2.7004066295e+000	-8.8871932249e-001
 2.0360539061e+000	 2.7229547217e+000	-8.9520002324e-001
 2.0060195626e+000	 2.7451563267e+000	-9.1170010295e-001
 1.9757689547e+000	 2.7670082615e+000	-9.1945777033e-001
 1.8207989356e+000	 2.5499771547e+000	-1.0560799918e+000
 1.7927273302e+000	 2.5697900756e+000	-1.0248557262e+000
 1.7644676483e+000	 2.5892752636e+000	-1.0022293565e+000
 1.7360255719e+000	 2.6084301654e+000	-9.8458033531e-001
 1.7074068260e+000	 2.6272523575e+000	-9.6859930009e-001
 1.6786171747e+000	 2.6457395471e+000	-9.5130712961e-001
 1.6496624172e+000	 2.6638895731e+000	-9.3007151842e-001
 1.6205483847e+000	 2.6817004063e+000	-9.0235709164e-001
 1.5912809365e+000	 2.6991701498e+000	-8.6624828230e-001
 1.5618659559e+000	 2.7162970396e+000	-8.2091930901e-001
 1.5323093471e+000	 2.7330794442e+000	-7.6578692782e-001
 1.8362959375e+000	 2.5716802653e+000	-1.0427656969e+000
 1.8079854119e+000	 2.5916618160e+000	-1.0065689836e+000
 1.7794852089e+000	 2.6113128445e+000	-9.7955276958e-001
 1.7508010592e+000	 2.6306307755e+000	-9.5817239078e-001
 1.7219387363e+000	 2.6496131651e+000	-9.3920411494e-001
 1.6929040534e+000	 2.6682577011e+000	-9.1976159344e-001
 1.6637028591e+000	 2.6865622037e+000	-8.9696777599e-001
 1.6343410342e+000	 2.7045246267e+000	-8.6908339043e-001
 1.6048244877e+000	 2.7221430570e+000	-8.3517214352e-001
 1.5751591533e+000	 2.7394157154e+000	-7.9454097826e-001
 1.5453509852e+000	 2.7563409568e+000	-7.4672105012e-001
 1.8517929394e+000	 2.5933833760e+000	-1.0325878062e+000
 1.8232434935e+000	 2.6135335564e+000	-9.9230857144e-001
 1.7945027696e+000	 2.6333504253e+000	-9.6127325997e-001
 1.7655765466e+000	 2.6528313856e+000	-9.3604419706e-001
 1.7364706467e+000	 2.6719739728e+000	-9.1347971856e-001
 1.7071909321e+000	 2.6907758550e+000	-8.9048950529e-001
 1.6777433009e+000	 2.7092348344e+000	-8.6542268413e-001
 1.6481336836e+000	 2.7273488472e+000	-8.3724328305e-001
 1.6183680390e+000	 2.7451159642e+000	-8.0517313370e-001
 1.5884523507e+000	 2.7625343913e+000	-7.6867140575e-001
 1.5583926234e+000	 2.7796024694e+000	-7.2741457450e-001
 1.8672899413e+000	 2.6150864867e+000	-1.0240213817e+000
 1.8385015752e+000	 2.6354052969e+000	-9.8066108267e-001
 1.8095203303e+000	 2.6553880061e+000	-9.4607451398e-001
 1.7803520339e+000	 2.6750319957e+000	-9.1687755005e-001
 1.7510025570e+000	 2.6943347804e+000	-8.8983889089e-001
 1.7214778108e+000	 2.7132940090e+000	-8.6332992767e-001
 1.6917837428e+000	 2.7319074651e+000	-8.3623734657e-001
 1.6619263330e+000	 2.7501730676e+000	-8.0772180172e-001
 1.6319115902e+000	 2.7680888714e+000	-7.7719590072e-001
 1.6017455481e+000	 2.7856530671e+000	-7.4430257609e-001
 1.5714342615e+000	 2.8028639820e+000	-7.0889396793e-001
 1.8827869432e+000	 2.6367895974e+000	-1.0157270775e+000
 1.8537596569e+000	 2.6572770373e+000	-9.7039690063e-001
 1.8245378910e+000	 2.6774255869e+000	-9.3268271090e-001
 1.7951275212e+000	 2.6972326058e+000	-8.9923311122e-001
 1.7655344673e+000	 2.7166955881e+000	-8.6840872330e-001
 1.7357646895e+000	 2.7358121630e+000	-8.3903950324e-001
 1.7058241847e+000	 2.7545800958e+000	-8.1024747299e-001
 1.6757189825e+000	 2.7729972881e+000	-7.8142305940e-001
 1.6454551415e+000	 2.7910617786e+000	-7.5220175595e-001
 1.6150387455e+000	 2.8087717430e+000	-7.2244124888e-001
 1.5844758997e+000	 2.8261254946e+000	-6.9219913826e-001
 1.8982839451e+000	 2.6584927081e+000	-1.0065463055e+000
 1.8690177385e+000	 2.6791487777e+000	-9.6026818208e-001
 1.8395554517e+000	 2.6994631677e+000	-9.1976639860e-001
 1.8099030085e+000	 2.7194332159e+000	-8.8337440647e-001
 1.7800663776e+000	 2.7390563958e+000	-8.4988368025e-001
 1.7500515682e+000	 2.7583303170e+000	-8.1839812740e-001
 1.7198646266e+000	 2.7772527264e+000	-7.8830869558e-001
 1.6895116319e+000	 2.7958215085e+000	-7.5926822156e-001
 1.6589986927e+000	 2.8140346857e+000	-7.3116668057e-001
 1.6283319429e+000	 2.8318904189e+000	-7.0410698413e-001
 1.5975175378e+000	 2.8493870072e+000	-6.7838146254e-001
 1.9137809471e+000	 2.6801958187e+000	-9.9524704989e-001
 1.8842758202e+000	 2.7010205182e+000	-9.4899816106e-001
 1.8545730124e+000	 2.7215007486e+000	-9.0763649190e-001
 1.8246784959e+000	 2.7416338260e+000	-8.6993027331e-001
 1.7945982879e+000	 2.7614172034e+000	-8.3498313506e-001
 1.7643384469e+000	 2.7808484710e+000	-8.0220691196e-001
 1.7339050684e+000	 2.7999253571e+000	-7.7129459043e-001
 1.7033042813e+000	 2.8186457290e+000	-7.4219357233e-001
 1.6725422440e+000	 2.8370075929e+000	-7.1507942273e-001
 1.6416251403e+000	 2.8550090947e+000	-6.9033025591e-001
 1.6105591760e+000	 2.8726485198e+000	-6.6850190188e-001
 1.9292779490e+000	 2.7018989294e+000	-9.8055375462e-001
 1.8995339019e+000	 2.7228922586e+000	-9.3689262297e-001
 1.8695905731e+000	 2.7435383294e+000	-8.9685424424e-001
 1.8394539832e+000	 2.7638344362e+000	-8.5955646417e-001
 1.8091301983e+000	 2.7837780111e+000	-8.2444936690e-001
 1.7786253257e+000	 2.8033666250e+000	-7.9128624657e-001
 1.7479455103e+000	 2.8225979878e+000	-7.6009479195e-001
 1.7170969308e+000	 2.8414699494e+000	-7.3114866973e-001
 1.6860857952e+000	 2.8599805001e+000	-7.0493968062e-001
 1.6549183377e+000	 2.8781277706e+000	-6.8215064953e-001
 1.6236008141e+000	 2.8959100323e+000	-6.6362919810e-001
 1.9447749509e+000	 2.7236020401e+000	-9.6273509238e-001
 1.9147919835e+000	 2.7447639990e+000	-9.2444461034e-001
 1.8846081337e+000	 2.7655759102e+000	-8.8801013204e-001
 1.8542294705e+000	 2.7860350463e+000	-8.5293367154e-001
 1.8236621086e+000	 2.8061388188e+000	-8.1904565541e-001
 1.7929122044e+000	 2.8258847789e+000	-7.8647395260e-001
 1.7619859522e+000	 2.8452706184e+000	-7.5561319526e-001
 1.7308895802e+000	 2.8642941699e+000	-7.2709458498e-001
 1.6996293465e+000	 2.8829534073e+000	-7.0175636649e-001
 1.6682115351e+000	 2.9012464465e+000	-6.8061513724e-001
 1.6366424523e+000	 2.9191715449e+000	-6.6483814753e-001
 1.9602719528e+000	 2.7453051508e+000	-9.4221644520e-001
 1.9300500652e+000	 2.7666357395e+000	-9.1217895526e-001
 1.8996256944e+000	 2.7876134910e+000	-8.8172190461e-001
 1.8690049578e+000	 2.8082356564e+000	-8.5076565073e-001
 1.8381940189e+000	 2.8284996264e+000	-8.1955446731e-001
 1.8071990831e+000	 2.8484029329e+000	-7.8862352423e-001
 1.7760263941e+000	 2.8679432491e+000	-7.5876624156e-001
 1.7446822296e+000	 2.8871183903e+000	-7.3100222136e-001
 1.7131728977e+000	 2.9059263145e+000	-7.0654594730e-001
 1.6815047326e+000	 2.9243651223e+000	-6.8677642839e-001
 1.6496840905e+000	 2.9424330575e+000	-6.7320794763e-001
 1.9757689547e+000	 2.7670082615e+000	-9.1945777033e-001
 1.9453081468e+000	 2.7885074799e+000	-9.0065035227e-001
 1.9146432551e+000	 2.8096510718e+000	-8.7863273184e-001
 1.8837804452e+000	 2.8304362665e+000	-8.5377743464e-001
 1.8527259292e+000	 2.8508604341e+000	-8.2677573009e-001
 1.8214859618e+000	 2.8709210869e+000	-7.9860245207e-001
 1.7900668359e+000	 2.8906158798e+000	-7.7048128209e-001
 1.7584748791e+000	 2.9099426108e+000	-7.4385070806e-001
 1.7267164490e+000	 2.9288992217e+000	-7.2033085765e-001
 1.6947979300e+000	 2.9474837982e+000	-7.0169138982e-001
 1.6627257286e+000	 2.9656945701e+000	-6.8982061262e-001
 1.5323093471e+000	 2.7330794442e+000	-7.6578692782e-001
 1.5026214949e+000	 2.7495134265e+000	-7.0801107477e-001
 1.4728039098e+000	 2.7656001662e+000	-6.5967795952e-001
 1.4428625346e+000	 2.7813384333e+000	-6.2763427114e-001
 1.4128033184e+000	 2.7967271297e+000	-6.1851030346e-001
 1.3826322125e+000	 2.8117652893e+000	-6.3869792266e-001
 1.3523551673e+000	 2.8264520771e+000	-6.9433005636e-001
 1.3219781284e+000	 2.8407867890e+000	-7.8362805655e-001
 1.2915070333e+000	 2.8547688504e+000	-8.3089815183e-001
 1.2609478081e+000	 2.8683978159e+000	-8.1838926337e-001
 1.2303063637e+000	 2.8816733683e+000	-7.4971450116e-001
 1.5453509852e+000	 2.7563409568e+000	-7.4672105012e-001
 1.5154104568e+000	 2.7729148103e+000	-6.9615190499e-001
 1.4853390912e+000	 2.7891384659e+000	-6.5191082879e-001
 1.4551428820e+000	 2.8050106830e+000	-6.2052799372e-001
 1.4248278287e+000	 2.8205303541e+000	-6.0833109745e-001
 1.3943999336e+000	 2.8356965050e+000	-6.2142310925e-001
 1.3638651974e+000	 2.8505082935e+000	-6.6566157708e-001
 1.3332296165e+000	 2.8649650095e+000	-7.4663924742e-001
 1.3024991789e+000	 2.8790660737e+000	-8.1351873029e-001
 1.2716798610e+000	 2.8928110367e+000	-8.1487949388e-001
 1.2407776243e+000	 2.9061995786e+000	-7.5429941130e-001
 1.5583926234e+000	 2.7796024694e+000	-7.2741457450e-001
 1.5281994187e+000	 2.7963161942e+000	-6.8332736453e-001
 1.4978742726e+000	 2.8126767656e+000	-6.4265959575e-001
 1.4674232293e+000	 2.8286829326e+000	-6.1161958160e-001
 1.4368523391e+000	 2.8443335785e+000	-5.9622769328e-001
 1.4061676547e+000	 2.8596277206e+000	-6.0229387604e-001
 1.3753752276e+000	 2.8745645099e+000	-6.3539676773e-001
 1.3444811046e+000	 2.8891432301e+000	-7.0086446476e-001
 1.3134913245e+000	 2.9033632970e+000	-7.8075116900e-001
 1.2824119140e+000	 2.9172242575e+000	-7.9701603000e-001
 1.2512488848e+000	 2.9307257889e+000	-7.4588022564e-001
 1.5714342615e+000	 2.8028639820e+000	-7.0889396793e-001
 1.5409883806e+000	 2.8197175780e+000	-6.7059892889e-001
 1.5104094540e+000	 2.8362150654e+000	-6.3303518980e-001
 1.4797035767e+000	 2.8523551823e+000	-6.0208405503e-001
 1.4488768495e+000	 2.8681368029e+000	-5.8345399591e-001
 1.4179353758e+000	 2.8835589363e+000	-5.8265792853e-001
 1.3868852577e+000	 2.8986207263e+000	-6.0499213723e-001
 1.3557325927e+000	 2.9133214507e+000	-6.5551688912e-001
 1.3244834701e+000	 2.9276605203e+000	-7.3453254998e-001
 1.2931439669e+000	 2.9416374783e+000	-7.6667246014e-001
 1.2617201454e+000	 2.9552519993e+000	-7.2627721703e-001
 1.5844758997e+000	 2.8261254946e+000	-6.9219913826e-001
 1.5537773424e+000	 2.8431189619e+000	-6.5904029970e-001
 1.5229446355e+000	 2.8597533651e+000	-6.2415921695e-001
 1.4919839241e+000	 2.8760274320e+000	-5.9310522306e-001
 1.4609013599e+000	 2.8919400273e+000	-5.7127046916e-001
 1.4297030969e+000	 2.9074901520e+000	-5.6386695509e-001
 1.3983952878e+000	 2.9226769427e+000	-5.7590525119e-001
 1.3669840809e+000	 2.9374996712e+000	-6.1217495689e-001
 1.3354756156e+000	 2.9519577435e+000	-6.7722692777e-001
 1.3038760199e+000	 2.9660506991e+000	-7.2588455215e-001
 1.2721914059e+000	 2.9797782096e+000	-6.9747811951e-001
 1.5975175378e+000	 2.8493870072e+000	-6.7838146254e-001
 1.5665663043e+000	 2.8665203457e+000	-6.4973543764e-001
 1.5354798169e+000	 2.8832916648e+000	-6.1716201772e-001
 1.5042642715e+000	 2.8996996817e+000	-5.8587378695e-001
 1.4729258703e+000	 2.9157432517e+000	-5.6094230555e-001
 1.4414708180e+000	 2.9314213677e+000	-5.4727488424e-001
 1.4099053180e+000	 2.9467331591e+000	-5.4959309770e-001
 1.3782355690e+000	 2.9616778918e+000	-5.7241308289e-001
 1.3464677612e+000	 2.9762549668e+000	-6.2002765359e-001
 1.3146080728e+000	 2.9904639199e+000	-6.7683370864e-001
 1.2826626665e+000	 3.0043044200e+000	-6.6162246701e-001
 1.6105591760e+000	 2.8726485198e+000	-6.6850190188e-001
 1.5793552662e+000	 2.8899217296e+000	-6.4377668026e-001
 1.5480149983e+000	 2.9068299645e+000	-6.1318080727e-001
 1.5165446189e+000	 2.9233719313e+000	-5.8158552240e-001
 1.4849503807e+000	 2.9395464761e+000	-5.5373767051e-001
 1.4532385390e+000	 2.9553525834e+000	-5.3423621096e-001
 1.4214153481e+000	 2.9707893755e+000	-5.2751051602e-001
 1.3894870571e+000	 2.9858561124e+000	-5.3780050477e-001
 1.3574599068e+000	 3.0005521901e+000	-5.6913864337e-001
 1.3253401258e+000	 3.0148771406e+000	-6.2183046092e-001
 1.2931339270e+000	 3.0288306303e+000	-6.2098596100e-001
 1.6236008141e+000	 2.8959100323e+000	-6.6362919810e-001
 1.5921442281e+000	 2.9133231134e+000	-6.4226293983e-001
 1.5605501797e+000	 2.9303682642e+000	-6.1335789326e-001
 1.5288249663e+000	 2.9470441810e+000	-5.8143953623e-001
 1.4969748911e+000	 2.9633497005e+000	-5.5092601693e-001
 1.4650062601e+000	 2.9792837991e+000	-5.2610438826e-001
 1.4329253782e+000	 2.9948455920e+000	-5.1110868458e-001
 1.4007385452e+000	 3.0100343330e+000	-5.0989988707e-001
 1.3684520523e+000	 3.0248494134e+000	-5.2624780814e-001
 1.3360721787e+000	 3.0392903614e+000	-5.6371491062e-001
 1.3036051876e+000	 3.0533568406e+000	-5.7796486503e-001
 1.6366424523e+000	 2.9191715449e+000	-6.6483814753e-001
 1.6049331899e+000	 2.9367244973e+000	-6.4629797694e-001
 1.5730853612e+000	 2.9539065639e+000	-6.1883896699e-001
 1.5411053137e+000	 2.9707164307e+000	-5.8663659320e-001
 1.5089994015e+000	 2.9871529249e+000	-5.5377646591e-001
 1.4767739812e+000	 3.0032150148e+000	-5.2423028039e-001
 1.4444354083e+000	 3.0189018084e+000	-5.0183366517e-001
 1.4119900333e+000	 3.0342125535e+000	-4.9026597487e-001
 1.3794441979e+000	 3.0491466367e+000	-4.9303205770e-001
 1.3468042317e+000	 3.0637035822e+000	-5.1344601201e-001
 1.3140764481e+000	 3.0778830510e+000	-5.3506042507e-001
 1.6496840905e+000	 2.9424330575e+000	-6.7320794763e-001
 1.6177221518e+000	 2.9601258812e+000	-6.5698874547e-001
 1.5856205426e+000	 2.9774448636e+000	-6.3077146388e-001
 1.5533856610e+000	 2.9943886803e+000	-5.9837750921e-001
 1.5210239119e+000	 3.0109561493e+000	-5.6355625023e-001
 1.4885417023e+000	 3.0271462304e+000	-5.2996067419e-001
 1.4559454385e+000	 3.0429580248e+000	-5.0112499995e-001
 1.4232415214e+000	 3.0583907741e+000	-4.8044429452e-001
 1.3904363435e+000	 3.0734438600e+000	-4.7115612280e-001
 1.3575362846e+000	 3.0881168030e+000	-4.7632424347e-001
 1.3245477087e+000	 3.1024092613e+000	-4.9486331388e-001
 1.6627257286e+000	 2.9656945701e+000	-6.8982061262e-001
 1.6305111137e+000	 2.9835272650e+000	-6.7544380516e-001
 1.5981557240e+000	 3.0009831633e+000	-6.5030298935e-001
 1.5656660084e+000	 3.0180609300e+000	-6.1786160723e-001
 1.5330484222e+000	 3.0347593738e+000	-5.8152921705e-001
 1.5003094234e+000	 3.0510774461e+000	-5.4463684547e-001
 1.4674554686e+000	 3.0670142412e+000	-5.1041435856e-001
 1.4344930095e+000	 3.0825689947e+000	-4.8196989862e-001
 1.4014284891e+000	 3.0977410833e+000	-4.6227141539e-001
 1.3682683376e+000	 3.1125300238e+000	-4.5413030386e-001
 1.3350189692e+000	 3.1269354717e+000	-4.6018714394e-001
 1.2303063637e+000	 2.8816733683e+000	-7.4971450116e-001
 1.1995839799e+000	 2.8945972292e+000	-6.5502127874e-001
 1.1687911224e+000	 2.9071673179e+000	-5.6331450441e-001
 1.1379336420e+000	 2.9193836965e+000	-4.7620134417e-001
 1.1070173614e+000	 2.9312465504e+000	-3.9518847305e-001
 1.0760480726e+000	 2.9427561866e+000	-3.2166994872e-001
 1.0450315331e+000	 2.9539130326e+000	-2.5691523121e-001
 1.0139734639e+000	 2.9647176344e+000	-2.0205731224e-001
 9.8287954570e-001	 2.9751706548e+000	-1.5810742724e-001
 9.5175541694e-001	 2.9852728719e+000	-1.2584788069e-001
 9.2060667051e-001	 2.9950251768e+000	-1.0595079347e-001
 1.2407776243e+000	 2.9061995786e+000	-7.5429941130e-001
 1.2097937591e+000	 2.9192334358e+000	-6.6369489466e-001
 1.1787388205e+000	 2.9319105098e+000	-5.7416969034e-001
 1.1476187090e+000	 2.9442308632e+000	-4.8779013198e-001
 1.1164392970e+000	 2.9561946830e+000	-4.0650684970e-001
 1.0852064254e+000	 2.9678022789e+000	-3.3214237508e-001
 1.0539259011e+000	 2.9790540820e+000	-2.6637881287e-001
 1.0226034935e+000	 2.9899506428e+000	-2.1074553851e-001
 9.9124493185e-001	 3.0004926299e+000	-1.6663055090e-001
 9.5985590252e-001	 3.0106808279e+000	-1.3518327677e-001
 9.2844204599e-001	 3.0205161357e+000	-1.1741779026e-001
 1.2512488848e+000	 2.9307257889e+000	-7.4588022564e-001
 1.2200035384e+000	 2.9438696424e+000	-6.6081701361e-001
 1.1886865187e+000	 2.9566537017e+000	-5.7481588409e-001
 1.1573037761e+000	 2.9690780299e+000	-4.9041029662e-001
 1.1258612325e+000	 2.9811428157e+000	-4.1000229580e-001
 1.0943647782e+000	 2.9928483712e+000	-3.3584993025e-001
 1.0628202690e+000	 3.0041951313e+000	-2.7005464996e-001
 1.0312335231e+000	 3.0151836512e+000	-2.1454863641e-001
 9.9961031800e-001	 3.0258146050e+000	-1.7110307882e-001
 9.6795638809e-001	 3.0360887840e+000	-1.4124012084e-001
 9.3627742146e-001	 3.0460070947e+000	-1.2632186178e-001
 1.2617201454e+000	 2.9552519993e+000	-7.2627721703e-001
 1.2302133177e+000	 2.9685058490e+000	-6.4814684839e-001
 1.1986342169e+000	 2.9813968936e+000	-5.6692572848e-001
 1.1669888432e+000	 2.9939251966e+000	-4.8562202207e-001
 1.1352831680e+000	 3.0060909483e+000	-4.0709635390e-001
 1.1035231310e+000	 3.0178944636e+000	-3.3404912884e-001
 1.0717146369e+000	 3.0293361807e+000	-2.6900773251e-001
 1.0398635527e+000	 3.0404166596e+000	-2.1431356172e-001
 1.0079757041e+000	 3.0511365801e+000	-1.7212750115e-001
 9.7605687366e-001	 3.0614967401e+000	-1.4435021439e-001
 9.4411279694e-001	 3.0714980536e+000	-1.3269818125e-001
 1.2721914059e+000	 2.9797782096e+000	-6.9747811951e-001
 1.2404230969e+000	 2.9931420557e+000	-6.2761611730e-001
 1.2085819151e+000	 3.0061400855e+000	-5.5234968387e-001
 1.1766739103e+000	 3.0187723634e+000	-4.7516882738e-001
 1.1447051035e+000	 3.0310390810e+000	-3.9939956450e-001
 1.1126814838e+000	 3.0429405559e+000	-3.2819123381e-001
 1.0806090049e+000	 3.0544772300e+000	-2.6450358147e-001
 1.0484935822e+000	 3.0656496680e+000	-2.1109356345e-001
 1.0163410903e+000	 3.0764585552e+000	-1.7050183092e-001
 9.8415735924e-001	 3.0869046962e+000	-1.4506291848e-001
 9.5194817241e-001	 3.0969890125e+000	-1.3680489590e-001
 1.2826626665e+000	 3.0043044200e+000	-6.6162246701e-001
 1.2506328762e+000	 3.0177782623e+000	-6.0131425909e-001
 1.2185296133e+000	 3.0308832774e+000	-5.3310208750e-001
 1.1863589773e+000	 3.0436195301e+000	-4.6096443741e-001
 1.1541270390e+000	 3.0559872136e+000	-3.8869911426e-001
 1.1218398366e+000	 3.0679866482e+000	-3.1991064727e-001
 1.0895033728e+000	 3.0796182794e+000	-2.5799734657e-001
 1.0571236118e+000	 3.0908826764e+000	-2.0613795207e-001
 1.0247064764e+000	 3.1017805303e+000	-1.6727783699e-001
 9.9225784481e-001	 3.1123126523e+000	-1.4413615085e-001
 9.5978354789e-001	 3.1224799714e+000	-1.3911468125e-001
 1.2931339270e+000	 3.0288306303e+000	-6.2098596100e-001
 1.2608426555e+000	 3.0424144689e+000	-5.7147366694e-001
 1.2284773114e+000	 3.0556264693e+000	-5.1134722326e-001
 1.1960440444e+000	 3.0684666968e+000	-4.4507965682e-001
 1.1635489746e+000	 3.0809353463e+000	-3.7694648155e-001
 1.1309981894e+000	 3.0930327405e+000	-3.1101329414e-001
 1.0983977407e+000	 3.1047593287e+000	-2.5112289342e-001
 1.0657536414e+000	 3.1161156848e+000	-2.0088185505e-001
 1.0330718626e+000	 3.1271025054e+000	-1.6364651980e-001
 1.0003583304e+000	 3.1377206083e+000	-1.4252736975e-001
 9.6761892336e-001	 3.1479709303e+000	-1.4030628339e-001
 1.3036051876e+000	 3.0533568406e+000	-5.7796486503e-001
 1.2710524347e+000	 3.0670506755e+000	-5.4045494031e-001
 1.2384250096e+000	 3.0803696612e+000	-4.8938540139e-001
 1.2057291115e+000	 3.0933138635e+000	-4.2972924725e-001
 1.1729709101e+000	 3.1058834789e+000	-3.6624507971e-001
 1.1401565422e+000	 3.1180788328e+000	-3.0346499898e-001
 1.1072921087e+000	 3.1299003781e+000	-2.4568188089e-001
 1.0743836710e+000	 3.1413486932e+000	-1.9693596043e-001
 1.0414372487e+000	 3.1524244805e+000	-1.6100067528e-001
 1.0084588160e+000	 3.1631285644e+000	-1.4138454513e-001
 9.7545429884e-001	 3.1734618893e+000	-1.4125605005e-001
 1.3140764481e+000	 3.0778830510e+000	-5.3506042507e-001
 1.2812622140e+000	 3.0916868821e+000	-5.1073215361e-001
 1.2483727078e+000	 3.1051128531e+000	-4.6963904756e-001
 1.2154141786e+000	 3.1181610302e+000	-4.1725880747e-001
 1.1823928456e+000	 3.1308316116e+000	-3.5883789798e-001
 1.1493148950e+000	 3.1431249251e+000	-2.9937985652e-001
 1.1161864766e+000	 3.1550414274e+000	-2.4363282889e-001
 1.0830137006e+000	 3.1665817016e+000	-1.9607624913e-001
 1.0498026349e+000	 3.1777464556e+000	-1.6090661215e-001
 1.0165593015e+000	 3.1885365205e+000	-1.4202231868e-001
 9.8328967431e-001	 3.1989528482e+000	-1.4302945112e-001
 1.3245477087e+000	 3.1024092613e+000	-4.9486331388e-001
 1.2914719933e+000	 3.1163230887e+000	-4.8487814097e-001
 1.2583204060e+000	 3.1298560450e+000	-4.5463880078e-001
 1.2250992456e+000	 3.1430081969e+000	-4.1013165628e-001
 1.1918147811e+000	 3.1557797442e+000	-3.5709514024e-001
 1.1584732478e+000	 3.1681710175e+000	-3.0100859604e-001
 1.1250808445e+000	 3.1801824768e+000	-2.4708017741e-001
 1.0916437302e+000	 3.1918147100e+000	-2.0023371652e-001
 1.0581680210e+000	 3.2030684307e+000	-1.6509450343e-001
 1.0246597871e+000	 3.2139444766e+000	-1.4597395321e-001
 9.9112504979e-001	 3.2244438071e+000	-1.4687258906e-001
 1.3350189692e+000	 3.1269354717e+000	-4.6018714394e-001
 1.3016817725e+000	 3.1409592953e+000	-4.6554979597e-001
 1.2682681041e+000	 3.1545992369e+000	-4.4700961963e-001
 1.2347843127e+000	 3.1678553637e+000	-4.1091571817e-001
 1.2012367166e+000	 3.1807278769e+000	-3.6350186183e-001
 1.1676316006e+000	 3.1932171098e+000	-3.1072694017e-001
 1.1339752124e+000	 3.2053235261e+000	-2.5826333713e-001
 1.1002737598e+000	 3.2170477184e+000	-2.1148408394e-001
 1.0665334072e+000	 3.2283904058e+000	-1.7544872703e-001
 1.0327602727e+000	 3.2393524327e+000	-1.5488788375e-001
 9.9896042527e-001	 3.2499347660e+000	-1.5420369988e-001
 9.2060667051e-001	 2.9950251768e+000	-1.0595079347e-001
 8.8943885089e-001	 3.0044285715e+000	-9.2100159736e-002
 8.5825745028e-001	 3.0134841643e+000	-7.9199879308e-002
 8.2706790750e-001	 3.0221931699e+000	-6.9328607029e-002
 7.9587560609e-001	 3.0305569083e+000	-6.4196516610e-002
 7.6468587201e-001	 3.0385768026e+000	-6.5134210347e-002
 7.3350397137e-001	 3.0462543768e+000	-7.3082364944e-002
 7.0233510834e-001	 3.0535912533e+000	-8.8582204854e-002
 6.7118442308e-001	 3.0605891508e+000	-1.1176690112e-001
 6.4005698981e-001	 3.0672498820e+000	-1.1428461873e-001
 6.0895781491e-001	 3.0735753511e+000	-4.4392871178e-002
 9.2844204599e-001	 3.0205161357e+000	-1.1741779026e-001
 8.9700895394e-001	 3.0299995637e+000	-1.0598700145e-001
 8.6556216530e-001	 3.0391322295e+000	-9.4475788040e-002
 8.3410716520e-001	 3.0479153583e+000	-8.4850703086e-002
 8.0264938300e-001	 3.0563502813e+000	-7.8695658519e-002
 7.7119418997e-001	 3.0644384338e+000	-7.7200244693e-002
 7.3974689706e-001	 3.0721813526e+000	-8.1148704557e-002
 7.0831275271e-001	 3.0795806740e+000	-9.0909661998e-002
 6.7689694086e-001	 3.0866381313e+000	-1.0642671142e-001
 6.4550457888e-001	 3.0933555526e+000	-1.0925178830e-001
 6.1414071579e-001	 3.0997348584e+000	-3.9140319372e-002
 9.3627742146e-001	 3.0460070947e+000	-1.2632186178e-001
 9.0457905698e-001	 3.0555705559e+000	-1.1801009562e-001
 8.7286688032e-001	 3.0647802947e+000	-1.0861504337e-001
 8.4114642290e-001	 3.0736375467e+000	-1.0000501325e-001
 8.0942315991e-001	 3.0821436544e+000	-9.3653439485e-002
 7.7770250793e-001	 3.0903000650e+000	-9.0626547923e-002
 7.4598982274e-001	 3.0981083284e+000	-9.1571583410e-002
 7.1429039708e-001	 3.1055700946e+000	-9.6705707234e-002
 6.8260945863e-001	 3.1126871118e+000	-1.0580568145e-001
 6.5095216796e-001	 3.1194612233e+000	-1.0819883384e-001
 6.1932361667e-001	 3.1258943657e+000	-4.0074899632e-002
 9.4411279694e-001	 3.0714980536e+000	-1.3269818125e-001
 9.1214916002e-001	 3.0811415480e+000	-1.2790284013e-001
 8.8017159535e-001	 3.0904283599e+000	-1.2106484285e-001
 8.4818568061e-001	 3.0993597352e+000	-1.1396842922e-001
 8.1619693681e-001	 3.1079370274e+000	-1.0799273137e-001
 7.8421082589e-001	 3.1161616961e+000	-1.0409872105e-001
 7.5223274842e-001	 3.1240353041e+000	-1.0281661393e-001
 7.2026804145e-001	 3.1315595153e+000	-1.0423384866e-001
 6.8832197640e-001	 3.1387360922e+000	-1.0798376787e-001
 6.5639975703e-001	 3.1455668939e+000	-1.0892958241e-001
 6.2450651756e-001	 3.1520538730e+000	-4.4777360781e-002
 9.5194817241e-001	 3.0969890125e+000	-1.3680489590e-001
 9.1971926307e-001	 3.1067125402e+000	-1.3562614910e-001
 8.8747631037e-001	 3.1160764251e+000	-1.3150286723e-001
 8.5522493831e-001	 3.1250819236e+000	-1.2614969352e-001
 8.2297071372e-001	 3.1337304005e+000	-1.2086800539e-001
 7.9071914385e-001	 3.1420233273e+000	-1.1653207860e-001
 7.5847567410e-001	 3.1499622799e+000	-1.1357559109e-001
 7.2624568582e-001	 3.1575489359e+000	-1.1197859452e-001
 6.9403449417e-001	 3.1647850727e+000	-1.1125509177e-001
 6.6184734610e-001	 3.1716725645e+000	-1.0948203683e-001
 6.2968941844e-001	 3.1782133803e+000	-5.1050007710e-002
 9.5978354789e-001	 3.1224799714e+000	-1.3911468125e-001
 9.2728936611e-001	 3.1322835323e+000	-1.4136055259e-001
 8.9478102539e-001	 3.1417244903e+000	-1.3982994110e-001
 8.6226419602e-001	 3.1508041120e+000	-1.3618263553e-001
 8.2974449062e-001	 3.1595237735e+000	-1.3165915742e-001
 7.9722746181e-001	 3.1678849585e+000	-1.2706607639e-001
 7.6471859979e-001	 3.1758892557e+000	-1.2276153524e-001
 7.3222333019e-001	 3.1835383566e+000	-1.1864112313e-001
 6.9974701194e-001	 3.1908340532e+000	-1.1412424709e-001
 6.6729493517e-001	 3.1977782351e+000	-1.0814116136e-001
 6.3487231932e-001	 3.2043728877e+000	-5.6915561128e-002
 9.6761892336e-001	 3.1479709303e+000	-1.4030628339e-001
 9.3485946916e-001	 3.1578545245e+000	-1.4549828583e-001
 9.0208574042e-001	 3.1673725556e+000	-1.4616268262e-001
 8.6930345372e-001	 3.1765263004e+000	-1.4391939491e-001
 8.3651826753e-001	 3.1853171466e+000	-1.3996531732e-001
 8.0373577976e-001	 3.1937465896e+000	-1.3505871852e-001
 7.7096152547e-001	 3.2018162314e+000	-1.2950370787e-001
 7.3820097456e-001	 3.2095277773e+000	-1.2313491783e-001
 7.0545952971e-001	 3.2168830336e+000	-1.1530256486e-001
 6.7274252424e-001	 3.2238839057e+000	-1.0485806206e-001
 6.4005522020e-001	 3.2305323950e+000	-6.0615949884e-002
 9.7545429884e-001	 3.1734618893e+000	-1.4125605005e-001
 9.4242957220e-001	 3.1834255166e+000	-1.4863536828e-001
 9.0939045544e-001	 3.1930206208e+000	-1.5082614305e-001
 8.7634271142e-001	 3.2022484889e+000	-1.4942363302e-001
 8.4329204444e-001	 3.2111105196e+000	-1.4559864335e-001
 8.1024409772e-001	 3.2196082208e+000	-1.4008094492e-001
 7.7720445115e-001	 3.2277432072e+000	-1.3314260188e-001
 7.4417861893e-001	 3.2355171979e+000	-1.2458136909e-001
 7.1117204748e-001	 3.2429320141e+000	-1.1370433558e-001
 6.7819011332e-001	 3.2499895763e+000	-9.9312001622e-002
 6.4523812109e-001	 3.2566919023e+000	-6.0611039649e-002
 9.8328967431e-001	 3.1989528482e+000	-1.4302945112e-001
 9.4999967524e-001	 3.2089965088e+000	-1.5156367336e-001
 9.1669517046e-001	 3.2186686860e+000	-1.5434643657e-001
 8.8338196913e-001	 3.2279706773e+000	-1.5296373322e-001
 8.5006582134e-001	 3.2369038926e+000	-1.4857810230e-001
 8.1675241568e-001	 3.2454698520e+000	-1.4191100030e-001
 7.8344737683e-001	 3.2536701830e+000	-1.3322490769e-001
 7.5015626330e-001	 3.2615066186e+000	-1.2230534554e-001
 7.1688456525e-001	 3.2689809945e+000	-1.0844299227e-001
 6.8363770239e-001	 3.2760952470e+000	-9.0416103730e-002
 6.5042102197e-001	 3.2828514096e+000	-5.5577301507e-002
 9.9112504979e-001	 3.2244438071e+000	-1.4687258906e-001
 9.5756977829e-001	 3.2345675009e+000	-1.5526298911e-001
 9.2399988549e-001	 3.2443167512e+000	-1.5744336095e-001
 8.9042122683e-001	 3.2536928657e+000	-1.5500599038e-001
 8.5683959825e-001	 3.2626972657e+000	-1.4912323631e-001
 8.2326073364e-001	 3.2713314832e+000	-1.4052878582e-001
 7.8969030251e-001	 3.2795971588e+000	-1.2949845669e-001
 7.5613390767e-001	 3.2874960392e+000	-1.1583073550e-001
 7.2259708303e-001	 3.2950299750e+000	-9.8827256211e-002
 6.8908529146e-001	 3.3022009176e+000	-7.7273438557e-002
 6.5560392285e-001	 3.3090109169e+000	-4.4406423793e-002
 9.9896042527e-001	 3.2499347660e+000	-1.5420369988e-001
 9.6513988133e-001	 3.2601384931e+000	-1.6089307047e-001
 9.3130460051e-001	 3.2699648164e+000	-1.6102300957e-001
 8.9746048454e-001	 3.2794150542e+000	-1.5620779049e-001
 8.6361337515e-001	 3.2884906387e+000	-1.4764791695e-001
 8.2976905160e-001	 3.2971931143e+000	-1.3611019411e-001
 7.9593322820e-001	 3.3055241345e+000	-1.2190714306e-001
 7.6211155205e-001	 3.3134854599e+000	-1.0487596094e-001
 7.2830960080e-001	 3.3210789555e+000	-8.4357247480e-002
 6.9453288053e-001	 3.3283065882e+000	-5.9173734195e-002
 6.6078682374e-001	 3.3351704242e+000	-2.6195958571e-002
 6.0895781491e-001	 3.0735753511e+000	-4.4392871178e-002
 5.7789649090e-001	 3.0795666778e+000	 5.1232908294e-002
 5.4687320832e-001	 3.0852269172e+000	 1.2305740591e-001
 5.1589275069e-001	 3.0905582350e+000	 1.7454723632e-001
 4.8495982735e-001	 3.0955628784e+000	 2.0922900355e-001
 4.5407907204e-001	 3.1002431736e+000	 2.3070563502e-001
 4.2325504155e-001	 3.1046015236e+000	 2.4267610462e-001
 3.9249221452e-001	 3.1086404051e+000	 2.4895732555e-001
 3.6179499023e-001	 3.1123623662e+000	 2.5350704764e-001
 3.3116768761e-001	 3.1157700239e+000	 2.6044665504e-001
 3.0061454421e-001	 3.1188660616e+000	 2.7408282865e-001
 6.1414071579e-001	 3.0997348584e+000	-3.9140319372e-002
 5.8281502575e-001	 3.1057771779e+000	 5.8770119954e-002
 5.5152770090e-001	 3.1114855922e+000	 1.3312187866e-001
 5.2028356550e-001	 3.1168622853e+000	 1.8747174196e-001
 4.8908736896e-001	 3.1219095237e+000	 2.2545831839e-001
 4.5794378445e-001	 3.1266296535e+000	 2.5082644009e-001
 4.2685740756e-001	 3.1310250978e+000	 2.6745493748e-001
 3.9583275502e-001	 3.1350983546e+000	 2.7938648613e-001
 3.6487426358e-001	 3.1388519936e+000	 2.9085828129e-001
 3.3398628893e-001	 3.1422886543e+000	 3.0633236163e-001
 3.0317310467e-001	 3.1454110426e+000	 3.3052447667e-001
 6.1932361667e-001	 3.1258943657e+000	-4.0074899632e-002
 5.8773356059e-001	 3.1319876780e+000	 5.7781315562e-002
 5.5618219349e-001	 3.1377442671e+000	 1.3241244099e-001
 5.2467438031e-001	 3.1431663357e+000	 1.8743656911e-001
 4.9321491056e-001	 3.1482561691e+000	 2.2657283084e-001
 4.6180849686e-001	 3.1530161333e+000	 2.5367449630e-001
 4.3045977356e-001	 3.1574486720e+000	 2.7276543543e-001
 3.9917329552e-001	 3.1615563041e+000	 2.8807854891e-001
 3.6795353694e-001	 3.1653416211e+000	 3.0409484170e-001
 3.3680489025e-001	 3.1688072847e+000	 3.2558188229e-001
 3.0573166513e-001	 3.1719560237e+000	 3.5763046873e-001
 6.2450651756e-001	 3.1520538730e+000	-4.4777360781e-002
 5.9265209544e-001	 3.1581981781e+000	 5.0897907319e-002
 5.6083668607e-001	 3.1640029421e+000	 1.2376077519e-001
 5.2906519512e-001	 3.1694703860e+000	 1.7745464171e-001
 4.9734245217e-001	 3.1746028144e+000	 2.1574043706e-001
 4.6567320926e-001	 3.1794026131e+000	 2.4253909018e-001
 4.3406213955e-001	 3.1838722461e+000	 2.6197734174e-001
 4.0251383602e-001	 3.1880142536e+000	 2.7843542076e-001
 3.7103281029e-001	 3.1918312486e+000	 2.9659517006e-001
 3.3962349156e-001	 3.1953259151e+000	 3.2148728115e-001
 3.0829022558e-001	 3.1985010048e+000	 3.5853638215e-001
 6.2968941844e-001	 3.1782133803e+000	-5.1050007710e-002
 5.9757063029e-001	 3.1844086782e+000	 4.0544642633e-002
 5.6549117866e-001	 3.1902616171e+000	 1.0980876192e-001
 5.3345600993e-001	 3.1957744364e+000	 1.6036780602e-001
 5.0146999377e-001	 3.2009494598e+000	 1.9597842275e-001
 4.6953792167e-001	 3.2057890929e+000	 2.2058098543e-001
 4.3766450555e-001	 3.2102958203e+000	 2.3835545714e-001
 4.0585437652e-001	 3.2144722031e+000	 2.5377900723e-001
 3.7411208365e-001	 3.2183208761e+000	 2.7168387361e-001
 3.4244209288e-001	 3.2218445455e+000	 2.9731404439e-001
 3.1084878604e-001	 3.2250459859e+000	 3.3637942172e-001
 6.3487231932e-001	 3.2043728877e+000	-5.6915561128e-002
 6.0248916513e-001	 3.2106191783e+000	 2.8940083810e-002
 5.7014567124e-001	 3.2165202920e+000	 9.3008321377e-002
 5.3784682474e-001	 3.2220784867e+000	 1.3884605129e-001
 5.0559753538e-001	 3.2272961052e+000	 1.7015207754e-001
 4.7340263408e-001	 3.2321755727e+000	 1.9083044103e-001
 4.4126687155e-001	 3.2367193945e+000	 2.0505706768e-001
 4.0919491702e-001	 3.2409301526e+000	 2.1734805224e-001
 3.7719135700e-001	 3.2448105036e+000	 2.3262797479e-001
 3.4526069420e-001	 3.2483631759e+000	 2.5629673265e-001
 3.1340734650e-001	 3.2515909670e+000	 2.9429346522e-001
 6.4005522020e-001	 3.2305323950e+000	-6.0615949884e-002
 6.0740769998e-001	 3.2368296784e+000	 1.8097168716e-002
 5.7480016382e-001	 3.2427789670e+000	 7.5621349796e-002
 5.4223763955e-001	 3.2483825370e+000	 1.1538684121e-001
 5.0972507698e-001	 3.2536427505e+000	 1.4097343646e-001
 4.7726734648e-001	 3.2585620526e+000	 1.5618537402e-001
 4.4486923755e-001	 3.2631429687e+000	 1.6512953611e-001
 4.1253545752e-001	 3.2673881021e+000	 1.7229516117e-001
 3.8027063035e-001	 3.2713001311e+000	 1.8263336554e-001
 3.4807929552e-001	 3.2748818063e+000	 2.0163486183e-001
 3.1596590696e-001	 3.2781359481e+000	 2.3540436183e-001
 6.4523812109e-001	 3.2566919023e+000	-6.0611039649e-002
 6.1232623482e-001	 3.2630401785e+000	 9.8238478339e-003
 5.7945465641e-001	 3.2690376420e+000	 5.9719745961e-002
 5.4662845436e-001	 3.2746865874e+000	 9.2314549754e-002
 5.1385261859e-001	 3.2799893959e+000	 1.1100014135e-001
 4.8113205889e-001	 3.2849485324e+000	 1.1940965876e-001
 4.4847160355e-001	 3.2895665428e+000	 1.2150804743e-001
 4.1587599802e-001	 3.2938460516e+000	 1.2168399734e-001
 3.8334990371e-001	 3.2977897585e+000	 1.2484145522e-001
 3.5089789683e-001	 3.3014004367e+000	 1.3648899907e-001
 3.1852446741e-001	 3.3046809291e+000	 1.6282546913e-001
 6.5042102197e-001	 3.2828514096e+000	-5.5577301507e-002
 6.1724476967e-001	 3.2892506786e+000	 5.7237934773e-003
 5.8410914899e-001	 3.2952963169e+000	 4.7185522643e-002
 5.5101926917e-001	 3.3009906377e+000	 7.1779995699e-002
 5.1798016019e-001	 3.3063360413e+000	 8.2634415467e-002
 4.8499677130e-001	 3.3113350122e+000	 8.3131555030e-002
 4.5207396955e-001	 3.3159901170e+000	 7.7013499987e-002
 4.1921653852e-001	 3.3203040011e+000	 6.8486641867e-002
 3.8642917706e-001	 3.3242793860e+000	 6.2326001159e-002
 3.5371649815e-001	 3.3279190671e+000	 6.3977062153e-002
 3.2108302787e-001	 3.3312259102e+000	 7.9653415452e-002
 6.5560392285e-001	 3.3090109169e+000	-4.4406423793e-002
 6.2216330452e-001	 3.3154611787e+000	 7.1971771395e-003
 5.8876364158e-001	 3.3215549919e+000	 3.9710998315e-002
 5.5541008398e-001	 3.3272946881e+000	 5.5760070280e-002
 5.2210770180e-001	 3.3326826866e+000	 5.8122145143e-002
 4.8886148370e-001	 3.3377214920e+000	 5.0176099244e-002
 4.5567633555e-001	 3.3424136912e+000	 3.6164538483e-002
 4.2255707902e-001	 3.3467619505e+000	 2.0554544129e-002
 3.8950845042e-001	 3.3507690135e+000	 8.4574334706e-003
 3.5653509947e-001	 3.3544376975e+000	 5.7174982256e-003
 3.2364158833e-001	 3.3577708913e+000	 1.8986339397e-002
 6.6078682374e-001	 3.3351704242e+000	-2.6195958571e-002
 6.2708183937e-001	 3.3416716788e+000	 1.5730640182e-002
 5.9341813416e-001	 3.3478136668e+000	 4.0141986312e-002
 5.5980089879e-001	 3.3535987384e+000	 4.9810279994e-002
 5.2623524340e-001	 3.3590293320e+000	 4.7773258783e-002
 4.9272619611e-001	 3.3641079719e+000	 3.7461267286e-002
 4.5927870155e-001	 3.3688372654e+000	 2.2810986579e-002
 4.2589761953e-001	 3.3732199000e+000	 8.3668525015e-003
 3.9258772377e-001	 3.3772586410e+000	-6.2883316178e-004
 3.5935370079e-001	 3.3809563279e+000	 1.8438735584e-003
 3.2620014879e-001	 3.3843158724e+000	 2.2652934626e-002
 3.0061454421e-001	 3.1188660616e+000	 2.7408282865e-001
 2.7013516033e-001	 3.1216536212e+000	 2.8706680981e-001
 2.3973825151e-001	 3.1241350251e+000	 2.9141798301e-001
 2.0942786922e-001	 3.1263131416e+000	 2.9074824917e-001
 1.7920797856e-001	 3.1281908955e+000	 2.8880404189e-001
 1.4908245772e-001	 3.1297712650e+000	 2.8947401130e-001
 1.1905509748e-001	 3.1310572789e+000	 2.9679108039e-001
 8.9129600848e-002	 3.1320520147e+000	 3.1492841131e-001
 5.9309582745e-002	 3.1327585957e+000	 3.4818890807e-001
 2.9598569761e-002	 3.1331801883e+000	 4.0098797014e-001
 0.0000000000e+000	 3.1333200000e+000	 4.7782931242e-001
 3.0317310467e-001	 3.1454110426e+000	 3.3052447667e-001
 2.7243430770e-001	 3.1482223275e+000	 3.5496728142e-001
 2.4177868775e-001	 3.1507248508e+000	 3.7038757697e-001
 2.1121033076e-001	 3.1529215055e+000	 3.8067188673e-001
 1.8073323560e-001	 3.1548152412e+000	 3.8993376787e-001
 1.5035131343e-001	 3.1564090613e+000	 4.0252689502e-001
 1.2006838732e-001	 3.1577060207e+000	 4.2305187157e-001
 8.9888191798e-002	 3.1587092228e+000	 4.5635627513e-001
 5.9814372538e-002	 3.1594218175e+000	 5.0752753840e-001
 2.9850486150e-002	 3.1598469984e+000	 5.8187836050e-001
 0.0000000000e+000	 3.1599880000e+000	 6.8492445265e-001
 3.0573166513e-001	 3.1719560237e+000	 3.5763046873e-001
 2.7473345507e-001	 3.1747910338e+000	 3.9055312356e-001
 2.4381912399e-001	 3.1773146766e+000	 4.1371654232e-001
 2.1299279231e-001	 3.1795298695e+000	 4.3130074832e-001
 1.8225849263e-001	 3.1814395869e+000	 4.4780824304e-001
 1.5162016914e-001	 3.1830468577e+000	 4.6808290110e-001
 1.2108167717e-001	 3.1843547624e+000	 4.9732191751e-001
 9.0646782748e-002	 3.1853664308e+000	 5.4108028097e-001
 6.0319162331e-002	 3.1860850394e+000	 6.0526734755e-001
 3.0102402539e-002	 3.1865138084e+000	 6.9613518972e-001
 0.0000000000e+000	 3.1866560000e+000	 8.2025851117e-001
 3.0829022558e-001	 3.1985010048e+000	 3.5853638215e-001
 2.7703260245e-001	 3.2013597401e+000	 3.9673114520e-001
 2.4585956023e-001	 3.2039045023e+000	 4.2400787701e-001
 2.1477525386e-001	 3.2061382334e+000	 4.4485102363e-001
 1.8378374966e-001	 3.2080639326e+000	 4.6416609795e-001
 1.5288902486e-001	 3.2096846540e+000	 4.8730482264e-001
 1.2209496702e-001	 3.2110035042e+000	 5.2008261828e-001
 9.1405373698e-002	 3.2120236389e+000	 5.6878787524e-001
 6.0823952124e-002	 3.2127482612e+000	 6.4018255601e-001
 3.0354318928e-002	 3.2131806185e+000	 7.4149378070e-001
 0.0000000000e+000	 3.2133240000e+000	 8.8039617242e-001
 3.1084878604e-001	 3.2250459859e+000	 3.3637942172e-001
 2.7933174982e-001	 3.2279284464e+000	 3.7643863887e-001
 2.4789999647e-001	 3.2304943281e+000	 4.0392428731e-001
 2.1655771540e-001	 3.2327465973e+000	 4.2362810244e-001
 1.8530900670e-001	 3.2346882783e+000	 4.4086482128e-001
 1.5415788057e-001	 3.2363224504e+000	 4.6150403599e-001
 1.2310825686e-001	 3.2376522459e+000	 4.9199365185e-001
 9.2163964649e-002	 3.2386808470e+000	 5.3937435183e-001
 6.1328741917e-002	 3.2394114830e+000	 6.1128458439e-001
 3.0606235317e-002	 3.2398474285e+000	 7.1595570420e-001
 0.0000000000e+000	 3.2399920000e+000	 8.6219702736e-001
 3.1340734650e-001	 3.2515909670e+000	 2.9429346522e-001
 2.8163089719e-001	 3.2544971527e+000	 3.3263781136e-001
 2.4994043271e-001	 3.2570841539e+000	 3.5618199738e-001
 2.1834017695e-001	 3.2593549612e+000	 3.7001975140e-001
 1.8683426373e-001	 3.2613126239e+000	 3.7987328664e-001
 1.5542673628e-001	 3.2629602468e+000	 3.9213235458e-001
 1.2412154671e-001	 3.2643009877e+000	 4.1388412699e-001
 9.2922555600e-002	 3.2653380550e+000	 4.5293327050e-001
 6.1833531710e-002	 3.2660747049e+000	 5.1781169869e-001
 3.0858151706e-002	 3.2665142386e+000	 6.1777760705e-001
 0.0000000000e+000	 3.2666600000e+000	 7.6280353583e-001
 3.1596590696e-001	 3.2781359481e+000	 2.3540436183e-001
 2.8393004456e-001	 3.2810658589e+000	 2.6831049331e-001
 2.5198086895e-001	 3.2836739796e+000	 2.8354486517e-001
 2.2012263849e-001	 3.2859633252e+000	 2.8648962570e-001
 1.8835952077e-001	 3.2879369696e+000	 2.8326464414e-001
 1.5669559199e-001	 3.2895980431e+000	 2.8077427943e-001
 1.2513483655e-001	 3.2909497294e+000	 2.8674416622e-001
 9.3681146551e-002	 3.2919952631e+000	 3.0974734073e-001
 6.2338321504e-002	 3.2927379267e+000	 3.5921915850e-001
 3.1110068095e-002	 3.2931810486e+000	 4.4546058313e-001
 0.0000000000e+000	 3.2933280000e+000	 5.7962957382e-001
 3.1852446741e-001	 3.3046809291e+000	 1.6282546913e-001
 2.8622919194e-001	 3.3076345652e+000	 1.8645311206e-001
 2.5402130520e-001	 3.3102638054e+000	 1.8881878712e-001
 2.2190510004e-001	 3.3125716891e+000	 1.7557109659e-001
 1.8988477780e-001	 3.3145613153e+000	 1.5320955625e-001
 1.5796444771e-001	 3.3162358395e+000	 1.2913962378e-001
 1.2614812640e-001	 3.3175984712e+000	 1.1171689455e-001
 9.4439737501e-002	 3.3186524711e+000	 1.1027974495e-001
 6.2843111297e-002	 3.3194011485e+000	 1.3516983993e-001
 3.1361984484e-002	 3.3198478587e+000	 1.9774005655e-001
 0.0000000000e+000	 3.3199960000e+000	 3.1034953265e-001
 3.2108302787e-001	 3.3312259102e+000	 7.9653415452e-002
 2.8852833931e-001	 3.3342032715e+000	 9.0121269266e-002
 2.5606174144e-001	 3.3368536311e+000	 7.5748606756e-002
 2.2368756159e-001	 3.3391800530e+000	 4.2754916870e-002
 1.9141003483e-001	 3.3411856610e+000	-1.9802691398e-003
 1.5923330342e-001	 3.3428736359e+000	-5.0648803737e-002
 1.2716141625e-001	 3.3442472129e+000	-9.4469041825e-002
 9.5198328452e-002	 3.3453096792e+000	-1.2364576791e-001
 6.3347901090e-002	 3.3460643704e+000	-1.2733446241e-001
 3.1613900873e-002	 3.3465146687e+000	-9.3609485149e-002
 0.0000000000e+000	 3.3466640000e+000	-9.4357758266e-003
 3.2364158833e-001	 3.3577708913e+000	 1.8986339397e-002
 2.9082748668e-001	 3.3607719778e+000	 2.7407103493e-002
 2.5810217768e-001	 3.3634434569e+000	 8.9816167660e-003
 2.2547002313e-001	 3.3657884170e+000	-3.0046556995e-002
 1.9293529187e-001	 3.3678100066e+000	-8.2528767674e-002
 1.6050215913e-001	 3.3695114322e+000	-1.4036383136e-001
 1.2817470609e-001	 3.3708959547e+000	-1.9445569690e-001
 9.5956919402e-002	 3.3719668872e+000	-2.3467568895e-001
 6.3852690883e-002	 3.3727275922e+000	-2.4982884182e-001
 3.1865817262e-002	 3.3731814788e+000	-2.2762388952e-001
 0.0000000000e+000	 3.3733320000e+000	-1.5464650307e-001
 3.2620014879e-001	 3.3843158724e+000	 2.2652934626e-002
 2.9312663406e-001	 3.3873406841e+000	 3.9138057896e-002
 2.6014261392e-001	 3.3900332827e+000	 2.7528226043e-002
 2.2725248468e-001	 3.3923967809e+000	-5.6193851784e-003
 1.9446054890e-001	 3.3944343523e+000	-5.2819477204e-002
 1.6177101484e-001	 3.3961492286e+000	-1.0561422850e-001
 1.2918799594e-001	 3.3975446965e+000	-1.5453376667e-001
 9.6715510352e-002	 3.3986240953e+000	-1.8906095452e-001
 6.4357480676e-002	 3.3993908141e+000	-1.9759998761e-001
 3.2117733651e-002	 3.3998482888e+000	-1.6744835610e-001
 0.0000000000e+000	 3.4000000000e+000	-8.4771753551e-002
 3.4000000000e+000	 0.0000000000e+000	 1.7739374944e+000
 3.3998482888e+000	 3.2117733651e-002	 1.7387876290e+000
 3.3993908141e+000	 6.4357480676e-002	 1.6854885299e+000
 3.3986240953e+000	 9.6715510352e-002	 1.6212561562e+000
 3.3975446965e+000	 1.2918799594e-001	 1.5520282389e+000
 3.3961492286e+000	 1.6177101484e-001	 1.4825302993e+000
 3.3944343523e+000	 1.9446054890e-001	 1.4163441414e+000
 3.3923967809e+000	 2.2725248468e-001	 1.3559792265e+000
 3.3900332827e+000	 2.6014261392e-001	 1.3029473808e+000
 3.3873406841e+000	 2.9312663406e-001	 1.2578413402e+000
 3.3843158724e+000	 3.2620014879e-001	 1.2204176949e+000
 3.4266680000e+000	 0.0000000000e+000	 1.5074628871e+000
 3.4265150989e+000	 3.2369650039e-002	 1.4987046321e+000
 3.4260540359e+000	 6.4862270468e-002	 1.4703524340e+000
 3.4252813033e+000	 9.7474101301e-002	 1.4295671523e+000
 3.4241934382e+000	 1.3020128578e-001	 1.3822644767e+000
 3.4227870249e+000	 1.6303987056e-001	 1.3331794576e+000
 3.4210586980e+000	 1.9598580593e-001	 1.2859331340e+000
 3.4190051448e+000	 2.2903494622e-001	 1.2431016877e+000
 3.4166231084e+000	 2.6218305016e-001	 1.2062885972e+000
 3.4139093904e+000	 2.9542578143e-001	 1.1762003275e+000
 3.4108608535e+000	 3.2875870925e-001	 1.1527261490e+000
 3.4533360000e+000	 0.0000000000e+000	 1.2766095096e+000
 3.4531819089e+000	 3.2621566427e-002	 1.2889784376e+000
 3.4527172577e+000	 6.5367060260e-002	 1.2807073197e+000
 3.4519385114e+000	 9.8232692251e-002	 1.2588950578e+000
 3.4508421800e+000	 1.3121457563e-001	 1.2294308655e+000
 3.4494248213e+000	 1.6430872627e-001	 1.1970570639e+000
 3.4476830437e+000	 1.9751106297e-001	 1.1654335713e+000
 3.4456135087e+000	 2.3081740777e-001	 1.1372045375e+000
 3.4432129342e+000	 2.6422348640e-001	 1.1140676198e+000
 3.4404780966e+000	 2.9772492880e-001	 1.0968464692e+000
 3.4374058346e+000	 3.3131726971e-001	 1.0855670547e+000
 3.4800040000e+000	 0.0000000000e+000	 1.0809267680e+000
 3.4798487190e+000	 3.2873482815e-002	 1.1097413558e+000
 3.4793804796e+000	 6.5871850052e-002	 1.1171895844e+000
 3.4785957194e+000	 9.8991283199e-002	 1.1103037388e+000
 3.4774909217e+000	 1.3222786547e-001	 1.0949445235e+000
 3.4760626177e+000	 1.6557758198e-001	 1.0758618638e+000
 3.4743073894e+000	 1.9903632000e-001	 1.0567569729e+000
 3.4722218727e+000	 2.3259986931e-001	 1.0403461507e+000
 3.4698027599e+000	 2.6626392265e-001	 1.0284268439e+000
 3.4670468029e+000	 3.0002407618e-001	 1.0219465643e+000
 3.4639508156e+000	 3.3387583017e-001	 1.0210753311e+000
 3.5066720000e+000	 0.0000000000e+000	 9.1989833571e-001
 3.5065155291e+000	 3.3125399203e-002	 9.6106381606e-001
 3.5060437014e+000	 6.6376639843e-002	 9.8037712766e-001
 3.5052529275e+000	 9.9749874148e-002	 9.8480157463e-001
 3.5041396635e+000	 1.3324115532e-001	 9.8016981917e-001
 3.5027004140e+000	 1.6684643769e-001	 9.7124242094e-001
 3.5009317350e+000	 2.0056157703e-001	 9.6176717934e-001
 3.4988302366e+000	 2.3438233086e-001	 9.5453977133e-001
 3.4963925857e+000	 2.6830435889e-001	 9.5146623980e-001
 3.4936155092e+000	 3.0232322355e-001	 9.5362796339e-001
 3.4904957967e+000	 3.3643439063e-001	 9.6134981309e-001
 3.5333400000e+000	 0.0000000000e+000	 7.9294463437e-001
 3.5331823391e+000	 3.3377315591e-002	 8.4295692082e-001
 3.5327069232e+000	 6.6881429635e-002	 8.7079194190e-001
 3.5319101355e+000	 1.0050846510e-001	 8.8334404715e-001
 3.5307884052e+000	 1.3425444516e-001	 8.8642092621e-001
 3.5293382104e+000	 1.6811529340e-001	 8.8479960245e-001
 3.5275560807e+000	 2.0208683407e-001	 8.8228273888e-001
 3.5254386005e+000	 2.3616479241e-001	 8.8175577173e-001
 3.5229824115e+000	 2.7034479513e-001	 8.8524545665e-001
 3.5201842155e+000	 3.0462237093e-001	 8.9398049293e-001
 3.5170407778e+000	 3.3899295109e-001	 9.0845497206e-001
 3.5600080000e+000	 0.0000000000e+000	 6.9942520278e-001
 3.5598491492e+000	 3.3629231979e-002	 7.5537488539e-001
 3.5593701451e+000	 6.7386219427e-002	 7.8890258490e-001
 3.5585673436e+000	 1.0126705605e-001	 8.0683621270e-001
 3.5574371470e+000	 1.3526773500e-001	 8.1496425982e-001
 3.5559760068e+000	 1.6938414911e-001	 8.1808895000e-001
 3.5541804264e+000	 2.0361209110e-001	 8.2007918233e-001
 3.5520469645e+000	 2.3794725395e-001	 8.2392380333e-001
 3.5495722372e+000	 2.7238523137e-001	 8.3178582385e-001
 3.5467529218e+000	 3.0692151830e-001	 8.4505828323e-001
 3.5435857589e+000	 3.4155151155e-001	 8.6442254899e-001
 3.5866760000e+000	 0.0000000000e+000	 6.3864096034e-001
 3.5865159592e+000	 3.3881148367e-002	 6.9821736811e-001
 3.5860333669e+000	 6.7891009218e-002	 7.3512654193e-001
 3.5852245516e+000	 1.0202564699e-001	 7.5613506150e-001
 3.5840858887e+000	 1.3628102485e-001	 7.6702080236e-001
 3.5826138031e+000	 1.7065300483e-001	 7.7262294055e-001
 3.5808047721e+000	 2.0513734813e-001	 7.7689119106e-001
 3.5786553284e+000	 2.3972971550e-001	 7.8293484544e-001
 3.5761620630e+000	 2.7442566762e-001	 7.9307225593e-001
 3.5733216281e+000	 3.0922066568e-001	 8.0888150685e-001
 3.5701307400e+000	 3.4411007201e-001	 8.3125310587e-001
 3.6133440000e+000	 0.0000000000e+000	 6.0983637025e-001
 3.6131827693e+000	 3.4133064755e-002	 6.7133169736e-001
 3.6126965887e+000	 6.8395799010e-002	 7.0983248227e-001
 3.6118817597e+000	 1.0278423794e-001	 7.3205177133e-001
 3.6107346305e+000	 1.3729431469e-001	 7.4376832307e-001
 3.6092515995e+000	 1.7192186054e-001	 7.4987314330e-001
 3.6074291178e+000	 2.0666260517e-001	 7.5441466387e-001
 3.6052636923e+000	 2.4151217705e-001	 7.6064315686e-001
 3.6027518887e+000	 2.7646610386e-001	 7.7105506537e-001
 3.5998903343e+000	 3.1151981305e-001	 7.8743803126e-001
 3.5966757211e+000	 3.4666863247e-001	 8.1091749890e-001
 3.6400120000e+000	 0.0000000000e+000	 6.1220150757e-001
 3.6398495793e+000	 3.4384981144e-002	 6.7451500044e-001
 3.6393598106e+000	 6.8900588802e-002	 7.1334241583e-001
 3.6385389677e+000	 1.0354282889e-001	 7.3535386048e-001
 3.6373833723e+000	 1.3830760454e-001	 7.4634349771e-001
 3.6358893958e+000	 1.7319071625e-001	 7.5127227811e-001
 3.6340534634e+000	 2.0818786220e-001	 7.5430868801e-001
 3.6318720562e+000	 2.4329463859e-001	 7.5886813525e-001
 3.6293417145e+000	 2.7850654010e-001	 7.6765168823e-001
 3.6264590406e+000	 3.1381896043e-001	 7.8268499045e-001
 3.6232207021e+000	 3.4922719293e-001	 8.0535827770e-001
 3.6666800000e+000	 0.0000000000e+000	 6.4487403706e-001
 3.6665163894e+000	 3.4636897532e-002	 7.0751623934e-001
 3.6660230324e+000	 6.9405378595e-002	 7.4593375487e-001
 3.6651961758e+000	 1.0430141984e-001	 7.6676724516e-001
 3.6640321140e+000	 1.3932089439e-001	 7.7584393303e-001
 3.6625271922e+000	 1.7445957196e-001	 7.7821618013e-001
 3.6606778091e+000	 2.0971311924e-001	 7.7819741914e-001
 3.6584804202e+000	 2.4507710014e-001	 7.7939608920e-001
 3.6559315402e+000	 2.8054697635e-001	 7.8474832706e-001
 3.6530277469e+000	 3.1611810781e-001	 7.9655027943e-001
 3.6497656832e+000	 3.5178575339e-001	 8.1649101421e-001
 3.3843158724e+000	 3.2620014879e-001	 1.2204176949e+000
 3.3809563279e+000	 3.5935370079e-001	 1.1832481958e+000
 3.3772586410e+000	 3.9258772377e-001	 1.1412884263e+000
 3.3732199000e+000	 4.2589761953e-001	 1.0969085674e+000
 3.3688372654e+000	 4.5927870155e-001	 1.0520229779e+000
 3.3641079719e+000	 4.9272619611e-001	 1.0081978205e+000
 3.3590293320e+000	 5.2623524340e-001	 9.6676728177e-001
 3.3535987384e+000	 5.5980089879e-001	 9.2895925226e-001
 3.3478136668e+000	 5.9341813416e-001	 8.9603136006e-001
 3.3416716788e+000	 6.2708183937e-001	 8.6941825972e-001
 3.3351704242e+000	 6.6078682374e-001	 8.5089108656e-001
 3.4108608535e+000	 3.2875870925e-001	 1.1527261490e+000
 3.4074749583e+000	 3.6217230211e-001	 1.1279511554e+000
 3.4037482685e+000	 3.9566699713e-001	 1.0963498469e+000
 3.3996778495e+000	 4.2923816003e-001	 1.0604452298e+000
 3.3952608395e+000	 4.6288106755e-001	 1.0223088979e+000
 3.3904944517e+000	 4.9659090852e-001	 9.8366477768e-001
 3.3853759773e+000	 5.3036278501e-001	 9.4600148884e-001
 3.3799027887e+000	 5.6419171360e-001	 9.1069425309e-001
 3.3740723418e+000	 5.9807262675e-001	 8.7913730739e-001
 3.3678821789e+000	 6.3200037421e-001	 8.5288779525e-001
 3.3613299316e+000	 6.6596972462e-001	 8.3382211667e-001
 3.4374058346e+000	 3.3131726971e-001	 1.0855670547e+000
 3.4339935887e+000	 3.6499090342e-001	 1.0718274361e+000
 3.4302378959e+000	 3.9874627048e-001	 1.0495829328e+000
 3.4261357990e+000	 4.3257870053e-001	 1.0214576145e+000
 3.4216844137e+000	 4.6648343355e-001	 9.8962817022e-001
 3.4168809315e+000	 5.0045562093e-001	 9.5592343527e-001
 3.4117226227e+000	 5.3449032662e-001	 9.2193255259e-001
 3.4062068391e+000	 5.6858252842e-001	 8.8912276519e-001
 3.4003310168e+000	 6.0272711934e-001	 8.5896786657e-001
 3.3940926790e+000	 6.3691890906e-001	 8.3308835497e-001
 3.3874894389e+000	 6.7115262551e-001	 8.1358528597e-001
 3.4639508156e+000	 3.3387583017e-001	 1.0210753311e+000
 3.4605122191e+000	 3.6780950474e-001	 1.0169403502e+000
 3.4567275234e+000	 4.0182554384e-001	 1.0029571958e+000
 3.4525937485e+000	 4.3591924104e-001	 9.8180418076e-001
 3.4481079879e+000	 4.7008579956e-001	 9.5571592256e-001
 3.4432674113e+000	 5.0432033334e-001	 9.2657829506e-001
 3.4380692681e+000	 5.3861786822e-001	 8.9603202567e-001
 3.4325108894e+000	 5.7297334323e-001	 8.6558600456e-001
 3.4265896917e+000	 6.0738161193e-001	 8.3674140536e-001
 3.4203031791e+000	 6.4183744391e-001	 8.1112773909e-001
 3.4136489462e+000	 6.7633552640e-001	 7.9147922400e-001
 3.4904957967e+000	 3.3643439063e-001	 9.6134981309e-001
 3.4870308495e+000	 3.7062810607e-001	 9.6532059390e-001
 3.4832171509e+000	 4.0490481720e-001	 9.5841279577e-001
 3.4790516980e+000	 4.3925978154e-001	 9.4331717069e-001
 3.4745315620e+000	 4.7368816556e-001	 9.2228414727e-001
 3.4696538911e+000	 5.0818504575e-001	 8.9721382620e-001
 3.4644159134e+000	 5.4274540983e-001	 8.6975462549e-001
 3.4588149398e+000	 5.7736415804e-001	 8.4141171542e-001
 3.4528483667e+000	 6.1203610452e-001	 8.1366641831e-001
 3.4465136792e+000	 6.4675597877e-001	 7.8810777447e-001
 3.4398084535e+000	 6.8151842728e-001	 7.6848863177e-001
 3.5170407778e+000	 3.3899295109e-001	 9.0845497206e-001
 3.5135494799e+000	 3.7344670739e-001	 9.1896775921e-001
 3.5097067784e+000	 4.0798409055e-001	 9.1786185515e-001
 3.5055096475e+000	 4.4260032205e-001	 9.0780374316e-001
 3.5009551362e+000	 4.7729053156e-001	 8.9102267404e-001
 3.4960403710e+000	 5.1204975816e-001	 8.6939530057e-001
 3.4907625588e+000	 5.4687295144e-001	 8.4453895942e-001
 3.4851189901e+000	 5.8175497286e-001	 8.1791481619e-001
 3.4791070416e+000	 6.1669059710e-001	 7.9094212817e-001
 3.4727241793e+000	 6.5167451362e-001	 7.6512490970e-001
 3.4659679608e+000	 6.8670132817e-001	 7.4559336502e-001
 3.5435857589e+000	 3.4155151155e-001	 8.6442254899e-001
 3.5400681103e+000	 3.7626530871e-001	 8.7985176667e-001
 3.5361964059e+000	 4.1106336391e-001	 8.8318970403e-001
 3.5319675970e+000	 4.4594086255e-001	 8.7704704692e-001
 3.5273787104e+000	 4.8089289757e-001	 8.6360009040e-001
 3.5224268508e+000	 5.1591447057e-001	 8.4466958374e-001
 3.5171092041e+000	 5.5100049305e-001	 8.2180821294e-001
 3.5114230404e+000	 5.8614578767e-001	 7.9639801511e-001
 3.5053657166e+000	 6.2134508969e-001	 7.6975906300e-001
 3.4989346794e+000	 6.5659304847e-001	 7.4327079118e-001
 3.4921274681e+000	 6.9188422906e-001	 7.2377334420e-001
 3.5701307400e+000	 3.4411007201e-001	 8.3125310587e-001
 3.5665867407e+000	 3.7908391003e-001	 8.4991422514e-001
 3.5626860333e+000	 4.1414263727e-001	 8.5625606020e-001
 3.5584255465e+000	 4.4928140306e-001	 8.5280723647e-001
 3.5538022846e+000	 4.8449526357e-001	 8.4166461271e-001
 3.5488133306e+000	 5.1977918299e-001	 8.2456588382e-001
 3.5434558495e+000	 5.5512803466e-001	 8.0297080255e-001
 3.5377270908e+000	 5.9053660249e-001	 7.7815239719e-001
 3.5316243916e+000	 6.2599958229e-001	 7.5129961031e-001
 3.5251451795e+000	 6.6151158332e-001	 7.2363282131e-001
 3.5182869755e+000	 6.9706712995e-001	 7.0400851213e-001
 3.5966757211e+000	 3.4666863247e-001	 8.1091749890e-001
 3.5931053711e+000	 3.8190251135e-001	 8.3106972135e-001
 3.5891756608e+000	 4.1722191063e-001	 8.3889614698e-001
 3.5848834960e+000	 4.5262194356e-001	 8.3682243354e-001
 3.5802258587e+000	 4.8809762958e-001	 8.2684491023e-001
 3.5751998104e+000	 5.2364389540e-001	 8.1059646039e-001
 3.5698024949e+000	 5.5925557627e-001	 7.8942099551e-001
 3.5640311411e+000	 5.9492741731e-001	 7.6445798383e-001
 3.5578830665e+000	 6.3065407488e-001	 7.3673854944e-001
 3.5513556796e+000	 6.6643011817e-001	 7.0729469969e-001
 3.5444464828e+000	 7.0225003084e-001	 6.8727877858e-001
 3.6232207021e+000	 3.4922719293e-001	 8.0535827770e-001
 3.6196240015e+000	 3.8472111267e-001	 8.2520704299e-001
 3.6156652883e+000	 4.2030118399e-001	 8.3292175209e-001
 3.6113414455e+000	 4.5596248407e-001	 8.3080963702e-001
 3.6066494329e+000	 4.9169999558e-001	 8.2075088459e-001
 3.6015862902e+000	 5.2750860781e-001	 8.0425729555e-001
 3.5961491402e+000	 5.6338311789e-001	 7.8253949778e-001
 3.5903351915e+000	 5.9931823212e-001	 7.5658426661e-001
 3.5841417415e+000	 6.3530856747e-001	 7.2724356321e-001
 3.5775661797e+000	 6.7134865303e-001	 6.9549211499e-001
 3.5706059901e+000	 7.0743293173e-001	 6.7456395258e-001
 3.6497656832e+000	 3.5178575339e-001	 8.1649101421e-001
 3.6461426319e+000	 3.8753971400e-001	 8.3419033896e-001
 3.6421549158e+000	 4.2338045735e-001	 8.4012223078e-001
 3.6377993950e+000	 4.5930302458e-001	 8.3646558389e-001
 3.6330730071e+000	 4.9530236159e-001	 8.2497440692e-001
 3.6279727701e+000	 5.3137332022e-001	 8.0702872902e-001
 3.6224957856e+000	 5.6751065950e-001	 7.8369401210e-001
 3.6166392418e+000	 6.0370904694e-001	 7.5579071653e-001
 3.6104004164e+000	 6.3996306006e-001	 7.2397573001e-001
 3.6037766798e+000	 6.7626718788e-001	 6.8946914690e-001
 3.5967654974e+000	 7.1261583262e-001	 6.6684366302e-001
 3.3351704242e+000	 6.6078682374e-001	 8.5089108656e-001
 3.3283065882e+000	 6.9453288053e-001	 8.3159568043e-001
 3.3210789555e+000	 7.2830960080e-001	 8.0835691399e-001
 3.3134854599e+000	 7.6211155205e-001	 7.8200832879e-001
 3.3055241345e+000	 7.9593322820e-001	 7.5296219584e-001
 3.2971931143e+000	 8.2976905160e-001	 7.2158405167e-001
 3.2884906387e+000	 8.6361337515e-001	 6.8822760607e-001
 3.2794150542e+000	 8.9746048454e-001	 6.5326660177e-001
 3.2699648164e+000	 9.3130460051e-001	 6.1712299865e-001
 3.2601384931e+000	 9.6513988133e-001	 5.8029086717e-001
 3.2499347660e+000	 9.9896042527e-001	 5.4335539312e-001
 3.3613299316e+000	 6.6596972462e-001	 8.3382211667e-001
 3.3544122588e+000	 6.9998046961e-001	 8.1610203122e-001
 3.3471279360e+000	 7.3402211857e-001	 7.9414748853e-001
 3.3394748806e+000	 7.6808919642e-001	 7.6903711480e-001
 3.3314511103e+000	 8.0217615388e-001	 7.4163012184e-001
 3.3230547455e+000	 8.3627736956e-001	 7.1210643231e-001
 3.3142840118e+000	 8.7038715206e-001	 6.8057653898e-001
 3.3051372426e+000	 9.0449974224e-001	 6.4734013306e-001
 3.2956128816e+000	 9.3860931553e-001	 6.1276839920e-001
 3.2857094853e+000	 9.7270998438e-001	 5.7733102837e-001
 3.2754257250e+000	 1.0067958007e+000	 5.4161801175e-001
 3.3874894389e+000	 6.7115262551e-001	 8.1358528597e-001
 3.3805179294e+000	 7.0542805868e-001	 7.9759387421e-001
 3.3731769164e+000	 7.3973463634e-001	 7.7664732980e-001
 3.3654643012e+000	 7.7406684079e-001	 7.5194167287e-001
 3.3573780861e+000	 8.0841907956e-001	 7.2447686434e-001
 3.3489163767e+000	 8.4278568752e-001	 6.9507762927e-001
 3.3400773848e+000	 8.7716092897e-001	 6.6441649962e-001
 3.3308594310e+000	 9.1153899995e-001	 6.3300363540e-001
 3.3212609468e+000	 9.4591403056e-001	 6.0053956295e-001
 3.3112804774e+000	 9.8028008742e-001	 5.6712650631e-001
 3.3009166839e+000	 1.0146311762e+000	 5.3328482509e-001
 3.4136489462e+000	 6.7633552640e-001	 7.9147922400e-001
 3.4066236000e+000	 7.1087564776e-001	 7.7701072106e-001
 3.3992258969e+000	 7.4544715412e-001	 7.5707131682e-001
 3.3914537219e+000	 7.8004448516e-001	 7.3294242540e-001
 3.3833050618e+000	 8.1466200525e-001	 7.0571096296e-001
 3.3747780078e+000	 8.4929400548e-001	 6.7628958165e-001
 3.3658707579e+000	 8.8393470588e-001	 6.4543917169e-001
 3.3565816195e+000	 9.1857825765e-001	 6.1379379901e-001
 3.3469090120e+000	 9.5321874558e-001	 5.8188824088e-001
 3.3368514696e+000	 9.8785019047e-001	 5.5018827439e-001
 3.3264076428e+000	 1.0224665517e+000	 5.1887582203e-001
 3.4398084535e+000	 6.8151842728e-001	 7.6848863177e-001
 3.4327292707e+000	 7.1632323683e-001	 7.5527064913e-001
 3.4252748774e+000	 7.5115967189e-001	 7.3627065602e-001
 3.4174431425e+000	 7.8602212954e-001	 7.1281997246e-001
 3.4092320376e+000	 8.2090493093e-001	 6.8605653431e-001
 3.4006396390e+000	 8.5580232344e-001	 6.5694452281e-001
 3.3916641309e+000	 8.9070848278e-001	 6.2629631378e-001
 3.3823038079e+000	 9.2561751536e-001	 5.9479692701e-001
 3.3725570773e+000	 9.6052346061e-001	 5.6303115146e-001
 3.3624224617e+000	 9.9542029351e-001	 5.3151351423e-001
 3.3518986017e+000	 1.0303019272e+000	 5.0071840034e-001
 3.4659679608e+000	 6.8670132817e-001	 7.4559336502e-001
 3.4588349413e+000	 7.2177082591e-001	 7.3329277456e-001
 3.4513238578e+000	 7.5687218967e-001	 7.1509850111e-001
 3.4434325632e+000	 7.9199977391e-001	 6.9235772601e-001
 3.4351590134e+000	 8.2714785662e-001	 6.6622491289e-001
 3.4265012702e+000	 8.6231064140e-001	 6.3768081324e-001
 3.4174575040e+000	 8.9748225969e-001	 6.0755384620e-001
 3.4080259963e+000	 9.3265677307e-001	 5.7654404672e-001
 3.3982051425e+000	 9.6782817563e-001	 5.4524977144e-001
 3.3879934539e+000	 1.0029903966e+000	 5.1419734413e-001
 3.3773895607e+000	 1.0381373026e+000	 4.8387132292e-001
 3.4921274681e+000	 6.9188422906e-001	 7.2377334420e-001
 3.4849406119e+000	 7.2721841499e-001	 7.1199712446e-001
 3.4773728383e+000	 7.6258470745e-001	 6.9440972922e-001
 3.4694219839e+000	 7.9797741829e-001	 6.7234159453e-001
 3.4610859892e+000	 8.3339078231e-001	 6.4693065725e-001
 3.4523629013e+000	 8.6881895936e-001	 6.1914071262e-001
 3.4432508770e+000	 9.0425603660e-001	 5.8978220363e-001
 3.4337481848e+000	 9.3969603077e-001	 5.5953565047e-001
 3.4238532077e+000	 9.7513289066e-001	 5.2897792380e-001
 3.4135644460e+000	 1.0105604996e+000	 4.9860805924e-001
 3.4028805196e+000	 1.0459726781e+000	 4.6889512338e-001
 3.5182869755e+000	 6.9706712995e-001	 7.0400851213e-001
 3.5110462825e+000	 7.3266600407e-001	 6.9230449921e-001
 3.5034218188e+000	 7.6829722522e-001	 6.7506071099e-001
 3.4954114045e+000	 8.0395506266e-001	 6.5355966528e-001
 3.4870129649e+000	 8.3963370799e-001	 6.2889115006e-001
 3.4782245325e+000	 8.7532727733e-001	 6.0196990465e-001
 3.4690442501e+000	 9.1102981351e-001	 5.7355579297e-001
 3.4594703732e+000	 9.4673528848e-001	 5.4427669220e-001
 3.4495012729e+000	 9.8243760569e-001	 5.1465431568e-001
 3.4391354382e+000	 1.0181306026e+000	 4.8513010667e-001
 3.4283714785e+000	 1.0538080536e+000	 4.5611104378e-001
 3.5444464828e+000	 7.0225003084e-001	 6.8727877858e-001
 3.5371519531e+000	 7.3811359314e-001	 6.7513632531e-001
 3.5294707992e+000	 7.7400974300e-001	 6.5790907483e-001
 3.5214008252e+000	 8.0993270704e-001	 6.3680188420e-001
 3.5129399407e+000	 8.4587663368e-001	 6.1282619928e-001
 3.5040861637e+000	 8.8183559529e-001	 5.8681702626e-001
 3.4948376231e+000	 9.1780359042e-001	 5.5945245851e-001
 3.4851925616e+000	 9.5377454619e-001	 5.3127599784e-001
 3.4751493381e+000	 9.8974232071e-001	 5.0272190456e-001
 3.4647064304e+000	 1.0257007057e+000	 4.7414110813e-001
 3.4538624374e+000	 1.0616434291e+000	 4.4584513197e-001
 3.5706059901e+000	 7.0743293173e-001	 6.7456395258e-001
 3.5632576237e+000	 7.4356118222e-001	 6.6141449943e-001
 3.5555197797e+000	 7.7972226078e-001	 6.4381346567e-001
 3.5473902459e+000	 8.1591035141e-001	 6.2285973370e-001
 3.5388669165e+000	 8.5211955937e-001	 5.9945764035e-001
 3.5299477948e+000	 8.8834391325e-001	 5.7433320081e-001
 3.5206309962e+000	 9.2457736733e-001	 5.4805295408e-001
 3.5109147501e+000	 9.6081380390e-001	 5.2104568539e-001
 3.5007974033e+000	 9.9704703574e-001	 4.9362727633e-001
 3.4902774225e+000	 1.0332708087e+000	 4.6602656952e-001
 3.4793533964e+000	 1.0694788046e+000	 4.3842757098e-001
 3.5967654974e+000	 7.1261583262e-001	 6.6684366302e-001
 3.5893632944e+000	 7.4900877130e-001	 6.5206122390e-001
 3.5815687602e+000	 7.8543477855e-001	 6.3363329845e-001
 3.5733796665e+000	 8.2188799579e-001	 6.1252590830e-001
 3.5647938922e+000	 8.5836248506e-001	 5.8950893936e-001
 3.5558094260e+000	 8.9485223122e-001	 5.6517157530e-001
 3.5464243692e+000	 9.3135114424e-001	 5.3994042184e-001
 3.5366369385e+000	 9.6785306161e-001	 5.1410059405e-001
 3.5264454685e+000	 1.0043517508e+000	 4.8782003471e-001
 3.5158484147e+000	 1.0408409118e+000	 4.6117526923e-001
 3.5048443553e+000	 1.0773141800e+000	 4.3419202325e-001
 3.2499347660e+000	 9.9896042527e-001	 5.4335539312e-001
 3.2393524327e+000	 1.0327602727e+000	 5.0747210303e-001
 3.2283904058e+000	 1.0665334072e+000	 4.7260187836e-001
 3.2170477184e+000	 1.1002737598e+000	 4.3768499897e-001
 3.2053235261e+000	 1.1339752124e+000	 4.0178351477e-001
 3.1932171098e+000	 1.1676316006e+000	 3.6406605380e-001
 3.1807278769e+000	 1.2012367166e+000	 3.2378971959e-001
 3.1678553637e+000	 1.2347843127e+000	 2.8027395354e-001
 3.1545992369e+000	 1.2682681041e+000	 2.3286611816e-001
 3.1409592953e+000	 1.3016817725e+000	 1.8089862630e-001
 3.1269354717e+000	 1.3350189692e+000	 1.2367532306e-001
 3.2754257250e+000	 1.0067958007e+000	 5.4161801175e-001
 3.2647603887e+000	 1.0408607582e+000	 5.0697675372e-001
 3.2537123809e+000	 1.0748987933e+000	 4.7338639705e-001
 3.2422807268e+000	 1.1089037894e+000	 4.3958098025e-001
 3.2304645755e+000	 1.1428695804e+000	 4.0444816212e-001
 3.2182632021e+000	 1.1767899534e+000	 3.6701574803e-001
 3.2056760095e+000	 1.2106586521e+000	 3.2643422406e-001
 3.1927025304e+000	 1.2444693798e+000	 2.8195073373e-001
 3.1793424288e+000	 1.2782158023e+000	 2.3287423437e-001
 3.1655955019e+000	 1.3118915518e+000	 1.7853164317e-001
 3.1514616820e+000	 1.3454902298e+000	 1.2004641874e-001
 3.3009166839e+000	 1.0146311762e+000	 5.3328482509e-001
 3.2901683448e+000	 1.0489612438e+000	 5.0049217433e-001
 3.2790343560e+000	 1.0832641795e+000	 4.6870661920e-001
 3.2675137352e+000	 1.1175338190e+000	 4.3646048959e-001
 3.2556056248e+000	 1.1517639483e+000	 4.0247177876e-001
 3.2433092944e+000	 1.1859483062e+000	 3.6563610467e-001
 3.2306241422e+000	 1.2200805877e+000	 3.2500991807e-001
 3.2175496971e+000	 1.2541544469e+000	 2.7978460280e-001
 3.2040856206e+000	 1.2881635005e+000	 2.2925118564e-001
 3.1902317086e+000	 1.3221013311e+000	 1.7275545001e-001
 3.1759878923e+000	 1.3559614903e+000	 1.1572756659e-001
 3.3264076428e+000	 1.0224665517e+000	 5.1887582203e-001
 3.3155763009e+000	 1.0570617294e+000	 4.8859471881e-001
 3.3043563311e+000	 1.0916295656e+000	 4.5919428523e-001
 3.2927467436e+000	 1.1261638486e+000	 4.2900086764e-001
 3.2807466742e+000	 1.1606583162e+000	 3.9656675542e-001
 3.2683553867e+000	 1.1951066590e+000	 3.6066341071e-001
 3.2555722748e+000	 1.2295025232e+000	 3.2026538993e-001
 3.2423968638e+000	 1.2638395139e+000	 2.7452457845e-001
 3.2288288125e+000	 1.2981111987e+000	 2.2273443475e-001
 3.2148679152e+000	 1.3323111103e+000	 1.6428402231e-001
 3.2005141027e+000	 1.3664327509e+000	 1.1108000931e-001
 3.3518986017e+000	 1.0303019272e+000	 5.0071840034e-001
 3.3409842570e+000	 1.0651622150e+000	 4.7218468667e-001
 3.3296783062e+000	 1.0999949518e+000	 4.4553124547e-001
 3.3179797520e+000	 1.1347938782e+000	 4.1791999238e-001
 3.3058877235e+000	 1.1695526842e+000	 3.8747533891e-001
 3.2934014791e+000	 1.2042650118e+000	 3.5285204871e-001
 3.2805204075e+000	 1.2389244587e+000	 3.1295451849e-001
 3.2672440305e+000	 1.2735245810e+000	 2.6691115912e-001
 3.2535720044e+000	 1.3080588968e+000	 2.1403815574e-001
 3.2395041218e+000	 1.3425208896e+000	 1.5474631136e-001
 3.2250403130e+000	 1.3769040114e+000	 1.0641494329e-001
 3.3773895607e+000	 1.0381373026e+000	 4.8387132292e-001
 3.3663922131e+000	 1.0732627005e+000	 4.5594752657e-001
 3.3550002813e+000	 1.1083603379e+000	 4.3018522837e-001
 3.3432127604e+000	 1.1434239078e+000	 4.0426187763e-001
 3.3310287729e+000	 1.1784470521e+000	 3.7596282119e-001
 3.3184475714e+000	 1.2134233646e+000	 3.4296723453e-001
 3.3054685401e+000	 1.2483463942e+000	 3.0382875131e-001
 3.2920911972e+000	 1.2832096481e+000	 2.5766813458e-001
 3.2783151963e+000	 1.3180065950e+000	 2.0384456863e-001
 3.2641403284e+000	 1.3527306689e+000	 1.4595806414e-001
 3.2495665234e+000	 1.3873752720e+000	 1.0199470809e-001
 3.4028805196e+000	 1.0459726781e+000	 4.6889512338e-001
 3.3918001691e+000	 1.0813631861e+000	 4.4159638569e-001
 3.3803222564e+000	 1.1167257241e+000	 4.1655668978e-001
 3.3684457688e+000	 1.1520539374e+000	 3.9140513494e-001
 3.3561698223e+000	 1.1873414200e+000	 3.6388595697e-001
 3.3434936637e+000	 1.2225817174e+000	 3.3191402985e-001
 3.3304166728e+000	 1.2577683297e+000	 2.9362940516e-001
 3.3169383640e+000	 1.2928947151e+000	 2.4749441825e-001
 3.3030583882e+000	 1.3279542932e+000	 1.9279529526e-001
 3.2887765350e+000	 1.3629404481e+000	 1.3820182952e-001
 3.2740927337e+000	 1.3978465325e+000	 9.8033995150e-002
 3.4283714785e+000	 1.0538080536e+000	 4.5611104378e-001
 3.4172081252e+000	 1.0894636717e+000	 4.2940309070e-001
 3.4056442315e+000	 1.1250911102e+000	 4.0492435561e-001
 3.3936787772e+000	 1.1606839670e+000	 3.8027466247e-001
 3.3813108716e+000	 1.1962357880e+000	 3.5316452786e-001
 3.3685397560e+000	 1.2317400702e+000	 3.2147118787e-001
 3.3553648054e+000	 1.2671902652e+000	 2.8329890971e-001
 3.3417855307e+000	 1.3025797822e+000	 2.3704363243e-001
 3.3278015801e+000	 1.3379019914e+000	 1.8169481331e-001
 3.3134127416e+000	 1.3731502274e+000	 1.3170204520e-001
 3.2986189440e+000	 1.4083177931e+000	 9.4701074813e-002
 3.4538624374e+000	 1.0616434291e+000	 4.4584513197e-001
 3.4426160813e+000	 1.0975641573e+000	 4.1964445728e-001
 3.4309662066e+000	 1.1334564964e+000	 3.9552175876e-001
 3.4189117856e+000	 1.1693139966e+000	 3.7106663454e-001
 3.4064519210e+000	 1.2051301559e+000	 3.4397466018e-001
 3.3935858483e+000	 1.2408984230e+000	 3.1210387666e-001
 3.3803129381e+000	 1.2766122007e+000	 2.7353577226e-001
 3.3666326974e+000	 1.3122648493e+000	 2.2664081373e-001
 3.3525447720e+000	 1.3478496895e+000	 1.7216699314e-001
 3.3380489483e+000	 1.3833600067e+000	 1.2661153362e-001
 3.3231451544e+000	 1.4187890536e+000	 9.2119040595e-002
 3.4793533964e+000	 1.0694788046e+000	 4.3842757098e-001
 3.4680240374e+000	 1.1056646428e+000	 4.1260161406e-001
 3.4562881817e+000	 1.1418218825e+000	 3.8858691471e-001
 3.4441447940e+000	 1.1779440262e+000	 3.6398189438e-001
 3.4315929703e+000	 1.2140245238e+000	 3.3648591169e-001
 3.4186319407e+000	 1.2500567758e+000	 3.0395614463e-001
 3.4052610708e+000	 1.2860341363e+000	 2.6446918331e-001
 3.3914798641e+000	 1.3219499164e+000	 2.1638740047e-001
 3.3772879639e+000	 1.3577973877e+000	 1.6387443413e-001
 3.3626851549e+000	 1.3935697859e+000	 1.2209001851e-001
 3.3476713647e+000	 1.4292603142e+000	 9.0070222260e-002
 3.5048443553e+000	 1.0773141800e+000	 4.3419202325e-001
 3.4934319935e+000	 1.1137651284e+000	 4.0855934268e-001
 3.4816101568e+000	 1.1501872686e+000	 3.8436166908e-001
 3.4693778024e+000	 1.1865740558e+000	 3.5922532084e-001
 3.4567340197e+000	 1.2229188917e+000	 3.3087213319e-001
 3.4436780330e+000	 1.2592151286e+000	 2.9717666503e-001
 3.4302092034e+000	 1.2954560718e+000	 2.5622834086e-001
 3.4163270308e+000	 1.3316349834e+000	 2.0639860736e-001
 3.4020311558e+000	 1.3677450859e+000	 1.5664665223e-001
 3.3873213615e+000	 1.4037795652e+000	 1.1759249447e-001
 3.3721975751e+000	 1.4397315747e+000	 8.7270572172e-002
 3.1269354717e+000	 1.3350189692e+000	 1.2367532306e-001
 3.1125300238e+000	 1.3682683376e+000	 6.8960485496e-002
 3.0977410833e+000	 1.4014284891e+000	 2.1676051519e-002
 3.0825689947e+000	 1.4344930095e+000	-1.9152355136e-002
 3.0670142412e+000	 1.4674554686e+000	-5.4680021822e-002
 3.0510774461e+000	 1.5003094234e+000	-8.6235554381e-002
 3.0347593738e+000	 1.5330484222e+000	-1.1531055440e-001
 3.0180609300e+000	 1.5656660084e+000	-1.4354654741e-001
 3.0009831633e+000	 1.5981557240e+000	-1.7271916791e-001
 2.9835272650e+000	 1.6305111137e+000	-2.0471963253e-001
 2.9656945701e+000	 1.6627257286e+000	-2.4153355865e-001
 3.1514616820e+000	 1.3454902298e+000	 1.2004641874e-001
 3.1369432446e+000	 1.3790003905e+000	 6.9628694098e-002
 3.1220383066e+000	 1.4124206346e+000	 2.5061252301e-002
 3.1067472152e+000	 1.4457444976e+000	-1.4344740882e-002
 3.0910704576e+000	 1.4789654987e+000	-4.9464536165e-002
 3.0750086618e+000	 1.5120771445e+000	-8.1352556334e-002
 3.0585625982e+000	 1.5450729326e+000	-1.1123227092e-001
 3.0417331797e+000	 1.5779463558e+000	-1.4048316858e-001
 3.0245214630e+000	 1.6106909054e+000	-1.7062483188e-001
 3.0069286489e+000	 1.6433000755e+000	-2.0329814591e-001
 2.9889560827e+000	 1.6757673668e+000	-2.4024369959e-001
 3.1759878923e+000	 1.3559614903e+000	 1.1572756659e-001
 3.1613564654e+000	 1.3897324435e+000	 6.9358723276e-002
 3.1463355299e+000	 1.4234127802e+000	 2.7412229319e-002
 3.1309254358e+000	 1.4569959857e+000	-1.0537362375e-002
 3.1151266740e+000	 1.4904755289e+000	-4.5108732254e-002
 3.0989398775e+000	 1.5238448656e+000	-7.7106858695e-002
 3.0823658226e+000	 1.5570974430e+000	-1.0751304146e-001
 3.0654054293e+000	 1.5902267032e+000	-1.3747186020e-001
 3.0480597627e+000	 1.6232260869e+000	-1.6827507142e-001
 3.0303300327e+000	 1.6560890374e+000	-2.0134247589e-001
 3.0122175953e+000	 1.6888090049e+000	-2.3819981659e-001
 3.2005141027e+000	 1.3664327509e+000	 1.1108000931e-001
 3.1857696862e+000	 1.4004644964e+000	 6.8457530439e-002
 3.1706327532e+000	 1.4344049258e+000	 2.8980433936e-002
 3.1551036564e+000	 1.4682474739e+000	-7.5346486286e-003
 3.1391828904e+000	 1.5019855590e+000	-4.1472486102e-002
 3.1228710932e+000	 1.5356125867e+000	-7.3412582617e-002
 3.1061690470e+000	 1.5691219534e+000	-1.0411930142e-001
 3.0890776790e+000	 1.6025070506e+000	-1.3452875130e-001
 3.0715980624e+000	 1.6357612683e+000	-1.6573243801e-001
 3.0537314166e+000	 1.6688779993e+000	-1.9895771290e-001
 3.0354791079e+000	 1.7018506431e+000	-2.3554508086e-001
 3.2250403130e+000	 1.3769040114e+000	 1.0641494329e-001
 3.2101829069e+000	 1.4111965494e+000	 6.7182098374e-002
 3.1949299765e+000	 1.4453970713e+000	 2.9967755133e-002
 3.1792818770e+000	 1.4794989620e+000	-5.1898635123e-003
 3.1632391068e+000	 1.5134955891e+000	-3.8463492609e-002
 3.1468023089e+000	 1.5473803077e+000	-7.0230392083e-002
 3.1299722714e+000	 1.5811464638e+000	-1.0106252269e-001
 3.1127499287e+000	 1.6147873980e+000	-1.3171330211e-001
 3.0951363621e+000	 1.6482964497e+000	-1.6310094259e-001
 3.0771328004e+000	 1.6816669612e+000	-1.9628840268e-001
 3.0587406205e+000	 1.7148922812e+000	-2.3246001738e-001
 3.2495665234e+000	 1.3873752720e+000	 1.0199470809e-001
 3.2345961277e+000	 1.4219286023e+000	 6.5740762482e-002
 3.2192271998e+000	 1.4563892169e+000	 3.0527983416e-002
 3.2034600975e+000	 1.4907504501e+000	-3.4035056733e-003
 3.1872953232e+000	 1.5250056192e+000	-3.6035529181e-002
 3.1707335246e+000	 1.5591480288e+000	-6.7565620472e-002
 3.1537754958e+000	 1.5931709742e+000	-9.8397201847e-002
 3.1364221784e+000	 1.6270677453e+000	-1.2912615187e-001
 3.1186746618e+000	 1.6608316311e+000	-1.6052376052e-001
 3.1005341843e+000	 1.6944559230e+000	-1.9351610521e-001
 3.0820021331e+000	 1.7279339194e+000	-2.2915991432e-001
 3.2740927337e+000	 1.3978465325e+000	 9.8033995150e-002
 3.2590093485e+000	 1.4326606553e+000	 6.4294556293e-002
 3.2435244231e+000	 1.4673813625e+000	 3.0768292200e-002
 3.2276383181e+000	 1.5020019382e+000	-2.1216915822e-003
 3.2113515396e+000	 1.5365156494e+000	-3.4186702930e-002
 3.1946647403e+000	 1.5709157499e+000	-6.5466381077e-002
 3.1775787202e+000	 1.6051954846e+000	-9.6218832558e-002
 3.1600944280e+000	 1.6393480927e+000	-1.2690695116e-001
 3.1422129615e+000	 1.6733668126e+000	-1.5818092134e-001
 3.1239355681e+000	 1.7072448849e+000	-1.9085693890e-001
 3.1052636456e+000	 1.7409755575e+000	-2.2589221789e-001
 3.2986189440e+000	 1.4083177931e+000	 9.4701074813e-002
 3.2834225693e+000	 1.4433927082e+000	 6.2958574288e-002
 3.2678216464e+000	 1.4783735081e+000	 3.0750735770e-002
 3.2518165387e+000	 1.5132534263e+000	-1.3345225805e-003
 3.2354077560e+000	 1.5480256795e+000	-3.2957682321e-002
 3.2185959559e+000	 1.5826834710e+000	-6.4021662382e-002
 3.2013819446e+000	 1.6172199950e+000	-9.4661863025e-002
 3.1837666777e+000	 1.6516284401e+000	-1.2523217951e-001
 3.1657512612e+000	 1.6859019940e+000	-1.5628698401e-001
 3.1473369520e+000	 1.7200338468e+000	-1.8855911039e-001
 3.1285251582e+000	 1.7540171957e+000	-2.2293391341e-001
 3.3231451544e+000	 1.4187890536e+000	 9.2119040595e-002
 3.3078357901e+000	 1.4541247611e+000	 6.1803351143e-002
 3.2921188697e+000	 1.4893656536e+000	 3.0493762954e-002
 3.2759947593e+000	 1.5245049144e+000	-1.0744367570e-003
 3.2594639724e+000	 1.5595357096e+000	-3.2429914058e-002
 3.2425271716e+000	 1.5944511921e+000	-6.3359408925e-002
 3.2251851690e+000	 1.6292445053e+000	-9.3897639257e-002
 3.2074389274e+000	 1.6639087875e+000	-1.2431294906e-001
 3.1892895609e+000	 1.6984371754e+000	-1.5508869844e-001
 3.1707383359e+000	 1.7328228087e+000	-1.8690043106e-001
 3.1517866708e+000	 1.7670588338e+000	-2.2058889317e-001
 3.3476713647e+000	 1.4292603142e+000	 9.0070222260e-002
 3.3322490109e+000	 1.4648568141e+000	 6.0856256553e-002
 3.3164160930e+000	 1.5003577992e+000	 2.9973745704e-002
 3.3001729799e+000	 1.5357564025e+000	-1.4145464304e-003
 3.2835201888e+000	 1.5710457397e+000	-3.2723825969e-002
 3.2664583873e+000	 1.6062189132e+000	-6.3644588446e-002
 3.2489883934e+000	 1.6412690157e+000	-9.4132334892e-002
 3.2311111771e+000	 1.6761891349e+000	-1.2439279498e-001
 3.2128278607e+000	 1.7109723568e+000	-1.5486265405e-001
 3.1941397197e+000	 1.7456117705e+000	-1.8618582069e-001
 3.1750481834e+000	 1.7801004720e+000	-2.1918531199e-001
 3.3721975751e+000	 1.4397315747e+000	 8.7270572172e-002
 3.3566622317e+000	 1.4755888670e+000	 5.9261173355e-002
 3.3407133163e+000	 1.5113499448e+000	 2.9042734186e-002
 3.3243512004e+000	 1.5470078906e+000	-2.4669619712e-003
 3.3075764053e+000	 1.5825557699e+000	-3.3997016610e-002
 3.2903896030e+000	 1.6179866343e+000	-6.5077246045e-002
 3.2727916178e+000	 1.6532935261e+000	-9.5604868249e-002
 3.2547834267e+000	 1.6884694823e+000	-1.2574545336e-001
 3.2363661604e+000	 1.7235075382e+000	-1.5591291593e-001
 3.2175411036e+000	 1.7584007324e+000	-1.8674479907e-001
 3.1983096960e+000	 1.7931421101e+000	-2.1907293086e-001
 2.9656945701e+000	 1.6627257286e+000	-2.4153355865e-001
 2.9474837982e+000	 1.6947979300e+000	-2.7990161000e-001
 2.9288992217e+000	 1.7267164490e+000	-3.1569677610e-001
 2.9099426108e+000	 1.7584748791e+000	-3.4968638508e-001
 2.8906158798e+000	 1.7900668359e+000	-3.8262603510e-001
 2.8709210869e+000	 1.8214859618e+000	-4.1522921519e-001
 2.8508604341e+000	 1.8527259292e+000	-4.4813517690e-001
 2.8304362665e+000	 1.8837804452e+000	-4.8187528515e-001
 2.8096510718e+000	 1.9146432551e+000	-5.1683809838e-001
 2.7885074799e+000	 1.9453081468e+000	-5.5323344755e-001
 2.7670082615e+000	 1.9757689547e+000	-5.9105580153e-001
 2.9889560827e+000	 1.6757673668e+000	-2.4024369959e-001
 2.9706024740e+000	 1.7080911274e+000	-2.7806724610e-001
 2.9518721289e+000	 1.7402600002e+000	-3.1282359481e-001
 2.9327668313e+000	 1.7722675285e+000	-3.4551989427e-001
 2.9132885105e+000	 1.8041072778e+000	-3.7715840114e-001
 2.8934392409e+000	 1.8357728405e+000	-4.0870419732e-001
 2.8732212418e+000	 1.8672578395e+000	-4.4105102657e-001
 2.8526368766e+000	 1.8985559325e+000	-4.7498549157e-001
 2.8316886526e+000	 1.9296608158e+000	-5.1114987478e-001
 2.8103792203e+000	 1.9605662285e+000	-5.5000386742e-001
 2.7887113722e+000	 1.9912659566e+000	-5.9178550982e-001
 3.0122175953e+000	 1.6888090049e+000	-2.3819981659e-001
 2.9937211499e+000	 1.7213843248e+000	-2.7536857152e-001
 2.9748450361e+000	 1.7538035515e+000	-3.0910207414e-001
 2.9555910517e+000	 1.7860601779e+000	-3.4062742521e-001
 2.9359611411e+000	 1.8181477197e+000	-3.7117401751e-001
 2.9159573949e+000	 1.8500597192e+000	-4.0193930740e-001
 2.8955820494e+000	 1.8817897498e+000	-4.3405256903e-001
 2.8748374867e+000	 1.9133314198e+000	-4.6853688470e-001
 2.8537262335e+000	 1.9446783765e+000	-5.0626964890e-001
 2.8322509608e+000	 1.9758243102e+000	-5.4794188542e-001
 2.8104144828e+000	 2.0067629585e+000	-5.9358703976e-001
 3.0354791079e+000	 1.7018506431e+000	-2.3554508086e-001
 3.0168398258e+000	 1.7346775222e+000	-2.7198161274e-001
 2.9978179433e+000	 1.7673471027e+000	-3.0473592585e-001
 2.9784152722e+000	 1.7998528273e+000	-3.3523593653e-001
 2.9586337718e+000	 1.8321881615e+000	-3.6491941850e-001
 2.9384755489e+000	 1.8643465979e+000	-3.9519778384e-001
 2.9179428571e+000	 1.8963216601e+000	-4.2741770359e-001
 2.8970380968e+000	 1.9281069071e+000	-4.6282083484e-001
 2.8757638143e+000	 1.9596959371e+000	-5.0250194634e-001
 2.8541227012e+000	 1.9910823918e+000	-5.4736575761e-001
 2.8321175935e+000	 2.0222599604e+000	-5.9348114216e-001
 3.0587406205e+000	 1.7148922812e+000	-2.3246001738e-001
 3.0399585016e+000	 1.7479707196e+000	-2.6811759432e-001
 3.0207908505e+000	 1.7808906540e+000	-2.9996187044e-001
 3.0012394926e+000	 1.8136454768e+000	-3.2960317437e-001
 2.9813064025e+000	 1.8462286034e+000	-3.5866967552e-001
 2.9609937029e+000	 1.8786334766e+000	-3.8876912578e-001
 2.9403036647e+000	 1.9108535705e+000	-4.2144829185e-001
 2.9192387069e+000	 1.9428823945e+000	-4.5815035857e-001
 2.8978013951e+000	 1.9747134978e+000	-5.0017061025e-001
 2.8759944416e+000	 2.0063404735e+000	-5.4824000034e-001
 2.8538207042e+000	 2.0377569623e+000	-5.9123939776e-001
 3.0820021331e+000	 1.7279339194e+000	-2.2915991432e-001
 3.0630771775e+000	 1.7612639170e+000	-2.6402019422e-001
 3.0437637577e+000	 1.7944342052e+000	-2.9504673396e-001
 3.0240637131e+000	 1.8274381262e+000	-3.2401460725e-001
 3.0039790332e+000	 1.8602690453e+000	-3.5272516718e-001
 2.9835118568e+000	 1.8929203553e+000	-3.8296569668e-001
 2.9626644724e+000	 1.9253854808e+000	-4.1646659396e-001
 2.9414393170e+000	 1.9576578818e+000	-4.5485638758e-001
 2.9198389759e+000	 1.9897310585e+000	-4.9961490373e-001
 2.8978661821e+000	 2.0215985551e+000	-5.4777423031e-001
 2.8755238149e+000	 2.0532539642e+000	-5.8735861351e-001
 3.1052636456e+000	 1.7409755575e+000	-2.2589221789e-001
 3.0861958534e+000	 1.7745571144e+000	-2.5996278504e-001
 3.0667366648e+000	 1.8079777565e+000	-2.9028453139e-001
 3.0468879335e+000	 1.8412307756e+000	-3.1878034812e-001
 3.0266516638e+000	 1.8743094872e+000	-3.4740833763e-001
 3.0060300108e+000	 1.9072072340e+000	-3.7811931714e-001
 2.9850252801e+000	 1.9399173911e+000	-4.1281169491e-001
 2.9636399271e+000	 1.9724333691e+000	-4.5328402860e-001
 2.9418765567e+000	 2.0047486192e+000	-5.0098263916e-001
 2.9197379225e+000	 2.0368566368e+000	-5.4573269038e-001
 2.8972269256e+000	 2.0687509661e+000	-5.8233488558e-001
 3.1285251582e+000	 1.7540171957e+000	-2.2293391341e-001
 3.1093145292e+000	 1.7878503118e+000	-2.5624566195e-001
 3.0897095720e+000	 1.8215213077e+000	-2.8599353740e-001
 3.0697121540e+000	 1.8550234251e+000	-3.1423206465e-001
 3.0493242945e+000	 1.8883499290e+000	-3.4306044373e-001
 3.0285481648e+000	 1.9214941128e+000	-3.7457784733e-001
 3.0073860877e+000	 1.9544493014e+000	-4.1083592156e-001
 2.9858405372e+000	 1.9872088564e+000	-4.5378881487e-001
 2.9639141376e+000	 2.0197661799e+000	-5.0176911519e-001
 2.9416096629e+000	 2.0521147185e+000	-5.4262077133e-001
 2.9189300362e+000	 2.0842479680e+000	-5.7666281347e-001
 3.1517866708e+000	 1.7670588338e+000	-2.2058889317e-001
 3.1324332051e+000	 1.8011435092e+000	-2.5319325793e-001
 3.1126824792e+000	 1.8350648590e+000	-2.8251334491e-001
 3.0925363745e+000	 1.8688160745e+000	-3.1071987790e-001
 3.0719969252e+000	 1.9023903709e+000	-3.4003829155e-001
 3.0510663188e+000	 1.9357809915e+000	-3.7270175970e-001
 3.0297468954e+000	 1.9689812117e+000	-4.1090125062e-001
 3.0080411473e+000	 2.0019843437e+000	-4.5669856348e-001
 2.9859517184e+000	 2.0347837405e+000	-5.0152830360e-001
 2.9634814034e+000	 2.0673728001e+000	-5.3894193282e-001
 2.9406331469e+000	 2.0997449699e+000	-5.7083470864e-001
 3.1750481834e+000	 1.7801004720e+000	-2.1918531199e-001
 3.1555518810e+000	 1.8144367066e+000	-2.5115134709e-001
 3.1356553864e+000	 1.8486084102e+000	-2.8020191234e-001
 3.1153605949e+000	 1.8826087239e+000	-3.0860925044e-001
 3.0946695558e+000	 1.9164308128e+000	-3.3871096289e-001
 3.0735844728e+000	 1.9500678702e+000	-3.7286070238e-001
 3.0521077031e+000	 1.9835131220e+000	-4.1337570828e-001
 3.0302417574e+000	 2.0167598311e+000	-4.6006264156e-001
 3.0079892992e+000	 2.0498013012e+000	-5.0077331527e-001
 2.9853531438e+000	 2.0826308818e+000	-5.3519694702e-001
 2.9623362576e+000	 2.1152419718e+000	-5.6533979786e-001
 3.1983096960e+000	 1.7931421101e+000	-2.1907293086e-001
 3.1786705568e+000	 1.8277299040e+000	-2.5048423651e-001
 3.1586282936e+000	 1.8621519615e+000	-2.7943259988e-001
 3.1381848154e+000	 1.8964013734e+000	-3.0827786403e-001
 3.1173421865e+000	 1.9304712547e+000	-3.3945653220e-001
 3.0961026268e+000	 1.9643547489e+000	-3.7543005381e-001
 3.0744685107e+000	 1.9980450323e+000	-4.1862976178e-001
 3.0524423675e+000	 2.0315353184e+000	-4.6295542697e-001
 3.0300268800e+000	 2.0648188619e+000	-5.0001423698e-001
 3.0072248842e+000	 2.0978889635e+000	-5.3188313639e-001
 2.9840393683e+000	 2.1307389737e+000	-5.6066342165e-001
 2.7670082615e+000	 1.9757689547e+000	-5.9105580153e-001
 2.7451563267e+000	 2.0060195626e+000	-6.3270448263e-001
 2.7229547217e+000	 2.0360539061e+000	-6.7099409280e-001
 2.7004066295e+000	 2.0658659783e+000	-7.0286293974e-001
 2.6775153696e+000	 2.0954498343e+000	-7.3082114779e-001
 2.6542843967e+000	 2.1247995951e+000	-7.5608137755e-001
 2.6307172986e+000	 2.1539094513e+000	-7.7429750601e-001
 2.6068177947e+000	 2.1827736670e+000	-7.8616284598e-001
 2.5825897342e+000	 2.2113865834e+000	-7.9337250018e-001
 2.5580370939e+000	 2.2397426226e+000	-7.9770230991e-001
 2.5331639763e+000	 2.2678362910e+000	-8.0098604302e-001
 2.7887113722e+000	 1.9912659566e+000	-5.9178550982e-001
 2.7666880411e+000	 2.0217538360e+000	-6.3448523199e-001
 2.7443122971e+000	 2.0520237548e+000	-6.6961368570e-001
 2.7215873483e+000	 2.0820696589e+000	-6.9871664658e-001
 2.6985165402e+000	 2.1118855567e+000	-7.2398464878e-001
 2.6751033544e+000	 2.1414655232e+000	-7.4751743863e-001
 2.6513514071e+000	 2.1708037034e+000	-7.6945642721e-001
 2.6272644467e+000	 2.1998943164e+000	-7.8490570014e-001
 2.6028463527e+000	 2.2287316591e+000	-7.9462593666e-001
 2.5781011331e+000	 2.2573101097e+000	-8.0001746677e-001
 2.5530329225e+000	 2.2856241316e+000	-8.0254697403e-001
 2.8104144828e+000	 2.0067629585e+000	-5.9358703976e-001
 2.7882197555e+000	 2.0374881094e+000	-6.3356322430e-001
 2.7656698726e+000	 2.0679936035e+000	-6.6594177129e-001
 2.7427680671e+000	 2.0982733394e+000	-6.9269420197e-001
 2.7195177107e+000	 2.1283212791e+000	-7.1570989329e-001
 2.6959223122e+000	 2.1581314513e+000	-7.3678582558e-001
 2.6719855156e+000	 2.1876979556e+000	-7.5761666696e-001
 2.6477110988e+000	 2.2170149659e+000	-7.7694924634e-001
 2.6231029713e+000	 2.2460767348e+000	-7.8977717370e-001
 2.5981651723e+000	 2.2748775969e+000	-7.9692293976e-001
 2.5729018686e+000	 2.3034119723e+000	-7.9950210211e-001
 2.8321175935e+000	 2.0222599604e+000	-5.9348114216e-001
 2.8097514699e+000	 2.0532223829e+000	-6.3042448425e-001
 2.7870274480e+000	 2.0839634522e+000	-6.6045283218e-001
 2.7639487859e+000	 2.1144770200e+000	-6.8525655277e-001
 2.7405188813e+000	 2.1447570015e+000	-7.0644197625e-001
 2.7167412699e+000	 2.1747973795e+000	-7.2552123385e-001
 2.6926196241e+000	 2.2045922077e+000	-7.4390244461e-001
 2.6681577508e+000	 2.2341356153e+000	-7.6288032655e-001
 2.6433595898e+000	 2.2634218105e+000	-7.7938699102e-001
 2.6182292115e+000	 2.2924450840e+000	-7.8896496639e-001
 2.5927708148e+000	 2.3211998129e+000	-7.9237791330e-001
 2.8538207042e+000	 2.0377569623e+000	-5.9123939776e-001
 2.8312831843e+000	 2.0689566563e+000	-6.2555570731e-001
 2.8083850235e+000	 2.0999333008e+000	-6.5362192013e-001
 2.7851295047e+000	 2.1306807005e+000	-6.7686520083e-001
 2.7615200518e+000	 2.1611927239e+000	-6.9662663713e-001
 2.7375602276e+000	 2.1914633076e+000	-7.1415111989e-001
 2.7132537326e+000	 2.2214864598e+000	-7.3057758537e-001
 2.6886044029e+000	 2.2512562648e+000	-7.4692969718e-001
 2.6636162084e+000	 2.2807668862e+000	-7.6403396093e-001
 2.6382932507e+000	 2.3100125711e+000	-7.7670764262e-001
 2.6126397609e+000	 2.3389876536e+000	-7.8171902812e-001
 2.8755238149e+000	 2.0532539642e+000	-5.8735861351e-001
 2.8528148987e+000	 2.0846909297e+000	-6.1944344291e-001
 2.8297425989e+000	 2.1159031495e+000	-6.4592379519e-001
 2.8063102236e+000	 2.1468843811e+000	-6.6798129630e-001
 2.7825212224e+000	 2.1776284463e+000	-6.8670930531e-001
 2.7583791854e+000	 2.2081292357e+000	-7.0310278917e-001
 2.7338878411e+000	 2.2383807119e+000	-7.1804857289e-001
 2.7090510549e+000	 2.2683769142e+000	-7.3231604548e-001
 2.6838728269e+000	 2.2981119619e+000	-7.4654840081e-001
 2.6583572899e+000	 2.3275800583e+000	-7.6073018285e-001
 2.6325087071e+000	 2.3567754942e+000	-7.6808533573e-001
 2.8972269256e+000	 2.0687509661e+000	-5.8233488558e-001
 2.8743466130e+000	 2.1004252032e+000	-6.1257327246e-001
 2.8511001744e+000	 2.1318729982e+000	-6.3783206053e-001
 2.8274909424e+000	 2.1630880617e+000	-6.5906472769e-001
 2.8035223929e+000	 2.1940641687e+000	-6.7713414352e-001
 2.7791981431e+000	 2.2247951638e+000	-6.9280239053e-001
 2.7545219496e+000	 2.2552749641e+000	-7.0672097450e-001
 2.7294977070e+000	 2.2854975637e+000	-7.1942150724e-001
 2.7041294454e+000	 2.3154570376e+000	-7.3130694385e-001
 2.6784213290e+000	 2.3451475454e+000	-7.4264345394e-001
 2.6523776532e+000	 2.3745633349e+000	-7.5204913708e-001
 2.9189300362e+000	 2.0842479680e+000	-5.7666281347e-001
 2.8958783274e+000	 2.1161594766e+000	-6.0542898230e-001
 2.8724577498e+000	 2.1478428469e+000	-6.2981829325e-001
 2.8486716612e+000	 2.1792917422e+000	-6.5057320906e-001
 2.8245235635e+000	 2.2104998912e+000	-6.6834308937e-001
 2.8000171008e+000	 2.2414610919e+000	-6.8367390991e-001
 2.7751560581e+000	 2.2721692162e+000	-6.9699838461e-001
 2.7499443590e+000	 2.3026182132e+000	-7.0862657760e-001
 2.7243860640e+000	 2.3328021133e+000	-7.1873709022e-001
 2.6984853682e+000	 2.3627150325e+000	-7.2736890540e-001
 2.6722465994e+000	 2.3923511755e+000	-7.3441396908e-001
 2.9406331469e+000	 2.0997449699e+000	-5.7083470864e-001
 2.9174100418e+000	 2.1318937500e+000	-5.9849173203e-001
 2.8938153252e+000	 2.1638126956e+000	-6.2235117133e-001
 2.8698523800e+000	 2.1954954228e+000	-6.4296136417e-001
 2.8455247340e+000	 2.2269356136e+000	-6.6077489514e-001
 2.8208360586e+000	 2.2581270200e+000	-6.7613816355e-001
 2.7957901666e+000	 2.2890634683e+000	-6.8928136877e-001
 2.7703910110e+000	 2.3197388626e+000	-7.0030900336e-001
 2.7446426825e+000	 2.3501471890e+000	-7.0919094253e-001
 2.7185494074e+000	 2.3802825197e+000	-7.1575421576e-001
 2.6921155456e+000	 2.4101390162e+000	-7.1967554316e-001
 2.9623362576e+000	 2.1152419718e+000	-5.6533979786e-001
 2.9389417562e+000	 2.1476280235e+000	-5.9223921836e-001
 2.9151729007e+000	 2.1797825443e+000	-6.1589559696e-001
 2.8910330989e+000	 2.2116991033e+000	-6.3667980808e-001
 2.8665259046e+000	 2.2433713360e+000	-6.5486416581e-001
 2.8416550163e+000	 2.2747929482e+000	-6.7061179061e-001
 2.8164242751e+000	 2.3059577205e+000	-6.8396640863e-001
 2.7908376631e+000	 2.3368595121e+000	-6.9484267742e-001
 2.7648993011e+000	 2.3674922647e+000	-7.0301713025e-001
 2.7386134466e+000	 2.3978500068e+000	-7.0811982837e-001
 2.7119844917e+000	 2.4279268568e+000	-7.0962680711e-001
 2.9840393683e+000	 2.1307389737e+000	-5.6066342165e-001
 2.9604734706e+000	 2.1633622969e+000	-5.8714483469e-001
 2.9365304761e+000	 2.1957523930e+000	-6.1091181642e-001
 2.9122138177e+000	 2.2279027839e+000	-6.3217422606e-001
 2.8875270751e+000	 2.2598070584e+000	-6.5104039559e-001
 2.8624739740e+000	 2.2914588763e+000	-6.6750624538e-001
 2.8370583836e+000	 2.3228519726e+000	-6.8144484759e-001
 2.8112843151e+000	 2.3539801615e+000	-6.9259653550e-001
 2.7851559196e+000	 2.3848373405e+000	-7.0055965455e-001
 2.7586774858e+000	 2.4154174939e+000	-7.0478204819e-001
 2.7318534379e+000	 2.4457146975e+000	-7.0455336814e-001
 2.5331639763e+000	 2.2678362910e+000	-8.0098604302e-001
 2.5079784091e+000	 2.2956580300e+000	-8.0917834245e-001
 2.4824810320e+000	 2.3232067631e+000	-8.2536533224e-001
 2.4566763103e+000	 2.3504772753e+000	-8.4715607509e-001
 2.4305688249e+000	 2.3774644495e+000	-8.7221392907e-001
 2.4041632699e+000	 2.4041632699e+000	-8.9824095730e-001
 2.3774644495e+000	 2.4305688249e+000	-9.2296265516e-001
 2.3504772753e+000	 2.4566763103e+000	-9.4411318882e-001
 2.3232067631e+000	 2.4824810320e+000	-9.5942133360e-001
 2.2956580300e+000	 2.5079784091e+000	-9.6659729257e-001
 2.2678362910e+000	 2.5331639763e+000	-9.6332056706e-001
 2.5530329225e+000	 2.2856241316e+000	-8.0254697403e-001
 2.5276498115e+000	 2.3136640913e+000	-8.0856181590e-001
 2.5019524450e+000	 2.3414289037e+000	-8.2200252709e-001
 2.4759453232e+000	 2.3689133129e+000	-8.4080585246e-001
 2.4496330630e+000	 2.3961121619e+000	-8.6295532869e-001
 2.4230203952e+000	 2.4230203952e+000	-8.8646389063e-001
 2.3961121619e+000	 2.4496330630e+000	-9.0935683905e-001
 2.3689133129e+000	 2.4759453232e+000	-9.2965537637e-001
 2.3414289037e+000	 2.5019524450e+000	-9.4536091044e-001
 2.3136640913e+000	 2.5276498115e+000	-9.5444031866e-001
 2.2856241316e+000	 2.5530329225e+000	-9.5481235464e-001
 2.5729018686e+000	 2.3034119723e+000	-7.9950210211e-001
 2.5473212140e+000	 2.3316701525e+000	-8.0417256814e-001
 2.5214238580e+000	 2.3596510443e+000	-8.1562491572e-001
 2.4952143361e+000	 2.3873493506e+000	-8.3210580301e-001
 2.4686973011e+000	 2.4147598742e+000	-8.5190127749e-001
 2.4418775206e+000	 2.4418775206e+000	-8.7331754036e-001
 2.4147598742e+000	 2.4686973011e+000	-8.9466211787e-001
 2.3873493506e+000	 2.4952143361e+000	-9.1422565903e-001
 2.3596510443e+000	 2.5214238580e+000	-9.3026457206e-001
 2.3316701525e+000	 2.5473212140e+000	-9.4098470381e-001
 2.3034119723e+000	 2.5729018686e+000	-9.4452625570e-001
 2.5927708148e+000	 2.3211998129e+000	-7.9237791330e-001
 2.5669926164e+000	 2.3496762138e+000	-7.9651673971e-001
 2.5408952710e+000	 2.3778731848e+000	-8.0672281896e-001
 2.5144833490e+000	 2.4057853882e+000	-8.2153551961e-001
 2.4877615391e+000	 2.4334075865e+000	-8.3952628298e-001
 2.4607346459e+000	 2.4607346459e+000	-8.5927750415e-001
 2.4334075865e+000	 2.4877615391e+000	-8.7936186713e-001
 2.4057853882e+000	 2.5144833490e+000	-8.9832236654e-001
 2.3778731848e+000	 2.5408952710e+000	-9.1465324142e-001
 2.3496762138e+000	 2.5669926164e+000	-9.2678203735e-001
 2.3211998129e+000	 2.5927708148e+000	-9.3305300235e-001
 2.6126397609e+000	 2.3389876536e+000	-7.8171902812e-001
 2.5866640188e+000	 2.3676822751e+000	-7.8611896929e-001
 2.5603666840e+000	 2.3960953254e+000	-7.9580536862e-001
 2.5337523619e+000	 2.4242214259e+000	-8.0959366775e-001
 2.5068257772e+000	 2.4520552989e+000	-8.2632413513e-001
 2.4795917712e+000	 2.4795917712e+000	-8.4483881928e-001
 2.4520552989e+000	 2.5068257772e+000	-8.6395900501e-001
 2.4242214259e+000	 2.5337523619e+000	-8.8246341861e-001
 2.3960953254e+000	 2.5603666840e+000	-8.9906742083e-001
 2.3676822751e+000	 2.5866640188e+000	-9.1240341670e-001
 2.3389876536e+000	 2.6126397609e+000	-9.2100269970e-001
 2.6325087071e+000	 2.3567754942e+000	-7.6808533573e-001
 2.6063354212e+000	 2.3856883364e+000	-7.7351940364e-001
 2.5798380970e+000	 2.4143174660e+000	-7.8339740084e-001
 2.5530213748e+000	 2.4426574635e+000	-7.9679477057e-001
 2.5258900153e+000	 2.4707030112e+000	-8.1280459185e-001
 2.4984488965e+000	 2.4984488965e+000	-8.3051255786e-001
 2.4707030112e+000	 2.5258900153e+000	-8.4897250743e-001
 2.4426574635e+000	 2.5530213748e+000	-8.6718277038e-001
 2.4143174660e+000	 2.5798380970e+000	-8.8406357890e-001
 2.3856883364e+000	 2.6063354212e+000	-8.9843578749e-001
 2.3567754942e+000	 2.6325087071e+000	-9.0900113140e-001
 2.6523776532e+000	 2.3745633349e+000	-7.5204913708e-001
 2.6260068236e+000	 2.4036943977e+000	-7.5927071922e-001
 2.5993095100e+000	 2.4325396066e+000	-7.7003636342e-001
 2.5722903877e+000	 2.4610935011e+000	-7.8366600966e-001
 2.5449542533e+000	 2.4893507235e+000	-7.9949008193e-001
 2.5173060218e+000	 2.5173060218e+000	-8.1682244107e-001
 2.4893507235e+000	 2.5449542533e+000	-8.3493394320e-001
 2.4610935011e+000	 2.5722903877e+000	-8.5302687874e-001
 2.4325396066e+000	 2.5993095100e+000	-8.7021055885e-001
 2.4036943977e+000	 2.6260068236e+000	-8.8547830525e-001
 2.3745633349e+000	 2.6523776532e+000	-8.9768608640e-001
 2.6722465994e+000	 2.3923511755e+000	-7.3441396908e-001
 2.6456782260e+000	 2.4217004589e+000	-7.4393515474e-001
 2.6187809230e+000	 2.4507617471e+000	-7.5626923605e-001
 2.5915594006e+000	 2.4795295388e+000	-7.7074404092e-001
 2.5640184914e+000	 2.5079984359e+000	-7.8691242456e-001
 2.5361631471e+000	 2.5361631471e+000	-8.0430147129e-001
 2.5079984359e+000	 2.5640184914e+000	-8.2238402813e-001
 2.4795295388e+000	 2.5915594006e+000	-8.4055118842e-001
 2.4507617471e+000	 2.6187809230e+000	-8.5808600705e-001
 2.4217004589e+000	 2.6456782260e+000	-8.7413871730e-001
 2.3923511755e+000	 2.6722465994e+000	-8.8764336861e-001
 2.6921155456e+000	 2.4101390162e+000	-7.1967554316e-001
 2.6653496285e+000	 2.4397065202e+000	-7.2808155416e-001
 2.6382523360e+000	 2.4689838877e+000	-7.4264946317e-001
 2.6108284135e+000	 2.4979655764e+000	-7.5857182452e-001
 2.5830827295e+000	 2.5266461482e+000	-7.7560956466e-001
 2.5550202725e+000	 2.5550202725e+000	-7.9348858126e-001
 2.5266461482e+000	 2.5830827295e+000	-8.1186919724e-001
 2.4979655764e+000	 2.6108284135e+000	-8.3031663689e-001
 2.4689838877e+000	 2.6382523360e+000	-8.4827282074e-001
 2.4397065202e+000	 2.6653496285e+000	-8.6502976400e-001
 2.4101390162e+000	 2.6921155456e+000	-8.7852870526e-001
 2.7119844917e+000	 2.4279268568e+000	-7.0962680711e-001
 2.6850210309e+000	 2.4577125815e+000	-7.1456935924e-001
 2.6577237489e+000	 2.4872060283e+000	-7.2973389848e-001
 2.6300974264e+000	 2.5164016141e+000	-7.4769546840e-001
 2.6021469675e+000	 2.5452938605e+000	-7.6612232310e-001
 2.5738773978e+000	 2.5738773978e+000	-7.8492529942e-001
 2.5452938605e+000	 2.6021469675e+000	-8.0393819407e-001
 2.5164016141e+000	 2.6300974264e+000	-8.2288617700e-001
 2.4872060283e+000	 2.6577237489e+000	-8.4135561397e-001
 2.4577125815e+000	 2.6850210309e+000	-8.5814963660e-001
 2.4279268568e+000	 2.7119844917e+000	-8.7087021272e-001
 2.7318534379e+000	 2.4457146975e+000	-7.0455336814e-001
 2.7046924333e+000	 2.4757186428e+000	-7.0674742157e-001
 2.6771951619e+000	 2.5054281689e+000	-7.1879732347e-001
 2.6493664393e+000	 2.5348376517e+000	-7.3866108455e-001
 2.6212112056e+000	 2.5639415729e+000	-7.5899116110e-001
 2.5927345231e+000	 2.5927345231e+000	-7.7915243060e-001
 2.5639415729e+000	 2.6212112056e+000	-7.9913867626e-001
 2.5348376517e+000	 2.6493664393e+000	-8.1882131658e-001
 2.5054281689e+000	 2.6771951619e+000	-8.3771560348e-001
 2.4757186428e+000	 2.7046924333e+000	-8.5347708560e-001
 2.4457146975e+000	 2.7318534379e+000	-8.6557106721e-001
 2.2678362910e+000	 2.5331639763e+000	-9.6332056706e-001
 2.2397426226e+000	 2.5580370939e+000	-9.5160460275e-001
 2.2113865834e+000	 2.5825897342e+000	-9.3673080281e-001
 2.1827736670e+000	 2.6068177947e+000	-9.2108565782e-001
 2.1539094513e+000	 2.6307172986e+000	-9.0682926143e-001
 2.1247995951e+000	 2.6542843967e+000	-8.9588245843e-001
 2.0954498343e+000	 2.6775153696e+000	-8.8970237491e-001
 2.0658659783e+000	 2.7004066295e+000	-8.8871932249e-001
 2.0360539061e+000	 2.7229547217e+000	-8.9520002324e-001
 2.0060195626e+000	 2.7451563267e+000	-9.1170010295e-001
 1.9757689547e+000	 2.7670082615e+000	-9.1945777033e-001
 2.2856241316e+000	 2.5530329225e+000	-9.5481235464e-001
 2.2573101097e+000	 2.5781011331e+000	-9.4759279828e-001
 2.2287316591e+000	 2.6028463527e+000	-9.3664348963e-001
 2.1998943164e+000	 2.6272644467e+000	-9.2379709827e-001
 2.1708037034e+000	 2.6513514071e+000	-9.1066219409e-001
 2.1414655232e+000	 2.6751033544e+000	-8.9847534453e-001
 2.1118855567e+000	 2.6985165402e+000	-8.8719064855e-001
 2.0820696589e+000	 2.7215873483e+000	-8.7852959815e-001
 2.0520237548e+000	 2.7443122971e+000	-8.7471121631e-001
 2.0217538360e+000	 2.7666880411e+000	-8.7792335832e-001
 1.9912659566e+000	 2.7887113722e+000	-8.8756688781e-001
 2.3034119723e+000	 2.5729018686e+000	-9.4452625570e-001
 2.2748775969e+000	 2.5981651723e+000	-9.4126022647e-001
 2.2460767348e+000	 2.6231029713e+000	-9.3380199774e-001
 2.2170149659e+000	 2.6477110988e+000	-9.2344185272e-001
 2.1876979556e+000	 2.6719855156e+000	-9.1119165766e-001
 2.1581314513e+000	 2.6959223122e+000	-8.9662400318e-001
 2.1283212791e+000	 2.7195177107e+000	-8.8079422711e-001
 2.0982733394e+000	 2.7427680671e+000	-8.6556461069e-001
 2.0679936035e+000	 2.7656698726e+000	-8.5278432197e-001
 2.0374881094e+000	 2.7882197555e+000	-8.4428690480e-001
 2.0067629585e+000	 2.8104144828e+000	-8.4188772800e-001
 2.3211998129e+000	 2.5927708148e+000	-9.3305300235e-001
 2.2924450840e+000	 2.6182292115e+000	-9.3323844791e-001
 2.2634218105e+000	 2.6433595898e+000	-9.2887309878e-001
 2.2341356153e+000	 2.6681577508e+000	-9.2071154938e-001
 2.2045922077e+000	 2.6926196241e+000	-9.0811670265e-001
 2.1747973795e+000	 2.7167412699e+000	-8.9132515014e-001
 2.1447570015e+000	 2.7405188813e+000	-8.7182515635e-001
 2.1144770200e+000	 2.7639487859e+000	-8.5110830936e-001
 2.0839634522e+000	 2.7870274480e+000	-8.3066760937e-001
 2.0532223829e+000	 2.8097514699e+000	-8.1199547064e-001
 2.0222599604e+000	 2.8321175935e+000	-7.9658164845e-001
 2.3389876536e+000	 2.6126397609e+000	-9.2100269970e-001
 2.3100125711e+000	 2.6382932507e+000	-9.2417841152e-001
 2.2807668862e+000	 2.6636162084e+000	-9.2254334622e-001
 2.2512562648e+000	 2.6886044029e+000	-9.1545129638e-001
 2.2214864598e+000	 2.7132537326e+000	-9.0219213630e-001
 2.1914633076e+000	 2.7375602276e+000	-8.8384584441e-001
 2.1611927239e+000	 2.7615200518e+000	-8.6153035188e-001
 2.1306807005e+000	 2.7851295047e+000	-8.3638043880e-001
 2.0999333008e+000	 2.8083850235e+000	-8.0954634902e-001
 2.0689566563e+000	 2.8312831843e+000	-7.8219228383e-001
 2.0377569623e+000	 2.8538207042e+000	-7.5549478595e-001
 2.3567754942e+000	 2.6325087071e+000	-9.0900113140e-001
 2.3275800583e+000	 2.6583572899e+000	-9.1474672993e-001
 2.2981119619e+000	 2.6838728269e+000	-9.1495443776e-001
 2.2683769142e+000	 2.7090510549e+000	-9.0806562427e-001
 2.2383807119e+000	 2.7338878411e+000	-8.9463326009e-001
 2.2081292357e+000	 2.7583791854e+000	-8.7538834861e-001
 2.1776284463e+000	 2.7825212224e+000	-8.5109254078e-001
 2.1468843811e+000	 2.8063102236e+000	-8.2253741983e-001
 2.1159031495e+000	 2.8297425989e+000	-7.9054362080e-001
 2.0846909297e+000	 2.8528148987e+000	-7.5595979495e-001
 2.0532539642e+000	 2.8755238149e+000	-7.1966142998e-001
 2.3745633349e+000	 2.6523776532e+000	-8.9768608640e-001
 2.3451475454e+000	 2.6784213290e+000	-9.0535528485e-001
 2.3154570376e+000	 2.7041294454e+000	-9.0607832034e-001
 2.2854975637e+000	 2.7294977070e+000	-8.9971244940e-001
 2.2552749641e+000	 2.7545219496e+000	-8.8659126725e-001
 2.2247951638e+000	 2.7791981431e+000	-8.6709114324e-001
 2.1940641687e+000	 2.8035223929e+000	-8.4163122849e-001
 2.1630880617e+000	 2.8274909424e+000	-8.1067325764e-001
 2.1318729982e+000	 2.8511001744e+000	-7.7472115196e-001
 2.1004252032e+000	 2.8743466130e+000	-7.3432043316e-001
 2.0687509661e+000	 2.8972269256e+000	-6.9005745915e-001
 2.3923511755e+000	 2.6722465994e+000	-8.8764336861e-001
 2.3627150325e+000	 2.6984853682e+000	-8.9568617661e-001
 2.3328021133e+000	 2.7243860640e+000	-8.9699108628e-001
 2.3026182132e+000	 2.7499443590e+000	-8.9148657393e-001
 2.2721692162e+000	 2.7751560581e+000	-8.7915431488e-001
 2.2414610919e+000	 2.8000171008e+000	-8.6002996347e-001
 2.2104998912e+000	 2.8245235635e+000	-8.3420368957e-001
 2.1792917422e+000	 2.8486716612e+000	-8.0182047598e-001
 2.1478428469e+000	 2.8724577498e+000	-7.6308018360e-001
 2.1161594766e+000	 2.8958783274e+000	-7.1823739362e-001
 2.0842479680e+000	 2.9189300362e+000	-6.6760103790e-001
 2.4101390162e+000	 2.6921155456e+000	-8.7852870526e-001
 2.3802825197e+000	 2.7185494074e+000	-8.8662288224e-001
 2.3501471890e+000	 2.7446426825e+000	-8.8872681880e-001
 2.3197388626e+000	 2.7703910110e+000	-8.8442080257e-001
 2.2890634683e+000	 2.7957901666e+000	-8.7334861610e-001
 2.2581270200e+000	 2.8208360586e+000	-8.5521885690e-001
 2.2269356136e+000	 2.8455247340e+000	-8.2980598126e-001
 2.1954954228e+000	 2.8698523800e+000	-7.9695107593e-001
 2.1638126956e+000	 2.8938153252e+000	-7.5656236405e-001
 2.1318937500e+000	 2.9174100418e+000	-7.0861545455e-001
 2.0997449699e+000	 2.9406331469e+000	-6.5315334608e-001
 2.4279268568e+000	 2.7119844917e+000	-8.7087021272e-001
 2.3978500068e+000	 2.7386134466e+000	-8.7913533854e-001
 2.3674922647e+000	 2.7648993011e+000	-8.8225889228e-001
 2.3368595121e+000	 2.7908376631e+000	-8.7948707764e-001
 2.3059577205e+000	 2.8164242751e+000	-8.7013955129e-001
 2.2747929482e+000	 2.8416550163e+000	-8.5361126159e-001
 2.2433713360e+000	 2.8665259046e+000	-8.2937397849e-001
 2.2116991033e+000	 2.8910330989e+000	-7.9697751808e-001
 2.1797825443e+000	 2.9151729007e+000	-7.5605066799e-001
 2.1476280235e+000	 2.9389417562e+000	-7.0630182265e-001
 2.1152419718e+000	 2.9623362576e+000	-6.4751933985e-001
 2.4457146975e+000	 2.7318534379e+000	-8.6557106721e-001
 2.4154174939e+000	 2.7586774858e+000	-8.7413427247e-001
 2.3848373405e+000	 2.7851559196e+000	-8.7850113905e-001
 2.3539801615e+000	 2.8112843151e+000	-8.7759763151e-001
 2.3228519726e+000	 2.8370583836e+000	-8.7043279727e-001
 2.2914588763e+000	 2.8624739740e+000	-8.5610110300e-001
 2.2598070584e+000	 2.8875270751e+000	-8.3378442932e-001
 2.2279027839e+000	 2.9122138177e+000	-8.0275372683e-001
 2.1957523930e+000	 2.9365304761e+000	-7.6237033964e-001
 2.1633622969e+000	 2.9604734706e+000	-7.1208700522e-001
 2.1307389737e+000	 2.9840393683e+000	-6.5144854233e-001
 1.9757689547e+000	 2.7670082615e+000	-9.1945777033e-001
 1.9453081468e+000	 2.7885074799e+000	-9.0065035227e-001
 1.9146432551e+000	 2.8096510718e+000	-8.7863273184e-001
 1.8837804452e+000	 2.8304362665e+000	-8.5377743464e-001
 1.8527259292e+000	 2.8508604341e+000	-8.2677573009e-001
 1.8214859618e+000	 2.8709210869e+000	-7.9860245207e-001
 1.7900668359e+000	 2.8906158798e+000	-7.7048128209e-001
 1.7584748791e+000	 2.9099426108e+000	-7.4385070806e-001
 1.7267164490e+000	 2.9288992217e+000	-7.2033085765e-001
 1.6947979300e+000	 2.9474837982e+000	-7.0169138982e-001
 1.6627257286e+000	 2.9656945701e+000	-6.8982061262e-001
 1.9912659566e+000	 2.7887113722e+000	-8.8756688781e-001
 1.9605662285e+000	 2.8103792203e+000	-8.8260273670e-001
 1.9296608158e+000	 2.8316886526e+000	-8.7126152236e-001
 1.8985559325e+000	 2.8526368766e+000	-8.5437415582e-001
 1.8672578395e+000	 2.8732212418e+000	-8.3308516142e-001
 1.8357728405e+000	 2.8934392409e+000	-8.0881526794e-001
 1.8041072778e+000	 2.9132885105e+000	-7.8322455427e-001
 1.7722675285e+000	 2.9327668313e+000	-7.5817637270e-001
 1.7402600002e+000	 2.9518721289e+000	-7.3570225747e-001
 1.7080911274e+000	 2.9706024740e+000	-7.1796801055e-001
 1.6757673668e+000	 2.9889560827e+000	-7.0724113936e-001
 2.0067629585e+000	 2.8104144828e+000	-8.4188772800e-001
 1.9758243102e+000	 2.8322509608e+000	-8.5126059951e-001
 1.9446783765e+000	 2.8537262335e+000	-8.5250844862e-001
 1.9133314198e+000	 2.8748374867e+000	-8.4525663729e-001
 1.8817897498e+000	 2.8955820494e+000	-8.3108309727e-001
 1.8500597192e+000	 2.9159573949e+000	-8.1183531590e-001
 1.8181477197e+000	 2.9359611411e+000	-7.8959131463e-001
 1.7860601779e+000	 2.9555910517e+000	-7.6662150933e-001
 1.7538035515e+000	 2.9748450361e+000	-7.4535166931e-001
 1.7213843248e+000	 2.9937211499e+000	-7.2832717510e-001
 1.6888090049e+000	 3.0122175953e+000	-7.1817875705e-001
 2.0222599604e+000	 2.8321175935e+000	-7.9658164845e-001
 1.9910823918e+000	 2.8541227012e+000	-8.0792333724e-001
 1.9596959371e+000	 2.8757638143e+000	-8.2360925133e-001
 1.9281069071e+000	 2.8970380968e+000	-8.2761089400e-001
 1.8963216601e+000	 2.9179428571e+000	-8.2192058761e-001
 1.8643465979e+000	 2.9384755489e+000	-8.0879423839e-001
 1.8321881615e+000	 2.9586337718e+000	-7.9071011589e-001
 1.7998528273e+000	 2.9784152722e+000	-7.7032862081e-001
 1.7673471027e+000	 2.9978179433e+000	-7.5045326789e-001
 1.7346775222e+000	 3.0168398258e+000	-7.3399309204e-001
 1.7018506431e+000	 3.0354791079e+000	-7.2392666713e-001
 2.0377569623e+000	 2.8538207042e+000	-7.5549478595e-001
 2.0063404735e+000	 2.8759944416e+000	-7.5531629421e-001
 1.9747134978e+000	 2.8978013951e+000	-7.8580254070e-001
 1.9428823945e+000	 2.9192387069e+000	-8.0262552170e-001
 1.9108535705e+000	 2.9403036647e+000	-8.0675063933e-001
 1.8786334766e+000	 2.9609937029e+000	-8.0082466670e-001
 1.8462286034e+000	 2.9813064025e+000	-7.8770917812e-001
 1.8136454768e+000	 3.0012394926e+000	-7.7043819318e-001
 1.7808906540e+000	 3.0207908505e+000	-7.5217715490e-001
 1.7479707196e+000	 3.0399585016e+000	-7.3618345883e-001
 1.7148922812e+000	 3.0587406205e+000	-7.2576873017e-001
 2.0532539642e+000	 2.8755238149e+000	-7.1966142998e-001
 2.0215985551e+000	 2.8978661821e+000	-7.0687227758e-001
 1.9897310585e+000	 2.9198389759e+000	-7.4032896337e-001
 1.9576578818e+000	 2.9414393170e+000	-7.7149077016e-001
 1.9253854808e+000	 2.9626644724e+000	-7.8672721345e-001
 1.8929203553e+000	 2.9835118568e+000	-7.8905916049e-001
 1.8602690453e+000	 3.0039790332e+000	-7.8171528984e-001
 1.8274381262e+000	 3.0240637131e+000	-7.6808757808e-001
 1.7944342052e+000	 3.0437637577e+000	-7.5168824297e-001
 1.7612639170e+000	 3.0630771775e+000	-7.3610836852e-001
 1.7279339194e+000	 3.0820021331e+000	-7.2497841695e-001
 2.0687509661e+000	 2.8972269256e+000	-6.9005745915e-001
 2.0368566368e+000	 2.9197379225e+000	-6.6635664566e-001
 2.0047486192e+000	 2.9418765567e+000	-6.8921166416e-001
 1.9724333691e+000	 2.9636399271e+000	-7.3539766161e-001
 1.9399173911e+000	 2.9850252801e+000	-7.6300426898e-001
 1.9072072340e+000	 3.0060300108e+000	-7.7462919483e-001
 1.8743094872e+000	 3.0266516638e+000	-7.7385275635e-001
 1.8412307756e+000	 3.0468879335e+000	-7.6440992142e-001
 1.8079777565e+000	 3.0667366648e+000	-7.5014518439e-001
 1.7745571144e+000	 3.0861958534e+000	-7.3496925860e-001
 1.7409755575e+000	 3.1052636456e+000	-7.2281779814e-001
 2.0842479680e+000	 2.9189300362e+000	-6.6760103790e-001
 2.0521147185e+000	 2.9416096629e+000	-6.3464533257e-001
 2.0197661799e+000	 2.9639141376e+000	-6.4476206474e-001
 1.9872088564e+000	 2.9858405372e+000	-6.9553715210e-001
 1.9544493014e+000	 3.0073860877e+000	-7.3673485111e-001
 1.9214941128e+000	 3.0285481648e+000	-7.5866419202e-001
 1.8883499290e+000	 3.0493242945e+000	-7.6524239296e-001
 1.8550234251e+000	 3.0697121540e+000	-7.6053313611e-001
 1.8215213077e+000	 3.0897095720e+000	-7.4869934212e-001
 1.7878503118e+000	 3.1093145292e+000	-7.3395789963e-001
 1.7540171957e+000	 3.1285251582e+000	-7.2053657060e-001
 2.0997449699e+000	 2.9406331469e+000	-6.5315334608e-001
 2.0673728001e+000	 2.9634814034e+000	-6.1255869201e-001
 2.0347837405e+000	 2.9859517184e+000	-6.1145719620e-001
 2.0019843437e+000	 3.0080411473e+000	-6.5323196717e-001
 1.9689812117e+000	 3.0297468954e+000	-7.0907022129e-001
 1.9357809915e+000	 3.0510663188e+000	-7.4229059612e-001
 1.9023903709e+000	 3.0719969252e+000	-7.5700056067e-001
 1.8688160745e+000	 3.0925363745e+000	-7.5757891648e-001
 1.8350648590e+000	 3.1126824792e+000	-7.4849380094e-001
 1.8011435092e+000	 3.1324332051e+000	-7.3425542188e-001
 1.7670588338e+000	 3.1517866708e+000	-7.1937111845e-001
 2.1152419718e+000	 2.9623362576e+000	-6.4751933985e-001
 2.0826308818e+000	 2.9853531438e+000	-6.0086217354e-001
 2.0498013012e+000	 3.0079892992e+000	-5.9003546774e-001
 2.0167598311e+000	 3.0302417574e+000	-6.1862721465e-001
 1.9835131220e+000	 3.0521077031e+000	-6.8115902719e-001
 1.9500678702e+000	 3.0735844728e+000	-7.2663098779e-001
 1.9164308128e+000	 3.0946695558e+000	-7.5023824223e-001
 1.8826087239e+000	 3.1153605949e+000	-7.5666179225e-001
 1.8486084102e+000	 3.1356553864e+000	-7.5066241678e-001
 1.8144367066e+000	 3.1555518810e+000	-7.3703137767e-001
 1.7801004720e+000	 3.1750481834e+000	-7.2054360702e-001
 2.1307389737e+000	 2.9840393683e+000	-6.5144854233e-001
 2.0978889635e+000	 3.0072248842e+000	-6.0026703130e-001
 2.0648188619e+000	 3.0300268800e+000	-5.8118202400e-001
 2.0315353184e+000	 3.0524423675e+000	-5.9796487312e-001
 1.9980450323e+000	 3.0744685107e+000	-6.5414651045e-001
 1.9643547489e+000	 3.0961026268e+000	-7.1280323758e-001
 1.9304712547e+000	 3.1173421865e+000	-7.4606015645e-001
 1.8964013734e+000	 3.1381848154e+000	-7.5888822011e-001
 1.8621519615e+000	 3.1586282936e+000	-7.5632890209e-001
 1.8277299040e+000	 3.1786705568e+000	-7.4344283799e-001
 1.7931421101e+000	 3.1983096960e+000	-7.2526110810e-001
 1.6627257286e+000	 2.9656945701e+000	-6.8982061262e-001
 1.6305111137e+000	 2.9835272650e+000	-6.7544380516e-001
 1.5981557240e+000	 3.0009831633e+000	-6.5030298935e-001
 1.5656660084e+000	 3.0180609300e+000	-6.1786160723e-001
 1.5330484222e+000	 3.0347593738e+000	-5.8152921705e-001
 1.5003094234e+000	 3.0510774461e+000	-5.4463684547e-001
 1.4674554686e+000	 3.0670142412e+000	-5.1041435856e-001
 1.4344930095e+000	 3.0825689947e+000	-4.8196989862e-001
 1.4014284891e+000	 3.0977410833e+000	-4.6227141539e-001
 1.3682683376e+000	 3.1125300238e+000	-4.5413030386e-001
 1.3350189692e+000	 3.1269354717e+000	-4.6018714394e-001
 1.6757673668e+000	 2.9889560827e+000	-7.0724113936e-001
 1.6433000755e+000	 3.0069286489e+000	-6.9411721075e-001
 1.6106909054e+000	 3.0245214630e+000	-6.6973249411e-001
 1.5779463558e+000	 3.0417331797e+000	-6.3721426227e-001
 1.5450729326e+000	 3.0585625982e+000	-5.9965287460e-001
 1.5120771445e+000	 3.0750086618e+000	-5.6007678965e-001
 1.4789654987e+000	 3.0910704576e+000	-5.2142966503e-001
 1.4457444976e+000	 3.1067472152e+000	-4.8654959151e-001
 1.4124206346e+000	 3.1220383066e+000	-4.5815048934e-001
 1.3790003905e+000	 3.1369432446e+000	-4.3880567746e-001
 1.3454902298e+000	 3.1514616820e+000	-4.3093360894e-001
 1.6888090049e+000	 3.0122175953e+000	-7.1817875705e-001
 1.6560890374e+000	 3.0303300327e+000	-7.0563425734e-001
 1.6232260869e+000	 3.0480597627e+000	-6.8152878431e-001
 1.5902267032e+000	 3.0654054293e+000	-6.4870018630e-001
 1.5570974430e+000	 3.0823658226e+000	-6.0996370578e-001
 1.5238448656e+000	 3.0989398775e+000	-5.6808659180e-001
 1.4904755289e+000	 3.1151266740e+000	-5.2576487760e-001
 1.4569959857e+000	 3.1309254358e+000	-4.8560237030e-001
 1.4234127802e+000	 3.1463355299e+000	-4.5009188000e-001
 1.3897324435e+000	 3.1613564654e+000	-4.2159869741e-001
 1.3559614903e+000	 3.1759878923e+000	-4.0234631116e-001
 1.7018506431e+000	 3.0354791079e+000	-7.2392666713e-001
 1.6688779993e+000	 3.0537314166e+000	-7.1135239814e-001
 1.6357612683e+000	 3.0715980624e+000	-6.8708415659e-001
 1.6025070506e+000	 3.0890776790e+000	-6.5371619415e-001
 1.5691219534e+000	 3.1061690470e+000	-6.1383180907e-001
 1.5356125867e+000	 3.1228710932e+000	-5.6997749809e-001
 1.5019855590e+000	 3.1391828904e+000	-5.2463936113e-001
 1.4682474739e+000	 3.1551036564e+000	-4.8022180554e-001
 1.4344049258e+000	 3.1706327532e+000	-4.3902857639e-001
 1.4004644964e+000	 3.1857696862e+000	-4.0324612042e-001
 1.3664327509e+000	 3.2005141027e+000	-3.7492927212e-001
 1.7148922812e+000	 3.0587406205e+000	-7.2576873017e-001
 1.6816669612e+000	 3.0771328004e+000	-7.1261725187e-001
 1.6482964497e+000	 3.0951363621e+000	-6.8777767097e-001
 1.6147873980e+000	 3.1127499287e+000	-6.5364558493e-001
 1.5811464638e+000	 3.1299722714e+000	-6.1261464069e-001
 1.5473803077e+000	 3.1468023089e+000	-5.6705016614e-001
 1.5134955891e+000	 3.1632391068e+000	-5.1926515177e-001
 1.4794989620e+000	 3.1792818770e+000	-4.7149862896e-001
 1.4453970713e+000	 3.1949299765e+000	-4.2589647075e-001
 1.4111965494e+000	 3.2101829069e+000	-3.8449462061e-001
 1.3769040114e+000	 3.2250403130e+000	-3.4920473547e-001
 1.7279339194e+000	 3.0820021331e+000	-7.2497841695e-001
 1.6944559230e+000	 3.1005341843e+000	-7.1076159253e-001
 1.6608316311e+000	 3.1186746618e+000	-6.8497414535e-001
 1.6270677453e+000	 3.1364221784e+000	-6.4985710606e-001
 1.5931709742e+000	 3.1537754958e+000	-6.0765591200e-001
 1.5591480288e+000	 3.1707335246e+000	-5.6059345872e-001
 1.5250056192e+000	 3.1872953232e+000	-5.1084560878e-001
 1.4907504501e+000	 3.2034600975e+000	-4.6051920437e-001
 1.4563892169e+000	 3.2192271998e+000	-4.1163260836e-001
 1.4219286023e+000	 3.2345961277e+000	-3.6609877757e-001
 1.3873752720e+000	 3.2495665234e+000	-3.2571085150e-001
 1.7409755575e+000	 3.1052636456e+000	-7.2281779814e-001
 1.7072448849e+000	 3.1239355681e+000	-7.0710437465e-001
 1.6733668126e+000	 3.1422129615e+000	-6.8002318392e-001
 1.6393480927e+000	 3.1600944280e+000	-6.4370395148e-001
 1.6051954846e+000	 3.1775787202e+000	-6.0028452315e-001
 1.5709157499e+000	 3.1946647403e+000	-5.5188327732e-001
 1.5365156494e+000	 3.2113515396e+000	-5.0057411175e-001
 1.5020019382e+000	 3.2276383181e+000	-4.4836405120e-001
 1.4673813625e+000	 3.2435244231e+000	-3.9717349951e-001
 1.4326606553e+000	 3.2590093485e+000	-3.4881913758e-001
 1.3978465325e+000	 3.2740927337e+000	-3.0499944790e-001
 1.7540171957e+000	 3.1285251582e+000	-7.2053657060e-001
 1.7200338468e+000	 3.1473369520e+000	-7.0294979226e-001
 1.6859019940e+000	 3.1657512612e+000	-6.7425823791e-001
 1.6516284401e+000	 3.1837666777e+000	-6.3652279234e-001
 1.6172199950e+000	 3.2013819446e+000	-5.9181353087e-001
 1.5826834710e+000	 3.2185959559e+000	-5.4218143344e-001
 1.5480256795e+000	 3.2354077560e+000	-4.8963280073e-001
 1.5132534263e+000	 3.2518165387e+000	-4.3610641809e-001
 1.4783735081e+000	 3.2678216464e+000	-3.8345349002e-001
 1.4433927082e+000	 3.2834225693e+000	-3.3342034415e-001
 1.4083177931e+000	 3.2986189440e+000	-2.8763388242e-001
 1.7670588338e+000	 3.1517866708e+000	-7.1937111845e-001
 1.7328228087e+000	 3.1707383359e+000	-6.9958636976e-001
 1.6984371754e+000	 3.1892895609e+000	-6.6899569694e-001
 1.6639087875e+000	 3.2074389274e+000	-6.2963283848e-001
 1.6292445053e+000	 3.2251851690e+000	-5.8353914884e-001
 1.5944511921e+000	 3.2425271716e+000	-5.3273455573e-001
 1.5595357096e+000	 3.2594639724e+000	-4.7919135716e-001
 1.5245049144e+000	 3.2759947593e+000	-4.2481090376e-001
 1.4893656536e+000	 3.2921188697e+000	-3.7140318760e-001
 1.4541247611e+000	 3.3078357901e+000	-3.2066933440e-001
 1.4187890536e+000	 3.3231451544e+000	-2.7418697312e-001
 1.7801004720e+000	 3.1750481834e+000	-7.2054360702e-001
 1.7456117705e+000	 3.1941397197e+000	-6.9828608308e-001
 1.7109723568e+000	 3.2128278607e+000	-6.6553400934e-001
 1.6761891349e+000	 3.2311111771e+000	-6.2433492907e-001
 1.6412690157e+000	 3.2489883934e+000	-5.7673977889e-001
 1.6062189132e+000	 3.2664583873e+000	-5.2477303106e-001
 1.5710457397e+000	 3.2835201888e+000	-4.7040582347e-001
 1.5357564025e+000	 3.3001729799e+000	-4.1553212288e-001
 1.5003577992e+000	 3.3164160930e+000	-3.6194794100e-001
 1.4648568141e+000	 3.3322490109e+000	-3.1133359775e-001
 1.4292603142e+000	 3.3476713647e+000	-2.6502093326e-001
 1.7931421101e+000	 3.1983096960e+000	-7.2526110810e-001
 1.7584007324e+000	 3.2175411036e+000	-7.0030350960e-001
 1.7235075382e+000	 3.2363661604e+000	-6.6515283010e-001
 1.6884694823e+000	 3.2547834267e+000	-6.2191065093e-001
 1.6532935261e+000	 3.2727916178e+000	-5.7267507141e-001
 1.6179866343e+000	 3.2903896030e+000	-5.1950997788e-001
 1.5825557699e+000	 3.3075764053e+000	-4.6441745932e-001
 1.5470078906e+000	 3.3243512004e+000	-4.0931341461e-001
 1.5113499448e+000	 3.3407133163e+000	-3.5591916826e-001
 1.4755888670e+000	 3.3566622317e+000	-3.0544379592e-001
 1.4397315747e+000	 3.3721975751e+000	-2.5977766554e-001
 1.3350189692e+000	 3.1269354717e+000	-4.6018714394e-001
 1.3016817725e+000	 3.1409592953e+000	-4.6554979597e-001
 1.2682681041e+000	 3.1545992369e+000	-4.4700961963e-001
 1.2347843127e+000	 3.1678553637e+000	-4.1091571817e-001
 1.2012367166e+000	 3.1807278769e+000	-3.6350186183e-001
 1.1676316006e+000	 3.1932171098e+000	-3.1072694017e-001
 1.1339752124e+000	 3.2053235261e+000	-2.5826333713e-001
 1.1002737598e+000	 3.2170477184e+000	-2.1148408394e-001
 1.0665334072e+000	 3.2283904058e+000	-1.7544872703e-001
 1.0327602727e+000	 3.2393524327e+000	-1.5488788375e-001
 9.9896042527e-001	 3.2499347660e+000	-1.5420369988e-001
 1.3454902298e+000	 3.1514616820e+000	-4.3093360894e-001
 1.3118915518e+000	 3.1655955019e+000	-4.4606880156e-001
 1.2782158023e+000	 3.1793424288e+000	-4.4043343444e-001
 1.2444693798e+000	 3.1927025304e+000	-4.1371612848e-001
 1.2106586521e+000	 3.2056760095e+000	-3.7262683819e-001
 1.1767899534e+000	 3.2182632021e+000	-3.2358731657e-001
 1.1428695804e+000	 3.2304645755e+000	-2.7272008064e-001
 1.1089037894e+000	 3.2422807268e+000	-2.2583594573e-001
 1.0748987933e+000	 3.2537123809e+000	-1.8842005935e-001
 1.0408607582e+000	 3.2647603887e+000	-1.6561640369e-001
 1.0067958007e+000	 3.2754257250e+000	-1.6222597061e-001
 1.3559614903e+000	 3.1759878923e+000	-4.0234631116e-001
 1.3221013311e+000	 3.1902317086e+000	-4.1864087931e-001
 1.2881635005e+000	 3.2040856206e+000	-4.2728202903e-001
 1.2541544469e+000	 3.2175496971e+000	-4.1117450278e-001
 1.2200805877e+000	 3.2306241422e+000	-3.7746318198e-001
 1.1859483062e+000	 3.2433092944e+000	-3.3299595733e-001
 1.1517639483e+000	 3.2556056248e+000	-2.8431340440e-001
 1.1175338190e+000	 3.2675137352e+000	-2.3763679604e-001
 1.0832641795e+000	 3.2790343560e+000	-1.9885437591e-001
 1.0489612438e+000	 3.2901683448e+000	-1.7350585836e-001
 1.0146311762e+000	 3.3009166839e+000	-1.6676516058e-001
 1.3664327509e+000	 3.2005141027e+000	-3.7492927212e-001
 1.3323111103e+000	 3.2148679152e+000	-3.8437141471e-001
 1.2981111987e+000	 3.2288288125e+000	-4.0836245723e-001
 1.2638395139e+000	 3.2423968638e+000	-4.0383423632e-001
 1.2295025232e+000	 3.2555722748e+000	-3.7832507518e-001
 1.1951066590e+000	 3.2683553867e+000	-3.3907210428e-001
 1.1606583162e+000	 3.2807466742e+000	-2.9300177270e-001
 1.1261638486e+000	 3.2927467436e+000	-2.4671844098e-001
 1.0916295656e+000	 3.3043563311e+000	-2.0649097277e-001
 1.0570617294e+000	 3.3155763009e+000	-1.7823728667e-001
 1.0224665517e+000	 3.3264076428e+000	-1.6750687302e-001
 1.3769040114e+000	 3.2250403130e+000	-3.4920473547e-001
 1.3425208896e+000	 3.2395041218e+000	-3.4822827358e-001
 1.3080588968e+000	 3.2535720044e+000	-3.8458196652e-001
 1.2735245810e+000	 3.2672440305e+000	-3.9235963517e-001
 1.2389244587e+000	 3.2805204075e+000	-3.7566634158e-001
 1.2042650118e+000	 3.2934014791e+000	-3.4209129833e-001
 1.1695526842e+000	 3.3058877235e+000	-2.9891445002e-001
 1.1347938782e+000	 3.3179797520e+000	-2.5309575446e-001
 1.0999949518e+000	 3.3296783062e+000	-2.1126217592e-001
 1.0651622150e+000	 3.3409842570e+000	-1.7991198638e-001
 1.0303019272e+000	 3.3518986017e+000	-1.6571600465e-001
 1.3873752720e+000	 3.2495665234e+000	-3.2571085150e-001
 1.3527306689e+000	 3.2641403284e+000	-3.1634777556e-001
 1.3180065950e+000	 3.2783151963e+000	-3.5693182368e-001
 1.2832096481e+000	 3.2920911972e+000	-3.7752021909e-001
 1.2483463942e+000	 3.3054685401e+000	-3.7006527250e-001
 1.2134233646e+000	 3.3184475714e+000	-3.4247077343e-001
 1.1784470521e+000	 3.3310287729e+000	-3.0233750823e-001
 1.1434239078e+000	 3.3432127604e+000	-2.5722116016e-001
 1.1083603379e+000	 3.3550002813e+000	-2.1481499478e-001
 1.0732627005e+000	 3.3663922131e+000	-1.8203302365e-001
 1.0381373026e+000	 3.3773895607e+000	-1.6524893454e-001
 1.3978465325e+000	 3.2740927337e+000	-3.0499944790e-001
 1.3629404481e+000	 3.2887765350e+000	-2.8912232178e-001
 1.3279542932e+000	 3.3030583882e+000	-3.2647125054e-001
 1.2928947151e+000	 3.3169383640e+000	-3.6017514286e-001
 1.2577683297e+000	 3.3304166728e+000	-3.6220957694e-001
 1.2225817174e+000	 3.3434936637e+000	-3.4091251506e-001
 1.1873414200e+000	 3.3561698223e+000	-3.0480424738e-001
 1.1520539374e+000	 3.3684457688e+000	-2.6196005249e-001
 1.1167257241e+000	 3.3803222564e+000	-2.2000301346e-001
 1.0813631861e+000	 3.3918001691e+000	-1.8605343030e-001
 1.0459726781e+000	 3.4028805196e+000	-1.6667746037e-001
 1.4083177931e+000	 3.2986189440e+000	-2.8763388242e-001
 1.3731502274e+000	 3.3134127416e+000	-2.6691837581e-001
 1.3379019914e+000	 3.3278015801e+000	-2.9514787514e-001
 1.3025797822e+000	 3.3417855307e+000	-3.4127999335e-001
 1.2671902652e+000	 3.3553648054e+000	-3.5330492727e-001
 1.2317400702e+000	 3.3685397560e+000	-3.3941528774e-001
 1.1962357880e+000	 3.3813108716e+000	-3.0831625674e-001
 1.1606839670e+000	 3.3936787772e+000	-2.6830989277e-001
 1.1250911102e+000	 3.4056442315e+000	-2.2722976539e-001
 1.0894636717e+000	 3.4172081252e+000	-1.9238307765e-001
 1.0538080536e+000	 3.4283714785e+000	-1.7049994393e-001
 1.4187890536e+000	 3.3231451544e+000	-2.7418697312e-001
 1.3833600067e+000	 3.3380489483e+000	-2.5010385224e-001
 1.3478496895e+000	 3.3525447720e+000	-2.6954485919e-001
 1.3122648493e+000	 3.3666326974e+000	-3.2204859277e-001
 1.2766122007e+000	 3.3803129381e+000	-3.4474202243e-001
 1.2408984230e+000	 3.3935858483e+000	-3.3887186012e-001
 1.2051301559e+000	 3.4064519210e+000	-3.1336591963e-001
 1.1693139966e+000	 3.4189117856e+000	-2.7672625878e-001
 1.1334564964e+000	 3.4309662066e+000	-2.3696411587e-001
 1.0975641573e+000	 3.4426160813e+000	-2.0154258306e-001
 1.0616434291e+000	 3.4538624374e+000	-1.7732665756e-001
 1.4292603142e+000	 3.3476713647e+000	-2.6502093326e-001
 1.3935697859e+000	 3.3626851549e+000	-2.3852268496e-001
 1.3577973877e+000	 3.3772879639e+000	-2.5082898783e-001
 1.3219499164e+000	 3.3914798641e+000	-3.0344150324e-001
 1.2860341363e+000	 3.4052610708e+000	-3.3725621223e-001
 1.2500567758e+000	 3.4186319407e+000	-3.3991282635e-001
 1.2140245238e+000	 3.4315929703e+000	-3.2052542630e-001
 1.1779440262e+000	 3.4441447940e+000	-2.8776115773e-001
 1.1418218825e+000	 3.4562881817e+000	-2.4977561148e-001
 1.1056646428e+000	 3.4680240374e+000	-2.1415619103e-001
 1.0694788046e+000	 3.4793533964e+000	-1.8787308028e-001
 1.4397315747e+000	 3.3721975751e+000	-2.5977766554e-001
 1.4037795652e+000	 3.3873213615e+000	-2.3227090796e-001
 1.3677450859e+000	 3.4020311558e+000	-2.3916948087e-001
 1.3316349834e+000	 3.4163270308e+000	-2.8638153918e-001
 1.2954560718e+000	 3.4302092034e+000	-3.3164324616e-001
 1.2592151286e+000	 3.4436780330e+000	-3.4324485437e-001
 1.2229188917e+000	 3.4567340197e+000	-3.3044993752e-001
 1.1865740558e+000	 3.4693778024e+000	-3.0205532914e-001
 1.1501872686e+000	 3.4816101568e+000	-2.6632709576e-001
 1.1137651284e+000	 3.4934319935e+000	-2.3094474910e-001
 1.0773141800e+000	 3.5048443553e+000	-2.0295328136e-001
 9.9896042527e-001	 3.2499347660e+000	-1.5420369988e-001
 9.6513988133e-001	 3.2601384931e+000	-1.6089307047e-001
 9.3130460051e-001	 3.2699648164e+000	-1.6102300957e-001
 8.9746048454e-001	 3.2794150542e+000	-1.5620779049e-001
 8.6361337515e-001	 3.2884906387e+000	-1.4764791695e-001
 8.2976905160e-001	 3.2971931143e+000	-1.3611019411e-001
 7.9593322820e-001	 3.3055241345e+000	-1.2190714306e-001
 7.6211155205e-001	 3.3134854599e+000	-1.0487596094e-001
 7.2830960080e-001	 3.3210789555e+000	-8.4357247480e-002
 6.9453288053e-001	 3.3283065882e+000	-5.9173734195e-002
 6.6078682374e-001	 3.3351704242e+000	-2.6195958571e-002
 1.0067958007e+000	 3.2754257250e+000	-1.6222597061e-001
 9.7270998438e-001	 3.2857094853e+000	-1.6596361565e-001
 9.3860931553e-001	 3.2956128816e+000	-1.6288440074e-001
 9.0449974224e-001	 3.3051372426e+000	-1.5466297632e-001
 8.7038715206e-001	 3.3142840118e+000	-1.4256847454e-001
 8.3627736956e-001	 3.3230547455e+000	-1.2744330555e-001
 8.0217615388e-001	 3.3314511103e+000	-1.0968107791e-001
 7.6808919642e-001	 3.3394748806e+000	-8.9281793712e-002
 7.3402211857e-001	 3.3471279360e+000	-6.5633130175e-002
 6.9998046961e-001	 3.3544122588e+000	-3.7182443659e-002
 6.6596972462e-001	 3.3613299316e+000	-1.7218219692e-003
 1.0146311762e+000	 3.3009166839e+000	-1.6676516058e-001
 9.8028008742e-001	 3.3112804774e+000	-1.6677866899e-001
 9.4591403056e-001	 3.3212609468e+000	-1.5976879313e-001
 9.1153899995e-001	 3.3308594310e+000	-1.4754439077e-001
 8.7716092897e-001	 3.3400773848e+000	-1.3169208356e-001
 8.4278568752e-001	 3.3489163767e+000	-1.1353571783e-001
 8.0841907956e-001	 3.3573780861e+000	-9.3291418205e-002
 7.7406684079e-001	 3.3654643012e+000	-7.0547875066e-002
 7.3973463634e-001	 3.3731769164e+000	-4.4279353591e-002
 7.0542805868e-001	 3.3805179294e+000	-1.2836689744e-002
 6.7115262551e-001	 3.3874894389e+000	 2.6058638876e-002
 1.0224665517e+000	 3.3264076428e+000	-1.6750687302e-001
 9.8785019047e-001	 3.3368514696e+000	-1.6303696925e-001
 9.5321874558e-001	 3.3469090120e+000	-1.5211531722e-001
 9.1857825765e-001	 3.3565816195e+000	-1.3683123152e-001
 8.8393470588e-001	 3.3658707579e+000	-1.1851717920e-001
 8.4929400548e-001	 3.3747780078e+000	-9.7929327903e-002
 8.1466200525e-001	 3.3833050618e+000	-7.5228543741e-002
 7.8004448516e-001	 3.3914537219e+000	-4.9965401737e-002
 7.4544715412e-001	 3.3992258969e+000	-2.1068889546e-002
 7.1087564776e-001	 3.4066236000e+000	 1.3161510383e-002
 6.7633552640e-001	 3.4136489462e+000	 5.5060668313e-002
 1.0303019272e+000	 3.3518986017e+000	-1.6571600465e-001
 9.9542029351e-001	 3.3624224617e+000	-1.5814322147e-001
 9.6052346061e-001	 3.3725570773e+000	-1.4430106801e-001
 9.2561751536e-001	 3.3823038079e+000	-1.2612216868e-001
 8.9070848278e-001	 3.3916641309e+000	-1.0496419243e-001
 8.5580232344e-001	 3.4006396390e+000	-8.1597781616e-002
 8.2090493093e-001	 3.4092320376e+000	-5.6188610763e-002
 7.8602212954e-001	 3.4174431425e+000	-2.8283504282e-002
 7.5115967189e-001	 3.4252748774e+000	 3.1997251948e-003
 7.1632323683e-001	 3.4327292707e+000	 3.9979050735e-002
 6.8151842728e-001	 3.4398084535e+000	 8.4411942326e-002
 1.0381373026e+000	 3.3773895607e+000	-1.6524893454e-001
 1.0029903966e+000	 3.3879934539e+000	-1.5449602522e-001
 9.6782817563e-001	 3.3982051425e+000	-1.3741402775e-001
 9.3265677307e-001	 3.4080259963e+000	-1.1600547014e-001
 8.9748225969e-001	 3.4174575040e+000	-9.1687027110e-002
 8.6231064140e-001	 3.4265012702e+000	-6.5277193746e-002
 8.2714785662e-001	 3.4351590134e+000	-3.6979474600e-002
 7.9199977391e-001	 3.4434325632e+000	-6.3696768382e-003
 7.5687218967e-001	 3.4513238578e+000	 2.7613050574e-002
 7.2177082591e-001	 3.4588349413e+000	 6.6671783326e-002
 6.8670132817e-001	 3.4659679608e+000	 1.1315433654e-001
 1.0459726781e+000	 3.4028805196e+000	-1.6667746037e-001
 1.0105604996e+000	 3.4135644460e+000	-1.5256948210e-001
 9.7513289066e-001	 3.4238532077e+000	-1.3204305763e-001
 9.3969603077e-001	 3.4337481848e+000	-1.0716692540e-001
 9.0425603660e-001	 3.4432508770e+000	-7.9460964602e-002
 8.6881895936e-001	 3.4523629013e+000	-4.9823189515e-002
 8.3339078231e-001	 3.4610859892e+000	-1.8526273122e-002
 7.9797741829e-001	 3.4694219839e+000	 1.4793909587e-002
 7.6258470745e-001	 3.4773728383e+000	 5.1145969092e-002
 7.2721841499e-001	 3.4849406119e+000	 9.2187290840e-002
 6.9188422906e-001	 3.4921274681e+000	 1.4022528780e-001
 1.0538080536e+000	 3.4283714785e+000	-1.7049994393e-001
 1.0181306026e+000	 3.4391354382e+000	-1.5299413441e-001
 9.8243760569e-001	 3.4495012729e+000	-1.2889515009e-001
 9.4673528848e-001	 3.4594703732e+000	-1.0040972139e-001
 9.1102981351e-001	 3.4690442501e+000	-6.9177625337e-002
 8.7532727733e-001	 3.4782245325e+000	-3.6206330264e-002
 8.3963370799e-001	 3.4870129649e+000	-1.8673135008e-003
 8.0395506266e-001	 3.4954114045e+000	 3.4114063818e-002
 7.6829722522e-001	 3.5034218188e+000	 7.2664892038e-002
 7.3266600407e-001	 3.5110462825e+000	 1.1536764995e-001
 6.9706712995e-001	 3.5182869755e+000	 1.6446012359e-001
 1.0616434291e+000	 3.4538624374e+000	-1.7732665756e-001
 1.0257007057e+000	 3.4647064304e+000	-1.5647321212e-001
 9.8974232071e-001	 3.4751493381e+000	-1.2878953738e-001
 9.5377454619e-001	 3.4851925616e+000	-9.6649006703e-002
 9.1780359042e-001	 3.4948376231e+000	-6.1839988680e-002
 8.8183559529e-001	 3.5040861637e+000	-2.5507587467e-002
 8.4587663368e-001	 3.5129399407e+000	 1.1850002628e-002
 8.0993270704e-001	 3.5214008252e+000	 5.0390202729e-002
 7.7400974300e-001	 3.5294707992e+000	 9.0930947101e-002
 7.3811359314e-001	 3.5371519531e+000	 1.3495218581e-001
 7.0225003084e-001	 3.5444464828e+000	 1.8459439231e-001
 1.0694788046e+000	 3.4793533964e+000	-1.8787308028e-001
 1.0332708087e+000	 3.4902774225e+000	-1.6382968654e-001
 9.9704703574e-001	 3.5007974033e+000	-1.3265187424e-001
 9.6081380390e-001	 3.5109147501e+000	-9.6906520526e-002
 9.2457736733e-001	 3.5206309962e+000	-5.8557468089e-002
 8.8834391325e-001	 3.5299477948e+000	-1.8913862616e-002
 8.5211955937e-001	 3.5388669165e+000	 2.1373217586e-002
 8.1591035141e-001	 3.5473902459e+000	 6.2317952467e-002
 7.7972226078e-001	 3.5555197797e+000	 1.0460314834e-001
 7.4356118222e-001	 3.5632576237e+000	 1.4958021808e-001
 7.0743293173e-001	 3.5706059901e+000	 1.9926619417e-001
 1.0773141800e+000	 3.5048443553e+000	-2.0295328136e-001
 1.0408409118e+000	 3.5158484147e+000	-1.7598629858e-001
 1.0043517508e+000	 3.5264454685e+000	-1.4150849071e-001
 9.6785306161e-001	 3.5366369385e+000	-1.0230528288e-001
 9.3135114424e-001	 3.5464243692e+000	-6.0541038746e-002
 8.9485223122e-001	 3.5558094260e+000	-1.7713550630e-002
 8.5836248506e-001	 3.5647938922e+000	 2.5348821496e-002
 8.2188799579e-001	 3.5733796665e+000	 6.8492724025e-002
 7.8543477855e-001	 3.5815687602e+000	 1.1224154936e-001
 7.4900877130e-001	 3.5893632944e+000	 1.5779379911e-001
 7.1261583262e-001	 3.5967654974e+000	 2.0701851291e-001
 6.6078682374e-001	 3.3351704242e+000	-2.6195958571e-002
 6.2708183937e-001	 3.3416716788e+000	 1.5730640182e-002
 5.9341813416e-001	 3.3478136668e+000	 4.0141986312e-002
 5.5980089879e-001	 3.3535987384e+000	 4.9810279994e-002
 5.2623524340e-001	 3.3590293320e+000	 4.7773258783e-002
 4.9272619611e-001	 3.3641079719e+000	 3.7461267286e-002
 4.5927870155e-001	 3.3688372654e+000	 2.2810986579e-002
 4.2589761953e-001	 3.3732199000e+000	 8.3668525015e-003
 3.9258772377e-001	 3.3772586410e+000	-6.2883316178e-004
 3.5935370079e-001	 3.3809563279e+000	 1.8438735584e-003
 3.2620014879e-001	 3.3843158724e+000	 2.2652934626e-002
 6.6596972462e-001	 3.3613299316e+000	-1.7218219692e-003
 6.3200037421e-001	 3.3678821789e+000	 3.1629218065e-002
 5.9807262675e-001	 3.3740723418e+000	 4.9773364859e-002
 5.6419171360e-001	 3.3799027887e+000	 5.5333105129e-002
 5.3036278501e-001	 3.3853759773e+000	 5.1260052143e-002
 4.9659090852e-001	 3.3904944517e+000	 4.0958118562e-002
 4.6288106755e-001	 3.3952608395e+000	 2.8393154070e-002
 4.2923816003e-001	 3.3996778495e+000	 1.8190142611e-002
 3.9566699713e-001	 3.4037482685e+000	 1.5719025117e-002
 3.6217230211e-001	 3.4074749583e+000	 2.7170177615e-002
 3.2875870925e-001	 3.4108608535e+000	 5.9620532646e-002
 6.7115262551e-001	 3.3874894389e+000	 2.6058638876e-002
 6.3691890906e-001	 3.3940926790e+000	 5.1357003273e-002
 6.0272711934e-001	 3.4003310168e+000	 6.3090597977e-002
 5.6858252842e-001	 3.4062068391e+000	 6.4459551554e-002
 5.3449032662e-001	 3.4117226227e+000	 5.8283978574e-002
 5.0045562093e-001	 3.4168809315e+000	 4.7895103049e-002
 4.6648343355e-001	 3.4216844137e+000	 3.7240511768e-002
 4.3257870053e-001	 3.4261357990e+000	 3.0976850685e-002
 3.9874627048e-001	 3.4302378959e+000	 3.4551094404e-002
 3.6499090342e-001	 3.4339935887e+000	 5.4271478487e-002
 3.3131726971e-001	 3.4374058346e+000	 9.7369137825e-002
 6.7633552640e-001	 3.4136489462e+000	 5.5060668313e-002
 6.4183744391e-001	 3.4203031791e+000	 7.4111970060e-002
 6.0738161193e-001	 3.4265896917e+000	 7.9312601484e-002
 5.7297334323e-001	 3.4325108894e+000	 7.6393342916e-002
 5.3861786822e-001	 3.4380692681e+000	 6.8001762514e-002
 5.0432033334e-001	 3.4432674113e+000	 5.7354443770e-002
 4.7008579956e-001	 3.4481079879e+000	 4.8337540427e-002
 4.3591924104e-001	 3.4525937485e+000	 4.5594671493e-002
 4.0182554384e-001	 3.4567275234e+000	 5.4603352965e-002
 3.6780950474e-001	 3.4605122191e+000	 8.1741118001e-002
 3.3387583017e-001	 3.4639508156e+000	 1.3434242600e-001
 6.8151842728e-001	 3.4398084535e+000	 8.4411942326e-002
 6.4675597877e-001	 3.4465136792e+000	 9.8954836113e-002
 6.1203610452e-001	 3.4528483667e+000	 9.7525075756e-002
 5.7736415804e-001	 3.4588149398e+000	 9.0211296394e-002
 5.4274540983e-001	 3.4644159134e+000	 7.9451895171e-002
 5.0818504575e-001	 3.4696538911e+000	 6.8311260685e-002
 4.7368816556e-001	 3.4745315620e+000	 6.0575293281e-002
 4.3925978154e-001	 3.4790516980e+000	 6.0834177022e-002
 4.0490481720e-001	 3.4832171509e+000	 7.4553668980e-002
 3.7062810607e-001	 3.4870308495e+000	 1.0813612187e-001
 3.3643439063e-001	 3.4904957967e+000	 1.6897239965e-001
 6.8670132817e-001	 3.4659679608e+000	 1.1315433654e-001
 6.5167451362e-001	 3.4727241793e+000	 1.2481411974e-001
 6.1669059710e-001	 3.4791070416e+000	 1.1668477400e-001
 5.8175497286e-001	 3.4851189901e+000	 1.0486675165e-001
 5.4687295144e-001	 3.4907625588e+000	 9.1557177382e-002
 5.1204975816e-001	 3.4960403710e+000	 7.9635184319e-002
 4.7729053156e-001	 3.5009551362e+000	 7.2752040937e-002
 4.4260032205e-001	 3.5055096475e+000	 7.5408456701e-002
 4.0798409055e-001	 3.5097067784e+000	 9.3020403706e-002
 3.7344670739e-001	 3.5135494799e+000	 1.3197473688e-001
 3.3899295109e-001	 3.5170407778e+000	 1.9967583371e-001
 6.9188422906e-001	 3.4921274681e+000	 1.4022528780e-001
 6.5659304847e-001	 3.4989346794e+000	 1.5049120987e-001
 6.2134508969e-001	 3.5053657166e+000	 1.3562379806e-001
 5.8614578767e-001	 3.5114230404e+000	 1.1919304473e-001
 5.5100049305e-001	 3.5171092041e+000	 1.0312732744e-001
 5.1591447057e-001	 3.5224268508e+000	 9.0092056932e-002
 4.8089289757e-001	 3.5273787104e+000	 8.3574028831e-002
 4.4594086255e-001	 3.5319675970e+000	 8.7952897614e-002
 4.1106336391e-001	 3.5361964059e+000	 1.0856118437e-001
 3.7626530871e-001	 3.5400681103e+000	 1.5173416989e-001
 3.4155151155e-001	 3.5435857589e+000	 2.2485095732e-001
 6.9706712995e-001	 3.5182869755e+000	 1.6446012359e-001
 6.6151158332e-001	 3.5251451795e+000	 1.7466544821e-001
 6.2599958229e-001	 3.5316243916e+000	 1.5305392039e-001
 5.9053660249e-001	 3.5377270908e+000	 1.3190702458e-001
 5.5512803466e-001	 3.5434558495e+000	 1.1286165051e-001
 5.1977918299e-001	 3.5488133306e+000	 9.8345716652e-002
 4.8449526357e-001	 3.5538022846e+000	 9.1656341378e-002
 4.4928140306e-001	 3.5584255465e+000	 9.7025097398e-002
 4.1414263727e-001	 3.5626860333e+000	 1.1967183800e-001
 3.7908391003e-001	 3.5665867407e+000	 1.6584851799e-001
 3.4411007201e-001	 3.5701307400e+000	 2.4287435927e-001
 7.0225003084e-001	 3.5444464828e+000	 1.8459439231e-001
 6.6643011817e-001	 3.5513556796e+000	 1.9589922293e-001
 6.3065407488e-001	 3.5578830665e+000	 1.6757093075e-001
 5.9492741731e-001	 3.5640311411e+000	 1.4161261000e-001
 5.5925557627e-001	 3.5698024949e+000	 1.1935176647e-001
 5.2364389540e-001	 3.5751998104e+000	 1.0295986030e-001
 4.8809762958e-001	 3.5802258587e+000	 9.5523867311e-002
 4.5262194356e-001	 3.5848834960e+000	 1.0110490301e-001
 4.1722191063e-001	 3.5891756608e+000	 1.2478547780e-001
 3.8190251135e-001	 3.5931053711e+000	 1.7270688017e-001
 3.4666863247e-001	 3.5966757211e+000	 2.5209810556e-001
 7.0743293173e-001	 3.5706059901e+000	 1.9926619417e-001
 6.7134865303e-001	 3.5775661797e+000	 2.1197663753e-001
 6.3530856747e-001	 3.5841417415e+000	 1.7765900640e-001
 5.9931823212e-001	 3.5903351915e+000	 1.4680438494e-001
 5.6338311789e-001	 3.5961491402e+000	 1.2108439315e-001
 5.2750860781e-001	 3.6015862902e+000	 1.0239998088e-001
 4.9169999558e-001	 3.6066494329e+000	 9.3612361021e-002
 4.5596248407e-001	 3.6113414455e+000	 9.8594568853e-002
 4.2030118399e-001	 3.6156652883e+000	 1.2227173437e-001
 3.8472111267e-001	 3.6196240015e+000	 1.7065164093e-001
 3.4922719293e-001	 3.6232207021e+000	 2.5084705820e-001
 7.1261583262e-001	 3.5967654974e+000	 2.0701851291e-001
 6.7626718788e-001	 3.6037766798e+000	 2.2054653012e-001
 6.3996306006e-001	 3.6104004164e+000	 1.8169510462e-001
 6.0370904694e-001	 3.6166392418e+000	 1.4587123012e-001
 5.6751065950e-001	 3.6224957856e+000	 1.1644418218e-001
 5.3137332022e-001	 3.6279727701e+000	 9.5035375889e-002
 4.9530236159e-001	 3.6330730071e+000	 8.4269594995e-002
 4.5930302458e-001	 3.6377993950e+000	 8.7819028247e-002
 4.2338045735e-001	 3.6421549158e+000	 1.1043612423e-001
 3.8753971400e-001	 3.6461426319e+000	 1.5797691729e-001
 3.5178575339e-001	 3.6497656832e+000	 2.3741638497e-001
 3.2620014879e-001	 3.3843158724e+000	 2.2652934626e-002
 2.9312663406e-001	 3.3873406841e+000	 3.9138057896e-002
 2.6014261392e-001	 3.3900332827e+000	 2.7528226043e-002
 2.2725248468e-001	 3.3923967809e+000	-5.6193851784e-003
 1.9446054890e-001	 3.3944343523e+000	-5.2819477204e-002
 1.6177101484e-001	 3.3961492286e+000	-1.0561422850e-001
 1.2918799594e-001	 3.3975446965e+000	-1.5453376667e-001
 9.6715510352e-002	 3.3986240953e+000	-1.8906095452e-001
 6.4357480676e-002	 3.3993908141e+000	-1.9759998761e-001
 3.2117733651e-002	 3.3998482888e+000	-1.6744835610e-001
 0.0000000000e+000	 3.4000000000e+000	-8.4771753551e-002
 3.2875870925e-001	 3.4108608535e+000	 5.9620532646e-002
 2.9542578143e-001	 3.4139093904e+000	 8.8574612823e-002
 2.6218305016e-001	 3.4166231084e+000	 8.8476191408e-002
 2.2903494622e-001	 3.4190051448e+000	 6.6217095960e-002
 1.9598580593e-001	 3.4210586980e+000	 2.9639046807e-002
 1.6303987056e-001	 3.4227870249e+000	-1.2425273469e-002
 1.3020128578e-001	 3.4241934382e+000	-5.0115753893e-002
 9.7474101301e-002	 3.4252813033e+000	-7.2512412585e-002
 6.4862270468e-002	 3.4260540359e+000	-6.7606458410e-002
 3.2369650039e-002	 3.4265150989e+000	-2.2274396861e-002
 0.0000000000e+000	 3.4266680000e+000	 7.7745245438e-002
 3.3131726971e-001	 3.4374058346e+000	 9.7369137825e-002
 2.9772492880e-001	 3.4404780966e+000	 1.3747327872e-001
 2.6422348640e-001	 3.4432129342e+000	 1.4722140678e-001
 2.3081740777e-001	 3.4456135087e+000	 1.3381251564e-001
 1.9751106297e-001	 3.4476830437e+000	 1.0541831189e-001
 1.6430872627e-001	 3.4494248213e+000	 7.1220674702e-002
 1.3121457563e-001	 3.4508421800e+000	 4.1444805277e-002
 9.8232692251e-002	 3.4519385114e+000	 2.7388667869e-002
 6.5367060260e-002	 3.4527172577e+000	 4.1449259250e-002
 3.2621566427e-002	 3.4531819089e+000	 9.7146179584e-002
 0.0000000000e+000	 3.4533360000e+000	 2.0914293851e-001
 3.3387583017e-001	 3.4639508156e+000	 1.3434242600e-001
 3.0002407618e-001	 3.4670468029e+000	 1.8417123195e-001
 2.6626392265e-001	 3.4698027599e+000	 2.0208711079e-001
 2.3259986931e-001	 3.4722218727e+000	 1.9557108670e-001
 1.9903632000e-001	 3.4743073894e+000	 1.7310053184e-001
 1.6557758198e-001	 3.4760626177e+000	 1.4418272769e-001
 1.3222786547e-001	 3.4774909217e+000	 1.1938443492e-001
 9.8991283199e-002	 3.4785957194e+000	 1.1035809625e-001
 6.5871850052e-002	 3.4793804796e+000	 1.2986522697e-001
 3.2873482815e-002	 3.4798487190e+000	 1.9179747933e-001
 0.0000000000e+000	 3.4800040000e+000	 3.1119582281e-001
 3.3643439063e-001	 3.4904957967e+000	 1.6897239965e-001
 3.0232322355e-001	 3.4936155092e+000	 2.2702011941e-001
 2.6830435889e-001	 3.4963925857e+000	 2.5143731669e-001
 2.3438233086e-001	 3.4988302366e+000	 2.4996434233e-001
 2.0056157703e-001	 3.5009317350e+000	 2.3136210431e-001
 1.6684643769e-001	 3.5027004140e+000	 2.0544143298e-001
 1.3324115532e-001	 3.5041396635e+000	 1.8308880033e-001
 9.9749874148e-002	 3.5052529275e+000	 1.7628904113e-001
 6.6376639843e-002	 3.5060437014e+000	 1.9814564902e-001
 3.3125399203e-002	 3.5065155291e+000	 2.6289914704e-001
 0.0000000000e+000	 3.5066720000e+000	 3.8594398279e-001
 3.3899295109e-001	 3.5170407778e+000	 1.9967583371e-001
 3.0462237093e-001	 3.5201842155e+000	 2.6438144395e-001
 2.7034479513e-001	 3.5229824115e+000	 2.9367122475e-001
 2.3616479241e-001	 3.5254386005e+000	 2.9552466453e-001
 2.0208683407e-001	 3.5275560807e+000	 2.7896634639e-001
 1.6811529340e-001	 3.5293382104e+000	 2.5409080938e-001
 1.3425444516e-001	 3.5307884052e+000	 2.3208413779e-001
 1.0050846510e-001	 3.5319101355e+000	 2.2524295010e-001
 6.6881429635e-002	 3.5327069232e+000	 2.4699137940e-001
 3.3377315591e-002	 3.5331823391e+000	 3.1189655848e-001
 0.0000000000e+000	 3.5333400000e+000	 4.3568306762e-001
 3.4155151155e-001	 3.5435857589e+000	 2.2485095732e-001
 3.0692151830e-001	 3.5467529218e+000	 2.9462221990e-001
 2.7238523137e-001	 3.5495722372e+000	 3.2721793573e-001
 2.3794725395e-001	 3.5520469645e+000	 3.3083914210e-001
 2.0361209110e-001	 3.5541804264e+000	 3.1475658534e-001
 1.6938414911e-001	 3.5559760068e+000	 2.8933076048e-001
 1.3526773500e-001	 3.5574371470e+000	 2.6602908242e-001
 1.0126705605e-001	 3.5585673436e+000	 2.5744088501e-001
 6.7386219427e-002	 3.5593701451e+000	 2.7729085882e-001
 3.3629231979e-002	 3.5598491492e+000	 3.4045145468e-001
 0.0000000000e+000	 3.5600080000e+000	 4.6295471895e-001
 3.4411007201e-001	 3.5701307400e+000	 2.4287435927e-001
 3.0922066568e-001	 3.5733216281e+000	 3.1611088421e-001
 2.7442566762e-001	 3.5761620630e+000	 3.5053144974e-001
 2.3972971550e-001	 3.5786553284e+000	 3.5454374092e-001
 2.0513734813e-001	 3.5808047721e+000	 3.3764958605e-001
 1.7065300483e-001	 3.5826138031e+000	 3.1045984664e-001
 1.3628102485e-001	 3.5840858887e+000	 2.8470687358e-001
 1.0202564699e-001	 3.5852245516e+000	 2.7325525117e-001
 6.7891009218e-002	 3.5860333669e+000	 2.9011145929e-001
 3.3881148367e-002	 3.5865159592e+000	 3.5043299481e-001
 0.0000000000e+000	 3.5866760000e+000	 4.7053742585e-001
 3.4666863247e-001	 3.5966757211e+000	 2.5209810556e-001
 3.1151981305e-001	 3.5998903343e+000	 3.2721345030e-001
 2.7646610386e-001	 3.6027518887e+000	 3.6208593576e-001
 2.4151217705e-001	 3.6052636923e+000	 3.6531777054e-001
 2.0666260517e-001	 3.6074291178e+000	 3.4662929778e-001
 1.7192186054e-001	 3.6092515995e+000	 3.1686839680e-001
 1.3729431469e-001	 3.6107346305e+000	 2.8801791818e-001
 1.0278423794e-001	 3.6118817597e+000	 2.7320189997e-001
 6.8395799010e-002	 3.6126965887e+000	 2.8669121526e-001
 3.4133064755e-002	 3.6131827693e+000	 3.4390920597e-001
 0.0000000000e+000	 3.6133440000e+000	 4.6143778459e-001
 3.4922719293e-001	 3.6232207021e+000	 2.5084705820e-001
 3.1381896043e-001	 3.6264590406e+000	 3.2628989208e-001
 2.7850654010e-001	 3.6293417145e+000	 3.6037125787e-001
 2.4329463859e-001	 3.6318720562e+000	 3.6187863167e-001
 2.0818786220e-001	 3.6340534634e+000	 3.4074090382e-001
 1.7319071625e-001	 3.6358893958e+000	 3.0803194273e-001
 1.3830760454e-001	 3.6373833723e+000	 2.7597269356e-001
 1.0354282889e-001	 3.6385389677e+000	 2.5793258595e-001
 6.8900588802e-002	 3.6393598106e+000	 2.6843092146e-001
 3.4384981144e-002	 3.6398495793e+000	 3.2313880975e-001
 0.0000000000e+000	 3.6400120000e+000	 4.3888214268e-001
 3.5178575339e-001	 3.6497656832e+000	 2.3741638497e-001
 3.1611810781e-001	 3.6530277469e+000	 3.1169074638e-001
 2.8054697635e-001	 3.6559315402e+000	 3.4388874528e-001
 2.4507710014e-001	 3.6584804202e+000	 3.4297683049e-001
 2.0971311924e-001	 3.6606778091e+000	 3.1908515862e-001
 1.7445957196e-001	 3.6625271922e+000	 2.8350495936e-001
 1.3932089439e-001	 3.6640321140e+000	 2.4868497279e-001
 1.0430141984e-001	 3.6651961758e+000	 2.2822776007e-001
 6.9405378595e-002	 3.6660230324e+000	 2.3688657875e-001
 3.4636897532e-002	 3.6665163894e+000	 2.9056340620e-001
 0.0000000000e+000	 3.6666800000e+000	 4.0630860755e-001
 3.6666800000e+000	 0.0000000000e+000	 6.4487403706e-001
 3.6665163894e+000	 3.4636897532e-002	 7.0751623934e-001
 3.6660230324e+000	 6.9405378595e-002	 7.4593375487e-001
 3.6651961758e+000	 1.0430141984e-001	 7.6676724516e-001
 3.6640321140e+000	 1.3932089439e-001	 7.7584393303e-001
 3.6625271922e+000	 1.7445957196e-001	 7.7821618013e-001
 3.6606778091e+000	 2.0971311924e-001	 7.7819741914e-001
 3.6584804202e+000	 2.4507710014e-001	 7.7939608920e-001
 3.6559315402e+000	 2.8054697635e-001	 7.8474832706e-001
 3.6530277469e+000	 3.1611810781e-001	 7.9655027943e-001
 3.6497656832e+000	 3.5178575339e-001	 8.1649101421e-001
 3.6933440000e+000	 0.0000000000e+000	 6.9006023957e-001
 3.6931791996e+000	 3.4888776135e-002	 7.5185066842e-001
 3.6926822549e+000	 6.9910092673e-002	 7.8883484525e-001
 3.6918493855e+000	 1.0505989701e-001	 8.0758885137e-001
 3.6906768587e+000	 1.4033403225e-001	 8.1394203848e-001
 3.6891609931e+000	 1.7572823736e-001	 8.1301116820e-001
 3.6872981613e+000	 2.1123814750e-001	 8.0923120747e-001
 3.6850847930e+000	 2.4685929434e-001	 8.0638345827e-001
 3.6825173777e+000	 2.8258710654e-001	 8.0762181224e-001
 3.6795924681e+000	 3.1841691033e-001	 8.1549804073e-001
 3.6763066828e+000	 3.5434393009e-001	 8.3198715033e-001
 3.7200080000e+000	 0.0000000000e+000	 7.3161262326e-001
 3.7198420098e+000	 3.5140654739e-002	 7.9039739600e-001
 3.7193414775e+000	 7.0414806752e-002	 8.2437122100e-001
 3.7185025951e+000	 1.0581837418e-001	 8.3996345917e-001
 3.7173216033e+000	 1.4134717011e-001	 8.4292772804e-001
 3.7157947940e+000	 1.7699690275e-001	 8.3837137988e-001
 3.7139185136e+000	 2.1276317576e-001	 8.3078090182e-001
 3.7116891659e+000	 2.4864148853e-001	 8.2404394774e-001
 3.7091032152e+000	 2.8462723674e-001	 8.2146883167e-001
 3.7061571893e+000	 3.2071571285e-001	 8.2580244018e-001
 3.7028476823e+000	 3.5690210679e-001	 8.3924764846e-001
 3.7466720000e+000	 0.0000000000e+000	 7.7098987601e-001
 3.7465048200e+000	 3.5392533342e-002	 8.2481842133e-001
 3.7460007000e+000	 7.0919520830e-002	 8.5434766728e-001
 3.7451558048e+000	 1.0657685135e-001	 8.6578357445e-001
 3.7439663479e+000	 1.4236030797e-001	 8.6473187682e-001
 3.7424285949e+000	 1.7826556815e-001	 8.5622265817e-001
 3.7405388658e+000	 2.1428820401e-001	 8.4473008008e-001
 3.7382935388e+000	 2.5042368272e-001	 8.3418800380e-001
 3.7356890527e+000	 2.8666736693e-001	 8.2800237647e-001
 3.7327219104e+000	 3.2301451537e-001	 8.2906138804e-001
 3.7293886818e+000	 3.5946028349e-001	 8.3974453971e-001
 3.7733360000e+000	 0.0000000000e+000	 8.0953567371e-001
 3.7731676302e+000	 3.5644411946e-002	 8.5667707308e-001
 3.7726599226e+000	 7.1424234909e-002	 8.8048515292e-001
 3.7718090145e+000	 1.0733532852e-001	 8.8687130222e-001
 3.7706110926e+000	 1.4337344583e-001	 8.8122698876e-001
 3.7690623958e+000	 1.7953423355e-001	 8.6844317600e-001
 3.7671592180e+000	 2.1581323227e-001	 8.5292408343e-001
 3.7648979116e+000	 2.5220587691e-001	 8.3859606593e-001
 3.7622748902e+000	 2.8870749713e-001	 8.2891252527e-001
 3.7592866316e+000	 3.2531331789e-001	 8.2685591022e-001
 3.7559296814e+000	 3.6201846019e-001	 8.3493800515e-001
 3.8000000000e+000	 0.0000000000e+000	 8.4848271537e-001
 3.7998304405e+000	 3.5896290549e-002	 8.8744167289e-001
 3.7993191451e+000	 7.1928948989e-002	 9.0442411933e-001
 3.7984622241e+000	 1.0809380568e-001	 9.0498126194e-001
 3.7972558372e+000	 1.4438658369e-001	 8.9422974309e-001
 3.7956961966e+000	 1.8080289894e-001	 8.7686562259e-001
 3.7937795703e+000	 2.1733826053e-001	 8.5717185544e-001
 3.7915022845e+000	 2.5398807111e-001	 8.3902007576e-001
 3.7888607277e+000	 2.9074762732e-001	 8.2586764356e-001
 3.7858513528e+000	 3.2761212042e-001	 8.2075106347e-001
 3.7824706809e+000	 3.6457663688e-001	 8.2627703608e-001
 3.8266640000e+000	 0.0000000000e+000	 8.8895658952e-001
 3.8264932507e+000	 3.6148169153e-002	 9.1848904547e-001
 3.8259783677e+000	 7.2433663068e-002	 9.2772763131e-001
 3.8251154338e+000	 1.0885228285e-001	 9.2180337944e-001
 3.8239005819e+000	 1.4539972155e-001	 9.0550343187e-001
 3.8223299975e+000	 1.8207156434e-001	 8.8327929481e-001
 3.8203999225e+000	 2.1886328879e-001	 8.5924769955e-001
 3.8181066574e+000	 2.5577026530e-001	 8.3718491670e-001
 3.8154465652e+000	 2.9278775752e-001	 8.2051552587e-001
 3.8124160740e+000	 3.2991092294e-001	 8.1229680426e-001
 3.8090116804e+000	 3.6713481358e-001	 8.1520005798e-001
 3.8533280000e+000	 0.0000000000e+000	 9.3197948009e-001
 3.8531560609e+000	 3.6400047757e-002	 9.5110788287e-001
 3.8526375902e+000	 7.2938377147e-002	 9.5188439624e-001
 3.8517686435e+000	 1.0961076002e-001	 9.3896556144e-001
 3.8505453265e+000	 1.4641285941e-001	 9.1676029380e-001
 3.8489637984e+000	 1.8334022973e-001	 8.8943209815e-001
 3.8470202747e+000	 2.2038831705e-001	 8.6089295872e-001
 3.8447110303e+000	 2.5755245950e-001	 8.3478978789e-001
 3.8420324026e+000	 2.9482788771e-001	 8.1448448340e-001
 3.8389807951e+000	 3.3220972546e-001	 8.0302881353e-001
 3.8355526800e+000	 3.6969299028e-001	 8.0313551980e-001
 3.8799920000e+000	 0.0000000000e+000	 9.7847371948e-001
 3.8798188711e+000	 3.6651926360e-002	 9.8650196979e-001
 3.8792968128e+000	 7.3443091225e-002	 9.7831165815e-001
 3.8784218531e+000	 1.1036923719e-001	 9.5803625832e-001
 3.8771900711e+000	 1.4742599728e-001	 9.2966374933e-001
 3.8755975993e+000	 1.8460889513e-001	 8.9703246156e-001
 3.8736406269e+000	 2.2191334531e-001	 8.6381762110e-001
 3.8713154031e+000	 2.5933465369e-001	 8.3350951556e-001
 3.8686182401e+000	 2.9686801791e-001	 8.0938437978e-001
 3.8655455163e+000	 3.3450852798e-001	 7.9446927950e-001
 3.8620936795e+000	 3.7225116698e-001	 7.9150245027e-001
 3.9066560000e+000	 0.0000000000e+000	 1.0292651962e+000
 3.9064816814e+000	 3.6903804964e-002	 1.0257932767e+000
 3.9059560353e+000	 7.3947805304e-002	 1.0083579725e+000
 3.9050750628e+000	 1.1112771436e-001	 9.8052692045e-001
 3.9038348158e+000	 1.4843913514e-001	 9.4583054188e-001
 3.9022314002e+000	 1.8587756052e-001	 9.0775117033e-001
 3.9002609792e+000	 2.2343837357e-001	 8.6970185524e-001
 3.8979197760e+000	 2.6111684788e-001	 8.3499580482e-001
 3.8952040776e+000	 2.9890814810e-001	 8.0680761754e-001
 3.8921102375e+000	 3.3680733051e-001	 7.8812764053e-001
 3.8886346791e+000	 3.7480934368e-001	 7.8171098281e-001
 3.9333200000e+000	 0.0000000000e+000	 1.0850866236e+000
 3.9331444916e+000	 3.7155683567e-002	 1.0700249267e+000
 3.9326152578e+000	 7.4452519382e-002	 1.0433058674e+000
 3.9317282725e+000	 1.1188619153e-001	 1.0078943532e+000
 3.9304795604e+000	 1.4945227300e-001	 9.6683278942e-001
 3.9288652011e+000	 1.8714622592e-001	 9.2322312092e-001
 3.9268813314e+000	 2.2496340183e-001	 8.8019747811e-001
 3.9245241489e+000	 2.6289904207e-001	 8.4087843468e-001
 3.9217899151e+000	 3.0094827830e-001	 8.0833007741e-001
 3.9186749587e+000	 3.3910613303e-001	 7.8550128987e-001
 3.9151756786e+000	 3.7736752037e-001	 7.7516285055e-001
 3.6497656832e+000	 3.5178575339e-001	 8.1649101421e-001
 3.6461426319e+000	 3.8753971400e-001	 8.3419033896e-001
 3.6421549158e+000	 4.2338045735e-001	 8.4012223078e-001
 3.6377993950e+000	 4.5930302458e-001	 8.3646558389e-001
 3.6330730071e+000	 4.9530236159e-001	 8.2497440692e-001
 3.6279727701e+000	 5.3137332022e-001	 8.0702872902e-001
 3.6224957856e+000	 5.6751065950e-001	 7.8369401210e-001
 3.6166392418e+000	 6.0370904694e-001	 7.5579071653e-001
 3.6104004164e+000	 6.3996306006e-001	 7.2397573001e-001
 3.6037766798e+000	 6.7626718788e-001	 6.8946914690e-001
 3.5967654974e+000	 7.1261583262e-001	 6.6684366302e-001
 3.6763066828e+000	 3.5434393009e-001	 8.3198715033e-001
 3.6726572847e+000	 3.9035789255e-001	 8.4688459469e-001
 3.6686405700e+000	 4.2645926884e-001	 8.5053314785e-001
 3.6642533760e+000	 4.6264306403e-001	 8.4496319906e-001
 3.6594926179e+000	 4.9890418727e-001	 8.3178234228e-001
 3.6543552921e+000	 5.3523745296e-001	 8.1221799997e-001
 3.6488384791e+000	 5.7163758201e-001	 7.8716849490e-001
 3.6429393467e+000	 6.0809920317e-001	 7.5726431513e-001
 3.6366551528e+000	 6.4461685451e-001	 7.2294138504e-001
 3.6299832485e+000	 6.8118498499e-001	 6.8591935300e-001
 3.6229210810e+000	 7.1779795611e-001	 6.6143374506e-001
 3.7028476823e+000	 3.5690210679e-001	 8.3924764846e-001
 3.6991719375e+000	 3.9317607110e-001	 8.5182169893e-001
 3.6951262243e+000	 4.2953808033e-001	 8.5379993647e-001
 3.6907073570e+000	 4.6598310348e-001	 8.4703432886e-001
 3.6859122288e+000	 5.0250601294e-001	 8.3295612478e-001
 3.6807378142e+000	 5.3910158569e-001	 8.1260966314e-001
 3.6751811727e+000	 5.7576450452e-001	 7.8669456180e-001
 3.6692394517e+000	 6.1248935939e-001	 7.5561813274e-001
 3.6629098892e+000	 6.4927064896e-001	 7.1955994416e-001
 3.6561898172e+000	 6.8610278210e-001	 6.8094582472e-001
 3.6490766646e+000	 7.2298007960e-001	 6.5506222337e-001
 3.7293886818e+000	 3.5946028349e-001	 8.3974453971e-001
 3.7256865903e+000	 3.9599424966e-001	 8.5033480249e-001
 3.7216118785e+000	 4.3261689182e-001	 8.5110132701e-001
 3.7171613380e+000	 4.6932314293e-001	 8.4369424742e-001
 3.7123318396e+000	 5.0610783862e-001	 8.2934507198e-001
 3.7071203362e+000	 5.4296571843e-001	 8.0889111732e-001
 3.7015238663e+000	 5.7989142703e-001	 7.8280824219e-001
 3.6955395566e+000	 6.1687951562e-001	 7.5125383409e-001
 3.6891646255e+000	 6.5392444342e-001	 7.1412208093e-001
 3.6823963859e+000	 6.9102057921e-001	 6.7472000103e-001
 3.6752322482e+000	 7.2816220310e-001	 6.4784740333e-001
 3.7559296814e+000	 3.6201846019e-001	 8.3493800515e-001
 3.7522012431e+000	 3.9881242821e-001	 8.4374957834e-001
 3.7480975327e+000	 4.3569570332e-001	 8.4361262710e-001
 3.7436153190e+000	 4.7266318238e-001	 8.3595863510e-001
 3.7387514504e+000	 5.0970966430e-001	 8.2180260129e-001
 3.7335028583e+000	 5.4682985117e-001	 8.0175750933e-001
 3.7278665598e+000	 5.8401834954e-001	 7.7605700490e-001
 3.7218396615e+000	 6.2126967185e-001	 7.4458834451e-001
 3.7154193619e+000	 6.5857823787e-001	 7.0693776465e-001
 3.7086029546e+000	 6.9593837632e-001	 6.6743673065e-001
 3.7013878317e+000	 7.3334432659e-001	 6.3993128889e-001
 3.7824706809e+000	 3.6457663688e-001	 8.2627703608e-001
 3.7787158959e+000	 4.0163060677e-001	 8.3338465160e-001
 3.7745831870e+000	 4.3877451481e-001	 8.3250594050e-001
 3.7700693001e+000	 4.7600322183e-001	 8.2484360914e-001
 3.7651710613e+000	 5.1331148998e-001	 8.1118609893e-001
 3.7598853803e+000	 5.5069398390e-001	 7.9191147166e-001
 3.7542092534e+000	 5.8814527205e-001	 7.6699939842e-001
 3.7481397664e+000	 6.2565982808e-001	 7.3605343041e-001
 3.7416740982e+000	 6.6323203232e-001	 6.9833582200e-001
 3.7348095233e+000	 7.0085617343e-001	 6.5931336631e-001
 3.7275434153e+000	 7.3852645008e-001	 6.3147860032e-001
 3.8090116804e+000	 3.6713481358e-001	 8.1520005798e-001
 3.8052305487e+000	 4.0444878532e-001	 8.2055200228e-001
 3.8010688412e+000	 4.4185332630e-001	 8.1895036753e-001
 3.7965232811e+000	 4.7934326128e-001	 8.1136574417e-001
 3.7915906721e+000	 5.1691331566e-001	 7.9835678656e-001
 3.7862679023e+000	 5.5455811664e-001	 7.8006286476e-001
 3.7805519469e+000	 5.9227219456e-001	 7.5620470200e-001
 3.7744398714e+000	 6.3004998430e-001	 7.2609529591e-001
 3.7679288346e+000	 6.6788582677e-001	 6.8866973265e-001
 3.7610160921e+000	 7.0577397054e-001	 6.5058888355e-001
 3.7536989989e+000	 7.4370857358e-001	 6.2267581908e-001
 3.8355526800e+000	 3.6969299028e-001	 8.0313551980e-001
 3.8317452015e+000	 4.0726696387e-001	 8.0655734221e-001
 3.8275544954e+000	 4.4493213779e-001	 8.0411218800e-001
 3.8229772621e+000	 4.8268330073e-001	 7.9654208306e-001
 3.8180102829e+000	 5.2051514133e-001	 7.8417958554e-001
 3.8126504244e+000	 5.5842224937e-001	 7.6692852362e-001
 3.8068946405e+000	 5.9639911707e-001	 7.4425258715e-001
 3.8007399763e+000	 6.3444014053e-001	 7.1517419517e-001
 3.7941835709e+000	 6.7253962123e-001	 6.7842662351e-001
 3.7872226608e+000	 7.1069176765e-001	 6.4152302275e-001
 3.7798545825e+000	 7.4889069707e-001	 6.1373025828e-001
 3.8620936795e+000	 3.7225116698e-001	 7.9150245027e-001
 3.8582598543e+000	 4.1008514243e-001	 7.9270046732e-001
 3.8540401497e+000	 4.4801094928e-001	 7.8915502746e-001
 3.8494312431e+000	 4.8602334018e-001	 7.8139013865e-001
 3.8444298938e+000	 5.2411696701e-001	 7.6952297897e-001
 3.8390329464e+000	 5.6228638211e-001	 7.5323200861e-001
 3.8332373341e+000	 6.0052603959e-001	 7.3173278892e-001
 3.8270400812e+000	 6.3883029676e-001	 7.0376405944e-001
 3.8204383073e+000	 6.7719341568e-001	 6.6800952651e-001
 3.8134292295e+000	 7.1560956476e-001	 6.3239545349e-001
 3.8060101661e+000	 7.5407282056e-001	 6.0486915779e-001
 3.8886346791e+000	 3.7480934368e-001	 7.8171098281e-001
 3.8847745071e+000	 4.1290332098e-001	 7.8027558644e-001
 3.8805258039e+000	 4.5108976078e-001	 7.7524000756e-001
 3.8758852241e+000	 4.8936337964e-001	 7.6692788665e-001
 3.8708495046e+000	 5.2771879269e-001	 7.5525887160e-001
 3.8654154685e+000	 5.6615051484e-001	 7.3970336015e-001
 3.8595800276e+000	 6.0465296210e-001	 7.1924478663e-001
 3.8533401861e+000	 6.4322045299e-001	 6.9235213825e-001
 3.8466930436e+000	 6.8184721013e-001	 6.5778374072e-001
 3.8396357982e+000	 7.2052736187e-001	 6.2350495991e-001
 3.8321657497e+000	 7.5925494406e-001	 5.9633880252e-001
 3.9151756786e+000	 3.7736752037e-001	 7.7516285055e-001
 3.9112891599e+000	 4.1572149954e-001	 7.7057162777e-001
 3.9070114582e+000	 4.5416857227e-001	 7.6352588128e-001
 3.9023392051e+000	 4.9270341909e-001	 7.5417375026e-001
 3.8972691155e+000	 5.3132061837e-001	 7.4226244782e-001
 3.8917979905e+000	 5.7001464758e-001	 7.2707885727e-001
 3.8859227212e+000	 6.0877988461e-001	 7.0739749348e-001
 3.8796402911e+000	 6.4761060921e-001	 6.8143865401e-001
 3.8729477800e+000	 6.8650100458e-001	 6.4813240179e-001
 3.8658423669e+000	 7.2544515898e-001	 6.1516864630e-001
 3.8583213333e+000	 7.6443706755e-001	 5.8840366298e-001
 3.5967654974e+000	 7.1261583262e-001	 6.6684366302e-001
 3.5893632944e+000	 7.4900877130e-001	 6.5206122390e-001
 3.5815687602e+000	 7.8543477855e-001	 6.3363329845e-001
 3.5733796665e+000	 8.2188799579e-001	 6.1252590830e-001
 3.5647938922e+000	 8.5836248506e-001	 5.8950893936e-001
 3.5558094260e+000	 8.9485223122e-001	 5.6517157530e-001
 3.5464243692e+000	 9.3135114424e-001	 5.3994042184e-001
 3.5366369385e+000	 9.6785306161e-001	 5.1410059405e-001
 3.5264454685e+000	 1.0043517508e+000	 4.8782003471e-001
 3.5158484147e+000	 1.0408409118e+000	 4.6117526923e-001
 3.5048443553e+000	 1.0773141800e+000	 4.3419202325e-001
 3.6229210810e+000	 7.1779795611e-001	 6.6143374506e-001
 3.6154650493e+000	 7.5445554328e-001	 6.4488066439e-001
 3.6076138335e+000	 7.9114643950e-001	 6.2553186799e-001
 3.5993651890e+000	 8.2786474356e-001	 6.0421263345e-001
 3.5907169792e+000	 8.6460447435e-001	 5.8155044617e-001
 3.5816671781e+000	 9.0135957298e-001	 5.5798957248e-001
 3.5722138734e+000	 9.3812390514e-001	 5.3380839447e-001
 3.5623552688e+000	 9.7489126348e-001	 5.0913979661e-001
 3.5520896867e+000	 1.0116553701e+000	 4.8399200975e-001
 3.5414155714e+000	 1.0484098794e+000	 4.5828856502e-001
 3.5303314908e+000	 1.0851483803e+000	 4.3187861605e-001
 3.6490766646e+000	 7.2298007960e-001	 6.5506222337e-001
 3.6415668043e+000	 7.5990231526e-001	 6.3709812886e-001
 3.6336589068e+000	 7.9685810044e-001	 6.1710711949e-001
 3.6253507114e+000	 8.3384149134e-001	 5.9578430187e-001
 3.6166400661e+000	 8.7084646365e-001	 5.7362564818e-001
 3.6075249303e+000	 9.0786691475e-001	 5.5094161184e-001
 3.5980033777e+000	 9.4489666604e-001	 5.2787357639e-001
 3.5880735991e+000	 9.8192946535e-001	 5.0441344627e-001
 3.5777339049e+000	 1.0189589895e+000	 4.8042415913e-001
 3.5669827281e+000	 1.0559788470e+000	 4.5567754215e-001
 3.5558186262e+000	 1.0929825805e+000	 4.2986673636e-001
 3.6752322482e+000	 7.2816220310e-001	 6.4784740333e-001
 3.6676685592e+000	 7.6534908725e-001	 6.2878900490e-001
 3.6597039801e+000	 8.0256976138e-001	 6.0839243293e-001
 3.6513362338e+000	 8.3981823911e-001	 5.8723388810e-001
 3.6425631530e+000	 8.7708845295e-001	 5.6568939265e-001
 3.6333826824e+000	 9.1437425652e-001	 5.4394734683e-001
 3.6237928819e+000	 9.5166942693e-001	 5.2202399085e-001
 3.6137919294e+000	 9.8896766723e-001	 4.9978210028e-001
 3.6033781231e+000	 1.0262626089e+000	 4.7695103146e-001
 3.5925498848e+000	 1.0635478146e+000	 4.5316254840e-001
 3.5813057617e+000	 1.1008167807e+000	 4.2796499811e-001
 3.7013878317e+000	 7.3334432659e-001	 6.3993128889e-001
 3.6937703142e+000	 7.7079585923e-001	 6.2005217176e-001
 3.6857490534e+000	 8.0828142233e-001	 5.9944428500e-001
 3.6773217563e+000	 8.4579498689e-001	 5.7857690477e-001
 3.6684862399e+000	 8.8333044224e-001	 5.5771836668e-001
 3.6592404345e+000	 9.2088159828e-001	 5.3694745675e-001
 3.6495823861e+000	 9.5844218783e-001	 5.1616778062e-001
 3.6395102597e+000	 9.9600586910e-001	 4.9512545935e-001
 3.6290223413e+000	 1.0335662283e+000	 4.7342857189e-001
 3.6181170415e+000	 1.0711167822e+000	 4.5058100138e-001
 3.6067928972e+000	 1.1086509810e+000	 4.2599802955e-001
 3.7275434153e+000	 7.3852645008e-001	 6.3147860032e-001
 3.7198720691e+000	 7.7624263121e-001	 6.1100896053e-001
 3.7117941267e+000	 8.1399308327e-001	 5.9034116081e-001
 3.7033072787e+000	 8.5177173467e-001	 5.6985027520e-001
 3.6944093268e+000	 8.8957243154e-001	 5.4970994053e-001
 3.6850981866e+000	 9.2738894005e-001	 5.2990247064e-001
 3.6753718904e+000	 9.6521494873e-001	 5.1023202237e-001
 3.6652285900e+000	 1.0030440710e+000	 4.9034118299e-001
 3.6546665595e+000	 1.0408698477e+000	 4.6972967188e-001
 3.6436841982e+000	 1.0786857497e+000	 4.4778623729e-001
 3.6322800327e+000	 1.1164851812e+000	 4.2380535471e-001
 3.7536989989e+000	 7.4370857358e-001	 6.2267581908e-001
 3.7459738241e+000	 7.8168940319e-001	 6.0180214309e-001
 3.7378392000e+000	 8.1970474421e-001	 5.8118249595e-001
 3.7292928012e+000	 8.5774848244e-001	 5.6111123777e-001
 3.7203324137e+000	 8.9581442084e-001	 5.4168104355e-001
 3.7109559387e+000	 9.3389628182e-001	 5.2279162440e-001
 3.7011613946e+000	 9.7198770963e-001	 5.0416157503e-001
 3.6909469203e+000	 1.0100822729e+000	 4.8534373888e-001
 3.6803107777e+000	 1.0481734670e+000	 4.6574302990e-001
 3.6692513549e+000	 1.0862547173e+000	 4.4464639310e-001
 3.6577671681e+000	 1.1243193814e+000	 4.2124030774e-001
 3.7798545825e+000	 7.4889069707e-001	 6.1373025828e-001
 3.7720755791e+000	 7.8713617517e-001	 5.9259494867e-001
 3.7638842733e+000	 8.2541640516e-001	 5.7208764753e-001
 3.7552783236e+000	 8.6372523022e-001	 5.5243628040e-001
 3.7462555007e+000	 9.0205641013e-001	 5.3366707128e-001
 3.7368136908e+000	 9.4040362358e-001	 5.1561174988e-001
 3.7269508988e+000	 9.7876047052e-001	 4.9791796017e-001
 3.7166652506e+000	 1.0171204747e+000	 4.8006126369e-001
 3.7059549959e+000	 1.0554770864e+000	 4.6137204431e-001
 3.6948185116e+000	 1.0938236849e+000	 4.4104332090e-001
 3.6832543036e+000	 1.1321535817e+000	 4.1816897872e-001
 3.8060101661e+000	 7.5407282056e-001	 6.0486915779e-001
 3.7981773340e+000	 7.9258294715e-001	 5.8357010637e-001
 3.7899293467e+000	 8.3112806610e-001	 5.6319489281e-001
 3.7812638460e+000	 8.6970197799e-001	 5.4392010374e-001
 3.7721785876e+000	 9.0829839943e-001	 5.2572082208e-001
 3.7626714430e+000	 9.4691096535e-001	 5.0837619406e-001
 3.7527404031e+000	 9.8553323142e-001	 4.9147827326e-001
 3.7423835808e+000	 1.0241586766e+000	 4.7444282375e-001
 3.7315992141e+000	 1.0627807058e+000	 4.5653373711e-001
 3.7203856683e+000	 1.1013926525e+000	 4.3687153248e-001
 3.7087414391e+000	 1.1399877819e+000	 4.1446918927e-001
 3.8321657497e+000	 7.5925494406e-001	 5.9633880252e-001
 3.8242790890e+000	 7.9802971914e-001	 5.7492891273e-001
 3.8159744200e+000	 8.3683972704e-001	 5.5466045396e-001
 3.8072493685e+000	 8.7567872577e-001	 5.3567461167e-001
 3.7981016745e+000	 9.1454038873e-001	 5.1791146203e-001
 3.7885291951e+000	 9.5341830711e-001	 5.0111376714e-001
 3.7785299073e+000	 9.9230599232e-001	 4.8483412395e-001
 3.7681019111e+000	 1.0311968785e+000	 4.6844440905e-001
 3.7572434323e+000	 1.0700843252e+000	 4.5115770689e-001
 3.7459528250e+000	 1.1089616201e+000	 4.3203717301e-001
 3.7342285745e+000	 1.1478219821e+000	 4.1002949665e-001
 3.8583213333e+000	 7.6443706755e-001	 5.8840366298e-001
 3.8503808439e+000	 8.0347649112e-001	 5.6689032294e-001
 3.8420194933e+000	 8.4255138799e-001	 5.4665754790e-001
 3.8332348909e+000	 8.8165547354e-001	 5.2782792787e-001
 3.8240247614e+000	 9.2078237802e-001	 5.1032351658e-001
 3.8143869472e+000	 9.5992564888e-001	 4.9386771803e-001
 3.8043194115e+000	 9.9907875321e-001	 4.7799060422e-001
 3.7938202414e+000	 1.0382350804e+000	 4.6203684106e-001
 3.7828876505e+000	 1.0773879445e+000	 4.4518510966e-001
 3.7715199817e+000	 1.1165305877e+000	 4.2645702223e-001
 3.7597157100e+000	 1.1556561824e+000	 4.0474822491e-001
 3.5048443553e+000	 1.0773141800e+000	 4.3419202325e-001
 3.4934319935e+000	 1.1137651284e+000	 4.0855934268e-001
 3.4816101568e+000	 1.1501872686e+000	 3.8436166908e-001
 3.4693778024e+000	 1.1865740558e+000	 3.5922532084e-001
 3.4567340197e+000	 1.2229188917e+000	 3.3087213319e-001
 3.4436780330e+000	 1.2592151286e+000	 2.9717666503e-001
 3.4302092034e+000	 1.2954560718e+000	 2.5622834086e-001
 3.4163270308e+000	 1.3316349834e+000	 2.0639860736e-001
 3.4020311558e+000	 1.3677450859e+000	 1.5664665223e-001
 3.3873213615e+000	 1.4037795652e+000	 1.1759249447e-001
 3.3721975751e+000	 1.4397315747e+000	 8.7270572172e-002
 3.5303314908e+000	 1.0851483803e+000	 4.3187861605e-001
 3.5188361386e+000	 1.1218643990e+000	 4.0634456326e-001
 3.5069283338e+000	 1.1585514001e+000	 3.8180469438e-001
 3.4946070260e+000	 1.1952027909e+000	 3.5592498166e-001
 3.4818712981e+000	 1.2318119256e+000	 3.2646094379e-001
 3.4687203686e+000	 1.2683721077e+000	 2.9131511678e-001
 3.4551535940e+000	 1.3048765941e+000	 2.4859969295e-001
 3.4411704707e+000	 1.3413185978e+000	 1.9723591653e-001
 3.4267706364e+000	 1.3776912920e+000	 1.5051694314e-001
 3.4119538729e+000	 1.4139878131e+000	 1.1341979126e-001
 3.3967201067e+000	 1.4502012647e+000	 8.4124254740e-002
 3.5558186262e+000	 1.0929825805e+000	 4.2986673636e-001
 3.5442402836e+000	 1.1299636695e+000	 4.0445207489e-001
 3.5322465108e+000	 1.1669155315e+000	 3.7956998170e-001
 3.5198362497e+000	 1.2038315261e+000	 3.5293078380e-001
 3.5070085764e+000	 1.2407049594e+000	 3.2232766396e-001
 3.4937627042e+000	 1.2775290868e+000	 2.8569434366e-001
 3.4800979847e+000	 1.3142971164e+000	 2.4116817639e-001
 3.4660139105e+000	 1.3510022122e+000	 1.8960988469e-001
 3.4515101171e+000	 1.3876374981e+000	 1.4538740465e-001
 3.4365863842e+000	 1.4241960610e+000	 1.0976769570e-001
 3.4212426383e+000	 1.4606709546e+000	 8.1101724859e-002
 3.5813057617e+000	 1.1008167807e+000	 4.2796499811e-001
 3.5696444287e+000	 1.1380629401e+000	 4.0268384497e-001
 3.5575646878e+000	 1.1752796629e+000	 3.7745729364e-001
 3.5450654733e+000	 1.2124602613e+000	 3.5004515485e-001
 3.5321458548e+000	 1.2495979933e+000	 3.1828262921e-001
 3.5188050398e+000	 1.2866860660e+000	 2.8013814710e-001
 3.5050423753e+000	 1.3237176387e+000	 2.3377687059e-001
 3.4908573503e+000	 1.3606858266e+000	 1.8317498263e-001
 3.4762495977e+000	 1.3975837042e+000	 1.4095386047e-001
 3.4612188956e+000	 1.4344043088e+000	 1.0640148732e-001
 3.4457651699e+000	 1.4711406446e+000	 7.8041582877e-002
 3.6067928972e+000	 1.1086509810e+000	 4.2599802955e-001
 3.5950485738e+000	 1.1461622107e+000	 4.0085684443e-001
 3.5828828648e+000	 1.1836437943e+000	 3.7528047777e-001
 3.5702946969e+000	 1.2210889964e+000	 3.4708379571e-001
 3.5572831332e+000	 1.2584910271e+000	 3.1414875683e-001
 3.5438473754e+000	 1.2958430451e+000	 2.7448235075e-001
 3.5299867659e+000	 1.3331381610e+000	 2.2628046003e-001
 3.5157007902e+000	 1.3703694410e+000	 1.7759020831e-001
 3.5009890783e+000	 1.4075299103e+000	 1.3693911007e-001
 3.4858514070e+000	 1.4446125567e+000	 1.0311152827e-001
 3.4702877015e+000	 1.4816103345e+000	 7.4805473555e-002
 3.6322800327e+000	 1.1164851812e+000	 4.2380535471e-001
 3.6204527189e+000	 1.1542614812e+000	 3.9880197160e-001
 3.6082010418e+000	 1.1920079257e+000	 3.7286644186e-001
 3.5955239206e+000	 1.2297177316e+000	 3.4387471612e-001
 3.5824204116e+000	 1.2673840610e+000	 3.0976065089e-001
 3.5688897110e+000	 1.3050000242e+000	 2.6857398425e-001
 3.5549311565e+000	 1.3425586833e+000	 2.1910368236e-001
 3.5405442300e+000	 1.3800530554e+000	 1.7254194568e-001
 3.5257285589e+000	 1.4174761164e+000	 1.3309159673e-001
 3.5104839184e+000	 1.4548208046e+000	 9.9711936211e-002
 3.4948102331e+000	 1.4920800244e+000	 7.1276766949e-002
 3.6577671681e+000	 1.1243193814e+000	 4.2124030774e-001
 3.6458568640e+000	 1.1623607518e+000	 3.9636300826e-001
 3.6335192188e+000	 1.2003720571e+000	 3.7005416028e-001
 3.6207531442e+000	 1.2383464667e+000	 3.4025730025e-001
 3.6075576900e+000	 1.2762770948e+000	 3.0496373599e-001
 3.5939320466e+000	 1.3141570033e+000	 2.6227049415e-001
 3.5798755472e+000	 1.3519792056e+000	 2.1257942845e-001
 3.5653876698e+000	 1.3897366698e+000	 1.6774265434e-001
 3.5504680395e+000	 1.4274223225e+000	 1.2918409738e-001
 3.5351164297e+000	 1.4650290525e+000	 9.6039277140e-002
 3.5193327647e+000	 1.5025497144e+000	 6.7359256774e-002
 3.6832543036e+000	 1.1321535817e+000	 4.1816897872e-001
 3.6712610090e+000	 1.1704600224e+000	 3.9339560633e-001
 3.6588373958e+000	 1.2087361885e+000	 3.6669371004e-001
 3.6459823679e+000	 1.2469752019e+000	 3.3608140088e-001
 3.6326949684e+000	 1.2851701287e+000	 2.9961341829e-001
 3.6189743822e+000	 1.3233139825e+000	 2.5543898084e-001
 3.6048199378e+000	 1.3613997279e+000	 2.0638992066e-001
 3.5902311097e+000	 1.3994202842e+000	 1.6292958194e-001
 3.5752075201e+000	 1.4373685286e+000	 1.2501243328e-001
 3.5597489411e+000	 1.4752373004e+000	 9.1951276893e-002
 3.5438552963e+000	 1.5130194043e+000	 6.2975875433e-002
 3.7087414391e+000	 1.1399877819e+000	 4.1446918927e-001
 3.6966651541e+000	 1.1785592929e+000	 3.8976630363e-001
 3.6841555728e+000	 1.2171003199e+000	 3.6264533512e-001
 3.6712115915e+000	 1.2556039371e+000	 3.3120646070e-001
 3.6578322468e+000	 1.2940631625e+000	 2.9357427259e-001
 3.6440167178e+000	 1.3324709616e+000	 2.4795546011e-001
 3.6297643284e+000	 1.3708202502e+000	 2.0024232652e-001
 3.6150745495e+000	 1.4091038986e+000	 1.5786349805e-001
 3.5999470007e+000	 1.4473147347e+000	 1.2039420050e-001
 3.5843814525e+000	 1.4854455482e+000	 8.7325550607e-002
 3.5683778279e+000	 1.5234890943e+000	 5.8067424880e-002
 3.7342285745e+000	 1.1478219821e+000	 4.1002949665e-001
 3.7220692992e+000	 1.1866585635e+000	 3.8535156741e-001
 3.7094737498e+000	 1.2254644513e+000	 3.5777853763e-001
 3.6964408151e+000	 1.2642326722e+000	 3.2550065954e-001
 3.6829695251e+000	 1.3029561964e+000	 2.8671925413e-001
 3.6690590534e+000	 1.3416279407e+000	 2.4003979691e-001
 3.6547087190e+000	 1.3802407725e+000	 1.9386770248e-001
 3.6399179893e+000	 1.4187875129e+000	 1.5232744872e-001
 3.6246864813e+000	 1.4572609408e+000	 1.1516751927e-001
 3.6090139638e+000	 1.4956537961e+000	 8.2058349194e-002
 3.5929003595e+000	 1.5339587842e+000	 5.2591322583e-002
 3.7597157100e+000	 1.1556561824e+000	 4.0474822491e-001
 3.7474734443e+000	 1.1947578341e+000	 3.8003686427e-001
 3.7347919268e+000	 1.2338285827e+000	 3.5197119461e-001
 3.7216700388e+000	 1.2728614074e+000	 3.1884008634e-001
 3.7081068035e+000	 1.3118492302e+000	 2.7892893405e-001
 3.6941013890e+000	 1.3507849198e+000	 2.3194663691e-001
 3.6796531097e+000	 1.3896612948e+000	 1.8701977678e-001
 3.6647614292e+000	 1.4284711273e+000	 1.4612553047e-001
 3.6494259619e+000	 1.4672071469e+000	 1.0918980127e-001
 3.6336464752e+000	 1.5058620440e+000	 7.6063322072e-002
 3.6174228910e+000	 1.5444284742e+000	 4.6520361857e-002
 3.3721975751e+000	 1.4397315747e+000	 8.7270572172e-002
 3.3566622317e+000	 1.4755888670e+000	 5.9261173355e-002
 3.3407133163e+000	 1.5113499448e+000	 2.9042734186e-002
 3.3243512004e+000	 1.5470078906e+000	-2.4669619712e-003
 3.3075764053e+000	 1.5825557699e+000	-3.3997016610e-002
 3.2903896030e+000	 1.6179866343e+000	-6.5077246045e-002
 3.2727916178e+000	 1.6532935261e+000	-9.5604868249e-002
 3.2547834267e+000	 1.6884694823e+000	-1.2574545336e-001
 3.2363661604e+000	 1.7235075382e+000	-1.5591291593e-001
 3.2175411036e+000	 1.7584007324e+000	-1.8674479907e-001
 3.1983096960e+000	 1.7931421101e+000	-2.1907293086e-001
 3.3967201067e+000	 1.4502012647e+000	 8.4124254740e-002
 3.3810717907e+000	 1.4863193103e+000	 5.6789796901e-002
 3.3650068952e+000	 1.5223404416e+000	 2.7303409724e-002
 3.3485257945e+000	 1.5582576911e+000	-3.6175303637e-003
 3.3316290134e+000	 1.5940640736e+000	-3.5257123914e-002
 3.3143172292e+000	 1.6297525903e+000	-6.6614897797e-002
 3.2965912719e+000	 1.6653162329e+000	-9.7234757355e-002
 3.2784521257e+000	 1.7007479877e+000	-1.2726149875e-001
 3.2599009295e+000	 1.7360408395e+000	-1.5710734163e-001
 3.2409389774e+000	 1.7711877760e+000	-1.8742615222e-001
 3.2215677195e+000	 1.8061817922e+000	-2.1908278119e-001
 3.4212426383e+000	 1.4606709546e+000	 8.1101724859e-002
 3.4054813497e+000	 1.4970497535e+000	 5.4154443928e-002
 3.3893004741e+000	 1.5333309384e+000	 2.5234093669e-002
 3.3727003885e+000	 1.5695074916e+000	-5.0477369555e-003
 3.3556816216e+000	 1.6055723773e+000	-3.6084054116e-002
 3.3382448554e+000	 1.6415185463e+000	-6.7275819744e-002
 3.3203909260e+000	 1.6773389397e+000	-9.7977043270e-002
 3.3021208248e+000	 1.7130264931e+000	-1.2786358406e-001
 3.2834356986e+000	 1.7485741407e+000	-1.5734663222e-001
 3.2643368512e+000	 1.7839748197e+000	-1.8711659101e-001
 3.2448257431e+000	 1.8192214742e+000	-2.1809332523e-001
 3.4457651699e+000	 1.4711406446e+000	 7.8041582877e-002
 3.4298909086e+000	 1.5077801967e+000	 5.1264448759e-002
 3.4135940530e+000	 1.5443214353e+000	 2.2806119161e-002
 3.3968749825e+000	 1.5807572920e+000	-6.8460616712e-003
 3.3797342297e+000	 1.6170806810e+000	-3.7209881769e-002
 3.3621724816e+000	 1.6532845023e+000	-6.7811550613e-002
 3.3441905801e+000	 1.6893616465e+000	-9.8189292643e-002
 3.3257895238e+000	 1.7253049986e+000	-1.2791099815e-001
 3.3069704678e+000	 1.7611074420e+000	-1.5701705007e-001
 3.2877347250e+000	 1.7967618633e+000	-1.8623065927e-001
 3.2680837666e+000	 1.8322611562e+000	-2.1654855508e-001
 3.4702877015e+000	 1.4816103345e+000	 7.4805473555e-002
 3.4543004676e+000	 1.5185106399e+000	 4.8050192650e-002
 3.4378876319e+000	 1.5553119321e+000	 2.0010087060e-002
 3.4210495765e+000	 1.5920070925e+000	-8.9698144390e-003
 3.4037868379e+000	 1.6285889847e+000	-3.8550720039e-002
 3.3861001078e+000	 1.6650504584e+000	-6.8403277406e-002
 3.3679902342e+000	 1.7013843533e+000	-9.8211104473e-002
 3.3494582228e+000	 1.7375835040e+000	-1.2767462071e-001
 3.3305052369e+000	 1.7736407432e+000	-1.5652235386e-001
 3.3111325989e+000	 1.8095489069e+000	-1.8519659903e-001
 3.2913417901e+000	 1.8453008382e+000	-2.1490204144e-001
 3.4948102331e+000	 1.4920800244e+000	 7.1276766949e-002
 3.4787100266e+000	 1.5292410832e+000	 4.4461789156e-002
 3.4621812108e+000	 1.5663024289e+000	 1.6854546351e-002
 3.4452241706e+000	 1.6032568930e+000	-1.1359938769e-002
 3.4278394461e+000	 1.6400972884e+000	-4.0004535099e-002
 3.4100277339e+000	 1.6768164144e+000	-6.8913104517e-002
 3.3917898883e+000	 1.7134070602e+000	-9.7933955755e-002
 3.3731269218e+000	 1.7498620094e+000	-1.2693362185e-001
 3.3540400061e+000	 1.7861740445e+000	-1.5580092597e-001
 3.3345304727e+000	 1.8223359506e+000	-1.8445129444e-001
 3.3145998137e+000	 1.8583405202e+000	-2.1361427383e-001
 3.5193327647e+000	 1.5025497144e+000	 6.7359256774e-002
 3.5031195856e+000	 1.5399715264e+000	 4.0467784834e-002
 3.4864747897e+000	 1.5772929258e+000	 1.3364688114e-002
 3.4693987646e+000	 1.6145066935e+000	-1.3942333153e-002
 3.4518920542e+000	 1.6516055921e+000	-4.1455657253e-002
 3.4339553601e+000	 1.6885823704e+000	-6.9190727597e-002
 3.4155895424e+000	 1.7254297670e+000	-9.7179416340e-002
 3.3967956208e+000	 1.7621405148e+000	-1.2547373493e-001
 3.3775747752e+000	 1.7987073457e+000	-1.5414985495e-001
 3.3579283465e+000	 1.8351229942e+000	-1.8331239621e-001
 3.3378578372e+000	 1.8713802022e+000	-2.1309893287e-001
 3.5438552963e+000	 1.5130194043e+000	 6.2975875433e-002
 3.5275291446e+000	 1.5507019696e+000	 3.6053874553e-002
 3.5107683686e+000	 1.5882834226e+000	 9.5810523949e-003
 3.4935733586e+000	 1.6257564939e+000	-1.6629160922e-002
 3.4759446624e+000	 1.6631138959e+000	-4.2776115371e-002
 3.4578829863e+000	 1.7003483264e+000	-6.9074799975e-002
 3.4393891965e+000	 1.7374524738e+000	-9.5759103691e-002
 3.4204643198e+000	 1.7744190203e+000	-1.2308544697e-001
 3.4011095443e+000	 1.8112406470e+000	-1.5133674578e-001
 3.3813262203e+000	 1.8479100378e+000	-1.8082666324e-001
 3.3611158607e+000	 1.8844198842e+000	-2.1190409723e-001
 3.5683778279e+000	 1.5234890943e+000	 5.8067424880e-002
 3.5519387036e+000	 1.5614324128e+000	 3.1221630699e-002
 3.5350619475e+000	 1.5992739195e+000	 5.5582473631e-003
 3.5177479526e+000	 1.6370062944e+000	-1.9320149114e-002
 3.4999972705e+000	 1.6746221996e+000	-4.3826961341e-002
 3.4818106125e+000	 1.7121142824e+000	-6.8394289787e-002
 3.4631888507e+000	 1.7494751806e+000	-9.3476079358e-002
 3.4441330188e+000	 1.7866975257e+000	-1.1955166082e-001
 3.4246443135e+000	 1.8237739482e+000	-1.4712964730e-001
 3.4047240942e+000	 1.8606970815e+000	-1.7675213889e-001
 3.3843738843e+000	 1.8974595662e+000	-2.0899918169e-001
 3.5929003595e+000	 1.5339587842e+000	 5.2591322583e-002
 3.5763482626e+000	 1.5721628561e+000	 2.5987245623e-002
 3.5593555264e+000	 1.6102644163e+000	 1.3636801666e-003
 3.5419225467e+000	 1.6482560949e+000	-2.1903876880e-002
 3.5240498787e+000	 1.6861305033e+000	-4.4459584986e-002
 3.5057382387e+000	 1.7238802385e+000	-6.6969828255e-002
 3.4869885048e+000	 1.7614978874e+000	-9.0126237008e-002
 3.4678017179e+000	 1.7989760311e+000	-1.1464912894e-001
 3.4481790826e+000	 1.8363072495e+000	-1.4129132837e-001
 3.4281219680e+000	 1.8734841251e+000	-1.7084231459e-001
 3.4076319078e+000	 1.9104992482e+000	-2.0413264324e-001
 3.6174228910e+000	 1.5444284742e+000	 4.6520361857e-002
 3.6007578216e+000	 1.5828932993e+000	 2.0380286687e-002
 3.5836491053e+000	 1.6212549131e+000	-2.9237010708e-003
 3.5660971407e+000	 1.6595058954e+000	-2.4259053924e-002
 3.5481024868e+000	 1.6976388070e+000	-4.4517019928e-002
 3.5296658649e+000	 1.7356461945e+000	-6.4615049530e-002
 3.5107881589e+000	 1.7735205942e+000	-8.5499682411e-002
 3.4914704169e+000	 1.8112545366e+000	-1.0814987920e-001
 3.4717138517e+000	 1.8488405507e+000	-1.3358075489e-001
 3.4515198418e+000	 1.8862711687e+000	-1.6284766278e-001
 3.4308899314e+000	 1.9235389302e+000	-1.9705057037e-001
 3.1983096960e+000	 1.7931421101e+000	-2.1907293086e-001
 3.1786705568e+000	 1.8277299040e+000	-2.5048423651e-001
 3.1586282936e+000	 1.8621519615e+000	-2.7943259988e-001
 3.1381848154e+000	 1.8964013734e+000	-3.0827786403e-001
 3.1173421865e+000	 1.9304712547e+000	-3.3945653220e-001
 3.0961026268e+000	 1.9643547489e+000	-3.7543005381e-001
 3.0744685107e+000	 1.9980450323e+000	-4.1862976178e-001
 3.0524423675e+000	 2.0315353184e+000	-4.6295542697e-001
 3.0300268800e+000	 2.0648188619e+000	-5.0001423698e-001
 3.0072248842e+000	 2.0978889635e+000	-5.3188313639e-001
 2.9840393683e+000	 2.1307389737e+000	-5.6066342165e-001
 3.2215677195e+000	 1.8061817922e+000	-2.1908278119e-001
 3.2017857650e+000	 1.8410211076e+000	-2.5000326978e-001
 3.1815977550e+000	 1.8756934813e+000	-2.7899267467e-001
 3.1610056124e+000	 1.9101919540e+000	-3.0848348982e-001
 3.1400114165e+000	 1.9445095906e+000	-3.4099671866e-001
 3.1186174032e+000	 1.9786394847e+000	-3.7908768170e-001
 3.0968259644e+000	 2.0125747630e+000	-4.2397754330e-001
 3.0746396477e+000	 2.0463085895e+000	-4.6410007565e-001
 3.0520611554e+000	 2.0798341701e+000	-4.9789626443e-001
 3.0290933441e+000	 2.1131447565e+000	-5.2755358876e-001
 3.0057392237e+000	 2.1462336512e+000	-5.5525015770e-001
 3.2448257431e+000	 1.8192214742e+000	-2.1809332523e-001
 3.2249009733e+000	 1.8543123111e+000	-2.4857759687e-001
 3.2045672165e+000	 1.8892350011e+000	-2.7773487659e-001
 3.1838264094e+000	 1.9239825346e+000	-3.0805441466e-001
 3.1626806464e+000	 1.9585479265e+000	-3.4212626943e-001
 3.1411321796e+000	 1.9929242205e+000	-3.8258456257e-001
 3.1191834182e+000	 2.0271044936e+000	-4.2605346763e-001
 3.0968369279e+000	 2.0610818606e+000	-4.6228820293e-001
 3.0740954307e+000	 2.0948494782e+000	-4.9312710238e-001
 3.0509618039e+000	 2.1284005496e+000	-5.2081591371e-001
 3.0274390790e+000	 2.1617283286e+000	-5.4758917336e-001
 3.2680837666e+000	 1.8322611562e+000	-2.1654855508e-001
 3.2480161815e+000	 1.8676035146e+000	-2.4667604144e-001
 3.2275366779e+000	 1.9027765210e+000	-2.7614307440e-001
 3.2066472063e+000	 1.9377731153e+000	-3.0748062965e-001
 3.1853498764e+000	 1.9725862624e+000	-3.4333328705e-001
 3.1636469561e+000	 2.0072089563e+000	-3.8598808596e-001
 3.1415408719e+000	 2.0416342243e+000	-4.2545884041e-001
 3.1190342081e+000	 2.0758551317e+000	-4.5813606718e-001
 3.0961297061e+000	 2.1098647864e+000	-4.8630198191e-001
 3.0728302637e+000	 2.1436563427e+000	-5.1224111080e-001
 3.0491389344e+000	 2.1772230061e+000	-5.3822463724e-001
 3.2913417901e+000	 1.8453008382e+000	-2.1490204144e-001
 3.2711313898e+000	 1.8808947182e+000	-2.4477275428e-001
 3.2505061393e+000	 1.9163180408e+000	-2.7470225654e-001
 3.2294680033e+000	 1.9515636959e+000	-3.0724908926e-001
 3.2080191063e+000	 1.9866245983e+000	-3.4509874010e-001
 3.1861617325e+000	 2.0214936921e+000	-3.8740673280e-001
 3.1638983256e+000	 2.0561639549e+000	-4.2281929129e-001
 3.1412314882e+000	 2.0906284029e+000	-4.5225156905e-001
 3.1181639814e+000	 2.1248800946e+000	-4.7800737752e-001
 3.0946987236e+000	 2.1589121357e+000	-5.0239112240e-001
 3.0708387898e+000	 2.1927176836e+000	-5.2769144970e-001
 3.3145998137e+000	 1.8583405202e+000	-2.1361427383e-001
 3.2942465980e+000	 1.8941859217e+000	-2.4334442393e-001
 3.2734756007e+000	 1.9298595606e+000	-2.7389560473e-001
 3.2522888003e+000	 1.9653542766e+000	-3.0784064132e-001
 3.2306883363e+000	 2.0006629342e+000	-3.4788993943e-001
 3.2086765089e+000	 2.0357784278e+000	-3.8706814493e-001
 3.1862557793e+000	 2.0706936855e+000	-4.1875203439e-001
 3.1634287684e+000	 2.1054016740e+000	-4.4523364617e-001
 3.1401982568e+000	 2.1398954027e+000	-4.6882035688e-001
 3.1165671834e+000	 2.1741679288e+000	-4.9181813588e-001
 3.0925386452e+000	 2.2082123611e+000	-5.1651449562e-001
 3.3378578372e+000	 1.8713802022e+000	-2.1309893287e-001
 3.3173618062e+000	 1.9074771252e+000	-2.4286747615e-001
 3.2964450622e+000	 1.9434010804e+000	-2.7420155620e-001
 3.2751095973e+000	 1.9791448572e+000	-3.0972694559e-001
 3.2533575662e+000	 2.0147012702e+000	-3.5058208190e-001
 3.2311912853e+000	 2.0500631636e+000	-3.8559535006e-001
 3.2086132330e+000	 2.0852234162e+000	-4.1386529447e-001
 3.1856260486e+000	 2.1201749451e+000	-4.3767165813e-001
 3.1622325321e+000	 2.1549107109e+000	-4.5930792169e-001
 3.1384356433e+000	 2.1894237219e+000	-4.8106387803e-001
 3.1142385006e+000	 2.2237070385e+000	-5.0520789026e-001
 3.3611158607e+000	 1.8844198842e+000	-2.1190409723e-001
 3.3404770145e+000	 1.9207683288e+000	-2.4364651017e-001
 3.3194145236e+000	 1.9569426003e+000	-2.7609085502e-001
 3.2979303943e+000	 1.9929354379e+000	-3.1336738137e-001
 3.2760267961e+000	 2.0287396061e+000	-3.5242837939e-001
 3.2537060618e+000	 2.0643478994e+000	-3.8360253704e-001
 3.2309706867e+000	 2.0997531468e+000	-4.0875772336e-001
 3.2078233288e+000	 2.1349482162e+000	-4.3014476233e-001
 3.1842668075e+000	 2.1699260190e+000	-4.5002634020e-001
 3.1603041031e+000	 2.2046795149e+000	-4.7065890186e-001
 3.1359383559e+000	 2.2392017160e+000	-4.9427421875e-001
 3.3843738843e+000	 1.8974595662e+000	-2.0899918169e-001
 3.3635922227e+000	 1.9340595323e+000	-2.4344305064e-001
 3.3423839850e+000	 1.9704841201e+000	-2.7968512234e-001
 3.3207511913e+000	 2.0067260185e+000	-3.1889309309e-001
 3.2986960261e+000	 2.0427779420e+000	-3.5404552910e-001
 3.2762208382e+000	 2.0786326352e+000	-3.8169449960e-001
 3.2533281404e+000	 2.1142828775e+000	-4.0401780680e-001
 3.2300206090e+000	 2.1497214873e+000	-4.2322128096e-001
 3.2063010828e+000	 2.1849413272e+000	-4.4152047161e-001
 3.1821725629e+000	 2.2199353080e+000	-4.6112186641e-001
 3.1576382113e+000	 2.2546963935e+000	-4.8420376939e-001
 3.4076319078e+000	 1.9104992482e+000	-2.0413264324e-001
 3.3867074309e+000	 1.9473507358e+000	-2.4122445967e-001
 3.3653534464e+000	 1.9840256399e+000	-2.8200211316e-001
 3.3435719883e+000	 2.0205165991e+000	-3.2431110081e-001
 3.3213652560e+000	 2.0568162779e+000	-3.5604117940e-001
 3.2987356146e+000	 2.0929173710e+000	-3.8046607064e-001
 3.2756855941e+000	 2.1288126081e+000	-4.0022326248e-001
 3.2522178891e+000	 2.1644947584e+000	-4.1745805968e-001
 3.2283353582e+000	 2.1999566354e+000	-4.3432308302e-001
 3.2040410228e+000	 2.2351911011e+000	-4.5295880969e-001
 3.1793380667e+000	 2.2701910710e+000	-4.7547376119e-001
 3.4308899314e+000	 1.9235389302e+000	-1.9705057037e-001
 3.4098226392e+000	 1.9606419394e+000	-2.3673140777e-001
 3.3883229079e+000	 1.9975671597e+000	-2.8202412830e-001
 3.3663927853e+000	 2.0343071798e+000	-3.2581066991e-001
 3.3440344860e+000	 2.0708546138e+000	-3.5835676125e-001
 3.3212503911e+000	 2.1072021068e+000	-3.8050154757e-001
 3.2980430479e+000	 2.1433423388e+000	-3.9794042942e-001
 3.2744151693e+000	 2.1792680296e+000	-4.1339981834e-001
 3.2503696335e+000	 2.2149719435e+000	-4.2895415898e-001
 3.2259094826e+000	 2.2504468941e+000	-4.4666241526e-001
 3.2010379221e+000	 2.2856857484e+000	-4.6854756571e-001
 2.9840393683e+000	 2.1307389737e+000	-5.6066342165e-001
 2.9604734706e+000	 2.1633622969e+000	-5.8714483469e-001
 2.9365304761e+000	 2.1957523930e+000	-6.1091181642e-001
 2.9122138177e+000	 2.2279027839e+000	-6.3217422606e-001
 2.8875270751e+000	 2.2598070584e+000	-6.5104039559e-001
 2.8624739740e+000	 2.2914588763e+000	-6.6750624538e-001
 2.8370583836e+000	 2.3228519726e+000	-6.8144484759e-001
 2.8112843151e+000	 2.3539801615e+000	-6.9259653550e-001
 2.7851559196e+000	 2.3848373405e+000	-7.0055965455e-001
 2.7586774858e+000	 2.4154174939e+000	-7.0478204819e-001
 2.7318534379e+000	 2.4457146975e+000	-7.0455336814e-001
 3.0057392237e+000	 2.1462336512e+000	-5.5525015770e-001
 2.9820019554e+000	 2.1790942103e+000	-5.8152639649e-001
 2.9578848481e+000	 2.2117198463e+000	-6.0557511357e-001
 2.9333913595e+000	 2.2441040340e+000	-6.2746582270e-001
 2.9085250957e+000	 2.2762403155e+000	-6.4716347260e-001
 2.8832898091e+000	 2.3081223046e+000	-6.6451725281e-001
 2.8576893972e+000	 2.3397436907e+000	-6.7924986301e-001
 2.8317279003e+000	 2.3710982430e+000	-6.9094734815e-001
 2.8054094998e+000	 2.4021798145e+000	-6.9904959919e-001
 2.7787385155e+000	 2.4329823461e+000	-7.0284161665e-001
 2.7517194038e+000	 2.4634998701e+000	-7.0144563020e-001
 3.0274390790e+000	 2.1617283286e+000	-5.4758917336e-001
 3.0035304402e+000	 2.1948261237e+000	-5.7373640539e-001
 2.9792392201e+000	 2.2276872997e+000	-5.9808738830e-001
 2.9545689014e+000	 2.2603052841e+000	-6.2059602085e-001
 2.9295231162e+000	 2.2926735727e+000	-6.4110861388e-001
 2.9041056441e+000	 2.3247857330e+000	-6.5935231935e-001
 2.8783204107e+000	 2.3566354088e+000	-6.7492403893e-001
 2.8521714855e+000	 2.3882163245e+000	-6.8727991839e-001
 2.8256630800e+000	 2.4195222886e+000	-6.9572553229e-001
 2.7987995452e+000	 2.4505471982e+000	-6.9940686021e-001
 2.7715853698e+000	 2.4812850427e+000	-6.9730215208e-001
 3.0491389344e+000	 2.1772230061e+000	-5.3822463724e-001
 3.0250589250e+000	 2.2105580372e+000	-5.6429190193e-001
 3.0005935921e+000	 2.2436547530e+000	-5.8893991400e-001
 2.9757464433e+000	 2.2765065343e+000	-6.1203132551e-001
 2.9505211367e+000	 2.3091068299e+000	-6.3331818750e-001
 2.9249214792e+000	 2.3414491613e+000	-6.5242993504e-001
 2.8989514243e+000	 2.3735271269e+000	-6.6886186764e-001
 2.8726150707e+000	 2.4053344060e+000	-6.8196423619e-001
 2.8459166602e+000	 2.4368647627e+000	-6.9093204531e-001
 2.8188605750e+000	 2.4681120504e+000	-6.9479567715e-001
 2.7914513357e+000	 2.4990702153e+000	-6.9241243826e-001
 3.0708387898e+000	 2.1927176836e+000	-5.2769144970e-001
 3.0465874098e+000	 2.2262899506e+000	-5.5370048038e-001
 3.0219479640e+000	 2.2596222063e+000	-5.7861433419e-001
 2.9969239852e+000	 2.2927077844e+000	-6.0222844107e-001
 2.9715191573e+000	 2.3255400870e+000	-6.2422462165e-001
 2.9457373142e+000	 2.3581125897e+000	-6.4415856042e-001
 2.9195824378e+000	 2.3904188451e+000	-6.6144779031e-001
 2.8930586559e+000	 2.4224524875e+000	-6.7536030484e-001
 2.8661702404e+000	 2.4542072368e+000	-6.8500391164e-001
 2.8389216047e+000	 2.4856769025e+000	-6.8931643805e-001
 2.8113173017e+000	 2.5168553879e+000	-6.8705689520e-001
 3.0925386452e+000	 2.2082123611e+000	-5.1651449562e-001
 3.0681158946e+000	 2.2420218640e+000	-5.4245949210e-001
 3.0433023360e+000	 2.2755896597e+000	-5.6758181829e-001
 3.0181015271e+000	 2.3089090345e+000	-5.9163338094e-001
 2.9925171778e+000	 2.3419733442e+000	-6.1424946884e-001
 2.9665531493e+000	 2.3747760180e+000	-6.3493564584e-001
 2.9402134514e+000	 2.4073105632e+000	-6.5305517139e-001
 2.9135022411e+000	 2.4395705690e+000	-6.6781707011e-001
 2.8864238206e+000	 2.4715497108e+000	-6.7826496946e-001
 2.8589826344e+000	 2.5032417546e+000	-6.8326682108e-001
 2.8311832677e+000	 2.5346405605e+000	-6.8150561731e-001
 3.1142385006e+000	 2.2237070385e+000	-5.0520789026e-001
 3.0896443794e+000	 2.2577537774e+000	-5.3105524323e-001
 3.0646567080e+000	 2.2915571130e+000	-5.5630221284e-001
 3.0392790689e+000	 2.3251102847e+000	-5.8068057348e-001
 3.0135151984e+000	 2.3584066014e+000	-6.0380246753e-001
 2.9873689843e+000	 2.3914394464e+000	-6.2514664923e-001
 2.9608444649e+000	 2.4242022813e+000	-6.4404527255e-001
 2.9339458263e+000	 2.4566886504e+000	-6.5967134989e-001
 2.9066774008e+000	 2.4888921849e+000	-6.7102700635e-001
 2.8790436642e+000	 2.5208066068e+000	-6.7693265036e-001
 2.8510492336e+000	 2.5524257331e+000	-6.7601717741e-001
 3.1359383559e+000	 2.2392017160e+000	-4.9427421875e-001
 3.1111728642e+000	 2.2734856908e+000	-5.1996218699e-001
 3.0860110799e+000	 2.3075245664e+000	-5.4522318823e-001
 3.0604566108e+000	 2.3413115348e+000	-5.6979196455e-001
 3.0345132189e+000	 2.3748398586e+000	-5.9328060127e-001
 3.0081848194e+000	 2.4081028747e+000	-6.1516405235e-001
 2.9814754785e+000	 2.4410939994e+000	-6.3476622613e-001
 2.9543894115e+000	 2.4738067319e+000	-6.5124676454e-001
 2.9269309810e+000	 2.5062346590e+000	-6.6358864580e-001
 2.8991046939e+000	 2.5383714589e+000	-6.7058673739e-001
 2.8709151996e+000	 2.5702109057e+000	-6.7083742147e-001
 3.1576382113e+000	 2.2546963935e+000	-4.8420376939e-001
 3.1327013490e+000	 2.2892176042e+000	-5.0964211077e-001
 3.1073654519e+000	 2.3234920197e+000	-5.3477938129e-001
 3.0816341527e+000	 2.3575127849e+000	-5.5937611672e-001
 3.0555112394e+000	 2.3912731157e+000	-5.8306715555e-001
 3.0290006544e+000	 2.4247663031e+000	-6.0534637562e-001
 3.0021064920e+000	 2.4579857176e+000	-6.2555200813e-001
 2.9748329967e+000	 2.4909248134e+000	-6.4285266771e-001
 2.9471845612e+000	 2.5235771331e+000	-6.5623423516e-001
 2.9191657236e+000	 2.5559363111e+000	-6.6448772525e-001
 2.8907811656e+000	 2.5879960783e+000	-6.6619826758e-001
 3.1793380667e+000	 2.2701910710e+000	-4.7547376119e-001
 3.1542298338e+000	 2.3049495177e+000	-5.0054331842e-001
 3.1287198239e+000	 2.3394594730e+000	-5.2539153385e-001
 3.1028116945e+000	 2.3737140351e+000	-5.4982730547e-001
 3.0765092600e+000	 2.4077063729e+000	-5.7353077231e-001
 3.0498164895e+000	 2.4414297315e+000	-5.9603719168e-001
 3.0227375055e+000	 2.4748774357e+000	-6.1672141077e-001
 2.9952765819e+000	 2.5080428949e+000	-6.3478307776e-001
 2.9674381414e+000	 2.5409196071e+000	-6.4923273536e-001
 2.9392267533e+000	 2.5735011632e+000	-6.5887893542e-001
 2.9106471315e+000	 2.6057812509e+000	-6.6231650872e-001
 3.2010379221e+000	 2.2856857484e+000	-4.6854756571e-001
 3.1757583185e+000	 2.3206814311e+000	-4.9309980780e-001
 3.1500741959e+000	 2.3554269264e+000	-5.1746562752e-001
 3.1239892364e+000	 2.3899152852e+000	-5.4152461231e-001
 3.0975072805e+000	 2.4241396301e+000	-5.6502450243e-001
 3.0706323245e+000	 2.4580931598e+000	-5.8756413754e-001
 3.0433685191e+000	 2.4917691538e+000	-6.0857701464e-001
 3.0157201671e+000	 2.5251609764e+000	-6.2731560967e-001
 2.9876917216e+000	 2.5582620812e+000	-6.4283661200e-001
 2.9592877831e+000	 2.5910660154e+000	-6.5398721737e-001
 2.9305130975e+000	 2.6235664236e+000	-6.5939261929e-001
 2.7318534379e+000	 2.4457146975e+000	-7.0455336814e-001
 2.7046924333e+000	 2.4757186428e+000	-7.0674742157e-001
 2.6771951619e+000	 2.5054281689e+000	-7.1879732347e-001
 2.6493664393e+000	 2.5348376517e+000	-7.3866108455e-001
 2.6212112056e+000	 2.5639415729e+000	-7.5899116110e-001
 2.5927345231e+000	 2.5927345231e+000	-7.7915243060e-001
 2.5639415729e+000	 2.6212112056e+000	-7.9913867626e-001
 2.5348376517e+000	 2.6493664393e+000	-8.1882131658e-001
 2.5054281689e+000	 2.6771951619e+000	-8.3771560348e-001
 2.4757186428e+000	 2.7046924333e+000	-8.5347708560e-001
 2.4457146975e+000	 2.7318534379e+000	-8.6557106721e-001
 2.7517194038e+000	 2.4634998701e+000	-7.0144563020e-001
 2.7243608852e+000	 2.4937220033e+000	-7.0153487471e-001
 2.6966636544e+000	 2.5236475763e+000	-7.1058106538e-001
 2.6686325620e+000	 2.5532709241e+000	-7.2862591280e-001
 2.6402725842e+000	 2.5825864882e+000	-7.5131393123e-001
 2.6115888200e+000	 2.6115888200e+000	-7.7322658515e-001
 2.5825864882e+000	 2.6402725842e+000	-7.9447223906e-001
 2.5532709241e+000	 2.6686325620e+000	-8.1503955500e-001
 2.5236475763e+000	 2.6966636544e+000	-8.3322538477e-001
 2.4937220033e+000	 2.7243608852e+000	-8.4791238010e-001
 2.4634998701e+000	 2.7517194038e+000	-8.5931084705e-001
 2.7715853698e+000	 2.4812850427e+000	-6.9730215208e-001
 2.7440293370e+000	 2.5117253638e+000	-6.9584887508e-001
 2.7161321468e+000	 2.5418669837e+000	-7.0248429675e-001
 2.6878986846e+000	 2.5717041965e+000	-7.1739573352e-001
 2.6593339627e+000	 2.6012314035e+000	-7.4023129445e-001
 2.6304431169e+000	 2.6304431169e+000	-7.6426804992e-001
 2.6012314035e+000	 2.6593339627e+000	-7.8703019204e-001
 2.5717041965e+000	 2.6878986846e+000	-8.0783748885e-001
 2.5418669837e+000	 2.7161321468e+000	-8.2491973849e-001
 2.5117253638e+000	 2.7440293370e+000	-8.3851391487e-001
 2.4812850427e+000	 2.7715853698e+000	-8.4897307115e-001
 2.7914513357e+000	 2.4990702153e+000	-6.9241243826e-001
 2.7636977889e+000	 2.5297287243e+000	-6.8995461728e-001
 2.7356006392e+000	 2.5600863910e+000	-6.9475855953e-001
 2.7071648073e+000	 2.5901374688e+000	-7.0712424509e-001
 2.6783953413e+000	 2.6198763188e+000	-7.2711717289e-001
 2.6492974138e+000	 2.6492974138e+000	-7.5290175413e-001
 2.6198763188e+000	 2.6783953413e+000	-7.7725127539e-001
 2.5901374688e+000	 2.7071648073e+000	-7.9757017799e-001
 2.5600863910e+000	 2.7356006392e+000	-8.1377600642e-001
 2.5297287243e+000	 2.7636977889e+000	-8.2632149581e-001
 2.4990702153e+000	 2.7914513357e+000	-8.3567571074e-001
 2.8113173017e+000	 2.5168553879e+000	-6.8705689520e-001
 2.7833662407e+000	 2.5477320848e+000	-6.8410860904e-001
 2.7550691316e+000	 2.5783057984e+000	-6.8764692053e-001
 2.7264309300e+000	 2.6085707412e+000	-6.9805228363e-001
 2.6974567199e+000	 2.6385212342e+000	-7.1545861553e-001
 2.6681517107e+000	 2.6681517107e+000	-7.3974355806e-001
 2.6385212342e+000	 2.6974567199e+000	-7.6496034308e-001
 2.6085707412e+000	 2.7264309300e+000	-7.8510911834e-001
 2.5783057984e+000	 2.7550691316e+000	-8.0071143515e-001
 2.5477320848e+000	 2.7833662407e+000	-8.1231274492e-001
 2.5168553879e+000	 2.8113173017e+000	-8.2047202757e-001
 2.8311832677e+000	 2.5346405605e+000	-6.8150561731e-001
 2.8030346926e+000	 2.5657354453e+000	-6.7855741172e-001
 2.7745376241e+000	 2.5965252058e+000	-6.8138267684e-001
 2.7456970527e+000	 2.6270040136e+000	-6.9041088663e-001
 2.7165180985e+000	 2.6571661495e+000	-7.0581314293e-001
 2.6870060076e+000	 2.6870060076e+000	-7.2685069959e-001
 2.6571661495e+000	 2.7165180985e+000	-7.5084537002e-001
 2.6270040136e+000	 2.7456970527e+000	-7.7126881648e-001
 2.5965252058e+000	 2.7745376241e+000	-7.8658466304e-001
 2.5657354453e+000	 2.8030346926e+000	-7.9740464970e-001
 2.5346405605e+000	 2.8311832677e+000	-8.0435219851e-001
 2.8510492336e+000	 2.5524257331e+000	-6.7601717741e-001
 2.8227031444e+000	 2.5837388058e+000	-6.7353638660e-001
 2.7940061165e+000	 2.6147446132e+000	-6.7618806803e-001
 2.7649631754e+000	 2.6454372859e+000	-6.8441998182e-001
 2.7355794770e+000	 2.6758110648e+000	-6.9828434040e-001
 2.7058603045e+000	 2.7058603045e+000	-7.1576195064e-001
 2.6758110648e+000	 2.7355794770e+000	-7.3603619747e-001
 2.6454372859e+000	 2.7649631754e+000	-7.5680823085e-001
 2.6147446132e+000	 2.7940061165e+000	-7.7219720969e-001
 2.5837388058e+000	 2.8227031444e+000	-7.8245511244e-001
 2.5524257331e+000	 2.8510492336e+000	-7.8824493696e-001
 2.8709151996e+000	 2.5702109057e+000	-6.7083742147e-001
 2.8423715963e+000	 2.6017421663e+000	-6.6926844680e-001
 2.8134746089e+000	 2.6329640206e+000	-6.7227299479e-001
 2.7842292981e+000	 2.6638705583e+000	-6.8028708280e-001
 2.7546408556e+000	 2.6944559801e+000	-6.9234675598e-001
 2.7247146013e+000	 2.7247146013e+000	-7.0683370515e-001
 2.6944559801e+000	 2.7546408556e+000	-7.2361133340e-001
 2.6638705583e+000	 2.7842292981e+000	-7.4243221730e-001
 2.6329640206e+000	 2.8134746089e+000	-7.5829496775e-001
 2.6017421663e+000	 2.8423715963e+000	-7.6826449949e-001
 2.5702109057e+000	 2.8709151996e+000	-7.7301911109e-001
 2.8907811656e+000	 2.5879960783e+000	-6.6619826758e-001
 2.8620400481e+000	 2.6197455268e+000	-6.6596281446e-001
 2.8329431013e+000	 2.6511834280e+000	-6.6983374365e-001
 2.8034954208e+000	 2.6823038307e+000	-6.7786662995e-001
 2.7737022342e+000	 2.7131008954e+000	-6.8817296635e-001
 2.7435688982e+000	 2.7435688982e+000	-7.0038199585e-001
 2.7131008954e+000	 2.7737022342e+000	-7.1434987928e-001
 2.6823038307e+000	 2.8034954208e+000	-7.2984350422e-001
 2.6511834280e+000	 2.8329431013e+000	-7.4556969707e-001
 2.6197455268e+000	 2.8620400481e+000	-7.5557719036e-001
 2.5879960783e+000	 2.8907811656e+000	-7.5948535910e-001
 2.9106471315e+000	 2.6057812509e+000	-6.6231650872e-001
 2.8817085000e+000	 2.6377488873e+000	-6.6381378290e-001
 2.8524115938e+000	 2.6694028354e+000	-6.6904204357e-001
 2.8227615435e+000	 2.7007371031e+000	-6.7679848863e-001
 2.7927636128e+000	 2.7317458107e+000	-6.8603997599e-001
 2.7624231951e+000	 2.7624231951e+000	-6.9668352987e-001
 2.7317458107e+000	 2.7927636128e+000	-7.0853941219e-001
 2.7007371031e+000	 2.8227615435e+000	-7.2132675660e-001
 2.6694028354e+000	 2.8524115938e+000	-7.3468940006e-001
 2.6377488873e+000	 2.8817085000e+000	-7.4508312679e-001
 2.6057812509e+000	 2.9106471315e+000	-7.4839770158e-001
 2.9305130975e+000	 2.6235664236e+000	-6.5939261929e-001
 2.9013769518e+000	 2.6557522478e+000	-6.6299948367e-001
 2.8718800862e+000	 2.6876222428e+000	-6.6953253119e-001
 2.8420276662e+000	 2.7191703754e+000	-6.7732082281e-001
 2.8118249913e+000	 2.7503907261e+000	-6.8618669427e-001
 2.7812774920e+000	 2.7812774920e+000	-6.9597672996e-001
 2.7503907261e+000	 2.8118249913e+000	-7.0642873848e-001
 2.7191703754e+000	 2.8420276662e+000	-7.1718821934e-001
 2.6876222428e+000	 2.8718800862e+000	-7.2782502151e-001
 2.6557522478e+000	 2.9013769518e+000	-7.3741936168e-001
 2.6235664236e+000	 2.9305130975e+000	-7.4045515129e-001
 2.4457146975e+000	 2.7318534379e+000	-8.6557106721e-001
 2.4154174939e+000	 2.7586774858e+000	-8.7413427247e-001
 2.3848373405e+000	 2.7851559196e+000	-8.7850113905e-001
 2.3539801615e+000	 2.8112843151e+000	-8.7759763151e-001
 2.3228519726e+000	 2.8370583836e+000	-8.7043279727e-001
 2.2914588763e+000	 2.8624739740e+000	-8.5610110300e-001
 2.2598070584e+000	 2.8875270751e+000	-8.3378442932e-001
 2.2279027839e+000	 2.9122138177e+000	-8.0275372683e-001
 2.1957523930e+000	 2.9365304761e+000	-7.6237033964e-001
 2.1633622969e+000	 2.9604734706e+000	-7.1208700522e-001
 2.1307389737e+000	 2.9840393683e+000	-6.5144854233e-001
 2.4634998701e+000	 2.7517194038e+000	-8.5931084705e-001
 2.4329823461e+000	 2.7787385155e+000	-8.6801598000e-001
 2.4021798145e+000	 2.8054094998e+000	-8.7351456628e-001
 2.3710982430e+000	 2.8317279003e+000	-8.7444503237e-001
 2.3397436907e+000	 2.8576893972e+000	-8.6953750012e-001
 2.3081223046e+000	 2.8832898091e+000	-8.5761656926e-001
 2.2762403155e+000	 2.9085250957e+000	-8.3760372644e-001
 2.2441040340e+000	 2.9333913595e+000	-8.0851938382e-001
 2.2117198463e+000	 2.9578848481e+000	-7.6948455307e-001
 2.1790942103e+000	 2.9820019554e+000	-7.1972216392e-001
 2.1462336512e+000	 3.0057392237e+000	-6.5855803930e-001
 2.4812850427e+000	 2.7715853698e+000	-8.4897307115e-001
 2.4505471982e+000	 2.7987995452e+000	-8.5742749993e-001
 2.4195222886e+000	 2.8256630800e+000	-8.6364560822e-001
 2.3882163245e+000	 2.8521714855e+000	-8.6602923723e-001
 2.3566354088e+000	 2.8783204107e+000	-8.6307884611e-001
 2.3247857330e+000	 2.9041056441e+000	-8.5339665891e-001
 2.2926735727e+000	 2.9295231162e+000	-8.3568940904e-001
 2.2603052841e+000	 2.9545689014e+000	-8.0877068418e-001
 2.2276872997e+000	 2.9792392201e+000	-7.7156287763e-001
 2.1948261237e+000	 3.0035304402e+000	-7.2309875551e-001
 2.1617283286e+000	 3.0274390790e+000	-6.6252265224e-001
 2.4990702153e+000	 2.7914513357e+000	-8.3567571074e-001
 2.4681120504e+000	 2.8188605750e+000	-8.4356215860e-001
 2.4368647627e+000	 2.8459166602e+000	-8.5014048785e-001
 2.4053344060e+000	 2.8726150707e+000	-8.5362591262e-001
 2.3735271269e+000	 2.8989514243e+000	-8.5233752758e-001
 2.3414491613e+000	 2.9249214792e+000	-8.4470173838e-001
 2.3091068299e+000	 2.9505211367e+000	-8.2925526339e-001
 2.2765065343e+000	 2.9757464433e+000	-8.0464770937e-001
 2.2436547530e+000	 3.0005935921e+000	-7.6964372746e-001
 2.2105580372e+000	 3.0250589250e+000	-7.2312475940e-001
 2.1772230061e+000	 3.0491389344e+000	-6.6409038707e-001
 2.5168553879e+000	 2.8113173017e+000	-8.2047202757e-001
 2.4856769025e+000	 2.8389216047e+000	-8.2754613517e-001
 2.4542072368e+000	 2.8661702404e+000	-8.3417648862e-001
 2.4224524875e+000	 2.8930586559e+000	-8.3844066913e-001
 2.3904188451e+000	 2.9195824378e+000	-8.3852377034e-001
 2.3581125897e+000	 2.9457373142e+000	-8.3272203239e-001
 2.3255400870e+000	 2.9715191573e+000	-8.1944602325e-001
 2.2927077844e+000	 2.9969239852e+000	-7.9722337021e-001
 2.2596222063e+000	 3.0219479640e+000	-7.6470104835e-001
 2.2262899506e+000	 3.0465874098e+000	-7.2064723659e-001
 2.1927176836e+000	 3.0708387898e+000	-6.6395275528e-001
 2.5346405605e+000	 2.8311832677e+000	-8.0435219851e-001
 2.5032417546e+000	 2.8589826344e+000	-8.1044015592e-001
 2.4715497108e+000	 2.8864238206e+000	-8.1686369346e-001
 2.4395705690e+000	 2.9135022411e+000	-8.2161081884e-001
 2.4073105632e+000	 2.9402134514e+000	-8.2277908252e-001
 2.3747760180e+000	 2.9665531493e+000	-8.1857933611e-001
 2.3419733442e+000	 2.9925171778e+000	-8.0733901628e-001
 2.3089090345e+000	 3.0181015271e+000	-7.8750495768e-001
 2.2755896597e+000	 3.0433023360e+000	-7.5764574224e-001
 2.2420218640e+000	 3.0681158946e+000	-7.1645359625e-001
 2.2082123611e+000	 3.0925386452e+000	-6.6274585017e-001
 2.5524257331e+000	 2.8510492336e+000	-7.8824493696e-001
 2.5208066068e+000	 2.8790436642e+000	-7.9324118234e-001
 2.4888921849e+000	 2.9066774008e+000	-7.9924671528e-001
 2.4566886504e+000	 2.9339458263e+000	-8.0420712327e-001
 2.4242022813e+000	 2.9608444649e+000	-8.0617799392e-001
 2.3914394464e+000	 2.9873689843e+000	-8.0332871892e-001
 2.3584066014e+000	 3.0135151984e+000	-7.9394580437e-001
 2.3251102847e+000	 3.0392790689e+000	-7.7643569115e-001
 2.2915571130e+000	 3.0646567080e+000	-7.4932709382e-001
 2.2577537774e+000	 3.0896443794e+000	-7.1127287025e-001
 2.2237070385e+000	 3.1142385006e+000	-6.6105143834e-001
 2.5702109057e+000	 2.8709151996e+000	-7.7301911109e-001
 2.5383714589e+000	 2.8991046939e+000	-7.7688409309e-001
 2.5062346590e+000	 2.9269309810e+000	-7.8230641956e-001
 2.4738067319e+000	 2.9543894115e+000	-7.8723553248e-001
 2.4410939994e+000	 2.9814754785e+000	-7.8972978643e-001
 2.4081028747e+000	 3.0081848194e+000	-7.8796022037e-001
 2.3748398586e+000	 3.0345132189e+000	-7.8021381837e-001
 2.3413115348e+000	 3.0604566108e+000	-7.6489626421e-001
 2.3075245664e+000	 3.0860110799e+000	-7.4053419903e-001
 2.2734856908e+000	 3.1111728642e+000	-7.0577699538e-001
 2.2392017160e+000	 3.1359383559e+000	-6.5939806559e-001
 2.5879960783e+000	 2.8907811656e+000	-7.5948535910e-001
 2.5559363111e+000	 2.9191657236e+000	-7.6224336030e-001
 2.5235771331e+000	 2.9471845612e+000	-7.6696163934e-001
 2.4909248134e+000	 2.9748329967e+000	-7.7163891545e-001
 2.4579857176e+000	 3.0021064920e+000	-7.7438021599e-001
 2.4247663031e+000	 3.0290006544e+000	-7.7340053858e-001
 2.3912731157e+000	 3.0555112394e+000	-7.6702798722e-001
 2.3575127849e+000	 3.0816341527e+000	-7.5370638812e-001
 2.3234920197e+000	 3.1073654519e+000	-7.3199739557e-001
 2.2892176042e+000	 3.1327013490e+000	-7.0058210276e-001
 2.2546963935e+000	 3.1576382113e+000	-6.5826217673e-001
 2.6057812509e+000	 2.9106471315e+000	-7.4839770158e-001
 2.5735011632e+000	 2.9392267533e+000	-7.5013472030e-001
 2.5409196071e+000	 2.9674381414e+000	-7.5407088289e-001
 2.5080428949e+000	 2.9952765819e+000	-7.5829878246e-001
 2.4748774357e+000	 3.0227375055e+000	-7.6101322628e-001
 2.4414297315e+000	 3.0498164895e+000	-7.6051471150e-001
 2.4077063729e+000	 3.0765092600e+000	-7.5521236202e-001
 2.3737140351e+000	 3.1028116945e+000	-7.4362633305e-001
 2.3394594730e+000	 3.1287198239e+000	-7.2438969514e-001
 2.3049495177e+000	 3.1542298338e+000	-6.9624981423e-001
 2.2701910710e+000	 3.1793380667e+000	-6.5806924839e-001
 2.6235664236e+000	 2.9305130975e+000	-7.4045515129e-001
 2.5910660154e+000	 2.9592877831e+000	-7.4131683926e-001
 2.5582620812e+000	 2.9876917216e+000	-7.4443403456e-001
 2.5251609764e+000	 3.0157201671e+000	-7.4803699967e-001
 2.4917691538e+000	 3.0433685191e+000	-7.5045265483e-001
 2.4580931598e+000	 3.0706323245e+000	-7.5010779137e-001
 2.4241396301e+000	 3.0975072805e+000	-7.4553173502e-001
 2.3899152852e+000	 3.1239892364e+000	-7.3535846718e-001
 2.3554269264e+000	 3.1500741959e+000	-7.1832821741e-001
 2.3206814311e+000	 3.1757583185e+000	-6.9328854531e-001
 2.2856857484e+000	 3.2010379221e+000	-6.5919493448e-001
 2.1307389737e+000	 2.9840393683e+000	-6.5144854233e-001
 2.0978889635e+000	 3.0072248842e+000	-6.0026703130e-001
 2.0648188619e+000	 3.0300268800e+000	-5.8118202400e-001
 2.0315353184e+000	 3.0524423675e+000	-5.9796487312e-001
 1.9980450323e+000	 3.0744685107e+000	-6.5414651045e-001
 1.9643547489e+000	 3.0961026268e+000	-7.1280323758e-001
 1.9304712547e+000	 3.1173421865e+000	-7.4606015645e-001
 1.8964013734e+000	 3.1381848154e+000	-7.5888822011e-001
 1.8621519615e+000	 3.1586282936e+000	-7.5632890209e-001
 1.8277299040e+000	 3.1786705568e+000	-7.4344283799e-001
 1.7931421101e+000	 3.1983096960e+000	-7.2526110810e-001
 2.1462336512e+000	 3.0057392237e+000	-6.5855803930e-001
 2.1131447565e+000	 3.0290933441e+000	-6.0435471648e-001
 2.0798341701e+000	 3.0520611554e+000	-5.7854296810e-001
 2.0463085895e+000	 3.0746396477e+000	-5.8504125699e-001
 2.0125747630e+000	 3.0968259644e+000	-6.2764722779e-001
 1.9786394847e+000	 3.1186174032e+000	-6.9558138036e-001
 1.9445095906e+000	 3.1400114165e+000	-7.3951876585e-001
 1.9101919540e+000	 3.1610056124e+000	-7.5962273007e-001
 1.8756934813e+000	 3.1815977550e+000	-7.6119230883e-001
 1.8410211076e+000	 3.2017857650e+000	-7.4953534191e-001
 1.8061817922e+000	 3.2215677195e+000	-7.2991783151e-001
 2.1617283286e+000	 3.0274390790e+000	-6.6252265224e-001
 2.1284005496e+000	 3.0509618039e+000	-6.0667839870e-001
 2.0948494782e+000	 3.0740954307e+000	-5.7566024431e-001
 2.0610818606e+000	 3.0968369279e+000	-5.7348320609e-001
 2.0271044936e+000	 3.1191834182e+000	-6.0403875235e-001
 1.9929242205e+000	 3.1411321796e+000	-6.6952750742e-001
 1.9585479265e+000	 3.1626806464e+000	-7.2543145884e-001
 1.9239825346e+000	 3.1838264094e+000	-7.5398374395e-001
 1.8892350011e+000	 3.2045672165e+000	-7.6070703205e-001
 1.8543123111e+000	 3.2249009733e+000	-7.5112407952e-001
 1.8192214742e+000	 3.2448257431e+000	-7.3070515469e-001
 2.1772230061e+000	 3.0491389344e+000	-6.6409038707e-001
 2.1436563427e+000	 3.0728302637e+000	-6.0782486306e-001
 2.1098647864e+000	 3.0961297061e+000	-5.7298767862e-001
 2.0758551317e+000	 3.1190342081e+000	-5.6364090798e-001
 2.0416342243e+000	 3.1415408719e+000	-5.8372229633e-001
 2.0072089563e+000	 3.1636469561e+000	-6.3703931995e-001
 1.9725862624e+000	 3.1853498764e+000	-7.0454686135e-001
 1.9377731153e+000	 3.2066472063e+000	-7.4269963986e-001
 1.9027765210e+000	 3.2275366779e+000	-7.5561604403e-001
 1.8676035146e+000	 3.2480161815e+000	-7.4900246438e-001
 1.8322611562e+000	 3.2680837666e+000	-7.2850371712e-001
 2.1927176836e+000	 3.0708387898e+000	-6.6395275528e-001
 2.1589121357e+000	 3.0946987236e+000	-6.0832890346e-001
 2.1248800946e+000	 3.1181639814e+000	-5.7093085937e-001
 2.0906284029e+000	 3.1412314882e+000	-5.5581929173e-001
 2.0561639549e+000	 3.1638983256e+000	-5.6693168147e-001
 2.0214936921e+000	 3.1861617325e+000	-6.0807617584e-001
 1.9866245983e+000	 3.2080191063e+000	-6.7761352445e-001
 1.9515636959e+000	 3.2294680033e+000	-7.2649727953e-001
 1.9163180408e+000	 3.2505061393e+000	-7.4665859263e-001
 1.8808947182e+000	 3.2711313898e+000	-7.4395719436e-001
 1.8453008382e+000	 3.2913417901e+000	-7.2418365153e-001
 2.2082123611e+000	 3.0925386452e+000	-6.6274585017e-001
 2.1741679288e+000	 3.1165671834e+000	-6.0867420417e-001
 2.1398954027e+000	 3.1401982568e+000	-5.6984784903e-001
 2.1054016740e+000	 3.1634287684e+000	-5.5027859583e-001
 2.0706936855e+000	 3.1862557793e+000	-5.5385810319e-001
 2.0357784278e+000	 3.2086765089e+000	-5.8435157797e-001
 2.0006629342e+000	 3.2306883363e+000	-6.4539168210e-001
 1.9653542766e+000	 3.2522888003e+000	-7.0610091633e-001
 1.9298595606e+000	 3.2734756007e+000	-7.3456910085e-001
 1.8941859217e+000	 3.2942465980e+000	-7.3676717724e-001
 1.8583405202e+000	 3.3145998137e+000	-7.1860357078e-001
 2.2237070385e+000	 3.1142385006e+000	-6.6105143834e-001
 2.1894237219e+000	 3.1384356433e+000	-6.0929424401e-001
 2.1549107109e+000	 3.1622325321e+000	-5.7004992474e-001
 2.1201749451e+000	 3.1856260486e+000	-5.4723496999e-001
 2.0852234162e+000	 3.2086132330e+000	-5.4465061937e-001
 2.0500631636e+000	 3.2311912853e+000	-5.6597646144e-001
 2.0147012702e+000	 3.2533575662e+000	-6.1476422610e-001
 1.9791448572e+000	 3.2751095973e+000	-6.8223114551e-001
 1.9434010804e+000	 3.2964450622e+000	-7.2007610731e-001
 1.9074771252e+000	 3.3173618062e+000	-7.2820249455e-001
 1.8713802022e+000	 3.3378578372e+000	-7.1258119368e-001
 2.2392017160e+000	 3.1359383559e+000	-6.5939806559e-001
 2.2046795149e+000	 3.1603041031e+000	-6.1057322189e-001
 2.1699260190e+000	 3.1842668075e+000	-5.7180234633e-001
 2.1349482162e+000	 3.2078233288e+000	-5.4686110921e-001
 2.0997531468e+000	 3.2309706867e+000	-5.3941667507e-001
 2.0643478994e+000	 3.2537060618e+000	-5.5302124989e-001
 2.0287396061e+000	 3.2760267961e+000	-5.9110580481e-001
 1.9929354379e+000	 3.2979303943e+000	-6.5560389442e-001
 1.9569426003e+000	 3.3194145236e+000	-7.0390124567e-001
 1.9207683288e+000	 3.3404770145e+000	-7.1896432148e-001
 1.8844198842e+000	 3.3611158607e+000	-7.0605810600e-001
 2.2546963935e+000	 3.1576382113e+000	-6.5826217673e-001
 2.2199353080e+000	 3.1821725629e+000	-6.1284700285e-001
 2.1849413272e+000	 3.2063010828e+000	-5.7532515040e-001
 2.1497214873e+000	 3.2300206090e+000	-5.4928691849e-001
 2.1142828775e+000	 3.2533281404e+000	-5.3822266146e-001
 2.0786326352e+000	 3.2762208382e+000	-5.4551633318e-001
 2.0427779420e+000	 3.2986960261e+000	-5.7443918656e-001
 2.0067260185e+000	 3.3207511913e+000	-6.2814367403e-001
 1.9704841201e+000	 3.3423839850e+000	-6.8668294306e-001
 1.9340595323e+000	 3.3635922227e+000	-7.0902421844e-001
 1.8974595662e+000	 3.3843738843e+000	-6.9967677519e-001
 2.2701910710e+000	 3.1793380667e+000	-6.5806924839e-001
 2.2351911011e+000	 3.2040410228e+000	-6.1640408360e-001
 2.1999566354e+000	 3.2283353582e+000	-5.8079396915e-001
 2.1644947584e+000	 3.2522178891e+000	-5.5460020686e-001
 2.1288126081e+000	 3.2756855941e+000	-5.4109450747e-001
 2.0929173710e+000	 3.2987356146e+000	-5.4345257983e-001
 2.0568162779e+000	 3.3213652560e+000	-5.6474784939e-001
 2.0205165991e+000	 3.3435719883e+000	-6.0787433612e-001
 1.9840256399e+000	 3.3653534464e+000	-6.6852152386e-001
 1.9473507358e+000	 3.3867074309e+000	-6.9913690036e-001
 1.9104992482e+000	 3.4076319078e+000	-6.9457264601e-001
 2.2856857484e+000	 3.2010379221e+000	-6.5919493448e-001
 2.2504468941e+000	 3.2259094826e+000	-6.2148657650e-001
 2.2149719435e+000	 3.2503696335e+000	-5.8834087302e-001
 2.1792680296e+000	 3.2744151693e+000	-5.6284740914e-001
 2.1433423388e+000	 3.2980430479e+000	-5.4801830235e-001
 2.1072021068e+000	 3.3212503911e+000	-5.4678188283e-001
 2.0708546138e+000	 3.3440344860e+000	-5.6192652505e-001
 2.0343071798e+000	 3.3663927853e+000	-5.9571706290e-001
 1.9975671597e+000	 3.3883229079e+000	-6.5023856441e-001
 1.9606419394e+000	 3.4098226392e+000	-6.9035085686e-001
 1.9235389302e+000	 3.4308899314e+000	-6.9185565959e-001
 1.7931421101e+000	 3.1983096960e+000	-7.2526110810e-001
 1.7584007324e+000	 3.2175411036e+000	-7.0030350960e-001
 1.7235075382e+000	 3.2363661604e+000	-6.6515283010e-001
 1.6884694823e+000	 3.2547834267e+000	-6.2191065093e-001
 1.6532935261e+000	 3.2727916178e+000	-5.7267507141e-001
 1.6179866343e+000	 3.2903896030e+000	-5.1950997788e-001
 1.5825557699e+000	 3.3075764053e+000	-4.6441745932e-001
 1.5470078906e+000	 3.3243512004e+000	-4.0931341461e-001
 1.5113499448e+000	 3.3407133163e+000	-3.5591916826e-001
 1.4755888670e+000	 3.3566622317e+000	-3.0544379592e-001
 1.4397315747e+000	 3.3721975751e+000	-2.5977766554e-001
 1.8061817922e+000	 3.2215677195e+000	-7.2991783151e-001
 1.7711877760e+000	 3.2409389774e+000	-7.0235438314e-001
 1.7360408395e+000	 3.2599009295e+000	-6.6483872279e-001
 1.7007479877e+000	 3.2784521257e+000	-6.1956579171e-001
 1.6653162329e+000	 3.2965912719e+000	-5.6871727840e-001
 1.6297525903e+000	 3.3143172292e+000	-5.1442996110e-001
 1.5940640736e+000	 3.3316290134e+000	-4.5876736669e-001
 1.5582576911e+000	 3.3485257945e+000	-4.0329258671e-001
 1.5223404416e+000	 3.3650068952e+000	-3.4949185667e-001
 1.4863193103e+000	 3.3810717907e+000	-2.9952541649e-001
 1.4502012647e+000	 3.3967201067e+000	-2.5553346291e-001
 1.8192214742e+000	 3.2448257431e+000	-7.3070515469e-001
 1.7839748197e+000	 3.2643368512e+000	-7.0098379364e-001
 1.7485741407e+000	 3.2834356986e+000	-6.6143576661e-001
 1.7130264931e+000	 3.3021208248e+000	-6.1438786244e-001
 1.6773389397e+000	 3.3203909260e+000	-5.6214070914e-001
 1.6415185463e+000	 3.3382448554e+000	-5.0688989741e-001
 1.6055723773e+000	 3.3556816216e+000	-4.5002062535e-001
 1.5695074916e+000	 3.3727003885e+000	-3.9353253663e-001
 1.5333309384e+000	 3.3893004741e+000	-3.3974563314e-001
 1.4970497535e+000	 3.4054813497e+000	-2.9096158292e-001
 1.4606709546e+000	 3.4212426383e+000	-2.4944872114e-001
 1.8322611562e+000	 3.2680837666e+000	-7.2850371712e-001
 1.7967618633e+000	 3.2877347250e+000	-6.9716490222e-001
 1.7611074420e+000	 3.3069704678e+000	-6.5598249384e-001
 1.7253049986e+000	 3.3257895238e+000	-6.0745301613e-001
 1.6893616465e+000	 3.3441905801e+000	-5.5381070961e-001
 1.6532845023e+000	 3.3621724816e+000	-4.9657470796e-001
 1.6170806810e+000	 3.3797342297e+000	-4.3813606890e-001
 1.5807572920e+000	 3.3968749825e+000	-3.8099652239e-001
 1.5443214353e+000	 3.4135940530e+000	-3.2764550741e-001
 1.5077801967e+000	 3.4298909086e+000	-2.8054347826e-001
 1.4711406446e+000	 3.4457651699e+000	-2.4210681481e-001
 1.8453008382e+000	 3.2913417901e+000	-7.2418365153e-001
 1.8095489069e+000	 3.3111325989e+000	-6.9185667071e-001
 1.7736407432e+000	 3.3305052369e+000	-6.4950056648e-001
 1.7375835040e+000	 3.3494582228e+000	-5.9935755528e-001
 1.7013843533e+000	 3.3679902342e+000	-5.4331673555e-001
 1.6650504584e+000	 3.3861001078e+000	-4.8406696290e-001
 1.6285889847e+000	 3.4037868379e+000	-4.2432403763e-001
 1.5920070925e+000	 3.4210495765e+000	-3.6679686632e-001
 1.5553119321e+000	 3.4378876319e+000	-3.1416889861e-001
 1.5185106399e+000	 3.4543004676e+000	-2.6908129090e-001
 1.4816103345e+000	 3.4702877015e+000	-2.3411774518e-001
 1.8583405202e+000	 3.3145998137e+000	-7.1860357078e-001
 1.8223359506e+000	 3.3345304727e+000	-6.8600054614e-001
 1.7861740445e+000	 3.3540400061e+000	-6.4229132089e-001
 1.7498620094e+000	 3.3731269218e+000	-5.8986216444e-001
 1.7134070602e+000	 3.3917898883e+000	-5.3165941276e-001
 1.6768164144e+000	 3.4100277339e+000	-4.7065006306e-001
 1.6400972884e+000	 3.4278394461e+000	-4.0979924441e-001
 1.6032568930e+000	 3.4452241706e+000	-3.5204958621e-001
 1.5663024289e+000	 3.4621812108e+000	-3.0030244528e-001
 1.5292410832e+000	 3.4787100266e+000	-2.5740094260e-001
 1.4920800244e+000	 3.4948102331e+000	-2.2611475170e-001
 1.8713802022e+000	 3.3378578372e+000	-7.1258119368e-001
 1.8351229942e+000	 3.3579283465e+000	-6.7964453850e-001
 1.7987073457e+000	 3.3775747752e+000	-6.3443493345e-001
 1.7621405148e+000	 3.3967956208e+000	-5.8018399560e-001
 1.7254297670e+000	 3.4155895424e+000	-5.2015139507e-001
 1.6885823704e+000	 3.4339553601e+000	-4.5759990215e-001
 1.6516055921e+000	 3.4518920542e+000	-3.9577246542e-001
 1.6145066935e+000	 3.4693987646e+000	-3.3787128770e-001
 1.5772929258e+000	 3.4864747897e+000	-2.8703885484e-001
 1.5399715264e+000	 3.5031195856e+000	-2.4634086275e-001
 1.5025497144e+000	 3.5193327647e+000	-2.1875097837e-001
 1.8844198842e+000	 3.3611158607e+000	-7.0605810600e-001
 1.8479100378e+000	 3.3813262203e+000	-6.7321467770e-001
 1.8112406470e+000	 3.4011095443e+000	-6.2720601671e-001
 1.7744190203e+000	 3.4204643198e+000	-5.7162979932e-001
 1.7374524738e+000	 3.4393891965e+000	-5.1009206851e-001
 1.7003483264e+000	 3.4578829863e+000	-4.4618177682e-001
 1.6631138959e+000	 3.4759446624e+000	-3.8344747237e-001
 1.6257564939e+000	 3.4935733586e+000	-3.2537608910e-001
 1.5882834226e+000	 3.5107683686e+000	-2.7537379068e-001
 1.5507019696e+000	 3.5275291446e+000	-2.3674880691e-001
 1.5130194043e+000	 3.5438552963e+000	-2.1269619210e-001
 1.8974595662e+000	 3.3843738843e+000	-6.9967677519e-001
 1.8606970815e+000	 3.4047240942e+000	-6.6793596459e-001
 1.8237739482e+000	 3.4246443135e+000	-6.2187352574e-001
 1.7866975257e+000	 3.4441330188e+000	-5.6548810922e-001
 1.7494751806e+000	 3.4631888507e+000	-5.0276443405e-001
 1.7121142824e+000	 3.4818106125e+000	-4.3764732168e-001
 1.6746221996e+000	 3.4999972705e+000	-3.7401799202e-001
 1.6370062944e+000	 3.5177479526e+000	-3.1567257707e-001
 1.5992739195e+000	 3.5350619475e+000	-2.6630279506e-001
 1.5614324128e+000	 3.5519387036e+000	-2.2947871735e-001
 1.5234890943e+000	 3.5683778279e+000	-2.0863355078e-001
 1.9104992482e+000	 3.4076319078e+000	-6.9457264601e-001
 1.8734841251e+000	 3.4281219680e+000	-6.6501076787e-001
 1.8363072495e+000	 3.4481790826e+000	-6.1968397552e-001
 1.7989760311e+000	 3.4678017179e+000	-5.6302606807e-001
 1.7614978874e+000	 3.4869885048e+000	-4.9943201290e-001
 1.7238802385e+000	 3.5057382387e+000	-4.3323146780e-001
 1.6861305033e+000	 3.5240498787e+000	-3.6866469155e-001
 1.6482560949e+000	 3.5419225467e+000	-3.0986079170e-001
 1.6102644163e+000	 3.5593555264e+000	-2.6081824612e-001
 1.5721628561e+000	 3.5763482626e+000	-2.2538762353e-001
 1.5339587842e+000	 3.5929003595e+000	-2.0725641844e-001
 1.9235389302e+000	 3.4308899314e+000	-6.9185565959e-001
 1.8862711687e+000	 3.4515198418e+000	-6.6561544226e-001
 1.8488405507e+000	 3.4717138517e+000	-6.2185818554e-001
 1.8112545366e+000	 3.4914704169e+000	-5.6548627558e-001
 1.7735205942e+000	 3.5107881589e+000	-5.0133577323e-001
 1.7356461945e+000	 3.5296658649e+000	-4.3414942389e-001
 1.6976388070e+000	 3.5481024868e+000	-3.6855218871e-001
 1.6595058954e+000	 3.5660971407e+000	-3.0902923958e-001
 1.6212549131e+000	 3.5836491053e+000	-2.5990634732e-001
 1.5828932993e+000	 3.6007578216e+000	-2.2533258088e-001
 1.5444284742e+000	 3.6174228910e+000	-2.0926522544e-001
 1.4397315747e+000	 3.3721975751e+000	-2.5977766554e-001
 1.4037795652e+000	 3.3873213615e+000	-2.3227090796e-001
 1.3677450859e+000	 3.4020311558e+000	-2.3916948087e-001
 1.3316349834e+000	 3.4163270308e+000	-2.8638153918e-001
 1.2954560718e+000	 3.4302092034e+000	-3.3164324616e-001
 1.2592151286e+000	 3.4436780330e+000	-3.4324485437e-001
 1.2229188917e+000	 3.4567340197e+000	-3.3044993752e-001
 1.1865740558e+000	 3.4693778024e+000	-3.0205532914e-001
 1.1501872686e+000	 3.4816101568e+000	-2.6632709576e-001
 1.1137651284e+000	 3.4934319935e+000	-2.3094474910e-001
 1.0773141800e+000	 3.5048443553e+000	-2.0295328136e-001
 1.4502012647e+000	 3.3967201067e+000	-2.5553346291e-001
 1.4139878131e+000	 3.4119538729e+000	-2.2827470599e-001
 1.3776912920e+000	 3.4267706364e+000	-2.3124392928e-001
 1.3413185978e+000	 3.4411704707e+000	-2.7030903851e-001
 1.3048765941e+000	 3.4551535940e+000	-3.2503628363e-001
 1.2683721077e+000	 3.4687203686e+000	-3.4584605167e-001
 1.2318119256e+000	 3.4818712981e+000	-3.4002565477e-001
 1.1952027909e+000	 3.4946070260e+000	-3.1647658520e-001
 1.1585514001e+000	 3.5069283338e+000	-2.8355089343e-001
 1.1218643990e+000	 3.5188361386e+000	-2.4899639990e-001
 1.0851483803e+000	 3.5303314908e+000	-2.1990995436e-001
 1.4606709546e+000	 3.4212426383e+000	-2.4944872114e-001
 1.4241960610e+000	 3.4365863842e+000	-2.2342529416e-001
 1.3876374981e+000	 3.4515101171e+000	-2.2366611569e-001
 1.3510022122e+000	 3.4660139105e+000	-2.5589365520e-001
 1.3142971164e+000	 3.4800979847e+000	-3.1439494826e-001
 1.2775290868e+000	 3.4937627042e+000	-3.4444815394e-001
 1.2407049594e+000	 3.5070085764e+000	-3.4580053586e-001
 1.2038315261e+000	 3.5198362497e+000	-3.2744323083e-001
 1.1669155315e+000	 3.5322465108e+000	-2.9779882361e-001
 1.1299636695e+000	 3.5442402836e+000	-2.6466771772e-001
 1.0929825805e+000	 3.5558186262e+000	-2.3518278177e-001
 1.4711406446e+000	 3.4457651699e+000	-2.4210681481e-001
 1.4344043088e+000	 3.4612188956e+000	-2.1808631863e-001
 1.3975837042e+000	 3.4762495977e+000	-2.1659050421e-001
 1.3606858266e+000	 3.4908573503e+000	-2.4318599470e-001
 1.3237176387e+000	 3.5050423753e+000	-3.0034142809e-001
 1.2866860660e+000	 3.5188050398e+000	-3.3948606656e-001
 1.2495979933e+000	 3.5321458548e+000	-3.4803134587e-001
 1.2124602613e+000	 3.5450654733e+000	-3.3504187654e-001
 1.1752796629e+000	 3.5575646878e+000	-3.0899412702e-001
 1.1380629401e+000	 3.5696444287e+000	-2.7772412111e-001
 1.1008167807e+000	 3.5813057617e+000	-2.4838364253e-001
 1.4816103345e+000	 3.4702877015e+000	-2.3411774518e-001
 1.4446125567e+000	 3.4858514070e+000	-2.1265605895e-001
 1.4075299103e+000	 3.5009890783e+000	-2.1021393288e-001
 1.3703694410e+000	 3.5157007902e+000	-2.3219160823e-001
 1.3331381610e+000	 3.5299867659e+000	-2.8354279065e-001
 1.2958430451e+000	 3.5438473754e+000	-3.3145172344e-001
 1.2584910271e+000	 3.5572831332e+000	-3.4704384907e-001
 1.2210889964e+000	 3.5702946969e+000	-3.3943987466e-001
 1.1836437943e+000	 3.5828828648e+000	-3.1715225077e-001
 1.1461622107e+000	 3.5950485738e+000	-2.8803437130e-001
 1.1086509810e+000	 3.6067928972e+000	-2.5923851602e-001
 1.4920800244e+000	 3.4948102331e+000	-2.2611475170e-001
 1.4548208046e+000	 3.5104839184e+000	-2.0756391090e-001
 1.4174761164e+000	 3.5257285589e+000	-2.0477197747e-001
 1.3800530554e+000	 3.5405442300e+000	-2.2296213645e-001
 1.3425586833e+000	 3.5549311565e+000	-2.6691413820e-001
 1.3050000242e+000	 3.5688897110e+000	-3.2088591099e-001
 1.2673840610e+000	 3.5824204116e+000	-3.4322470643e-001
 1.2297177316e+000	 3.5955239206e+000	-3.4087730371e-001
 1.1920079257e+000	 3.6082010418e+000	-3.2237293213e-001
 1.1542614812e+000	 3.6204527189e+000	-2.9556276731e-001
 1.1164851812e+000	 3.6322800327e+000	-2.6757979983e-001
 1.5025497144e+000	 3.5193327647e+000	-2.1875097837e-001
 1.4650290525e+000	 3.5351164297e+000	-2.0326693286e-001
 1.4274223225e+000	 3.5504680395e+000	-2.0053538749e-001
 1.3897366698e+000	 3.5653876698e+000	-2.1559164429e-001
 1.3519792056e+000	 3.5798755472e+000	-2.5303048190e-001
 1.3141570033e+000	 3.5939320466e+000	-3.0837018725e-001
 1.2762770948e+000	 3.6075576900e+000	-3.3701347500e-001
 1.2383464667e+000	 3.6207531442e+000	-3.3965906092e-001
 1.2003720571e+000	 3.6335192188e+000	-3.2483239653e-001
 1.1623607518e+000	 3.6458568640e+000	-3.0036146084e-001
 1.1243193814e+000	 3.6577671681e+000	-2.7333875230e-001
 1.5130194043e+000	 3.5438552963e+000	-2.1269619210e-001
 1.4752373004e+000	 3.5597489411e+000	-2.0024645275e-001
 1.4373685286e+000	 3.5752075201e+000	-1.9780659065e-001
 1.3994202842e+000	 3.5902311097e+000	-2.1021303202e-001
 1.3613997279e+000	 3.6048199378e+000	-2.4186510755e-001
 1.3233139825e+000	 3.6189743822e+000	-2.9451889125e-001
 1.2851701287e+000	 3.6326949684e+000	-3.2889470413e-001
 1.2469752019e+000	 3.6459823679e+000	-3.3614705778e-001
 1.2087361885e+000	 3.6588373958e+000	-3.2477566411e-001
 1.1704600224e+000	 3.6712610090e+000	-3.0256288507e-001
 1.1321535817e+000	 3.6832543036e+000	-2.7653805395e-001
 1.5234890943e+000	 3.5683778279e+000	-2.0863355078e-001
 1.4854455482e+000	 3.5843814525e+000	-1.9900473262e-001
 1.4473147347e+000	 3.5999470007e+000	-1.9691626273e-001
 1.4091038986e+000	 3.6150745495e+000	-2.0699451893e-001
 1.3708202502e+000	 3.6297643284e+000	-2.3343271902e-001
 1.3324709616e+000	 3.6440167178e+000	-2.7997123865e-001
 1.2940631625e+000	 3.6578322468e+000	-3.1939012396e-001
 1.2556039371e+000	 3.6712115915e+000	-3.3075251357e-001
 1.2171003199e+000	 3.6841555728e+000	-3.2250895984e-001
 1.1785592929e+000	 3.6966651541e+000	-3.0237229195e-001
 1.1399877819e+000	 3.7087414391e+000	-2.7728448192e-001
 1.5339587842e+000	 3.5929003595e+000	-2.0725641844e-001
 1.4956537961e+000	 3.6090139638e+000	-2.0006168808e-001
 1.4572609408e+000	 3.6246864813e+000	-1.9821995959e-001
 1.4187875129e+000	 3.6399179893e+000	-2.0613619613e-001
 1.3802407725e+000	 3.6547087190e+000	-2.2778663547e-001
 1.3416279407e+000	 3.6690590534e+000	-2.6671388160e-001
 1.3029561964e+000	 3.6829695251e+000	-3.0905092175e-001
 1.2642326722e+000	 3.6964408151e+000	-3.2392834231e-001
 1.2254644513e+000	 3.7094737498e+000	-3.1839222205e-001
 1.1866585635e+000	 3.7220692992e+000	-3.0006039272e-001
 1.1478219821e+000	 3.7342285745e+000	-2.7576169217e-001
 1.5444284742e+000	 3.6174228910e+000	-2.0926522544e-001
 1.5058620440e+000	 3.6336464752e+000	-2.0395165998e-001
 1.4672071469e+000	 3.6494259619e+000	-2.0209480837e-001
 1.4284711273e+000	 3.6647614292e+000	-2.0786664519e-001
 1.3896612948e+000	 3.6796531097e+000	-2.2501534527e-001
 1.3507849198e+000	 3.6941013890e+000	-2.5686102903e-001
 1.3118492302e+000	 3.7081068035e+000	-2.9845010189e-001
 1.2728614074e+000	 3.7216700388e+000	-3.1616162854e-001
 1.2338285827e+000	 3.7347919268e+000	-3.1283170480e-001
 1.1947578341e+000	 3.7474734443e+000	-2.9595609686e-001
 1.1556561824e+000	 3.7597157100e+000	-2.7222310428e-001
 1.0773141800e+000	 3.5048443553e+000	-2.0295328136e-001
 1.0408409118e+000	 3.5158484147e+000	-1.7598629858e-001
 1.0043517508e+000	 3.5264454685e+000	-1.4150849071e-001
 9.6785306161e-001	 3.5366369385e+000	-1.0230528288e-001
 9.3135114424e-001	 3.5464243692e+000	-6.0541038746e-002
 8.9485223122e-001	 3.5558094260e+000	-1.7713550630e-002
 8.5836248506e-001	 3.5647938922e+000	 2.5348821496e-002
 8.2188799579e-001	 3.5733796665e+000	 6.8492724025e-002
 7.8543477855e-001	 3.5815687602e+000	 1.1224154936e-001
 7.4900877130e-001	 3.5893632944e+000	 1.5779379911e-001
 7.1261583262e-001	 3.5967654974e+000	 2.0701851291e-001
 1.0851483803e+000	 3.5303314908e+000	-2.1990995436e-001
 1.0484098794e+000	 3.5414155714e+000	-1.9062578858e-001
 1.0116553701e+000	 3.5520896867e+000	-1.5342050672e-001
 9.7489126348e-001	 3.5623552688e+000	-1.1132294697e-001
 9.3812390514e-001	 3.5722138734e+000	-6.6666582523e-002
 9.0135957298e-001	 3.5816671781e+000	-2.1145532865e-002
 8.6460447435e-001	 3.5907169792e+000	 2.4235413507e-002
 8.2786474356e-001	 3.5993651890e+000	 6.9155059781e-002
 7.9114643950e-001	 3.6076138335e+000	 1.1397579593e-001
 7.5445554328e-001	 3.6154650493e+000	 1.5974023558e-001
 7.1779795611e-001	 3.6229210810e+000	 2.0816495908e-001
 1.0929825805e+000	 3.5558186262e+000	-2.3518278177e-001
 1.0559788470e+000	 3.5669827281e+000	-2.0435528502e-001
 1.0189589895e+000	 3.5777339049e+000	-1.6524951181e-001
 9.8192946535e-001	 3.5880735991e+000	-1.2107324256e-001
 9.4489666604e-001	 3.5980033777e+000	-7.4331685654e-002
 9.0786691475e-001	 3.6075249303e+000	-2.6876726427e-002
 8.7084646365e-001	 3.6166400661e+000	 2.0135919033e-002
 8.3384149134e-001	 3.6253507114e+000	 6.6240306497e-002
 7.9685810044e-001	 3.6336589068e+000	 1.1165838022e-001
 7.5990231526e-001	 3.6415668043e+000	 1.5729475902e-001
 7.2298007960e-001	 3.6490766646e+000	 2.0472867936e-001
 1.1008167807e+000	 3.5813057617e+000	-2.4838364253e-001
 1.0635478146e+000	 3.5925498848e+000	-2.1664626513e-001
 1.0262626089e+000	 3.6033781231e+000	-1.7633784578e-001
 9.8896766723e-001	 3.6137919294e+000	-1.3081246058e-001
 9.5166942693e-001	 3.6237928819e+000	-8.2715885100e-002
 9.1437425652e-001	 3.6333826824e+000	-3.4029130681e-002
 8.7708845295e-001	 3.6425631530e+000	 1.3967667962e-002
 8.3981823911e-001	 3.6513362338e+000	 6.0687916649e-002
 8.0256976138e-001	 3.6597039801e+000	 1.0623465890e-001
 7.6534908725e-001	 3.6676685592e+000	 1.5139338000e-001
 7.2816220310e-001	 3.6752322482e+000	 1.9762202934e-001
 1.1086509810e+000	 3.6067928972e+000	-2.5923851602e-001
 1.0711167822e+000	 3.6181170415e+000	-2.2709434944e-001
 1.0335662283e+000	 3.6290223413e+000	-1.8617191701e-001
 9.9600586910e-001	 3.6395102597e+000	-1.3993789153e-001
 9.5844218783e-001	 3.6495823861e+000	-9.1146416072e-002
 9.2088159828e-001	 3.6592404345e+000	-4.1877915556e-002
 8.8333044224e-001	 3.6684862399e+000	 6.4906266770e-003
 8.4579498689e-001	 3.6773217563e+000	 5.3277116726e-002
 8.0828142233e-001	 3.6857490534e+000	 9.8488279607e-002
 7.7079585923e-001	 3.6937703142e+000	 1.4281034312e-001
 7.3334432659e-001	 3.7013878317e+000	 1.8759701224e-001
 1.1164851812e+000	 3.6322800327e+000	-2.6757979983e-001
 1.0786857497e+000	 3.6436841982e+000	-2.3541176262e-001
 1.0408698477e+000	 3.6546665595e+000	-1.9436389667e-001
 1.0030440710e+000	 3.6652285900e+000	-1.4798066243e-001
 9.6521494873e-001	 3.6753718904e+000	-9.9091281135e-002
 9.2738894005e-001	 3.6850981866e+000	-4.9844751584e-002
 8.8957243154e-001	 3.6944093268e+000	-1.6862211978e-003
 8.5177173467e-001	 3.7033072787e+000	 4.4632970943e-002
 8.1399308327e-001	 3.7117941267e+000	 8.9046900295e-002
 7.7624263121e-001	 3.7198720691e+000	 1.3216347527e-001
 7.3852645008e-001	 3.7275434153e+000	 1.7525022968e-001
 1.1243193814e+000	 3.6577671681e+000	-2.7333875230e-001
 1.0862547173e+000	 3.6692513549e+000	-2.4141992345e-001
 1.0481734670e+000	 3.6803107777e+000	-2.0064448499e-001
 1.0100822729e+000	 3.6909469203e+000	-1.5459870765e-001
 9.7198770963e-001	 3.7011613946e+000	-1.0615245359e-001
 9.3389628182e-001	 3.7109559387e+000	-5.7491273287e-002
 8.9581442084e-001	 3.7203324137e+000	-1.0098625198e-002
 8.5774848244e-001	 3.7292928012e+000	 3.5232317349e-002
 8.1970474421e-001	 3.7378392000e+000	 7.8387785892e-002
 7.8168940319e-001	 3.7459738241e+000	 1.1991941734e-001
 7.4370857358e-001	 3.7536989989e+000	 1.6102772359e-001
 1.1321535817e+000	 3.6832543036e+000	-2.7653805395e-001
 1.0938236849e+000	 3.6948185116e+000	-2.4504215770e-001
 1.0554770864e+000	 3.7059549959e+000	-2.0485580312e-001
 1.0171204747e+000	 3.7166652506e+000	-1.5956346439e-001
 9.7876047052e-001	 3.7269508988e+000	-1.1205920859e-001
 9.4040362358e-001	 3.7368136908e+000	-6.4512669482e-002
 9.0205641013e-001	 3.7462555007e+000	-1.8420943213e-002
 8.6372523022e-001	 3.7552783236e+000	 2.5409582512e-002
 8.2541640516e-001	 3.7638842733e+000	 6.6843288158e-002
 7.8713617517e-001	 3.7720755791e+000	 1.0639874508e-001
 7.4889069707e-001	 3.7798545825e+000	 1.4522971441e-001
 1.1399877819e+000	 3.7087414391e+000	-2.7728448192e-001
 1.1013926525e+000	 3.7203856683e+000	-2.4629652793e-001
 1.0627807058e+000	 3.7315992141e+000	-2.0694440479e-001
 1.0241586766e+000	 3.7423835808e+000	-1.6277957930e-001
 9.8553323142e-001	 3.7527404031e+000	-1.1666157591e-001
 9.4691096535e-001	 3.7626714430e+000	-7.0731394378e-002
 9.0829839943e-001	 3.7721785876e+000	-2.6460135478e-002
 8.6970197799e-001	 3.7812638460e+000	 1.5362480627e-002
 8.3112806610e-001	 3.7899293467e+000	 5.4606214393e-002
 7.9258294715e-001	 3.7981773340e+000	 9.1780984447e-002
 7.5407282056e-001	 3.8060101661e+000	 1.2801524065e-001
 1.1478219821e+000	 3.7342285745e+000	-2.7576169217e-001
 1.1089616201e+000	 3.7459528250e+000	-2.4528877475e-001
 1.0700843252e+000	 3.7572434323e+000	-2.0695440194e-001
 1.0311968785e+000	 3.7681019111e+000	-1.6423709645e-001
 9.9230599232e-001	 3.7785299073e+000	-1.1992390845e-001
 9.5341830711e-001	 3.7885291951e+000	-7.6090993700e-002
 9.1454038873e-001	 3.7981016745e+000	-3.4149871668e-002
 8.7567872577e-001	 3.8072493685e+000	 5.1576025637e-003
 8.3683972704e-001	 3.8159744200e+000	 4.1735090286e-002
 7.9802971914e-001	 3.8242790890e+000	 7.6109526423e-002
 7.5925494406e-001	 3.8321657497e+000	 1.0940670440e-001
 1.1556561824e+000	 3.7597157100e+000	-2.7222310428e-001
 1.1165305877e+000	 3.7715199817e+000	-2.4220536406e-001
 1.0773879445e+000	 3.7828876505e+000	-2.0502069881e-001
 1.0382350804e+000	 3.7938202414e+000	-1.6403335438e-001
 9.9907875321e-001	 3.8043194115e+000	-1.2191856113e-001
 9.5992564888e-001	 3.8143869472e+000	-8.0650040385e-002
 9.2078237802e-001	 3.8240247614e+000	-4.1544745754e-002
 8.8165547354e-001	 3.8332348909e+000	-5.2640999242e-003
 8.4255138799e-001	 3.8420194933e+000	 2.8159321936e-002
 8.0347649112e-001	 3.8503808439e+000	 5.9296446175e-002
 7.6443706755e-001	 3.8583213333e+000	 8.9294327465e-002
 7.1261583262e-001	 3.5967654974e+000	 2.0701851291e-001
 6.7626718788e-001	 3.6037766798e+000	 2.2054653012e-001
 6.3996306006e-001	 3.6104004164e+000	 1.8169510462e-001
 6.0370904694e-001	 3.6166392418e+000	 1.4587123012e-001
 5.6751065950e-001	 3.6224957856e+000	 1.1644418218e-001
 5.3137332022e-001	 3.6279727701e+000	 9.5035375889e-002
 4.9530236159e-001	 3.6330730071e+000	 8.4269594995e-002
 4.5930302458e-001	 3.6377993950e+000	 8.7819028247e-002
 4.2338045735e-001	 3.6421549158e+000	 1.1043612423e-001
 3.8753971400e-001	 3.6461426319e+000	 1.5797691729e-001
 3.5178575339e-001	 3.6497656832e+000	 2.3741638497e-001
 7.1779795611e-001	 3.6229210810e+000	 2.0816495908e-001
 6.8118498499e-001	 3.6299832485e+000	 2.2222668419e-001
 6.4461685451e-001	 3.6366551528e+000	 1.8056395344e-001
 6.0809920317e-001	 3.6429393467e+000	 1.4027530794e-001
 5.7163758201e-001	 3.6488384791e+000	 1.0756604200e-001
 5.3523745296e-001	 3.6543552921e+000	 8.3760294547e-002
 4.9890418727e-001	 3.6594926179e+000	 7.1226399654e-002
 4.6264306403e-001	 3.6642533760e+000	 7.3412952943e-002
 4.2645926884e-001	 3.6686405700e+000	 9.4873826729e-002
 3.9035789255e-001	 3.6726572847e+000	 1.4128386853e-001
 3.5434393009e-001	 3.6763066828e+000	 2.1944691825e-001
 7.2298007960e-001	 3.6490766646e+000	 2.0472867936e-001
 6.8610278210e-001	 3.6561898172e+000	 2.1930847797e-001
 6.4927064896e-001	 3.6629098892e+000	 1.7675056828e-001
 6.1248935939e-001	 3.6692394517e+000	 1.3299990524e-001
 5.7576450452e-001	 3.6751811727e+000	 9.8011422094e-002
 5.3910158569e-001	 3.6807378142e+000	 7.2785947745e-002
 5.0250601294e-001	 3.6859122288e+000	 5.9406434077e-002
 4.6598310348e-001	 3.6907073570e+000	 6.1065613260e-002
 4.2953808033e-001	 3.6951262243e+000	 8.2082760207e-002
 3.9317607110e-001	 3.6991719375e+000	 1.2791137938e-001
 3.5690210679e-001	 3.7028476823e+000	 2.0513952862e-001
 7.2816220310e-001	 3.6752322482e+000	 1.9762202934e-001
 6.9102057921e-001	 3.6823963859e+000	 2.1264969272e-001
 6.5392444342e-001	 3.6891646255e+000	 1.7083026201e-001
 6.1687951562e-001	 3.6955395566e+000	 1.2451831698e-001
 5.7989142703e-001	 3.7015238663e+000	 8.8115445975e-002
 5.4296571843e-001	 3.7071203362e+000	 6.2279092878e-002
 5.0610783862e-001	 3.7123318396e+000	 4.8783780830e-002
 4.6932314293e-001	 3.7171613380e+000	 5.0539895171e-002
 4.3261689182e-001	 3.7216118785e+000	 7.1601755181e-002
 3.9599424966e-001	 3.7256865903e+000	 1.1716688132e-001
 3.5946028349e-001	 3.7293886818e+000	 1.9356825042e-001
 7.3334432659e-001	 3.7013878317e+000	 1.8759701224e-001
 6.9593837632e-001	 3.7086029546e+000	 2.0295117798e-001
 6.5857823787e-001	 3.7154193619e+000	 1.6321849707e-001
 6.2126967185e-001	 3.7218396615e+000	 1.1514581318e-001
 5.8401834954e-001	 3.7278665598e+000	 7.8059775650e-002
 5.4682985117e-001	 3.7335028583e+000	 5.2260437223e-002
 5.0970966430e-001	 3.7387514504e+000	 3.9196836939e-002
 4.7266318238e-001	 3.7436153190e+000	 4.1476416663e-002
 4.3569570332e-001	 3.7480975327e+000	 6.2863938713e-002
 3.9881242821e-001	 3.7522012431e+000	 1.0827190163e-001
 3.6201846019e-001	 3.7559296814e+000	 1.8374432885e-001
 7.3852645008e-001	 3.7275434153e+000	 1.7525022968e-001
 7.0085617343e-001	 3.7348095233e+000	 1.9076136188e-001
 6.6323203232e-001	 3.7416740982e+000	 1.5417784227e-001
 6.2565982808e-001	 3.7481397664e+000	 1.0504578285e-001
 5.8814527205e-001	 3.7542092534e+000	 6.7877890785e-002
 5.5069398390e-001	 3.7598853803e+000	 4.2609004180e-002
 5.1331148998e-001	 3.7651710613e+000	 3.0351722609e-002
 4.7600322183e-001	 3.7700693001e+000	 3.3395937993e-002
 4.3877451481e-001	 3.7745831870e+000	 5.5198108817e-002
 4.0163060677e-001	 3.7787158959e+000	 1.0036236807e-001
 3.6457663688e-001	 3.7824706809e+000	 1.7461542465e-001
 7.4370857358e-001	 3.7536989989e+000	 1.6102772359e-001
 7.0577397054e-001	 3.7610160921e+000	 1.7648066223e-001
 6.6788582677e-001	 3.7679288346e+000	 1.4379727256e-001
 6.3004998430e-001	 3.7744398714e+000	 9.4235806100e-002
 5.9227219456e-001	 3.7805519469e+000	 5.7460313818e-002
 5.5455811664e-001	 3.7862679023e+000	 3.3066465739e-002
 5.1691331566e-001	 3.7915906721e+000	 2.1825679002e-002
 4.7934326128e-001	 3.7965232811e+000	 2.5701786256e-002
 4.4185332630e-001	 3.8010688412e+000	 4.7830150828e-002
 4.0444878532e-001	 3.8052305487e+000	 9.2488985579e-002
 3.6713481358e-001	 3.8090116804e+000	 1.6506492287e-001
 7.4889069707e-001	 3.7798545825e+000	 1.4522971441e-001
 7.1069176765e-001	 3.7872226608e+000	 1.6036580300e-001
 6.7253962123e-001	 3.7941835709e+000	 1.3152266792e-001
 6.3444014053e-001	 3.8007399763e+000	 8.2593657918e-002
 5.9639911707e-001	 3.8068946405e+000	 4.6559783592e-002
 5.5842224937e-001	 3.8126504244e+000	 2.3241442803e-002
 5.2051514133e-001	 3.8180102829e+000	 1.3070455581e-002
 4.8268330073e-001	 3.8229772621e+000	 1.7682293571e-002
 4.4493213779e-001	 3.8275544954e+000	 3.9884493679e-002
 4.0726696387e-001	 3.8317452015e+000	 8.3617681260e-002
 3.6969299028e-001	 3.8355526800e+000	 1.5391134069e-001
 7.5407282056e-001	 3.8060101661e+000	 1.2801524065e-001
 7.1560956476e-001	 3.8134292295e+000	 1.4253404102e-001
 6.7719341568e-001	 3.8204383073e+000	 1.1714219548e-001
 6.3883029676e-001	 3.8270400812e+000	 6.9863246878e-002
 6.0052603959e-001	 3.8332373341e+000	 3.4796380004e-002
 5.6228638211e-001	 3.8390329464e+000	 1.2613774927e-002
 5.2411696701e-001	 3.8444298938e+000	 3.4156875415e-003
 4.8602334018e-001	 3.8494312431e+000	 8.5132482296e-003
 4.4801094928e-001	 3.8540401497e+000	 3.0385604189e-002
 4.1008514243e-001	 3.8582598543e+000	 7.2630114558e-002
 3.7225116698e-001	 3.8620936795e+000	 1.3990782945e-001
 7.5925494406e-001	 3.8321657497e+000	 1.0940670440e-001
 7.2052736187e-001	 3.8396357982e+000	 1.2296730682e-001
 6.8184721013e-001	 3.8466930436e+000	 1.0056498059e-001
 6.4322045299e-001	 3.8533401861e+000	 5.5660491908e-002
 6.0465296210e-001	 3.8595800276e+000	 2.1662601996e-002
 5.6615051484e-001	 3.8654154685e+000	 5.3876091085e-004
 5.2771879269e-001	 3.8708495046e+000	-7.9277362112e-003
 4.8936337964e-001	 3.8758852241e+000	-2.7396418047e-003
 4.5108976078e-001	 3.8805258039e+000	 1.8259517532e-002
 4.1290332098e-001	 3.8847745071e+000	 5.8324249441e-002
 3.7480934368e-001	 3.8886346791e+000	 1.2174176656e-001
 7.6443706755e-001	 3.8583213333e+000	 8.9294327465e-002
 7.2544515898e-001	 3.8658423669e+000	 1.0151626408e-001
 6.8650100458e-001	 3.8729477800e+000	 8.1571993816e-002
 6.4761060921e-001	 3.8796402911e+000	 3.9479140049e-002
 6.0877988461e-001	 3.8859227212e+000	 6.5284011165e-003
 5.7001464758e-001	 3.8917979905e+000	-1.3748628343e-002
 5.3132061837e-001	 3.8972691155e+000	-2.1864314082e-002
 4.9270341909e-001	 3.9023392051e+000	-1.7118273649e-002
 4.5416857227e-001	 3.9070114582e+000	 2.3354021648e-003
 4.1572149954e-001	 3.9112891599e+000	 3.9414985645e-002
 3.7736752037e-001	 3.9151756786e+000	 9.8034432785e-002
 3.5178575339e-001	 3.6497656832e+000	 2.3741638497e-001
 3.1611810781e-001	 3.6530277469e+000	 3.1169074638e-001
 2.8054697635e-001	 3.6559315402e+000	 3.4388874528e-001
 2.4507710014e-001	 3.6584804202e+000	 3.4297683049e-001
 2.0971311924e-001	 3.6606778091e+000	 3.1908515862e-001
 1.7445957196e-001	 3.6625271922e+000	 2.8350495936e-001
 1.3932089439e-001	 3.6640321140e+000	 2.4868497279e-001
 1.0430141984e-001	 3.6651961758e+000	 2.2822776007e-001
 6.9405378595e-002	 3.6660230324e+000	 2.3688657875e-001
 3.4636897532e-002	 3.6665163894e+000	 2.9056340620e-001
 0.0000000000e+000	 3.6666800000e+000	 4.0630860755e-001
 3.5434393009e-001	 3.6763066828e+000	 2.1944691825e-001
 3.1841691033e-001	 3.6795924681e+000	 2.9213985713e-001
 2.8258710654e-001	 3.6825173777e+000	 3.2248566574e-001
 2.4685929434e-001	 3.6850847930e+000	 3.1958980595e-001
 2.1123814750e-001	 3.6872981613e+000	 2.9373877345e-001
 1.7572823736e-001	 3.6891609931e+000	 2.5639105071e-001
 1.4033403225e-001	 3.6906768587e+000	 2.2016770724e-001
 1.0505989701e-001	 3.6918493855e+000	 1.9884347621e-001
 6.9910092673e-002	 3.6926822549e+000	 2.0733901925e-001
 3.4888776135e-002	 3.6931791996e+000	 2.6171497723e-001
 0.0000000000e+000	 3.6933440000e+000	 3.7916830999e-001
 3.5690210679e-001	 3.7028476823e+000	 2.0513952862e-001
 3.2071571285e-001	 3.7061571893e+000	 2.7668221813e-001
 2.8462723674e-001	 3.7091032152e+000	 3.0598247574e-001
 2.4864148853e-001	 3.7116891659e+000	 3.0221258737e-001
 2.1276317576e-001	 3.7139185136e+000	 2.7573431681e-001
 1.7699690275e-001	 3.7157947940e+000	 2.3808337438e-001
 1.4134717011e-001	 3.7173216033e+000	 2.0195414932e-001
 1.0581837418e-001	 3.7185025951e+000	 1.8118556265e-001
 7.0414806752e-002	 3.7193414775e+000	 1.9074877251e-001
 3.5140654739e-002	 3.7198420098e+000	 2.4673734349e-001
 0.0000000000e+000	 3.7200080000e+000	 3.6636038913e-001
 3.5946028349e-001	 3.7293886818e+000	 1.9356825042e-001
 3.2301451537e-001	 3.7327219104e+000	 2.6412577119e-001
 2.8666736693e-001	 3.7356890527e+000	 2.9285774850e-001
 2.5042368272e-001	 3.7382935388e+000	 2.8893624274e-001
 2.1428820401e-001	 3.7405388658e+000	 2.6272215829e-001
 1.7826556815e-001	 3.7424285949e+000	 2.2574314026e-001
 1.4236030797e-001	 3.7439663479e+000	 1.9067239427e-001
 1.0657685135e-001	 3.7451558048e+000	 1.7130931316e-001
 7.0919520830e-002	 3.7460007000e+000	 1.8256266321e-001
 3.5392533342e-002	 3.7465048200e+000	 2.4043695423e-001
 0.0000000000e+000	 3.7466720000e+000	 3.6202250793e-001
 3.6201846019e-001	 3.7559296814e+000	 1.8374432885e-001
 3.2531331789e-001	 3.7592866316e+000	 2.5324319059e-001
 2.8870749713e-001	 3.7622748902e+000	 2.8158778675e-001
 2.5220587691e-001	 3.7648979116e+000	 2.7788808911e-001
 2.1581323227e-001	 3.7671592180e+000	 2.5243299663e-001
 1.7953423355e-001	 3.7690623958e+000	 2.1666155677e-001
 1.4337344583e-001	 3.7706110926e+000	 1.8313581334e-001
 1.0733532852e-001	 3.7718090145e+000	 1.6551619252e-001
 7.1424234909e-002	 3.7726599226e+000	 1.7854019922e-001
 3.5644411946e-002	 3.7731676302e+000	 2.3800506088e-001
 0.0000000000e+000	 3.7733360000e+000	 3.6075483742e-001
 3.6457663688e-001	 3.7824706809e+000	 1.7461542465e-001
 3.2761212042e-001	 3.7858513528e+000	 2.4276992517e-001
 2.9074762732e-001	 3.7888607277e+000	 2.7064340768e-001
 2.5398807111e-001	 3.7915022845e+000	 2.6722712995e-001
 2.1733826053e-001	 3.7937795703e+000	 2.4267186269e-001
 1.8080289894e-001	 3.7956961966e+000	 2.0825231594e-001
 1.4438658369e-001	 3.7972558372e+000	 1.7633394154e-001
 1.0809380568e-001	 3.7984622241e+000	 1.6034305090e-001
 7.1928948989e-002	 3.7993191451e+000	 1.7474104004e-001
 3.5896290549e-002	 3.7998304405e+000	 2.3500337067e-001
 0.0000000000e+000	 3.8000000000e+000	 3.5760382993e-001
 3.6713481358e-001	 3.8090116804e+000	 1.6506492287e-001
 3.2991092294e-001	 3.8124160740e+000	 2.3140238023e-001
 2.9278775752e-001	 3.8154465652e+000	 2.5848690886e-001
 2.5577026530e-001	 3.8181066574e+000	 2.5513971925e-001
 2.1886328879e-001	 3.8203999225e+000	 2.3131239962e-001
 1.8207156434e-001	 3.8223299975e+000	 1.9804441141e-001
 1.4539972155e-001	 3.8239005819e+000	 1.6742375840e-001
 1.0885228285e-001	 3.8251154338e+000	 1.5255179597e-001
 7.2433663068e-002	 3.8259783677e+000	 1.6751299223e-001
 3.6148169153e-002	 3.8264932507e+000	 2.2735030082e-001
 0.0000000000e+000	 3.8266640000e+000	 3.4804667081e-001
 3.6969299028e-001	 3.8355526800e+000	 1.5391134069e-001
 3.3220972546e-001	 3.8389807951e+000	 2.1779623263e-001
 2.9482788771e-001	 3.8420324026e+000	 2.4356920609e-001
 2.5755245950e-001	 3.8447110303e+000	 2.3983544132e-001
 2.2038831705e-001	 3.8470202747e+000	 2.1629140714e-001
 1.8334022973e-001	 3.8489637984e+000	 1.8367527317e-001
 1.4641285941e-001	 3.8505453265e+000	 1.5372134270e-001
 1.0961076002e-001	 3.8517686435e+000	 1.3911950055e-001
 7.2938377147e-002	 3.8526375902e+000	 1.5348050637e-001
 3.6400047757e-002	 3.8531560609e+000	 2.1130780421e-001
 0.0000000000e+000	 3.8533280000e+000	 3.2797637560e-001
 3.7225116698e-001	 3.8620936795e+000	 1.3990782945e-001
 3.3450852798e-001	 3.8655455163e+000	 2.0056487265e-001
 2.9686801791e-001	 3.8686182401e+000	 2.2432713505e-001
 2.5933465369e-001	 3.8713154031e+000	 2.1954319577e-001
 2.2191334531e-001	 3.8736406269e+000	 1.9560363696e-001
 1.8460889513e-001	 3.8755975993e+000	 1.6288420375e-001
 1.4742599728e-001	 3.8771900711e+000	 1.3269388329e-001
 1.1036923719e-001	 3.8784218531e+000	 1.1722892502e-001
 7.3443091225e-002	 3.8792968128e+000	 1.2953365124e-001
 3.6651926360e-002	 3.8798188711e+000	 1.8346873901e-001
 0.0000000000e+000	 3.8799920000e+000	 2.9368750175e-001
 3.7480934368e-001	 3.8886346791e+000	 1.2174176656e-001
 3.3680733051e-001	 3.8921102375e+000	 1.7827796641e-001
 2.9890814810e-001	 3.8952040776e+000	 1.9918090893e-001
 2.6111684788e-001	 3.8979197760e+000	 1.9250747812e-001
 2.2343837357e-001	 3.9002609792e+000	 1.6729682746e-001
 1.8587756052e-001	 3.9022314002e+000	 1.3350610156e-001
 1.4843913514e-001	 3.9038348158e+000	 1.0195202876e-001
 1.1112771436e-001	 3.9050750628e+000	 8.4259434440e-002
 7.3947805304e-002	 3.9059560353e+000	 9.2817542607e-002
 3.6903804964e-002	 3.9064816814e+000	 1.4074475635e-001
 0.0000000000e+000	 3.9066560000e+000	 2.4186244544e-001
 3.7736752037e-001	 3.9151756786e+000	 9.8034432785e-002
 3.3910613303e-001	 3.9186749587e+000	 1.4946013342e-001
 3.0094827830e-001	 3.9217899151e+000	 1.6653172456e-001
 2.6289904207e-001	 3.9245241489e+000	 1.5698484653e-001
 2.2496340183e-001	 3.9268813314e+000	 1.2946696626e-001
 1.8714622592e-001	 3.9288652011e+000	 9.3465457718e-002
 1.4945227300e-001	 3.9304795604e+000	 5.9242560154e-002
 1.1188619153e-001	 3.9317282725e+000	 3.7778291834e-002
 7.4452519382e-002	 3.9326152578e+000	 4.0722204968e-002
 3.7155683567e-002	 3.9331444916e+000	 8.0354681302e-002
 0.0000000000e+000	 3.9333200000e+000	 1.6955829581e-001
 3.9333200000e+000	 0.0000000000e+000	 1.0850866236e+000
 3.9331444916e+000	 3.7155683567e-002	 1.0700249267e+000
 3.9326152578e+000	 7.4452519382e-002	 1.0433058674e+000
 3.9317282725e+000	 1.1188619153e-001	 1.0078943532e+000
 3.9304795604e+000	 1.4945227300e-001	 9.6683278942e-001
 3.9288652011e+000	 1.8714622592e-001	 9.2322312092e-001
 3.9268813314e+000	 2.2496340183e-001	 8.8019747811e-001
 3.9245241489e+000	 2.6289904207e-001	 8.4087843468e-001
 3.9217899151e+000	 3.0094827830e-001	 8.0833007741e-001
 3.9186749587e+000	 3.3910613303e-001	 7.8550128987e-001
 3.9151756786e+000	 3.7736752037e-001	 7.7516285055e-001
 3.9599880000e+000	 0.0000000000e+000	 1.0989019237e+000
 3.9598113016e+000	 3.7407599955e-002	 1.0789007181e+000
 3.9592784797e+000	 7.4957309175e-002	 1.0489618691e+000
 3.9583854805e+000	 1.1264478248e-001	 1.0114347999e+000
 3.9571283022e+000	 1.5046556284e-001	 9.6886791002e-001
 3.9555029975e+000	 1.8841508163e-001	 9.2398311018e-001
 3.9535056771e+000	 2.2648865886e-001	 8.7963784207e-001
 3.9511325128e+000	 2.6468150362e-001	 8.3877563171e-001
 3.9483797409e+000	 3.0298871454e-001	 8.0436643195e-001
 3.9452436650e+000	 3.4140528040e-001	 7.7933822069e-001
 3.9417206597e+000	 3.7992608084e-001	 7.6650153129e-001
 3.9866560000e+000	 0.0000000000e+000	 1.0205292570e+000
 3.9864781117e+000	 3.7659516343e-002	 1.0092927190e+000
 3.9859417015e+000	 7.5462098967e-002	 9.8860432010e-001
 3.9850426886e+000	 1.1340337343e-001	 9.6020912704e-001
 3.9837770439e+000	 1.5147885269e-001	 9.2617972588e-001
 3.9821407938e+000	 1.8968393734e-001	 8.8888278340e-001
 3.9801300227e+000	 2.2801391590e-001	 8.5093191945e-001
 3.9777408767e+000	 2.6646396517e-001	 8.1512798405e-001
 3.9749695666e+000	 3.0502915079e-001	 7.8438805131e-001
 3.9718123712e+000	 3.4370442778e-001	 7.6166466386e-001
 3.9682656408e+000	 3.8248464130e-001	 7.4985708303e-001
 4.0133240000e+000	 0.0000000000e+000	 8.6203980607e-001
 4.0131449217e+000	 3.7911432732e-002	 8.7121625972e-001
 4.0126049233e+000	 7.5966888759e-002	 8.6988608172e-001
 4.0116998966e+000	 1.1416196437e-001	 8.5954225316e-001
 4.0104257857e+000	 1.5249214253e-001	 8.4206439546e-001
 4.0087785902e+000	 1.9095279306e-001	 8.1966085210e-001
 4.0067543684e+000	 2.2953917293e-001	 7.9480743583e-001
 4.0043492407e+000	 2.6824642672e-001	 7.7018249146e-001
 4.0015593924e+000	 3.0706958703e-001	 7.4859788980e-001
 3.9983810775e+000	 3.4600357516e-001	 7.3290037165e-001
 3.9948106218e+000	 3.8504320176e-001	 7.2586301144e-001
 4.0399920000e+000	 0.0000000000e+000	 7.1771570093e-001
 4.0398117318e+000	 3.8163349120e-002	 7.4451822800e-001
 4.0392681452e+000	 7.6471678551e-002	 7.5957436218e-001
 4.0383571047e+000	 1.1492055532e-001	 7.6433945540e-001
 4.0370745274e+000	 1.5350543238e-001	 7.6065479721e-001
 4.0354163865e+000	 1.9222164877e-001	 7.5069090142e-001
 4.0333787141e+000	 2.3106442997e-001	 7.3688759526e-001
 4.0309576046e+000	 2.7002888826e-001	 7.2189054601e-001
 4.0281492181e+000	 3.0911002327e-001	 7.0848382333e-001
 4.0249497838e+000	 3.4830272253e-001	 6.9951806049e-001
 4.0213556029e+000	 3.8760176222e-001	 6.9783374352e-001
 4.0666600000e+000	 0.0000000000e+000	 6.0403591466e-001
 4.0664785418e+000	 3.8415265508e-002	 6.4359278349e-001
 4.0659313670e+000	 7.6976468342e-002	 6.7074382978e-001
 4.0650143127e+000	 1.1567914627e-001	 6.8686257908e-001
 4.0637232692e+000	 1.5451872222e-001	 6.9370562059e-001
 4.0620541829e+000	 1.9349050448e-001	 6.9335725836e-001
 4.0600030598e+000	 2.3258968700e-001	 6.8817111729e-001
 4.0575659685e+000	 2.7181134981e-001	 6.8070832286e-001
 4.0547390439e+000	 3.1115045952e-001	 6.7367183518e-001
 4.0515184901e+000	 3.5060186991e-001	 6.6983647952e-001
 4.0479005840e+000	 3.9016032268e-001	 6.7197417955e-001
 4.0933280000e+000	 0.0000000000e+000	 5.2158161503e-001
 4.0931453519e+000	 3.8667181896e-002	 5.6902307839e-001
 4.0925945888e+000	 7.7481258134e-002	 6.0398574651e-001
 4.0916715208e+000	 1.1643773722e-001	 6.2771725235e-001
 4.0903720110e+000	 1.5553201207e-001	 6.4184319758e-001
 4.0886919793e+000	 1.9475936019e-001	 6.4831333234e-001
 4.0866274055e+000	 2.3411494403e-001	 6.4934485717e-001
 4.0841743324e+000	 2.7359381136e-001	 6.4736245030e-001
 4.0813288697e+000	 3.1319089576e-001	 6.4493458187e-001
 4.0780871964e+000	 3.5290101728e-001	 6.4470563623e-001
 4.0744455651e+000	 3.9271888314e-001	 6.4932332444e-001
 4.1199960000e+000	 0.0000000000e+000	 4.7096714966e-001
 4.1198121619e+000	 3.8919098284e-002	 5.2141773369e-001
 4.1192578107e+000	 7.7986047926e-002	 5.5990976593e-001
 4.1183287288e+000	 1.1719632817e-001	 5.8752099780e-001
 4.1170207527e+000	 1.5654530191e-001	 6.0569978176e-001
 4.1153297756e+000	 1.9602821590e-001	 6.1621294777e-001
 4.1132517511e+000	 2.3564020107e-001	 6.2109098507e-001
 4.1107826964e+000	 2.7537627290e-001	 6.2257011626e-001
 4.1079186954e+000	 3.1523133200e-001	 6.2303080584e-001
 4.1046559027e+000	 3.5520016466e-001	 6.2493220254e-001
 4.1009905462e+000	 3.9527744361e-001	 6.3074197252e-001
 4.1466640000e+000	 0.0000000000e+000	 4.5283897913e-001
 4.1464789720e+000	 3.9171014672e-002	 5.0140989458e-001
 4.1459210325e+000	 7.8490837717e-002	 5.3914310963e-001
 4.1449859369e+000	 1.1795491912e-001	 5.6690252900e-001
 4.1436694945e+000	 1.5755859176e-001	 5.8591296426e-001
 4.1419675720e+000	 1.9729707162e-001	 5.9770987925e-001
 4.1398760968e+000	 2.3716545810e-001	 6.0408664048e-001
 4.1373910603e+000	 2.7715873445e-001	 6.0703884237e-001
 4.1345085212e+000	 3.1727176825e-001	 6.0870522990e-001
 4.1312246089e+000	 3.5749931203e-001	 6.1130469521e-001
 4.1275355273e+000	 3.9783600407e-001	 6.1706877952e-001
 4.1733320000e+000	 0.0000000000e+000	 4.6787465090e-001
 4.1731457820e+000	 3.9422931060e-002	 5.0965632220e-001
 4.1725842543e+000	 7.8995627510e-002	 5.4232977562e-001
 4.1716431449e+000	 1.1871351007e-001	 5.6650107486e-001
 4.1703182362e+000	 1.5857188160e-001	 5.8312511363e-001
 4.1686053684e+000	 1.9856592733e-001	 5.9345740684e-001
 4.1665004425e+000	 2.3869071514e-001	 5.9900360306e-001
 4.1639994242e+000	 2.7894119600e-001	 6.0146627087e-001
 4.1610983469e+000	 3.1931220449e-001	 6.0268846099e-001
 4.1577933152e+000	 3.5979845941e-001	 6.0459349763e-001
 4.1540805083e+000	 4.0039456453e-001	 6.0912040365e-001
 4.2000000000e+000	 0.0000000000e+000	 5.1678181244e-001
 4.1998125921e+000	 3.9674847448e-002	 5.4683652004e-001
 4.1992474762e+000	 7.9500417302e-002	 5.7012977730e-001
 4.1983003530e+000	 1.1947210102e-001	 5.8696573058e-001
 4.1969669780e+000	 1.5958517145e-001	 5.9798283855e-001
 4.1952431647e+000	 1.9983478304e-001	 6.0410789045e-001
 4.1931247882e+000	 2.4021597217e-001	 6.0650797918e-001
 4.1906077882e+000	 2.8072365755e-001	 6.0653996386e-001
 4.1876881727e+000	 3.2135264073e-001	 6.0569690298e-001
 4.1843620215e+000	 3.6209760679e-001	 6.0555088717e-001
 4.1806254894e+000	 4.0295312499e-001	 6.0769164901e-001
 3.9151756786e+000	 3.7736752037e-001	 7.7516285055e-001
 3.9112891599e+000	 4.1572149954e-001	 7.7057162777e-001
 3.9070114582e+000	 4.5416857227e-001	 7.6352588128e-001
 3.9023392051e+000	 4.9270341909e-001	 7.5417375026e-001
 3.8972691155e+000	 5.3132061837e-001	 7.4226244782e-001
 3.8917979905e+000	 5.7001464758e-001	 7.2707885727e-001
 3.8859227212e+000	 6.0877988461e-001	 7.0739749348e-001
 3.8796402911e+000	 6.4761060921e-001	 6.8143865401e-001
 3.8729477800e+000	 6.8650100458e-001	 6.4813240179e-001
 3.8658423669e+000	 7.2544515898e-001	 6.1516864630e-001
 3.8583213333e+000	 7.6443706755e-001	 5.8840366298e-001
 3.9417206597e+000	 3.7992608084e-001	 7.6650153129e-001
 3.9378077903e+000	 4.1854010086e-001	 7.5971204018e-001
 3.9335010856e+000	 4.5724784563e-001	 7.5124038685e-001
 3.9287971546e+000	 4.9604395959e-001	 7.4113495135e-001
 3.9236926896e+000	 5.3492298437e-001	 7.2904657340e-001
 3.9181844704e+000	 5.7387935999e-001	 7.1415411981e-001
 3.9122693665e+000	 6.1290742622e-001	 6.9509721845e-001
 3.9059443414e+000	 6.5200142403e-001	 6.6991912821e-001
 3.8992064550e+000	 6.9115549717e-001	 6.3783549673e-001
 3.8920528670e+000	 7.3036369383e-001	 6.0604329744e-001
 3.8844808406e+000	 7.6961996844e-001	 5.7959782729e-001
 3.9682656408e+000	 3.8248464130e-001	 7.4985708303e-001
 3.9643264207e+000	 4.2135870218e-001	 7.4350231347e-001
 3.9599907131e+000	 4.6032711899e-001	 7.3547585465e-001
 3.9552551041e+000	 4.9938450010e-001	 7.2585192676e-001
 3.9501162638e+000	 5.3852535038e-001	 7.1431100181e-001
 3.9445709502e+000	 5.7774407240e-001	 7.0004935785e-001
 3.9386160119e+000	 6.1703496783e-001	 6.8169557940e-001
 3.9322483918e+000	 6.5639223885e-001	 6.5723712384e-001
 3.9254651299e+000	 6.9580998976e-001	 6.2630480257e-001
 3.9182633671e+000	 7.3528222869e-001	 5.9547670500e-001
 3.9106403479e+000	 7.7480286933e-001	 5.6918341648e-001
 3.9948106218e+000	 3.8504320176e-001	 7.2586301144e-001
 3.9908450511e+000	 4.2417730350e-001	 7.2275320659e-001
 3.9864803406e+000	 4.6340639235e-001	 7.1718418467e-001
 3.9817130536e+000	 5.0272504061e-001	 7.0938743373e-001
 3.9765398380e+000	 5.4212771638e-001	 6.9920491850e-001
 3.9709574300e+000	 5.8160878482e-001	 6.8598160405e-001
 3.9649626573e+000	 6.2116250944e-001	 6.6846468257e-001
 3.9585524421e+000	 6.6078305366e-001	 6.4471277926e-001
 3.9517238049e+000	 7.0046448236e-001	 6.1487340063e-001
 3.9444738672e+000	 7.4020076354e-001	 5.8482402646e-001
 3.9367998552e+000	 7.7998577022e-001	 5.5851716992e-001
 4.0213556029e+000	 3.8760176222e-001	 6.9783374352e-001
 4.0173636815e+000	 4.2699590482e-001	 6.9911906875e-001
 4.0129699681e+000	 4.6648566571e-001	 6.9738360857e-001
 4.0081710031e+000	 5.0606558111e-001	 6.9270810677e-001
 4.0029634122e+000	 5.4573008239e-001	 6.8484930578e-001
 3.9973439098e+000	 5.8547349723e-001	 6.7316097309e-001
 3.9913093026e+000	 6.2529005105e-001	 6.5666810978e-001
 3.9848564924e+000	 6.6517386848e-001	 6.3365728684e-001
 3.9779824798e+000	 7.0511897495e-001	 6.0486577371e-001
 3.9706843673e+000	 7.4511929839e-001	 5.7542967964e-001
 3.9629593625e+000	 7.8516867111e-001	 5.4894325883e-001
 4.0479005840e+000	 3.9016032268e-001	 6.7197417955e-001
 4.0438823119e+000	 4.2981450615e-001	 6.7631460149e-001
 4.0394595956e+000	 4.6956493906e-001	 6.7744487432e-001
 4.0346289526e+000	 5.0940612162e-001	 6.7544704917e-001
 4.0293869863e+000	 5.4933244839e-001	 6.7009477517e-001
 4.0237303896e+000	 5.8933820964e-001	 6.6075079893e-001
 4.0176559480e+000	 6.2941759266e-001	 6.4625610678e-001
 4.0111605428e+000	 6.6956468330e-001	 6.2482078829e-001
 4.0042411548e+000	 7.0977346754e-001	 5.9751325595e-001
 3.9968948674e+000	 7.5003783325e-001	 5.6862749001e-001
 3.9891188698e+000	 7.9035157200e-001	 5.4179342524e-001
 4.0744455651e+000	 3.9271888314e-001	 6.4932332444e-001
 4.0704009423e+000	 4.3263310747e-001	 6.5551098314e-001
 4.0659492230e+000	 4.7264421242e-001	 6.5842801176e-001
 4.0610869021e+000	 5.1274666212e-001	 6.5816584398e-001
 4.0558105605e+000	 5.5293481440e-001	 6.5452324976e-001
 4.0501168695e+000	 5.9320292205e-001	 6.4690589349e-001
 4.0440025933e+000	 6.3354513427e-001	 6.3421742143e-001
 4.0374645931e+000	 6.7395549811e-001	 6.1480035538e-001
 4.0304998298e+000	 7.1442796013e-001	 5.8994129521e-001
 4.0231053675e+000	 7.5495636810e-001	 5.6315714178e-001
 4.0152783771e+000	 7.9553447288e-001	 5.3726854850e-001
 4.1009905462e+000	 3.9527744361e-001	 6.3074197252e-001
 4.0969195727e+000	 4.3545170879e-001	 6.3762381393e-001
 4.0924388505e+000	 4.7572348578e-001	 6.4129774392e-001
 4.0875448516e+000	 5.1608720263e-001	 6.4187114606e-001
 4.0822341347e+000	 5.5653718040e-001	 6.3917462053e-001
 4.0765033493e+000	 5.9706763447e-001	 6.3266378740e-001
 4.0703492387e+000	 6.3767267588e-001	 6.2131250878e-001
 4.0637686435e+000	 6.7834631293e-001	 6.0362441898e-001
 4.0567585047e+000	 7.1908245272e-001	 5.8093282417e-001
 4.0493158676e+000	 7.5987490295e-001	 5.5612985401e-001
 4.0414378845e+000	 8.0071737377e-001	 5.3165987077e-001
 4.1275355273e+000	 3.9783600407e-001	 6.1706877952e-001
 4.1234382031e+000	 4.3827031011e-001	 6.2354279417e-001
 4.1189284780e+000	 4.7880275914e-001	 6.2698944492e-001
 4.1140028011e+000	 5.1942774314e-001	 6.2753708977e-001
 4.1086577088e+000	 5.6013954641e-001	 6.2505332808e-001
 4.1028898291e+000	 6.0093234688e-001	 6.1904924463e-001
 4.0966958841e+000	 6.4180021749e-001	 6.0857496523e-001
 4.0900726938e+000	 6.8273712774e-001	 5.9230408333e-001
 4.0830171797e+000	 7.2373694531e-001	 5.7148389946e-001
 4.0755263677e+000	 7.6479343780e-001	 5.4847035930e-001
 4.0675973918e+000	 8.0590027466e-001	 5.2534431883e-001
 4.1540805083e+000	 4.0039456453e-001	 6.0912040365e-001
 4.1499568335e+000	 4.4108891143e-001	 6.1413198197e-001
 4.1454181055e+000	 4.8188203250e-001	 6.1640950699e-001
 4.1404607506e+000	 5.2276828364e-001	 6.1610575684e-001
 4.1350812830e+000	 5.6374191241e-001	 6.1312892240e-001
 4.1292763089e+000	 6.0479705929e-001	 6.0704949666e-001
 4.1230425294e+000	 6.4592775910e-001	 5.9699837212e-001
 4.1163767441e+000	 6.8712794256e-001	 5.8181028064e-001
 4.1092758546e+000	 7.2839143789e-001	 5.6254913688e-001
 4.1017368678e+000	 7.6971197265e-001	 5.4110707186e-001
 4.0937568991e+000	 8.1108317555e-001	 5.1921399062e-001
 4.1806254894e+000	 4.0295312499e-001	 6.0769164901e-001
 4.1764754639e+000	 4.4390751276e-001	 6.1023005011e-001
 4.1719077330e+000	 4.8496130586e-001	 6.1043570351e-001
 4.1669187001e+000	 5.2610882415e-001	 6.0848763786e-001
 4.1615048572e+000	 5.6734427842e-001	 6.0433661395e-001
 4.1556627888e+000	 6.0866177170e-001	 5.9761487365e-001
 4.1493891748e+000	 6.5005530071e-001	 5.8753699682e-001
 4.1426807945e+000	 6.9151875737e-001	 5.7307452911e-001
 4.1355345296e+000	 7.3304593048e-001	 5.5504254348e-001
 4.1279473679e+000	 7.7463050750e-001	 5.3492700909e-001
 4.1199164064e+000	 8.1626607643e-001	 5.1411920876e-001
 3.8583213333e+000	 7.6443706755e-001	 5.8840366298e-001
 3.8503808439e+000	 8.0347649112e-001	 5.6689032294e-001
 3.8420194933e+000	 8.4255138799e-001	 5.4665754790e-001
 3.8332348909e+000	 8.8165547354e-001	 5.2782792787e-001
 3.8240247614e+000	 9.2078237802e-001	 5.1032351658e-001
 3.8143869472e+000	 9.5992564888e-001	 4.9386771803e-001
 3.8043194115e+000	 9.9907875321e-001	 4.7799060422e-001
 3.7938202414e+000	 1.0382350804e+000	 4.6203684106e-001
 3.7828876505e+000	 1.0773879445e+000	 4.4518510966e-001
 3.7715199817e+000	 1.1165305877e+000	 4.2645702223e-001
 3.7597157100e+000	 1.1556561824e+000	 4.0474822491e-001
 3.8844808406e+000	 7.6961996844e-001	 5.7959782729e-001
 3.8764865146e+000	 8.0892408020e-001	 5.5789715190e-001
 3.8680684737e+000	 8.4826390576e-001	 5.3757185647e-001
 3.8592243116e+000	 8.8763311792e-001	 5.1874454361e-001
 3.8499517372e+000	 9.2702530371e-001	 5.0133754581e-001
 3.8402485784e+000	 9.6643396684e-001	 4.8507274989e-001
 3.8301127846e+000	 1.0058525301e+000	 4.6947493130e-001
 3.8195424299e+000	 1.0452743381e+000	 4.5387798770e-001
 3.8085357157e+000	 1.0846926596e+000	 4.3744180973e-001
 3.7970909739e+000	 1.1241006908e+000	 4.1916094227e-001
 3.7852066689e+000	 1.1634915578e+000	 3.9789331267e-001
 3.9106403479e+000	 7.7480286933e-001	 5.6918341648e-001
 3.9025921852e+000	 8.1437166927e-001	 5.4714073904e-001
 3.8941174542e+000	 8.5397642354e-001	 5.2654789127e-001
 3.8852137322e+000	 8.9361076229e-001	 5.0754788496e-001
 3.8758787129e+000	 9.3326822940e-001	 4.9008294318e-001
 3.8661102095e+000	 9.7294228481e-001	 4.7389209303e-001
 3.8559061576e+000	 1.0126263070e+000	 4.5851082054e-001
 3.8452646183e+000	 1.0523135958e+000	 4.4328306784e-001
 3.8341837809e+000	 1.0919973746e+000	 4.2736020176e-001
 3.8226619660e+000	 1.1316707938e+000	 4.0972439952e-001
 3.8106976279e+000	 1.1713269333e+000	 3.8920732145e-001
 3.9367998552e+000	 7.7998577022e-001	 5.5851716992e-001
 3.9286978558e+000	 8.1981925835e-001	 5.3596143223e-001
 3.9201664347e+000	 8.5968894132e-001	 5.1489426822e-001
 3.9112031529e+000	 8.9958840667e-001	 4.9550037919e-001
 3.9018056887e+000	 9.3951115509e-001	 4.7776236715e-001
 3.8919718407e+000	 9.7945060277e-001	 4.6145592074e-001
 3.8816995307e+000	 1.0194000839e+000	 4.4614736347e-001
 3.8709868067e+000	 1.0593528535e+000	 4.3120249579e-001
 3.8598318461e+000	 1.0993020896e+000	 4.1578503846e-001
 3.8482329582e+000	 1.1392408968e+000	 3.9887698790e-001
 3.8361885868e+000	 1.1791623088e+000	 3.7929590877e-001
 3.9629593625e+000	 7.8516867111e-001	 5.4894325883e-001
 3.9548035264e+000	 8.2526684743e-001	 5.2568548145e-001
 3.9462154151e+000	 8.6540145909e-001	 5.0390425757e-001
 3.9371925736e+000	 9.0556605105e-001	 4.8384817089e-001
 3.9277326645e+000	 9.4575408077e-001	 4.6556159515e-001
 3.9178334719e+000	 9.8595892073e-001	 4.4887729268e-001
 3.9074929037e+000	 1.0261738609e+000	 4.3341165269e-001
 3.8967089952e+000	 1.0663921112e+000	 4.1857030842e-001
 3.8854799114e+000	 1.1066068046e+000	 4.0354571330e-001
 3.8738039503e+000	 1.1468109999e+000	 3.8733442443e-001
 3.8616795457e+000	 1.1869976843e+000	 3.6875282297e-001
 3.9891188698e+000	 7.9035157200e-001	 5.4179342524e-001
 3.9809091970e+000	 8.3071443651e-001	 5.1762516175e-001
 3.9722643956e+000	 8.7111397687e-001	 4.9485588513e-001
 3.9631819942e+000	 9.1154369542e-001	 4.7382119561e-001
 3.9536596403e+000	 9.5199700646e-001	 4.5464956420e-001
 3.9436951030e+000	 9.9246723870e-001	 4.3725215739e-001
 3.9332862767e+000	 1.0329476378e+000	 4.2131555890e-001
 3.9224311836e+000	 1.0734313689e+000	 4.0630407643e-001
 3.9111279766e+000	 1.1139115197e+000	 3.9145611909e-001
 3.8993749425e+000	 1.1543811029e+000	 3.7579835064e-001
 3.8871705046e+000	 1.1948330598e+000	 3.5815964319e-001
 4.0152783771e+000	 7.9553447288e-001	 5.3726854850e-001
 4.0070148676e+000	 8.3616202558e-001	 5.1285072651e-001
 3.9983133761e+000	 8.7682649465e-001	 4.8901201524e-001
 3.9891714149e+000	 9.1752133979e-001	 4.6663323620e-001
 3.9795866160e+000	 9.5823993215e-001	 4.4617839543e-001
 3.9695567342e+000	 9.9897555666e-001	 4.2765933999e-001
 3.9590796498e+000	 1.0397214147e+000	 4.1085390401e-001
 3.9481533720e+000	 1.0804706266e+000	 3.9530480456e-001
 3.9367760418e+000	 1.1212162347e+000	 3.8031449799e-001
 3.9249459346e+000	 1.1619512060e+000	 3.6495612813e-001
 3.9126614635e+000	 1.2026684352e+000	 3.4808551668e-001
 4.0414378845e+000	 8.0071737377e-001	 5.3165987077e-001
 4.0331205382e+000	 8.4160961466e-001	 5.0814602131e-001
 4.0243623565e+000	 8.8253901242e-001	 4.8496127133e-001
 4.0151608355e+000	 9.2349898417e-001	 4.6252869971e-001
 4.0055135918e+000	 9.6448285783e-001	 4.4116970985e-001
 3.9954183654e+000	 1.0054838746e+000	 4.2116051564e-001
 3.9848730228e+000	 1.0464951916e+000	 4.0300439485e-001
 3.9738755604e+000	 1.0875098843e+000	 3.8645682136e-001
 3.9624241070e+000	 1.1285209497e+000	 3.7090328319e-001
 3.9505169268e+000	 1.1695213090e+000	 3.5548062862e-001
 3.9381524225e+000	 1.2105038107e+000	 3.3908689346e-001
 4.0675973918e+000	 8.0590027466e-001	 5.2534431883e-001
 4.0592262089e+000	 8.4705720374e-001	 5.0274262946e-001
 4.0504113370e+000	 8.8825153020e-001	 4.8027609038e-001
 4.0411502562e+000	 9.2947662854e-001	 4.5835171037e-001
 4.0314405676e+000	 9.7072578352e-001	 4.3728151239e-001
 4.0212799965e+000	 1.0119921926e+000	 4.1726951870e-001
 4.0106663959e+000	 1.0532689685e+000	 3.9840210202e-001
 3.9995977489e+000	 1.0945491420e+000	 3.8062765878e-001
 3.9880721722e+000	 1.1358256647e+000	 3.6398893284e-001
 3.9760879189e+000	 1.1770914121e+000	 3.4803001859e-001
 3.9636433814e+000	 1.2183391862e+000	 3.3170725844e-001
 4.0937568991e+000	 8.1108317555e-001	 5.1921399062e-001
 4.0853318795e+000	 8.5250479281e-001	 4.9748751252e-001
 4.0764603175e+000	 8.9396404797e-001	 4.7573839488e-001
 4.0671396769e+000	 9.3545427291e-001	 4.5436194695e-001
 4.0573675433e+000	 9.7696870920e-001	 4.3366469888e-001
 4.0471416277e+000	 1.0185005105e+000	 4.1385152938e-001
 4.0364597689e+000	 1.0600427454e+000	 3.9501536001e-001
 4.0253199373e+000	 1.1015883997e+000	 3.7711747759e-001
 4.0137202374e+000	 1.1431303798e+000	 3.5997531193e-001
 4.0016589111e+000	 1.1846615151e+000	 3.4324409345e-001
 3.9891343403e+000	 1.2261745617e+000	 3.2647686125e-001
 4.1199164064e+000	 8.1626607643e-001	 5.1411920876e-001
 4.1114375501e+000	 8.5795238189e-001	 4.9318585078e-001
 4.1025092979e+000	 8.9967656574e-001	 4.7210112545e-001
 4.0931290975e+000	 9.4143191729e-001	 4.5125289565e-001
 4.0832945191e+000	 9.8321163488e-001	 4.3094596235e-001
 4.0730032589e+000	 1.0250088285e+000	 4.1138930806e-001
 4.0622531420e+000	 1.0668165223e+000	 3.9268522368e-001
 4.0510421257e+000	 1.1086276574e+000	 3.7481050305e-001
 4.0393683026e+000	 1.1504350948e+000	 3.5760352126e-001
 4.0272299033e+000	 1.1922316182e+000	 3.4074601915e-001
 4.0146252992e+000	 1.2340099371e+000	 3.2374429050e-001
 3.7597157100e+000	 1.1556561824e+000	 4.0474822491e-001
 3.7474734443e+000	 1.1947578341e+000	 3.8003686427e-001
 3.7347919268e+000	 1.2338285827e+000	 3.5197119461e-001
 3.7216700388e+000	 1.2728614074e+000	 3.1884008634e-001
 3.7081068035e+000	 1.3118492302e+000	 2.7892893405e-001
 3.6941013890e+000	 1.3507849198e+000	 2.3194663691e-001
 3.6796531097e+000	 1.3896612948e+000	 1.8701977678e-001
 3.6647614292e+000	 1.4284711273e+000	 1.4612553047e-001
 3.6494259619e+000	 1.4672071469e+000	 1.0918980127e-001
 3.6336464752e+000	 1.5058620440e+000	 7.6063322072e-002
 3.6174228910e+000	 1.5444284742e+000	 4.6520361857e-002
 3.7852066689e+000	 1.1634915578e+000	 3.9789331267e-001
 3.7728814004e+000	 1.2028583196e+000	 3.7335866494e-001
 3.7601139019e+000	 1.2421939689e+000	 3.4504671776e-001
 3.7469030472e+000	 1.2814914370e+000	 3.1133850581e-001
 3.7332478529e+000	 1.3207435981e+000	 2.7059586471e-001
 3.7191474813e+000	 1.3599432726e+000	 2.2415541688e-001
 3.7046012423e+000	 1.3990832303e+000	 1.8041322540e-001
 3.6896085959e+000	 1.4381561944e+000	 1.4015041083e-001
 3.6741691538e+000	 1.4771548451e+000	 1.0345602495e-001
 3.6582826818e+000	 1.5160718233e+000	 7.0347465932e-002
 3.6419491014e+000	 1.5548997347e+000	 4.0768917658e-002
 3.8106976279e+000	 1.1713269333e+000	 3.8920732145e-001
 3.7982893564e+000	 1.2109588052e+000	 3.6525440936e-001
 3.7854358770e+000	 1.2505593550e+000	 3.3716075717e-001
 3.7721360556e+000	 1.2901214666e+000	 3.0337849249e-001
 3.7583889022e+000	 1.3296379661e+000	 2.6232366309e-001
 3.7441935736e+000	 1.3691016254e+000	 2.1731655003e-001
 3.7295493750e+000	 1.4085051658e+000	 1.7488954889e-001
 3.7144557626e+000	 1.4478412615e+000	 1.3538045669e-001
 3.6989123457e+000	 1.4871025432e+000	 9.9012688673e-002
 3.6829188884e+000	 1.5262816025e+000	 6.5942394772e-002
 3.6664753117e+000	 1.5653709953e+000	 3.6256684069e-002
 3.8361885868e+000	 1.1791623088e+000	 3.7929590877e-001
 3.8236973125e+000	 1.2190592908e+000	 3.5620753032e-001
 3.8107578521e+000	 1.2589247412e+000	 3.2868707124e-001
 3.7973690640e+000	 1.2987514962e+000	 2.9523784154e-001
 3.7835299516e+000	 1.3385323340e+000	 2.5439886644e-001
 3.7692396659e+000	 1.3782599782e+000	 2.1142273030e-001
 3.7544975076e+000	 1.4179271013e+000	 1.7041683840e-001
 3.7393029293e+000	 1.4575263286e+000	 1.3177140363e-001
 3.7236555376e+000	 1.4970502414e+000	 9.5815963215e-002
 3.7075550951e+000	 1.5364913818e+000	 6.2818053828e-002
 3.6910015221e+000	 1.5758422558e+000	 3.2981272490e-002
 3.8616795457e+000	 1.1869976843e+000	 3.6875282297e-001
 3.8491052686e+000	 1.2271597764e+000	 3.4669176529e-001
 3.8360798272e+000	 1.2672901273e+000	 3.1999193153e-001
 3.8226020724e+000	 1.3073815258e+000	 2.8718906531e-001
 3.8086710009e+000	 1.3474267019e+000	 2.4734003172e-001
 3.7942857582e+000	 1.3874183310e+000	 2.0648035801e-001
 3.7794456403e+000	 1.4273490369e+000	 1.6697713640e-001
 3.7641500960e+000	 1.4672113956e+000	 1.2929279391e-001
 3.7483987295e+000	 1.5069979396e+000	 9.3835280392e-002
 3.7321913017e+000	 1.5467011611e+000	 6.0956691850e-002
 3.7155277324e+000	 1.5863135164e+000	 3.0951218204e-002
 3.8871705046e+000	 1.1948330598e+000	 3.5815964319e-001
 3.8745132247e+000	 1.2352602619e+000	 3.3717083939e-001
 3.8614018023e+000	 1.2756555135e+000	 3.1143376212e-001
 3.8478350808e+000	 1.3160115554e+000	 2.7949900315e-001
 3.8338120503e+000	 1.3563210699e+000	 2.4124983491e-001
 3.8193318505e+000	 1.3965766838e+000	 2.0250862132e-001
 3.8043937729e+000	 1.4367709724e+000	 1.6456544299e-001
 3.7889972628e+000	 1.4768964627e+000	 1.2792691748e-001
 3.7731419214e+000	 1.5169456378e+000	 9.3052219167e-002
 3.7568275083e+000	 1.5569109403e+000	 6.0351703282e-002
 3.7400539428e+000	 1.5967847769e+000	 3.0184790098e-002
 3.9126614635e+000	 1.2026684352e+000	 3.4808551668e-001
 3.8999211807e+000	 1.2433607475e+000	 3.2809814874e-001
 3.8867237774e+000	 1.2840208996e+000	 3.0336278215e-001
 3.8730680892e+000	 1.3246415850e+000	 2.7242843692e-001
 3.8589530996e+000	 1.3652154378e+000	 2.3619403927e-001
 3.8443779429e+000	 1.4057350366e+000	 1.9953858718e-001
 3.8293419056e+000	 1.4461929079e+000	 1.6318873289e-001
 3.8138444295e+000	 1.4865815298e+000	 1.2766776447e-001
 3.7978851133e+000	 1.5268933359e+000	 9.3459403663e-002
 3.7814637149e+000	 1.5671207196e+000	 6.1006482283e-002
 3.7645801531e+000	 1.6072560375e+000	 3.0708811684e-002
 3.9381524225e+000	 1.2105038107e+000	 3.3908689346e-001
 3.9253291368e+000	 1.2514612331e+000	 3.1991644424e-001
 3.9120457525e+000	 1.2923862858e+000	 2.9612065143e-001
 3.8983010976e+000	 1.3332716146e+000	 2.6623171175e-001
 3.8840941490e+000	 1.3741098057e+000	 2.3224901270e-001
 3.8694240352e+000	 1.4148933894e+000	 1.9761230114e-001
 3.8542900382e+000	 1.4556148434e+000	 1.6286498255e-001
 3.8386915962e+000	 1.4962665968e+000	 1.2851998871e-001
 3.8226283052e+000	 1.5368410341e+000	 9.5059412540e-002
 3.8060999215e+000	 1.5773304989e+000	 6.2933288043e-002
 3.7891063634e+000	 1.6177272980e+000	 3.2557492906e-002
 3.9636433814e+000	 1.2183391862e+000	 3.3170725844e-001
 3.9507370929e+000	 1.2595617187e+000	 3.1305751565e-001
 3.9373677276e+000	 1.3007516719e+000	 2.9004011889e-001
 3.9235341059e+000	 1.3419016441e+000	 2.6128212479e-001
 3.9092351983e+000	 1.3830041737e+000	 2.2950091585e-001
 3.8944701275e+000	 1.4240517422e+000	 1.9678189569e-001
 3.8792381709e+000	 1.4650367789e+000	 1.6362220701e-001
 3.8635387629e+000	 1.5059516639e+000	 1.3049788164e-001
 3.8473714971e+000	 1.5467887323e+000	 9.7863699210e-002
 3.8307361281e+000	 1.5875402781e+000	 6.6152120886e-002
 3.8136325738e+000	 1.6281985585e+000	 3.5771272243e-002
 3.9891343403e+000	 1.2261745617e+000	 3.2647686125e-001
 3.9761450490e+000	 1.2676622042e+000	 3.0794187600e-001
 3.9626897027e+000	 1.3091170580e+000	 2.8544467388e-001
 3.9487671143e+000	 1.3505316737e+000	 2.5788208010e-001
 3.9343762477e+000	 1.3918985416e+000	 2.2804489693e-001
 3.9195162198e+000	 1.4332100950e+000	 1.9710870685e-001
 3.9041863035e+000	 1.4744587144e+000	 1.6549750597e-001
 3.8883859296e+000	 1.5156367310e+000	 1.3362435628e-001
 3.8721146890e+000	 1.5567364305e+000	 1.0189152241e-001
 3.8553723347e+000	 1.5977500574e+000	 7.0689608691e-002
 3.8381587841e+000	 1.6386698191e+000	 4.0395668647e-002
 4.0146252992e+000	 1.2340099371e+000	 3.2374429050e-001
 4.0015530051e+000	 1.2757626898e+000	 3.0497791252e-001
 3.9880116778e+000	 1.3174824442e+000	 2.8264819999e-001
 3.9740001227e+000	 1.3591617033e+000	 2.5617738324e-001
 3.9595172970e+000	 1.4007929095e+000	 2.2798429286e-001
 3.9445623121e+000	 1.4423684478e+000	 1.9866239846e-001
 3.9291344362e+000	 1.4838806500e+000	 1.6853611877e-001
 3.9132330963e+000	 1.5253217981e+000	 1.3792994078e-001
 3.8968578809e+000	 1.5666841286e+000	 1.0716888670e-001
 3.8800085414e+000	 1.6079598367e+000	 7.6577903151e-002
 3.8626849945e+000	 1.6491410796e+000	 4.6480142885e-002
 3.6174228910e+000	 1.5444284742e+000	 4.6520361857e-002
 3.6007578216e+000	 1.5828932993e+000	 2.0380286687e-002
 3.5836491053e+000	 1.6212549131e+000	-2.9237010708e-003
 3.5660971407e+000	 1.6595058954e+000	-2.4259053924e-002
 3.5481024868e+000	 1.6976388070e+000	-4.4517019928e-002
 3.5296658649e+000	 1.7356461945e+000	-6.4615049530e-002
 3.5107881589e+000	 1.7735205942e+000	-8.5499682411e-002
 3.4914704169e+000	 1.8112545366e+000	-1.0814987920e-001
 3.4717138517e+000	 1.8488405507e+000	-1.3358075489e-001
 3.4515198418e+000	 1.8862711687e+000	-1.6284766278e-001
 3.4308899314e+000	 1.9235389302e+000	-1.9705057037e-001
 3.6419491014e+000	 1.5548997347e+000	 4.0768917658e-002
 3.6251710424e+000	 1.5936253522e+000	 1.5105184761e-002
 3.6079463286e+000	 1.6322470587e+000	-6.9120688161e-003
 3.5902753613e+000	 1.6707573835e+000	-2.6381796976e-002
 3.5721587033e+000	 1.7091488371e+000	-4.4430898136e-002
 3.5535970806e+000	 1.7474139156e+000	-6.2216494090e-002
 3.5345913833e+000	 1.7855451046e+000	-8.0928717639e-002
 3.5151426665e+000	 1.8235348839e+000	-1.0179397241e-001
 3.4952521515e+000	 1.8613757321e+000	-1.2607861974e-001
 3.4749212257e+000	 1.8990601306e+000	-1.5509303931e-001
 3.4541514439e+000	 1.9365805684e+000	-1.9019600200e-001
 3.6664753117e+000	 1.5653709953e+000	 3.6256684069e-002
 3.6495842632e+000	 1.6043574052e+000	 1.0858899637e-002
 3.6322435519e+000	 1.6432392043e+000	-1.0225096109e-002
 3.6144535818e+000	 1.6820088716e+000	-2.8287642742e-002
 3.5962149197e+000	 1.7206588672e+000	-4.4652738321e-002
 3.5775282962e+000	 1.7591816367e+000	-6.0678267008e-002
 3.5583946077e+000	 1.7975696150e+000	-7.7758767756e-002
 3.5388149162e+000	 1.8358152313e+000	-9.7328705794e-002
 3.5187904512e+000	 1.8739109136e+000	-1.2086619971e-001
 3.4983226095e+000	 1.9118490925e+000	-1.4989714817e-001
 3.4774129565e+000	 1.9496222066e+000	-1.8599969199e-001
 3.6910015221e+000	 1.5758422558e+000	 3.2981272490e-002
 3.6739974839e+000	 1.6150894581e+000	 7.6741889062e-003
 3.6565407752e+000	 1.6542313498e+000	-1.2794651832e-002
 3.6386318024e+000	 1.6932603597e+000	-2.9873577015e-002
 3.6202711361e+000	 1.7321688974e+000	-4.5045845486e-002
 3.6014595119e+000	 1.7709493578e+000	-5.9831900675e-002
 3.5821978321e+000	 1.8095941253e+000	-7.5792200605e-002
 3.5624871659e+000	 1.8480955787e+000	-9.4530584697e-002
 3.5423287509e+000	 1.8864460950e+000	-1.1769812783e-001
 3.5217239934e+000	 1.9246380543e+000	-1.4699742293e-001
 3.5006744691e+000	 1.9626638447e+000	-1.8418722445e-001
 3.7155277324e+000	 1.5863135164e+000	 3.0951218204e-002
 3.6984107047e+000	 1.6258215111e+000	 5.5931066675e-003
 3.6808379985e+000	 1.6652234954e+000	-1.4544986425e-002
 3.6628100230e+000	 1.7045118478e+000	-3.1030670729e-002
 3.6443273525e+000	 1.7436789275e+000	-4.5469313257e-002
 3.6253907276e+000	 1.7827170788e+000	-5.9506393481e-002
 3.6060010565e+000	 1.8216186357e+000	-7.4830474953e-002
 3.5861594156e+000	 1.8603759261e+000	-9.3176751191e-002
 3.5658670506e+000	 1.8989812764e+000	-1.1633111370e-001
 3.5451253772e+000	 1.9374270162e+000	-1.4613468032e-001
 3.5239359817e+000	 1.9757054829e+000	-1.8448871286e-001
 3.7400539428e+000	 1.5967847769e+000	 3.0184790098e-002
 3.7228239255e+000	 1.6365535640e+000	 4.6657867890e-003
 3.7051352218e+000	 1.6762156410e+000	-1.5393975360e-002
 3.6869882436e+000	 1.7157633359e+000	-3.1645351008e-002
 3.6683835689e+000	 1.7551889576e+000	-4.5779323939e-002
 3.6493219433e+000	 1.7944847999e+000	-5.9529540896e-002
 3.6298042809e+000	 1.8336431461e+000	-7.4675505201e-002
 3.6098316652e+000	 1.8726562735e+000	-9.3046385625e-002
 3.5894053503e+000	 1.9115164578e+000	-1.1652538555e-001
 3.5685267611e+000	 1.9502159781e+000	-1.4705460735e-001
 3.5471974943e+000	 1.9887471210e+000	-1.8664033703e-001
 3.7645801531e+000	 1.6072560375e+000	 3.0708811684e-002
 3.7472371463e+000	 1.6472856170e+000	 4.9492366562e-003
 3.7294324451e+000	 1.6872077866e+000	-1.5254352937e-002
 3.7111664641e+000	 1.7270148240e+000	-3.1600663340e-002
 3.6924397853e+000	 1.7666989878e+000	-4.5830440465e-002
 3.6732531590e+000	 1.8062525210e+000	-5.9729259157e-002
 3.6536075053e+000	 1.8456676565e+000	-7.5131019322e-002
 3.6335039149e+000	 1.8849366209e+000	-9.3922101876e-002
 3.6129436500e+000	 1.9240516393e+000	-1.1804612651e-001
 3.5919281449e+000	 1.9630049400e+000	-1.4950924261e-001
 3.5704590069e+000	 2.0017887592e+000	-1.9036969959e-001
 3.7891063634e+000	 1.6177272980e+000	 3.2557492906e-002
 3.7716503671e+000	 1.6580176699e+000	 6.5061409390e-003
 3.7537296684e+000	 1.6981999321e+000	-1.4034936844e-002
 3.7353446847e+000	 1.7382663121e+000	-3.0777525294e-002
 3.7164960017e+000	 1.7782090179e+000	-4.5476890623e-002
 3.6971843747e+000	 1.8180202421e+000	-5.9934901893e-002
 3.6774107297e+000	 1.8576921669e+000	-7.6003910313e-002
 3.6571761646e+000	 1.8972169683e+000	-9.5591336599e-002
 3.6364819497e+000	 1.9365868207e+000	-1.2066490509e-001
 3.6153295288e+000	 1.9757939018e+000	-1.5325845210e-001
 3.5937205195e+000	 2.0148303973e+000	-1.9441029745e-001
 3.8136325738e+000	 1.6281985585e+000	 3.5771272243e-002
 3.7960635879e+000	 1.6687497229e+000	 9.4036749263e-003
 3.7780268917e+000	 1.7091920777e+000	-1.1641843893e-002
 3.7595229053e+000	 1.7495178002e+000	-2.9055972138e-002
 3.7405522181e+000	 1.7897190480e+000	-4.4573843890e-002
 3.7211155904e+000	 1.8297879632e+000	-5.9978570009e-002
 3.7012139541e+000	 1.8697166773e+000	-7.7105581475e-002
 3.6808484143e+000	 1.9094973156e+000	-9.7847732745e-002
 3.6600202494e+000	 1.9491220021e+000	-1.2416110032e-001
 3.6387309127e+000	 1.9885828637e+000	-1.5807139986e-001
 3.6169820321e+000	 2.0278720355e+000	-1.9806444288e-001
 3.8381587841e+000	 1.6386698191e+000	 4.0395668647e-002
 3.8204768087e+000	 1.6794817758e+000	 1.3712326999e-002
 3.8023241150e+000	 1.7201842233e+000	-7.9796973354e-003
 3.7837011259e+000	 1.7607692884e+000	-2.6316394744e-002
 3.7646084345e+000	 1.8012290781e+000	-4.2978681210e-002
 3.7450468061e+000	 1.8415556843e+000	-5.9696415128e-002
 3.7250171785e+000	 1.8817411877e+000	-7.8253285778e-002
 3.7045206639e+000	 1.9217776630e+000	-1.0049251761e-001
 3.6835585491e+000	 1.9616571835e+000	-1.2832332171e-001
 3.6621322965e+000	 2.0013718256e+000	-1.6371983049e-001
 3.6402435447e+000	 2.0409136736e+000	-2.0131228932e-001
 3.8626849945e+000	 1.6491410796e+000	 4.6480142885e-002
 3.8448900295e+000	 1.6902138288e+000	 1.9504729836e-002
 3.8266213383e+000	 1.7311763688e+000	-2.9528261146e-003
 3.8078793464e+000	 1.7720207765e+000	-2.2440770103e-002
 3.7886646509e+000	 1.8127391083e+000	-4.0552258039e-002
 3.7689780217e+000	 1.8533234054e+000	-5.8929936875e-002
 3.7488204029e+000	 1.8937656981e+000	-7.9271459584e-002
 3.7281929136e+000	 1.9340580104e+000	-1.0333587563e-001
 3.7070968488e+000	 1.9741923649e+000	-1.3295082427e-001
 3.6855336804e+000	 2.0141607875e+000	-1.6918839108e-001
 3.6635050572e+000	 2.0539553118e+000	-2.0414634580e-001
 3.4308899314e+000	 1.9235389302e+000	-1.9705057037e-001
 3.4098226392e+000	 1.9606419394e+000	-2.3673140777e-001
 3.3883229079e+000	 1.9975671597e+000	-2.8202412830e-001
 3.3663927853e+000	 2.0343071798e+000	-3.2581066991e-001
 3.3440344860e+000	 2.0708546138e+000	-3.5835676125e-001
 3.3212503911e+000	 2.1072021068e+000	-3.8050154757e-001
 3.2980430479e+000	 2.1433423388e+000	-3.9794042942e-001
 3.2744151693e+000	 2.1792680296e+000	-4.1339981834e-001
 3.2503696335e+000	 2.2149719435e+000	-4.2895415898e-001
 3.2259094826e+000	 2.2504468941e+000	-4.4666241526e-001
 3.2010379221e+000	 2.2856857484e+000	-4.6854756571e-001
 3.4541514439e+000	 1.9365805684e+000	-1.9019600200e-001
 3.4329413150e+000	 1.9739351368e+000	-2.3237420222e-001
 3.4112958151e+000	 2.0111107110e+000	-2.8121643015e-001
 3.3892170058e+000	 2.0480998292e+000	-3.2481518557e-001
 3.3667071167e+000	 2.0848950557e+000	-3.5883441370e-001
 3.3437685451e+000	 2.1214889855e+000	-3.8312826546e-001
 3.3204038555e+000	 2.1578742491e+000	-3.9873314326e-001
 3.2966157794e+000	 2.1940435169e+000	-4.1212783220e-001
 3.2724072143e+000	 2.2299895042e+000	-4.2602668202e-001
 3.2477812230e+000	 2.2657049758e+000	-4.4241805781e-001
 3.2227410328e+000	 2.3011827503e+000	-4.6325010793e-001
 3.4774129565e+000	 1.9496222066e+000	-1.8599969199e-001
 3.4560599909e+000	 1.9872283342e+000	-2.3054714646e-001
 3.4342687223e+000	 2.0246542622e+000	-2.8042802616e-001
 3.4120412262e+000	 2.0618924786e+000	-3.2348381512e-001
 3.3893797473e+000	 2.0989354976e+000	-3.5850000551e-001
 3.3662866990e+000	 2.1357758642e+000	-3.8524787616e-001
 3.3427646632e+000	 2.1724061594e+000	-4.0351704224e-001
 3.3188163895e+000	 2.2088190042e+000	-4.1472615745e-001
 3.2944447951e+000	 2.2450070649e+000	-4.2616494252e-001
 3.2696529635e+000	 2.2809630575e+000	-4.4043001304e-001
 3.2444441434e+000	 2.3166797522e+000	-4.5943120974e-001
 3.5006744691e+000	 1.9626638447e+000	-1.8418722445e-001
 3.4791786668e+000	 2.0005215316e+000	-2.3096567879e-001
 3.4572416294e+000	 2.0381978135e+000	-2.7954074907e-001
 3.4348654467e+000	 2.0756851281e+000	-3.2174570913e-001
 3.4120523780e+000	 2.1129759395e+000	-3.5729095194e-001
 3.3888048530e+000	 2.1500627430e+000	-3.8589765978e-001
 3.3651254708e+000	 2.1869380697e+000	-4.0730112922e-001
 3.3410169996e+000	 2.2235944915e+000	-4.2125440590e-001
 3.3164823760e+000	 2.2600246256e+000	-4.2988195032e-001
 3.2915247039e+000	 2.2962211391e+000	-4.4119374437e-001
 3.2661472541e+000	 2.3321767542e+000	-4.5756465456e-001
 3.5239359817e+000	 1.9757054829e+000	-1.8448871286e-001
 3.5022973426e+000	 2.0138147290e+000	-2.3229500146e-001
 3.4802145366e+000	 2.0517413647e+000	-2.7848763465e-001
 3.4576896671e+000	 2.0894777775e+000	-3.1954277741e-001
 3.4347250087e+000	 2.1270163813e+000	-3.5515712356e-001
 3.4113230070e+000	 2.1643496217e+000	-3.8503392632e-001
 3.3874862785e+000	 2.2014699800e+000	-4.0888636757e-001
 3.3632176097e+000	 2.2383699789e+000	-4.2644126118e-001
 3.3385199568e+000	 2.2750421863e+000	-4.3744308102e-001
 3.3133964443e+000	 2.3114792208e+000	-4.4518711430e-001
 3.2878503648e+000	 2.3476737561e+000	-4.5810571337e-001
 3.5471974943e+000	 1.9887471210e+000	-1.8664033703e-001
 3.5254160185e+000	 2.0271079264e+000	-2.3350147596e-001
 3.5031874438e+000	 2.0652849160e+000	-2.7721458828e-001
 3.4805138876e+000	 2.1032704269e+000	-3.1682948218e-001
 3.4573976394e+000	 2.1410568232e+000	-3.5206064113e-001
 3.4338411610e+000	 2.1786365004e+000	-3.8262496633e-001
 3.4098470862e+000	 2.2160018903e+000	-4.0824513382e-001
 3.3854182198e+000	 2.2531454662e+000	-4.2865331041e-001
 3.3605575376e+000	 2.2900597470e+000	-4.4359521907e-001
 3.3352681848e+000	 2.3267373025e+000	-4.5283454028e-001
 3.3095534755e+000	 2.3631707580e+000	-4.6149039080e-001
 3.5704590069e+000	 2.0017887592e+000	-1.9036969959e-001
 3.5485346943e+000	 2.0404011238e+000	-2.3453510738e-001
 3.5261603510e+000	 2.0788284673e+000	-2.7568017053e-001
 3.5033381080e+000	 2.1170630764e+000	-3.1357262488e-001
 3.4800702700e+000	 2.1550972651e+000	-3.4797566404e-001
 3.4563593150e+000	 2.1929233791e+000	-3.7865084058e-001
 3.4322078938e+000	 2.2305338007e+000	-4.0536135553e-001
 3.4076188299e+000	 2.2679209535e+000	-4.2787573123e-001
 3.3825951184e+000	 2.3050773076e+000	-4.4597185885e-001
 3.3571399252e+000	 2.3419953841e+000	-4.5944140727e-001
 3.3312565862e+000	 2.3786677599e+000	-4.6813466500e-001
 3.5937205195e+000	 2.0148303973e+000	-1.9441029745e-001
 3.5716533702e+000	 2.0536943212e+000	-2.3535864962e-001
 3.5491332582e+000	 2.0923720185e+000	-2.7385537689e-001
 3.5261623285e+000	 2.1308557258e+000	-3.0975112711e-001
 3.5027429007e+000	 2.1691377070e+000	-3.4288817247e-001
 3.4788774690e+000	 2.2072102578e+000	-3.7310316341e-001
 3.4545687015e+000	 2.2450657110e+000	-4.0023029501e-001
 3.4298194401e+000	 2.2826964408e+000	-4.2410488189e-001
 3.4046326992e+000	 2.3200948683e+000	-4.4456733317e-001
 3.3790116656e+000	 2.3572534658e+000	-4.6146751463e-001
 3.3529596968e+000	 2.3941647618e+000	-4.7466948049e-001
 3.6169820321e+000	 2.0278720355e+000	-1.9806444288e-001
 3.5947720461e+000	 2.0669875186e+000	-2.3594737938e-001
 3.5721061654e+000	 2.1059155698e+000	-2.7172341204e-001
 3.5489865489e+000	 2.1446483752e+000	-3.0535580569e-001
 3.5254155314e+000	 2.1831781488e+000	-3.3679574377e-001
 3.5013956229e+000	 2.2214971365e+000	-3.6598487998e-001
 3.4769295092e+000	 2.2595976213e+000	-3.9285832681e-001
 3.4520200502e+000	 2.2974719282e+000	-4.1734807789e-001
 3.4266702800e+000	 2.3351124290e+000	-4.3938685628e-001
 3.4008834061e+000	 2.3725115475e+000	-4.5891237625e-001
 3.3746628075e+000	 2.4096617637e+000	-4.7587200131e-001
 3.6402435447e+000	 2.0409136736e+000	-2.0131228932e-001
 3.6178907219e+000	 2.0802807161e+000	-2.3628886505e-001
 3.5950790726e+000	 2.1194591210e+000	-2.6927945865e-001
 3.5718107694e+000	 2.1584410247e+000	-3.0038914228e-001
 3.5480881620e+000	 2.1972185907e+000	-3.2970732305e-001
 3.5239137769e+000	 2.2357840152e+000	-3.5731003780e-001
 3.4992903168e+000	 2.2741295316e+000	-3.8326270947e-001
 3.4742206603e+000	 2.3122474155e+000	-4.0762336271e-001
 3.4487078609e+000	 2.3501299897e+000	-4.3044629199e-001
 3.4227551465e+000	 2.3877696291e+000	-4.5178616990e-001
 3.3963659182e+000	 2.4251587656e+000	-4.7170257897e-001
 3.6635050572e+000	 2.0539553118e+000	-2.0414634580e-001
 3.6410093978e+000	 2.0935739135e+000	-2.3638273073e-001
 3.6180519798e+000	 2.1330026723e+000	-2.6653044123e-001
 3.5946349899e+000	 2.1722336741e+000	-2.9486504779e-001
 3.5707607927e+000	 2.2112590326e+000	-3.2164298848e-001
 3.5464319309e+000	 2.2500708939e+000	-3.4710355274e-001
 3.5216511245e+000	 2.2886614419e+000	-3.7147135154e-001
 3.4964212704e+000	 2.3270229028e+000	-3.9495927286e-001
 3.4707454417e+000	 2.3651475504e+000	-4.1777191622e-001
 3.4446268869e+000	 2.4030277108e+000	-4.4010949517e-001
 3.4180690289e+000	 2.4406557675e+000	-4.6217219092e-001
 3.2010379221e+000	 2.2856857484e+000	-4.6854756571e-001
 3.1757583185e+000	 2.3206814311e+000	-4.9309980780e-001
 3.1500741959e+000	 2.3554269264e+000	-5.1746562752e-001
 3.1239892364e+000	 2.3899152852e+000	-5.4152461231e-001
 3.0975072805e+000	 2.4241396301e+000	-5.6502450243e-001
 3.0706323245e+000	 2.4580931598e+000	-5.8756413754e-001
 3.0433685191e+000	 2.4917691538e+000	-6.0857701464e-001
 3.0157201671e+000	 2.5251609764e+000	-6.2731560967e-001
 2.9876917216e+000	 2.5582620812e+000	-6.4283661200e-001
 2.9592877831e+000	 2.5910660154e+000	-6.5398721737e-001
 2.9305130975e+000	 2.6235664236e+000	-6.5939261929e-001
 3.2227410328e+000	 2.3011827503e+000	-4.6325010793e-001
 3.1972900329e+000	 2.3364157045e+000	-4.8686426090e-001
 3.1714317713e+000	 2.3713967751e+000	-5.1036275619e-001
 3.1451699552e+000	 2.4061189658e+000	-5.3370173578e-001
 3.1185084511e+000	 2.4405753525e+000	-5.5670233967e-001
 3.0914512822e+000	 2.4747590879e+000	-5.7903267930e-001
 3.0640026276e+000	 2.5086634059e+000	-6.0019044002e-001
 3.0361668192e+000	 2.5422816258e+000	-6.1948627180e-001
 3.0079483401e+000	 2.5756071569e+000	-6.3602812452e-001
 2.9793518222e+000	 2.6086335025e+000	-6.4870667994e-001
 2.9503820436e+000	 2.6413542642e+000	-6.5618202719e-001
 3.2444441434e+000	 2.3166797522e+000	-4.5943120974e-001
 3.2188217473e+000	 2.3521499780e+000	-4.8141909942e-001
 3.1927893468e+000	 2.3873666238e+000	-5.0347861673e-001
 3.1663506741e+000	 2.4223226463e+000	-5.2563229355e-001
 3.1395096216e+000	 2.4570110749e+000	-5.4776439946e-001
 3.1122702400e+000	 2.4914250160e+000	-5.6960192847e-001
 3.0846367361e+000	 2.5255576581e+000	-5.9069623310e-001
 3.0566134712e+000	 2.5594022753e+000	-6.1040547224e-001
 3.0282049587e+000	 2.5929522326e+000	-6.2787803603e-001
 2.9994158614e+000	 2.6262009896e+000	-6.4203710709e-001
 2.9702509898e+000	 2.6591421048e+000	-6.5156651146e-001
 3.2661472541e+000	 2.3321767542e+000	-4.5756465456e-001
 3.2403534617e+000	 2.3678842514e+000	-4.7721475394e-001
 3.2141469222e+000	 2.4033364725e+000	-4.9724169147e-001
 3.1875313929e+000	 2.4385263269e+000	-5.1772467829e-001
 3.1605107922e+000	 2.4734467973e+000	-5.3860129250e-001
 3.1330891977e+000	 2.5080909442e+000	-5.5964746431e-001
 3.1052708446e+000	 2.5424519102e+000	-5.8045812750e-001
 3.0770601233e+000	 2.5765229248e+000	-6.0042871081e-001
 3.0484615772e+000	 2.6102973083e+000	-6.1873764011e-001
 3.0194799006e+000	 2.6437684768e+000	-6.3433001755e-001
 2.9901199359e+000	 2.6769299455e+000	-6.4578941371e-001
 3.2878503648e+000	 2.3476737561e+000	-4.5810571337e-001
 3.2618851761e+000	 2.3836185248e+000	-4.7468231195e-001
 3.2355044976e+000	 2.4193063212e+000	-4.9206029858e-001
 3.2087121117e+000	 2.4547300074e+000	-5.1036630475e-001
 3.1815119627e+000	 2.4898825197e+000	-5.2958184288e-001
 3.1539081554e+000	 2.5247568723e+000	-5.4952227359e-001
 3.1259049531e+000	 2.5593461623e+000	-5.6981645864e-001
 3.0975067753e+000	 2.5936435742e+000	-5.8988728115e-001
 3.0687181957e+000	 2.6276423840e+000	-6.0893321108e-001
 3.0395439398e+000	 2.6613359639e+000	-6.2591108987e-001
 3.0099888821e+000	 2.6947177861e+000	-6.3869572650e-001
 3.3095534755e+000	 2.3631707580e+000	-4.6149039080e-001
 3.2834168905e+000	 2.3993527983e+000	-4.7423273011e-001
 3.2568620731e+000	 2.4352761699e+000	-4.8832177184e-001
 3.2298928305e+000	 2.4709336880e+000	-5.0392275878e-001
 3.2025131332e+000	 2.5063182421e+000	-5.2105220843e-001
 3.1747271132e+000	 2.5414228004e+000	-5.3955584438e-001
 3.1465390616e+000	 2.5762404145e+000	-5.5908723370e-001
 3.1179534273e+000	 2.6107642237e+000	-5.7908731958e-001
 3.0889748143e+000	 2.6449874597e+000	-5.9876503498e-001
 3.0596079790e+000	 2.6789034510e+000	-6.1693586957e-001
 3.0298578282e+000	 2.7125056268e+000	-6.3057723610e-001
 3.3312565862e+000	 2.3786677599e+000	-4.6813466500e-001
 3.3049486049e+000	 2.4150870717e+000	-4.7625604072e-001
 3.2782196485e+000	 2.4512460186e+000	-4.8639163510e-001
 3.2510735493e+000	 2.4871373686e+000	-4.9873694149e-001
 3.2235143038e+000	 2.5227539645e+000	-5.1333499633e-001
 3.1955460709e+000	 2.5580887285e+000	-5.3005325546e-001
 3.1671731701e+000	 2.5931346666e+000	-5.4856119722e-001
 3.1384000794e+000	 2.6278848731e+000	-5.6830884976e-001
 3.1092314328e+000	 2.6623325355e+000	-5.8850643628e-001
 3.0796720181e+000	 2.6964709382e+000	-6.0727604560e-001
 3.0497267744e+000	 2.7302934674e+000	-6.2175021320e-001
 3.3529596968e+000	 2.3941647618e+000	-4.7466948049e-001
 3.3264803193e+000	 2.4308213452e+000	-4.8112055288e-001
 3.2995772240e+000	 2.4672158673e+000	-4.8661277178e-001
 3.2722542682e+000	 2.5033410491e+000	-4.9512820856e-001
 3.2445154743e+000	 2.5391896869e+000	-5.0672837433e-001
 3.2163650286e+000	 2.5747546566e+000	-5.2129426153e-001
 3.1878072786e+000	 2.6100289187e+000	-5.3850289277e-001
 3.1588467314e+000	 2.6450055226e+000	-5.5780482348e-001
 3.1294880513e+000	 2.6796776112e+000	-5.7826078796e-001
 3.0997360573e+000	 2.7140384253e+000	-5.9718939048e-001
 3.0695957205e+000	 2.7480813081e+000	-6.1249277086e-001
 3.3746628075e+000	 2.4096617637e+000	-4.7587200131e-001
 3.3480120336e+000	 2.4465556186e+000	-4.8696436530e-001
 3.3209347994e+000	 2.4831857160e+000	-4.8930458938e-001
 3.2934349870e+000	 2.5195447297e+000	-4.9339150515e-001
 3.2655166449e+000	 2.5556254093e+000	-5.0150517770e-001
 3.2371839863e+000	 2.5914205848e+000	-5.1353237442e-001
 3.2084413871e+000	 2.6269231708e+000	-5.2914972074e-001
 3.1792933835e+000	 2.6621261720e+000	-5.4780015766e-001
 3.1497446699e+000	 2.6970226869e+000	-5.6791655696e-001
 3.1198000965e+000	 2.7316059124e+000	-5.8692502383e-001
 3.0894646667e+000	 2.7658691487e+000	-6.0304601902e-001
 3.3963659182e+000	 2.4251587656e+000	-4.7170257897e-001
 3.3695437480e+000	 2.4622898920e+000	-4.8718345146e-001
 3.3422923749e+000	 2.4991555647e+000	-4.9390520252e-001
 3.3146157058e+000	 2.5357484103e+000	-4.9379649640e-001
 3.2865178154e+000	 2.5720611317e+000	-4.9791201221e-001
 3.2580029441e+000	 2.6080865129e+000	-5.0699394041e-001
 3.2290754956e+000	 2.6438174230e+000	-5.2071099241e-001
 3.1997400355e+000	 2.6792468215e+000	-5.3837662156e-001
 3.1700012884e+000	 2.7143677626e+000	-5.5768186921e-001
 3.1398641357e+000	 2.7491733996e+000	-5.7669599905e-001
 3.1093336128e+000	 2.7836569894e+000	-5.9361521513e-001
 3.4180690289e+000	 2.4406557675e+000	-4.6217219092e-001
 3.3910754624e+000	 2.4780241655e+000	-4.8130838918e-001
 3.3636499503e+000	 2.5151254134e+000	-4.9340525708e-001
 3.3357964246e+000	 2.5519520908e+000	-4.9651858255e-001
 3.3075189860e+000	 2.5884968541e+000	-4.9616835311e-001
 3.2788219018e+000	 2.6247524410e+000	-5.0187721393e-001
 3.2497096041e+000	 2.6607116751e+000	-5.1336698055e-001
 3.2201866875e+000	 2.6963674709e+000	-5.2942274595e-001
 3.1902579069e+000	 2.7317128383e+000	-5.4774614752e-001
 3.1599281749e+000	 2.7667408867e+000	-5.6668041946e-001
 3.1292025590e+000	 2.8014448300e+000	-5.8437091118e-001
 2.9305130975e+000	 2.6235664236e+000	-6.5939261929e-001
 2.9013769518e+000	 2.6557522478e+000	-6.6299948367e-001
 2.8718800862e+000	 2.6876222428e+000	-6.6953253119e-001
 2.8420276662e+000	 2.7191703754e+000	-6.7732082281e-001
 2.8118249913e+000	 2.7503907261e+000	-6.8618669427e-001
 2.7812774920e+000	 2.7812774920e+000	-6.9597672996e-001
 2.7503907261e+000	 2.8118249913e+000	-7.0642873848e-001
 2.7191703754e+000	 2.8420276662e+000	-7.1718821934e-001
 2.6876222428e+000	 2.8718800862e+000	-7.2782502151e-001
 2.6557522478e+000	 2.9013769518e+000	-7.3741936168e-001
 2.6235664236e+000	 2.9305130975e+000	-7.4045515129e-001
 2.9503820436e+000	 2.6413542642e+000	-6.5618202719e-001
 2.9210483543e+000	 2.6737583091e+000	-6.6201952294e-001
 2.8913514992e+000	 2.7058443834e+000	-6.6938170903e-001
 2.8612966790e+000	 2.7376064131e+000	-6.7756442185e-001
 2.8308892294e+000	 2.7690384384e+000	-6.8646181147e-001
 2.8001346173e+000	 2.8001346173e+000	-6.9584036928e-001
 2.7690384384e+000	 2.8308892294e+000	-7.0535593306e-001
 2.7376064131e+000	 2.8612966790e+000	-7.1457103583e-001
 2.7058443834e+000	 2.8913514992e+000	-7.2297243987e-001
 2.6737583091e+000	 2.9210483543e+000	-7.2998869857e-001
 2.6413542642e+000	 2.9503820436e+000	-7.3292815225e-001
 2.9702509898e+000	 2.6591421048e+000	-6.5156651146e-001
 2.9407197567e+000	 2.6917643704e+000	-6.5902714924e-001
 2.9108229122e+000	 2.7240665239e+000	-6.6713739509e-001
 2.8805656919e+000	 2.7560424507e+000	-6.7580614146e-001
 2.8499534675e+000	 2.7876861507e+000	-6.8485793274e-001
 2.8189917427e+000	 2.8189917427e+000	-6.9398656073e-001
 2.7876861507e+000	 2.8499534675e+000	-7.0277297119e-001
 2.7560424507e+000	 2.8805656919e+000	-7.1070351476e-001
 2.7240665239e+000	 2.9108229122e+000	-7.1718837588e-001
 2.6917643704e+000	 2.9407197567e+000	-7.2158001521e-001
 2.6591421048e+000	 2.9702509898e+000	-7.2301422142e-001
 2.9901199359e+000	 2.6769299455e+000	-6.4578941371e-001
 2.9603911591e+000	 2.7097704316e+000	-6.5430363023e-001
 2.9302943251e+000	 2.7422886645e+000	-6.6322075556e-001
 2.8998347048e+000	 2.7744784884e+000	-6.7245571935e-001
 2.8690177055e+000	 2.8063338631e+000	-6.8177096462e-001
 2.8378488680e+000	 2.8378488680e+000	-6.9079475823e-001
 2.8063338631e+000	 2.8690177055e+000	-6.9904002010e-001
 2.7744784884e+000	 2.8998347048e+000	-7.0592349709e-001
 2.7422886645e+000	 2.9302943251e+000	-7.1078510753e-001
 2.7097704316e+000	 2.9603911591e+000	-7.1290728441e-001
 2.6769299455e+000	 2.9901199359e+000	-7.1153414827e-001
 3.0099888821e+000	 2.6947177861e+000	-6.3869572650e-001
 2.9800625615e+000	 2.7277764929e+000	-6.4823778447e-001
 2.9497657381e+000	 2.7605108051e+000	-6.5801148156e-001
 2.9191037177e+000	 2.7929145260e+000	-6.6788161205e-001
 2.8880819436e+000	 2.8249815754e+000	-6.7755579850e-001
 2.8567059933e+000	 2.8567059933e+000	-6.8660373891e-001
 2.8249815754e+000	 2.8880819436e+000	-6.9447698094e-001
 2.7929145260e+000	 2.9191037177e+000	-7.0052904097e-001
 2.7605108051e+000	 2.9497657381e+000	-7.0403568619e-001
 2.7277764929e+000	 2.9800625615e+000	-7.0421519989e-001
 2.6947177861e+000	 3.0099888821e+000	-7.0024845364e-001
 3.0298578282e+000	 2.7125056268e+000	-6.3057723610e-001
 2.9997339639e+000	 2.7457825542e+000	-6.4117803179e-001
 2.9692371511e+000	 2.7787329457e+000	-6.5184901427e-001
 2.9383727306e+000	 2.8113505636e+000	-6.6241224331e-001
 2.9071461816e+000	 2.8436292877e+000	-6.7252757833e-001
 2.8755631186e+000	 2.8755631186e+000	-6.8171288575e-001
 2.8436292877e+000	 2.9071461816e+000	-6.8936478187e-001
 2.8113505636e+000	 2.9383727306e+000	-6.9477972058e-001
 2.7787329457e+000	 2.9692371511e+000	-6.9717523628e-001
 2.7457825542e+000	 2.9997339639e+000	-6.9571115379e-001
 2.7125056268e+000	 3.0298578282e+000	-6.8951058149e-001
 3.0497267744e+000	 2.7302934674e+000	-6.2175021320e-001
 3.0194053663e+000	 2.7637886155e+000	-6.3343358672e-001
 2.9887085641e+000	 2.7969550862e+000	-6.4503376544e-001
 2.9576417435e+000	 2.8297866013e+000	-6.5633724797e-001
 2.9262104197e+000	 2.8622770001e+000	-6.6696296384e-001
 2.8944202439e+000	 2.8944202439e+000	-6.7638346602e-001
 2.8622770001e+000	 2.9262104197e+000	-6.8394666728e-001
 2.8297866013e+000	 2.9576417435e+000	-6.8889792167e-001
 2.7969550862e+000	 2.9887085641e+000	-6.9040225243e-001
 2.7637886155e+000	 3.0194053663e+000	-6.8756653050e-001
 2.7302934674e+000	 3.0497267744e+000	-6.7946141142e-001
 3.0695957205e+000	 2.7480813081e+000	-6.1249277086e-001
 3.0390767687e+000	 2.7817946767e+000	-6.2527564743e-001
 3.0081799771e+000	 2.8151772268e+000	-6.3782833341e-001
 2.9769107564e+000	 2.8482226389e+000	-6.4990871137e-001
 2.9452746578e+000	 2.8809247124e+000	-6.6110138951e-001
 2.9132773692e+000	 2.9132773692e+000	-6.7083990563e-001
 2.8809247124e+000	 2.9452746578e+000	-6.7842948347e-001
 2.8482226389e+000	 2.9769107564e+000	-6.8307013395e-001
 2.8151772268e+000	 3.0081799771e+000	-6.8387989403e-001
 2.7817946767e+000	 3.0390767687e+000	-6.7991799865e-001
 2.7480813081e+000	 3.0695957205e+000	-6.7020778551e-001
 3.0894646667e+000	 2.7658691487e+000	-6.0304601902e-001
 3.0587481711e+000	 2.7998007380e+000	-6.1693858061e-001
 3.0276513901e+000	 2.8333993674e+000	-6.3045871501e-001
 2.9961797693e+000	 2.8666586766e+000	-6.4334240466e-001
 2.9643388958e+000	 2.8995724247e+000	-6.5514631947e-001
 2.9321344945e+000	 2.9321344945e+000	-6.6527105984e-001
 2.8995724247e+000	 2.9643388958e+000	-6.7298496079e-001
 2.8666586766e+000	 2.9961797693e+000	-6.7744824058e-001
 2.8333993674e+000	 3.0276513901e+000	-6.7773727746e-001
 2.7998007380e+000	 3.0587481711e+000	-6.7286880144e-001
 2.7658691487e+000	 3.0894646667e+000	-6.6182379206e-001
 3.1093336128e+000	 2.7836569894e+000	-5.9361521513e-001
 3.0784195736e+000	 2.8178067993e+000	-6.0862110233e-001
 3.0471228031e+000	 2.8516215080e+000	-6.2311551329e-001
 3.0154487822e+000	 2.8850947142e+000	-6.3681901601e-001
 2.9834031339e+000	 2.9182201371e+000	-6.4926649853e-001
 2.9509916199e+000	 2.9509916199e+000	-6.5983148012e-001
 2.9182201371e+000	 2.9834031339e+000	-6.6775099250e-001
 2.8850947142e+000	 3.0154487822e+000	-6.7215080466e-001
 2.8516215080e+000	 3.0471228031e+000	-6.7207076601e-001
 2.8178067993e+000	 3.0784195736e+000	-6.6649004543e-001
 2.7836569894e+000	 3.1093336128e+000	-6.5435204851e-001
 3.1292025590e+000	 2.8014448300e+000	-5.8437091118e-001
 3.0980909760e+000	 2.8358128606e+000	-6.0048745513e-001
 3.0665942160e+000	 2.8698436485e+000	-6.1595514151e-001
 3.0347177951e+000	 2.9035307518e+000	-6.3048537806e-001
 3.0024673720e+000	 2.9368678494e+000	-6.4359719950e-001
 2.9698487452e+000	 2.9698487452e+000	-6.5464267769e-001
 2.9368678494e+000	 3.0024673720e+000	-6.6283291047e-001
 2.9035307518e+000	 3.0347177951e+000	-6.6726435313e-001
 2.8698436485e+000	 3.0665942160e+000	-6.6694525761e-001
 2.8358128606e+000	 3.0980909760e+000	-6.6082198773e-001
 2.8014448300e+000	 3.1292025590e+000	-6.4780498364e-001
 2.6235664236e+000	 2.9305130975e+000	-7.4045515129e-001
 2.5910660154e+000	 2.9592877831e+000	-7.4131683926e-001
 2.5582620812e+000	 2.9876917216e+000	-7.4443403456e-001
 2.5251609764e+000	 3.0157201671e+000	-7.4803699967e-001
 2.4917691538e+000	 3.0433685191e+000	-7.5045265483e-001
 2.4580931598e+000	 3.0706323245e+000	-7.5010779137e-001
 2.4241396301e+000	 3.0975072805e+000	-7.4553173502e-001
 2.3899152852e+000	 3.1239892364e+000	-7.3535846718e-001
 2.3554269264e+000	 3.1500741959e+000	-7.1832821741e-001
 2.3206814311e+000	 3.1757583185e+000	-6.9328854531e-001
 2.2856857484e+000	 3.2010379221e+000	-6.5919493448e-001
 2.6413542642e+000	 2.9503820436e+000	-7.3292815225e-001
 2.6086335025e+000	 2.9793518222e+000	-7.3318789648e-001
 2.5756071569e+000	 3.0079483401e+000	-7.3563168173e-001
 2.5422816258e+000	 3.0361668192e+000	-7.3864326795e-001
 2.5086634059e+000	 3.0640026276e+000	-7.4069710358e-001
 2.4747590879e+000	 3.0914512822e+000	-7.4036124472e-001
 2.4405753525e+000	 3.1185084511e+000	-7.3629971274e-001
 2.4061189658e+000	 3.1451699552e+000	-7.2727430006e-001
 2.3713967751e+000	 3.1714317713e+000	-7.1214583872e-001
 2.3364157045e+000	 3.1972900329e+000	-6.8987495188e-001
 2.3011827503e+000	 3.2227410328e+000	-6.5952231290e-001
 2.6591421048e+000	 2.9702509898e+000	-7.2301422142e-001
 2.6262009896e+000	 2.9994158614e+000	-7.2301581305e-001
 2.5929522326e+000	 3.0282049587e+000	-7.2507457292e-001
 2.5594022753e+000	 3.0566134712e+000	-7.2771629308e-001
 2.5255576581e+000	 3.0846367361e+000	-7.2955210452e-001
 2.4914250160e+000	 3.1122702400e+000	-7.2928111387e-001
 2.4570110749e+000	 3.1395096216e+000	-7.2569246498e-001
 2.4223226463e+000	 3.1663506741e+000	-7.1766683617e-001
 2.3873666238e+000	 3.1927893468e+000	-7.0417738954e-001
 2.3521499780e+000	 3.2188217473e+000	-6.8429019438e-001
 2.3166797522e+000	 3.2444441434e+000	-6.5716415140e-001
 2.6769299455e+000	 2.9901199359e+000	-7.1153414827e-001
 2.6437684768e+000	 3.0194799006e+000	-7.1128244474e-001
 2.6102973083e+000	 3.0484615772e+000	-7.1322495284e-001
 2.5765229248e+000	 3.0770601233e+000	-7.1570736521e-001
 2.5424519102e+000	 3.1052708446e+000	-7.1746694426e-001
 2.5080909442e+000	 3.1330891977e+000	-7.1732392614e-001
 2.4734467973e+000	 3.1605107922e+000	-7.1418329516e-001
 2.4385263269e+000	 3.1875313929e+000	-7.0703597904e-001
 2.4033364725e+000	 3.2141469222e+000	-6.9495948310e-001
 2.3678842514e+000	 3.2403534617e+000	-6.7711798727e-001
 2.3321767542e+000	 3.2661472541e+000	-6.5276193481e-001
 2.6947177861e+000	 3.0099888821e+000	-7.0024845364e-001
 2.6613359639e+000	 3.0395439398e+000	-6.9842222006e-001
 2.6276423840e+000	 3.0687181957e+000	-7.0049769852e-001
 2.5936435742e+000	 3.0975067753e+000	-7.0302022419e-001
 2.5593461623e+000	 3.1259049531e+000	-7.0484292985e-001
 2.5247568723e+000	 3.1539081554e+000	-7.0489754913e-001
 2.4898825197e+000	 3.1815119627e+000	-7.0219591232e-001
 2.4547300074e+000	 3.2087121117e+000	-6.9583084559e-001
 2.4193063212e+000	 3.2355044976e+000	-6.8497649360e-001
 2.3836185248e+000	 3.2618851761e+000	-6.6888809115e-001
 2.3476737561e+000	 3.2878503648e+000	-6.4690121525e-001
 2.7125056268e+000	 3.0298578282e+000	-6.8951058149e-001
 2.6789034510e+000	 3.0596079790e+000	-6.8519605825e-001
 2.6449874597e+000	 3.0889748143e+000	-6.8726184232e-001
 2.6107642237e+000	 3.1179534273e+000	-6.9001256678e-001
 2.5762404145e+000	 3.1465390616e+000	-6.9203488526e-001
 2.5414228004e+000	 3.1747271132e+000	-6.9236268199e-001
 2.5063182421e+000	 3.2025131332e+000	-6.9010592286e-001
 2.4709336880e+000	 3.2298928305e+000	-6.8445126418e-001
 2.4352761699e+000	 3.2568620731e+000	-6.7466206656e-001
 2.3993527983e+000	 3.2834168905e+000	-6.6007784179e-001
 2.3631707580e+000	 3.3095534755e+000	-6.4011316625e-001
 2.7302934674e+000	 3.0497267744e+000	-6.7946141142e-001
 2.6964709382e+000	 3.0796720181e+000	-6.7293800038e-001
 2.6623325355e+000	 3.1092314328e+000	-6.7384209566e-001
 2.6278848731e+000	 3.1384000794e+000	-6.7699755480e-001
 2.5931346666e+000	 3.1671731701e+000	-6.7935264902e-001
 2.5580887285e+000	 3.1955460709e+000	-6.8003434763e-001
 2.5227539645e+000	 3.2235143038e+000	-6.7824232271e-001
 2.4871373686e+000	 3.2510735493e+000	-6.7324927227e-001
 2.4512460186e+000	 3.2782196485e+000	-6.6440062779e-001
 2.4150870717e+000	 3.3049486049e+000	-6.5111367625e-001
 2.3786677599e+000	 3.3312565862e+000	-6.3287613228e-001
 2.7480813081e+000	 3.0695957205e+000	-6.7020778551e-001
 2.7140384253e+000	 3.0997360573e+000	-6.6180242640e-001
 2.6796776112e+000	 3.1294880513e+000	-6.6086514717e-001
 2.6450055226e+000	 3.1588467314e+000	-6.6424532427e-001
 2.6100289187e+000	 3.1878072786e+000	-6.6706257284e-001
 2.5747546566e+000	 3.2163650286e+000	-6.6818338580e-001
 2.5391896869e+000	 3.2445154743e+000	-6.6688898992e-001
 2.5033410491e+000	 3.2722542682e+000	-6.6253061382e-001
 2.4672158673e+000	 3.2995772240e+000	-6.5452889113e-001
 2.4308213452e+000	 3.3264803193e+000	-6.4237265665e-001
 2.3941647618e+000	 3.3529596968e+000	-6.2600254511e-001
 2.7658691487e+000	 3.0894646667e+000	-6.6182379206e-001
 2.7316059124e+000	 3.1198000965e+000	-6.5183598939e-001
 2.6970226869e+000	 3.1497446699e+000	-6.4931212861e-001
 2.6621261720e+000	 3.1792933835e+000	-6.5198449545e-001
 2.6269231708e+000	 3.2084413871e+000	-6.5538902130e-001
 2.5914205848e+000	 3.2371839863e+000	-6.5703794704e-001
 2.5556254093e+000	 3.2655166449e+000	-6.5628617768e-001
 2.5195447297e+000	 3.2934349870e+000	-6.5255623651e-001
 2.4831857160e+000	 3.3209347994e+000	-6.4533736484e-001
 2.4465556186e+000	 3.3480120336e+000	-6.3444218421e-001
 2.4096617637e+000	 3.3746628075e+000	-6.2052963458e-001
 2.7836569894e+000	 3.1093336128e+000	-6.5435204851e-001
 2.7491733996e+000	 3.1398641357e+000	-6.4305445479e-001
 2.7143677626e+000	 3.1700012884e+000	-6.3922001869e-001
 2.6792468215e+000	 3.1997400355e+000	-6.4065794283e-001
 2.6438174230e+000	 3.2290754956e+000	-6.4451587245e-001
 2.6080865129e+000	 3.2580029441e+000	-6.4678498735e-001
 2.5720611317e+000	 3.2865178154e+000	-6.4663200778e-001
 2.5357484103e+000	 3.3146157058e+000	-6.4354378853e-001
 2.4991555647e+000	 3.3422923749e+000	-6.3718317062e-001
 2.4622898920e+000	 3.3695437480e+000	-6.2847473981e-001
 2.4251587656e+000	 3.3963659182e+000	-6.1696142696e-001
 2.8014448300e+000	 3.1292025590e+000	-6.4780498364e-001
 2.7667408867e+000	 3.1599281749e+000	-6.3544397702e-001
 2.7317128383e+000	 3.1902579069e+000	-6.3055521983e-001
 2.6963674709e+000	 3.2201866875e+000	-6.3097788298e-001
 2.6607116751e+000	 3.2497096041e+000	-6.3458801936e-001
 2.6247524410e+000	 3.2788219018e+000	-6.3757176378e-001
 2.5884968541e+000	 3.3075189860e+000	-6.3808396438e-001
 2.5519520908e+000	 3.3357964246e+000	-6.3567875149e-001
 2.5151254134e+000	 3.3636499503e+000	-6.3125161772e-001
 2.4780241655e+000	 3.3910754624e+000	-6.2491534741e-001
 2.4406557675e+000	 3.4180690289e+000	-6.1573610861e-001
 2.2856857484e+000	 3.2010379221e+000	-6.5919493448e-001
 2.2504468941e+000	 3.2259094826e+000	-6.2148657650e-001
 2.2149719435e+000	 3.2503696335e+000	-5.8834087302e-001
 2.1792680296e+000	 3.2744151693e+000	-5.6284740914e-001
 2.1433423388e+000	 3.2980430479e+000	-5.4801830235e-001
 2.1072021068e+000	 3.3212503911e+000	-5.4678188283e-001
 2.0708546138e+000	 3.3440344860e+000	-5.6192652505e-001
 2.0343071798e+000	 3.3663927853e+000	-5.9571706290e-001
 1.9975671597e+000	 3.3883229079e+000	-6.5023856441e-001
 1.9606419394e+000	 3.4098226392e+000	-6.9035085686e-001
 1.9235389302e+000	 3.4308899314e+000	-6.9185565959e-001
 2.3011827503e+000	 3.2227410328e+000	-6.5952231290e-001
 2.2657049758e+000	 3.2477812230e+000	-6.2555422733e-001
 2.2299895042e+000	 3.2724072143e+000	-5.9491875924e-001
 2.1940435169e+000	 3.2966157794e+000	-5.7042895158e-001
 2.1578742491e+000	 3.3204038555e+000	-5.5483254247e-001
 2.1214889855e+000	 3.3437685451e+000	-5.5078433669e-001
 2.0848950557e+000	 3.3667071167e+000	-5.6057037244e-001
 2.0480998292e+000	 3.3892170058e+000	-5.8628516883e-001
 2.0111107110e+000	 3.4112958151e+000	-6.3000701918e-001
 1.9739351368e+000	 3.4329413150e+000	-6.7766294844e-001
 1.9365805684e+000	 3.4541514439e+000	-6.8651934160e-001
 2.3166797522e+000	 3.2444441434e+000	-6.5716415140e-001
 2.2809630575e+000	 3.2696529635e+000	-6.2641927642e-001
 2.2450070649e+000	 3.2944447951e+000	-5.9792750443e-001
 2.2088190042e+000	 3.3188163895e+000	-5.7425756841e-001
 2.1724061594e+000	 3.3427646632e+000	-5.5792701609e-001
 2.1357758642e+000	 3.3662866990e+000	-5.5126509797e-001
 2.0989354976e+000	 3.3893797473e+000	-5.5623854418e-001
 2.0618924786e+000	 3.4120412262e+000	-5.7476348199e-001
 2.0246542622e+000	 3.4342687223e+000	-6.0874581573e-001
 1.9872283342e+000	 3.4560599909e+000	-6.5632119338e-001
 1.9496222066e+000	 3.4774129565e+000	-6.7364375238e-001
 2.3321767542e+000	 3.2661472541e+000	-6.5276193481e-001
 2.2962211391e+000	 3.2915247039e+000	-6.2477677163e-001
 2.2600246256e+000	 3.3164823760e+000	-5.9809612138e-001
 2.2235944915e+000	 3.3410169996e+000	-5.7509236963e-001
 2.1869380697e+000	 3.3651254708e+000	-5.5815620588e-001
 2.1500627430e+000	 3.3888048530e+000	-5.4916117297e-001
 2.1129759395e+000	 3.4120523780e+000	-5.4986133474e-001
 2.0756851281e+000	 3.4348654467e+000	-5.6201184491e-001
 2.0381978135e+000	 3.4572416294e+000	-5.8737022740e-001
 2.0005215316e+000	 3.4791786668e+000	-6.2769671995e-001
 1.9626638447e+000	 3.5006744691e+000	-6.5441585234e-001
 2.3476737561e+000	 3.2878503648e+000	-6.4690121525e-001
 2.3114792208e+000	 3.3133964443e+000	-6.2126398415e-001
 2.2750421863e+000	 3.3385199568e+000	-5.9610813806e-001
 2.2383699789e+000	 3.3632176097e+000	-5.7388517494e-001
 2.2014699800e+000	 3.3874862785e+000	-5.5644163985e-001
 2.1643496217e+000	 3.4113230070e+000	-5.4537541785e-001
 2.1270163813e+000	 3.4347250087e+000	-5.4229398337e-001
 2.0894777775e+000	 3.4576896671e+000	-5.4881680412e-001
 2.0517413647e+000	 3.4802145366e+000	-5.6657671071e-001
 2.0138147290e+000	 3.5022973426e+000	-5.9722026180e-001
 1.9757054829e+000	 3.5239359817e+000	-6.2997861287e-001
 2.3631707580e+000	 3.3095534755e+000	-6.4011316625e-001
 2.3267373025e+000	 3.3352681848e+000	-6.1646476418e-001
 2.2900597470e+000	 3.3605575376e+000	-5.9296334974e-001
 2.2531454662e+000	 3.3854182198e+000	-5.7153672109e-001
 2.2160018903e+000	 3.4098470862e+000	-5.5363820138e-001
 2.1786365004e+000	 3.4338411610e+000	-5.4073631106e-001
 2.1410568232e+000	 3.4573976394e+000	-5.3431841528e-001
 2.1032704269e+000	 3.4805138876e+000	-5.3589324666e-001
 2.0652849160e+000	 3.5031874438e+000	-5.4699232451e-001
 2.0271079264e+000	 3.5254160185e+000	-5.6917030306e-001
 1.9887471210e+000	 3.5471974943e+000	-6.0142775641e-001
 2.3786677599e+000	 3.3312565862e+000	-6.3287613228e-001
 2.3419953841e+000	 3.3571399252e+000	-6.1134671783e-001
 2.3050773076e+000	 3.3825951184e+000	-5.8955657354e-001
 2.2679209535e+000	 3.4076188299e+000	-5.6883563094e-001
 2.2305338007e+000	 3.4322078938e+000	-5.5052778358e-001
 2.1929233791e+000	 3.4563593150e+000	-5.3599977220e-001
 2.1550972651e+000	 3.4800702700e+000	-5.2664498082e-001
 2.1170630764e+000	 3.5033381080e+000	-5.2388603753e-001
 2.0788284673e+000	 3.5261603510e+000	-5.2917624358e-001
 2.0404011238e+000	 3.5485346943e+000	-5.4399986554e-001
 2.0017887592e+000	 3.5704590069e+000	-5.6987133667e-001
 2.3941647618e+000	 3.3529596968e+000	-6.2600254511e-001
 2.3572534658e+000	 3.3790116656e+000	-6.0684134006e-001
 2.3200948683e+000	 3.4046326992e+000	-5.8659396393e-001
 2.2826964408e+000	 3.4298194401e+000	-5.6649954922e-001
 2.2450657110e+000	 3.4545687015e+000	-5.4782116071e-001
 2.2072102578e+000	 3.4788774690e+000	-5.3185097675e-001
 2.1691377070e+000	 3.5027429007e+000	-5.1991419254e-001
 2.1308557258e+000	 3.5261623285e+000	-5.1337165818e-001
 2.0923720185e+000	 3.5491332582e+000	-5.1362127707e-001
 2.0536943212e+000	 3.5716533702e+000	-5.2209820268e-001
 2.0148303973e+000	 3.5937205195e+000	-5.4027388265e-001
 2.4096617637e+000	 3.3746628075e+000	-6.2052963458e-001
 2.3725115475e+000	 3.4008834061e+000	-6.0355803297e-001
 2.3351124290e+000	 3.4266702800e+000	-5.8471325506e-001
 2.2974719282e+000	 3.4520200502e+000	-5.6517704438e-001
 2.2595976213e+000	 3.4769295092e+000	-5.4615985433e-001
 2.2214971365e+000	 3.5013956229e+000	-5.2890616669e-001
 2.1831781488e+000	 3.5254155314e+000	-5.1469846047e-001
 2.1446483752e+000	 3.5489865489e+000	-5.0485984588e-001
 2.1059155698e+000	 3.5721061654e+000	-5.0075539145e-001
 2.0669875186e+000	 3.5947720461e+000	-5.0379218507e-001
 2.0278720355e+000	 3.6169820321e+000	-5.1541818191e-001
 2.4251587656e+000	 3.3963659182e+000	-6.1696142696e-001
 2.3877696291e+000	 3.4227551465e+000	-6.0204080809e-001
 2.3501299897e+000	 3.4487078609e+000	-5.8448567317e-001
 2.3122474155e+000	 3.4742206603e+000	-5.6544950456e-001
 2.2741295316e+000	 3.4992903168e+000	-5.4611799419e-001
 2.2357840152e+000	 3.5239137769e+000	-5.2771445739e-001
 2.1972185907e+000	 3.5480881620e+000	-5.1150382547e-001
 2.1584410247e+000	 3.5718107694e+000	-4.9879523408e-001
 2.1194591210e+000	 3.5950790726e+000	-4.9094323771e-001
 2.0802807161e+000	 3.6178907219e+000	-4.8934769455e-001
 2.0409136736e+000	 3.6402435447e+000	-4.9545237805e-001
 2.4406557675e+000	 3.4180690289e+000	-6.1573610861e-001
 2.4030277108e+000	 3.4446268869e+000	-6.0277019208e-001
 2.3651475504e+000	 3.4707454417e+000	-5.8641784353e-001
 2.3270229028e+000	 3.4964212704e+000	-5.6783302813e-001
 2.2886614419e+000	 3.5216511245e+000	-5.4820417429e-001
 2.2500708939e+000	 3.5464319309e+000	-5.2875964074e-001
 2.2112590326e+000	 3.5707607927e+000	-5.1077169088e-001
 2.1722336741e+000	 3.5946349899e+000	-4.9555899348e-001
 2.1330026723e+000	 3.6180519798e+000	-4.8448768289e-001
 2.0935739135e+000	 3.6410093978e+000	-4.7897102638e-001
 2.0539553118e+000	 3.6635050572e+000	-4.8046775893e-001
 1.9235389302e+000	 3.4308899314e+000	-6.9185565959e-001
 1.8862711687e+000	 3.4515198418e+000	-6.6561544226e-001
 1.8488405507e+000	 3.4717138517e+000	-6.2185818554e-001
 1.8112545366e+000	 3.4914704169e+000	-5.6548627558e-001
 1.7735205942e+000	 3.5107881589e+000	-5.0133577323e-001
 1.7356461945e+000	 3.5296658649e+000	-4.3414942389e-001
 1.6976388070e+000	 3.5481024868e+000	-3.6855218871e-001
 1.6595058954e+000	 3.5660971407e+000	-3.0902923958e-001
 1.6212549131e+000	 3.5836491053e+000	-2.5990634732e-001
 1.5828932993e+000	 3.6007578216e+000	-2.2533258088e-001
 1.5444284742e+000	 3.6174228910e+000	-2.0926522544e-001
 1.9365805684e+000	 3.4541514439e+000	-6.8651934160e-001
 1.8990601306e+000	 3.4749212257e+000	-6.6490514746e-001
 1.8613757321e+000	 3.4952521515e+000	-6.2383288551e-001
 1.8235348839e+000	 3.5151426665e+000	-5.6867110793e-001
 1.7855451046e+000	 3.5345913833e+000	-5.0469375008e-001
 1.7474139156e+000	 3.5535970806e+000	-4.3705266409e-001
 1.7091488371e+000	 3.5721587033e+000	-3.7075281014e-001
 1.6707573835e+000	 3.5902753613e+000	-3.1063004093e-001
 1.6322470587e+000	 3.6079463286e+000	-2.6133140146e-001
 1.5936253522e+000	 3.6251710424e+000	-2.2729785396e-001
 1.5548997347e+000	 3.6419491014e+000	-2.1274932800e-001
 1.9496222066e+000	 3.4774129565e+000	-6.7364375238e-001
 1.9118490925e+000	 3.4983226095e+000	-6.5795482274e-001
 1.8739109136e+000	 3.5187904512e+000	-6.2082844896e-001
 1.8358152313e+000	 3.5388149162e+000	-5.6806173964e-001
 1.7975696150e+000	 3.5583946077e+000	-5.0532986710e-001
 1.7591816367e+000	 3.5775282962e+000	-4.3815819713e-001
 1.7206588672e+000	 3.5962149197e+000	-3.7189721260e-001
 1.6820088716e+000	 3.6144535818e+000	-3.1170015901e-001
 1.6432392043e+000	 3.6322435519e+000	-2.6250332606e-001
 1.6043574052e+000	 3.6495842632e+000	-2.2900886727e-001
 1.5653709953e+000	 3.6664753117e+000	-2.1567004898e-001
 1.9626638447e+000	 3.5006744691e+000	-6.5441585234e-001
 1.9246380543e+000	 3.5217239934e+000	-6.4577408155e-001
 1.8864460950e+000	 3.5423287509e+000	-6.1370056731e-001
 1.8480955787e+000	 3.5624871659e+000	-5.6438383514e-001
 1.8095941253e+000	 3.5821978321e+000	-5.0386408380e-001
 1.7709493578e+000	 3.6014595119e+000	-4.3800498525e-001
 1.7321688974e+000	 3.6202711361e+000	-3.7246841444e-001
 1.6932603597e+000	 3.6386318024e+000	-3.1269202892e-001
 1.6542313498e+000	 3.6565407752e+000	-2.6386960451e-001
 1.6150894581e+000	 3.6739974839e+000	-2.3093402011e-001
 1.5758422558e+000	 3.6910015221e+000	-2.1854277431e-001
 1.9757054829e+000	 3.5239359817e+000	-6.2997861287e-001
 1.9374270162e+000	 3.5451253772e+000	-6.2933502391e-001
 1.8989812764e+000	 3.5658670506e+000	-6.0327350648e-001
 1.8603759261e+000	 3.5861594156e+000	-5.5833730438e-001
 1.8216186357e+000	 3.6060010565e+000	-5.0089583037e-001
 1.7827170788e+000	 3.6253907276e+000	-4.3711621201e-001
 1.7436789275e+000	 3.6443273525e+000	-3.7293790292e-001
 1.7045118478e+000	 3.6628100230e+000	-3.1405027154e-001
 1.6652234954e+000	 3.6808379985e+000	-2.6587306458e-001
 1.6258215111e+000	 3.6984107047e+000	-2.3353962958e-001
 1.5863135164e+000	 3.7155277324e+000	-2.2188276979e-001
 1.9887471210e+000	 3.5471974943e+000	-6.0142775641e-001
 1.9502159781e+000	 3.5685267611e+000	-6.0956890085e-001
 1.9115164578e+000	 3.5894053503e+000	-5.9033671491e-001
 1.8726562735e+000	 3.6098316652e+000	-5.5059287400e-001
 1.8336431461e+000	 3.6298042809e+000	-4.9700056195e-001
 1.7944847999e+000	 3.6493219433e+000	-4.3599583982e-001
 1.7551889576e+000	 3.6683835689e+000	-3.7376221591e-001
 1.7157633359e+000	 3.6869882436e+000	-3.1620832018e-001
 1.6762156410e+000	 3.7051352218e+000	-2.6894857131e-001
 1.6365535640e+000	 3.7228239255e+000	-2.3728671133e-001
 1.5967847769e+000	 3.7400539428e+000	-2.2620207142e-001
 2.0017887592e+000	 3.5704590069e+000	-5.6987133667e-001
 1.9630049400e+000	 3.5919281449e+000	-5.8736280004e-001
 1.9240516393e+000	 3.6129436500e+000	-5.7564145782e-001
 1.8849366209e+000	 3.6335039149e+000	-5.4178868912e-001
 1.8456676565e+000	 3.6536075053e+000	-4.9272634710e-001
 1.8062525210e+000	 3.6732531590e+000	-4.3512520485e-001
 1.7666989878e+000	 3.6924397853e+000	-3.7537956294e-001
 1.7270148240e+000	 3.7111664641e+000	-3.1958508809e-001
 1.6872077866e+000	 3.7294324451e+000	-2.7351976144e-001
 1.6472856170e+000	 3.7472371463e+000	-2.4262780162e-001
 1.6072560375e+000	 3.7645801531e+000	-2.3200641606e-001
 2.0148303973e+000	 3.5937205195e+000	-5.4027388265e-001
 1.9757939018e+000	 3.6153295288e+000	-5.6355635167e-001
 1.9365868207e+000	 3.6364819497e+000	-5.5989747659e-001
 1.8972169683e+000	 3.6571761646e+000	-5.3252694439e-001
 1.8576921669e+000	 3.6774107297e+000	-4.8859048920e-001
 1.8180202421e+000	 3.6971843747e+000	-4.3495964748e-001
 1.7782090179e+000	 3.7164960017e+000	-3.7820648398e-001
 1.7382663121e+000	 3.7353446847e+000	-3.2458167495e-001
 1.6981999321e+000	 3.7537296684e+000	-2.7999581735e-001
 1.6580176699e+000	 3.7716503671e+000	-2.5000381868e-001
 1.6177272980e+000	 3.7891063634e+000	-2.3979221040e-001
 2.0278720355e+000	 3.6169820321e+000	-5.1541818191e-001
 1.9885828637e+000	 3.6387309127e+000	-5.3893845352e-001
 1.9491220021e+000	 3.6600202494e+000	-5.4376967198e-001
 1.9094973156e+000	 3.6808484143e+000	-5.2337054300e-001
 1.8697166773e+000	 3.7012139541e+000	-4.8507617897e-001
 1.8297879632e+000	 3.7211155904e+000	-4.3592517669e-001
 1.7897190480e+000	 3.7405522181e+000	-3.8263454411e-001
 1.7495178002e+000	 3.7595229053e+000	-3.3157811067e-001
 1.7091920777e+000	 3.7780268917e+000	-2.8876827893e-001
 1.6687497229e+000	 3.7960635879e+000	-2.5984096175e-001
 1.6281985585e+000	 3.8136325738e+000	-2.5004353663e-001
 2.0409136736e+000	 3.6402435447e+000	-4.9545237805e-001
 2.0013718256e+000	 3.6621322965e+000	-5.1427578999e-001
 1.9616571835e+000	 3.6835585491e+000	-5.2787481036e-001
 1.9217776630e+000	 3.7045206639e+000	-5.1483978231e-001
 1.8817411877e+000	 3.7250171785e+000	-4.8262917704e-001
 1.8415556843e+000	 3.7450468061e+000	-4.3841516695e-001
 1.8012290781e+000	 3.7646084345e+000	-3.8902706265e-001
 1.7607692884e+000	 3.7837011259e+000	-3.4093013466e-001
 1.7201842233e+000	 3.8023241150e+000	-3.0020789138e-001
 1.6794817758e+000	 3.8204768087e+000	-2.7254764608e-001
 1.6386698191e+000	 3.8381587841e+000	-2.6322919321e-001
 2.0539553118e+000	 3.6635050572e+000	-4.8046775893e-001
 2.0141607875e+000	 3.6855336804e+000	-4.9339416934e-001
 1.9741923649e+000	 3.7070968488e+000	-5.1277825159e-001
 1.9340580104e+000	 3.7281929136e+000	-5.0740906511e-001
 1.8937656981e+000	 3.7488204029e+000	-4.8165452494e-001
 1.8533234054e+000	 3.7689780217e+000	-4.4278708608e-001
 1.8127391083e+000	 3.7886646509e+000	-3.9771587500e-001
 1.7720207765e+000	 3.8078793464e+000	-3.5296600924e-001
 1.7311763688e+000	 3.8266213383e+000	-3.1466148768e-001
 1.6902138288e+000	 3.8448900295e+000	-2.8851147217e-001
 1.6491410796e+000	 3.8626849945e+000	-2.7979976904e-001
 1.5444284742e+000	 3.6174228910e+000	-2.0926522544e-001
 1.5058620440e+000	 3.6336464752e+000	-2.0395165998e-001
 1.4672071469e+000	 3.6494259619e+000	-2.0209480837e-001
 1.4284711273e+000	 3.6647614292e+000	-2.0786664519e-001
 1.3896612948e+000	 3.6796531097e+000	-2.2501534527e-001
 1.3507849198e+000	 3.6941013890e+000	-2.5686102903e-001
 1.3118492302e+000	 3.7081068035e+000	-2.9845010189e-001
 1.2728614074e+000	 3.7216700388e+000	-3.1616162854e-001
 1.2338285827e+000	 3.7347919268e+000	-3.1283170480e-001
 1.1947578341e+000	 3.7474734443e+000	-2.9595609686e-001
 1.1556561824e+000	 3.7597157100e+000	-2.7222310428e-001
 1.5548997347e+000	 3.6419491014e+000	-2.1274932800e-001
 1.5160718233e+000	 3.6582826818e+000	-2.0875292626e-001
 1.4771548451e+000	 3.6741691538e+000	-2.0650869079e-001
 1.4381561944e+000	 3.6896085959e+000	-2.0995060468e-001
 1.3990832303e+000	 3.7046012423e+000	-2.2259491409e-001
 1.3599432726e+000	 3.7191474813e+000	-2.4753655302e-001
 1.3207435981e+000	 3.7332478529e+000	-2.8497256392e-001
 1.2814914370e+000	 3.7469030472e+000	-3.0438029149e-001
 1.2421939689e+000	 3.7601139019e+000	-3.0224579636e-001
 1.2028583196e+000	 3.7728814004e+000	-2.8592447230e-001
 1.1634915578e+000	 3.7852066689e+000	-2.6194593310e-001
 1.5653709953e+000	 3.6664753117e+000	-2.1567004898e-001
 1.5262816025e+000	 3.6829188884e+000	-2.1257163590e-001
 1.4871025432e+000	 3.6989123457e+000	-2.0962780646e-001
 1.4478412615e+000	 3.7144557626e+000	-2.1053605834e-001
 1.4085051658e+000	 3.7295493750e+000	-2.1858398623e-001
 1.3691016254e+000	 3.7441935736e+000	-2.3664639436e-001
 1.3296379661e+000	 3.7583889022e+000	-2.6699125957e-001
 1.2901214666e+000	 3.7721360556e+000	-2.8674462672e-001
 1.2505593550e+000	 3.7854358770e+000	-2.8454289437e-001
 1.2109588052e+000	 3.7982893564e+000	-2.6759133985e-001
 1.1713269333e+000	 3.8106976279e+000	-2.4225179859e-001
 1.5758422558e+000	 3.6910015221e+000	-2.1854277431e-001
 1.5364913818e+000	 3.7075550951e+000	-2.1599799155e-001
 1.4970502414e+000	 3.7236555376e+000	-2.1214635542e-001
 1.4575263286e+000	 3.7393029293e+000	-2.1044995852e-001
 1.4179271013e+000	 3.7544975076e+000	-2.1397057195e-001
 1.3782599782e+000	 3.7692396659e+000	-2.2536745603e-001
 1.3385323340e+000	 3.7835299516e+000	-2.4689700577e-001
 1.2987514962e+000	 3.7973690640e+000	-2.6557959768e-001
 1.2589247412e+000	 3.8107578521e+000	-2.6236572824e-001
 1.2190592908e+000	 3.8236973125e+000	-2.4393928501e-001
 1.1791623088e+000	 3.8361885868e+000	-2.1648315011e-001
 1.5863135164e+000	 3.7155277324e+000	-2.2188276979e-001
 1.5467011611e+000	 3.7321913017e+000	-2.1962335933e-001
 1.5069979396e+000	 3.7483987295e+000	-2.1476024908e-001
 1.4672113956e+000	 3.7641500960e+000	-2.1052077141e-001
 1.4273490369e+000	 3.7794456403e+000	-2.0974324317e-001
 1.3874183310e+000	 3.7942857582e+000	-2.1487548771e-001
 1.3474267019e+000	 3.8086710009e+000	-2.2797517665e-001
 1.3073815258e+000	 3.8226020724e+000	-2.4316806678e-001
 1.2672901273e+000	 3.8360798272e+000	-2.3831808834e-001
 1.2271597764e+000	 3.8491052686e+000	-2.1791437966e-001
 1.1869976843e+000	 3.8616795457e+000	-1.8794756251e-001
 1.5967847769e+000	 3.7400539428e+000	-2.2620207142e-001
 1.5569109403e+000	 3.7568275083e+000	-2.2403729223e-001
 1.5169456378e+000	 3.7731419214e+000	-2.1816429136e-001
 1.4768964627e+000	 3.7889972628e+000	-2.1157584014e-001
 1.4367709724e+000	 3.8043937729e+000	-2.0688870273e-001
 1.3965766838e+000	 3.8193318505e+000	-2.0634288492e-001
 1.3563210699e+000	 3.8338120503e+000	-2.1180268404e-001
 1.3160115554e+000	 3.8478350808e+000	-2.2174519248e-001
 1.2756555135e+000	 3.8614018023e+000	-2.1495968381e-001
 1.2352602619e+000	 3.8745132247e+000	-1.9242152598e-001
 1.1948330598e+000	 3.8871705046e+000	-1.5991359037e-001
 1.6072560375e+000	 3.7645801531e+000	-2.3200641606e-001
 1.5671207196e+000	 3.7814637149e+000	-2.2982459182e-001
 1.5268933359e+000	 3.7978851133e+000	-2.2304939518e-001
 1.4865815298e+000	 3.8138444295e+000	-2.1443877955e-001
 1.4461929079e+000	 3.8293419056e+000	-2.0638938052e-001
 1.4057350366e+000	 3.8443779429e+000	-2.0093650934e-001
 1.3652154378e+000	 3.8589530996e+000	-1.9975592529e-001
 1.3246415850e+000	 3.8730680892e+000	-2.0349283308e-001
 1.2840208996e+000	 3.8867237774e+000	-1.9480099865e-001
 1.2433607475e+000	 3.8999211807e+000	-1.7031978912e-001
 1.2026684352e+000	 3.9126614635e+000	-1.3560660057e-001
 1.6177272980e+000	 3.7891063634e+000	-2.3979221040e-001
 1.5773304989e+000	 3.8060999215e+000	-2.3756240651e-001
 1.5368410341e+000	 3.8226283052e+000	-2.3009983272e-001
 1.4962665968e+000	 3.8386915962e+000	-2.1992690099e-001
 1.4556148434e+000	 3.8542900382e+000	-2.0922105505e-001
 1.4148933894e+000	 3.8694240352e+000	-1.9981552908e-001
 1.3741098057e+000	 3.8840941490e+000	-1.9320185932e-001
 1.3332716146e+000	 3.8983010976e+000	-1.9053395690e-001
 1.2923862858e+000	 3.9120457525e+000	-1.8029814600e-001
 1.2514612331e+000	 3.9253291368e+000	-1.5441771908e-001
 1.2105038107e+000	 3.9381524225e+000	-1.1820458427e-001
 1.6281985585e+000	 3.8136325738e+000	-2.5004353663e-001
 1.5875402781e+000	 3.8307361281e+000	-2.4781736470e-001
 1.5467887323e+000	 3.8473714971e+000	-2.3999051802e-001
 1.5059516639e+000	 3.8635387629e+000	-2.2884866593e-001
 1.4650367789e+000	 3.8792381709e+000	-2.1635049945e-001
 1.4240517422e+000	 3.8944701275e+000	-2.0412927816e-001
 1.3830041737e+000	 3.9092351983e+000	-1.9349610032e-001
 1.3419016441e+000	 3.9235341059e+000	-1.8544470244e-001
 1.3007516719e+000	 3.9373677276e+000	-1.7384772083e-001
 1.2595617187e+000	 3.9507370929e+000	-1.4746866225e-001
 1.2183391862e+000	 3.9636433814e+000	-1.1083394910e-001
 1.6386698191e+000	 3.8381587841e+000	-2.6322919321e-001
 1.5977500574e+000	 3.8553723347e+000	-2.6114274132e-001
 1.5567364305e+000	 3.8721146890e+000	-2.5338432035e-001
 1.5156367310e+000	 3.8883859296e+000	-2.4200116707e-001
 1.4744587144e+000	 3.9041863035e+000	-2.2873315081e-001
 1.4332100950e+000	 3.9195162198e+000	-2.1501513426e-001
 1.3918985416e+000	 3.9343762477e+000	-2.0198102386e-001
 1.3505316737e+000	 3.9487671143e+000	-1.9046930755e-001
 1.3091170580e+000	 3.9626897027e+000	-1.7778165101e-001
 1.2676622042e+000	 3.9761450490e+000	-1.5216606328e-001
 1.2261745617e+000	 3.9891343403e+000	-1.1656529254e-001
 1.6491410796e+000	 3.8626849945e+000	-2.7979976904e-001
 1.6079598367e+000	 3.8800085414e+000	-2.7807565618e-001
 1.5666841286e+000	 3.8968578809e+000	-2.7092940706e-001
 1.5253217981e+000	 3.9132330963e+000	-2.6016763565e-001
 1.4838806500e+000	 3.9291344362e+000	-2.4731080174e-001
 1.4423684478e+000	 3.9445623121e+000	-2.3359641397e-001
 1.4007929095e+000	 3.9595172970e+000	-2.1998388498e-001
 1.3591617033e+000	 3.9740001227e+000	-2.0716082759e-001
 1.3174824442e+000	 3.9880116778e+000	-1.9436204689e-001
 1.2757626898e+000	 4.0015530051e+000	-1.7113641835e-001
 1.2340099371e+000	 4.0146252992e+000	-1.3804805810e-001
 1.1556561824e+000	 3.7597157100e+000	-2.7222310428e-001
 1.1165305877e+000	 3.7715199817e+000	-2.4220536406e-001
 1.0773879445e+000	 3.7828876505e+000	-2.0502069881e-001
 1.0382350804e+000	 3.7938202414e+000	-1.6403335438e-001
 9.9907875321e-001	 3.8043194115e+000	-1.2191856113e-001
 9.5992564888e-001	 3.8143869472e+000	-8.0650040385e-002
 9.2078237802e-001	 3.8240247614e+000	-4.1544745754e-002
 8.8165547354e-001	 3.8332348909e+000	-5.2640999242e-003
 8.4255138799e-001	 3.8420194933e+000	 2.8159321936e-002
 8.0347649112e-001	 3.8503808439e+000	 5.9296446175e-002
 7.6443706755e-001	 3.8583213333e+000	 8.9294327465e-002
 1.1634915578e+000	 3.7852066689e+000	-2.6194593310e-001
 1.1241006908e+000	 3.7970909739e+000	-2.3171449866e-001
 1.0846926596e+000	 3.8085357157e+000	-1.9520267188e-001
 1.0452743381e+000	 3.8195424299e+000	-1.5563899892e-001
 1.0058525301e+000	 3.8301127846e+000	-1.1556523787e-001
 9.6643396684e-001	 3.8402485784e+000	-7.6830626730e-002
 9.2702530371e-001	 3.8499517372e+000	-4.0635928586e-002
 8.8763311792e-001	 3.8592243116e+000	-7.5408122717e-003
 8.4826390576e-001	 3.8680684737e+000	 2.2506616793e-002
 8.0892408020e-001	 3.8764865146e+000	 5.0141148274e-002
 7.6961996844e-001	 3.8844808406e+000	 7.6549927296e-002
 1.1713269333e+000	 3.8106976279e+000	-2.4225179859e-001
 1.1316707938e+000	 3.8226619660e+000	-2.1079821770e-001
 1.0919973746e+000	 3.8341837809e+000	-1.7410147944e-001
 1.0523135958e+000	 3.8452646183e+000	-1.3525253815e-001
 1.0126263070e+000	 3.8559061576e+000	-9.6650677230e-002
 9.7294228481e-001	 3.8661102095e+000	-6.0027949476e-002
 9.3326822940e-001	 3.8758787129e+000	-2.6446286463e-002
 8.9361076229e-001	 3.8852137322e+000	 3.6420008414e-003
 8.5397642354e-001	 3.8941174542e+000	 3.0385024482e-002
 8.1437166927e-001	 3.9025921852e+000	 5.4494371562e-002
 7.7480286933e-001	 3.9106403479e+000	 7.7211152576e-002
 1.1791623088e+000	 3.8361885868e+000	-2.1648315011e-001
 1.1392408968e+000	 3.8482329582e+000	-1.8314557706e-001
 1.0993020896e+000	 3.8598318461e+000	-1.4570623819e-001
 1.0593528535e+000	 3.8709868067e+000	-1.0711449673e-001
 1.0194000839e+000	 3.8816995307e+000	-6.9626186624e-002
 9.7945060277e-001	 3.8919718407e+000	-3.4831228663e-002
 9.3951115509e-001	 3.9018056887e+000	-3.6584273098e-003
 8.9958840667e-001	 3.9112031529e+000	 2.3564796699e-002
 8.5968894132e-001	 3.9201664347e+000	 4.7096269824e-002
 8.1981925835e-001	 3.9286978558e+000	 6.7738963648e-002
 7.7998577022e-001	 3.9367998552e+000	 8.6803378335e-002
 1.1869976843e+000	 3.8616795457e+000	-1.8794756251e-001
 1.1468109999e+000	 3.8738039503e+000	-1.5241238394e-001
 1.1066068046e+000	 3.8854799114e+000	-1.1397520277e-001
 1.0663921112e+000	 3.8967089952e+000	-7.5437635932e-002
 1.0261738609e+000	 3.9074929037e+000	-3.8903510138e-002
 9.8595892073e-001	 3.9178334719e+000	-5.8100595542e-003
 9.4575408077e-001	 3.9277326645e+000	 2.3059724058e-002
 9.0556605105e-001	 3.9371925736e+000	 4.7517256880e-002
 8.6540145909e-001	 3.9462154151e+000	 6.7945373772e-002
 8.2526684743e-001	 3.9548035264e+000	 8.5254717766e-002
 7.8516867111e-001	 3.9629593625e+000	 1.0084219843e-001
 1.1948330598e+000	 3.8871705046e+000	-1.5991359037e-001
 1.1543811029e+000	 3.8993749425e+000	-1.2221755779e-001
 1.1139115197e+000	 3.9111279766e+000	-8.2832601608e-002
 1.0734313689e+000	 3.9224311836e+000	-4.4404231883e-002
 1.0329476378e+000	 3.9332862767e+000	-8.8735581086e-003
 9.9246723870e-001	 3.9436951030e+000	 2.2487526059e-002
 9.5199700646e-001	 3.9536596403e+000	 4.9056525637e-002
 9.1154369542e-001	 3.9631819942e+000	 7.0799584129e-002
 8.7111397687e-001	 3.9722643956e+000	 8.8241684364e-002
 8.3071443651e-001	 3.9809091970e+000	 1.0241917546e-001
 7.9035157200e-001	 3.9891188698e+000	 1.1483403832e-001
 1.2026684352e+000	 3.9126614635e+000	-1.3560660057e-001
 1.1619512060e+000	 3.9249459346e+000	-9.6139459273e-002
 1.1212162347e+000	 3.9367760418e+000	-5.6165431970e-002
 1.0804706266e+000	 3.9481533720e+000	-1.8163305166e-002
 1.0397214147e+000	 3.9590796498e+000	 1.6101441719e-002
 9.9897555666e-001	 3.9695567342e+000	 4.5537058905e-002
 9.5823993215e-001	 3.9795866160e+000	 6.9698282309e-002
 9.1752133979e-001	 3.9891714149e+000	 8.8723866342e-002
 8.7682649465e-001	 3.9983133761e+000	 1.0329997628e-001
 8.3616202558e-001	 4.0070148676e+000	 1.1479676022e-001
 7.9553447288e-001	 4.0152783771e+000	 1.2520117518e-001
 1.2105038107e+000	 3.9381524225e+000	-1.1820458427e-001
 1.1695213090e+000	 3.9505169268e+000	-7.7712188940e-002
 1.1285209497e+000	 3.9624241070e+000	-3.7820215985e-002
 1.0875098843e+000	 3.9738755604e+000	-8.2780408517e-004
 1.0464951916e+000	 3.9848730228e+000	 3.1690364881e-002
 1.0054838746e+000	 3.9954183654e+000	 5.8839688900e-002
 9.6448285783e-001	 4.0055135918e+000	 8.0472145802e-002
 9.2349898417e-001	 4.0151608355e+000	 9.7473761943e-002
 8.8253901242e-001	 4.0243623565e+000	 1.1083815791e-001
 8.4160961466e-001	 4.0331205382e+000	 1.2183667868e-001
 8.0071737377e-001	 4.0414378845e+000	 1.3203522737e-001
 1.2183391862e+000	 3.9636433814e+000	-1.1083394910e-001
 1.1770914121e+000	 3.9760879189e+000	-7.0421856811e-002
 1.1358256647e+000	 3.9880721722e+000	-3.1599719497e-002
 1.0945491420e+000	 3.9995977489e+000	 3.5282563589e-003
 1.0532689685e+000	 4.0106663959e+000	 3.3926880911e-002
 1.0119921926e+000	 4.0212799965e+000	 5.9489633173e-002
 9.7072578352e-001	 4.0314405676e+000	 8.0344330510e-002
 9.2947662854e-001	 4.0411502562e+000	 9.7040937403e-002
 8.8825153020e-001	 4.0504113370e+000	 1.1047968786e-001
 8.4705720374e-001	 4.0592262089e+000	 1.2187588506e-001
 8.0590027466e-001	 4.0675973918e+000	 1.3271518132e-001
 1.2261745617e+000	 3.9891343403e+000	-1.1656529254e-001
 1.1846615151e+000	 4.0016589111e+000	-7.7698245963e-002
 1.1431303798e+000	 4.0137202374e+000	-4.0817361497e-002
 1.1015883997e+000	 4.0253199373e+000	-7.2092388866e-003
 1.0600427454e+000	 4.0364597689e+000	 2.2307772871e-002
 1.0185005105e+000	 4.0471416277e+000	 4.7425245556e-002
 9.7696870920e-001	 4.0573675433e+000	 6.8277149792e-002
 9.3545427291e-001	 4.0671396769e+000	 8.5394326092e-002
 8.9396404797e-001	 4.0764603175e+000	 9.9635881235e-002
 8.5250479281e-001	 4.0853318795e+000	 1.1215273938e-001
 8.1108317555e-001	 4.0937568991e+000	 1.2434402693e-001
 1.2340099371e+000	 4.0146252992e+000	-1.3804805810e-001
 1.1922316182e+000	 4.0272299033e+000	-1.0115961083e-001
 1.1504350948e+000	 4.0393683026e+000	-6.5753018943e-002
 1.1086276574e+000	 4.0510421257e+000	-3.3166571781e-002
 1.0668165223e+000	 4.0622531420e+000	-4.1815239689e-003
 1.0250088285e+000	 4.0730032589e+000	 2.0907646578e-002
 9.8321163488e-001	 4.0832945191e+000	 4.2226734732e-002
 9.4143191729e-001	 4.0931290975e+000	 6.0274905012e-002
 8.9967656574e-001	 4.1025092979e+000	 7.5859362960e-002
 8.5795238189e-001	 4.1114375501e+000	 9.0057978243e-002
 8.1626607643e-001	 4.1199164064e+000	 1.0417675613e-001
 7.6443706755e-001	 3.8583213333e+000	 8.9294327465e-002
 7.2544515898e-001	 3.8658423669e+000	 1.0151626408e-001
 6.8650100458e-001	 3.8729477800e+000	 8.1571993816e-002
 6.4761060921e-001	 3.8796402911e+000	 3.9479140049e-002
 6.0877988461e-001	 3.8859227212e+000	 6.5284011165e-003
 5.7001464758e-001	 3.8917979905e+000	-1.3748628343e-002
 5.3132061837e-001	 3.8972691155e+000	-2.1864314082e-002
 4.9270341909e-001	 3.9023392051e+000	-1.7118273649e-002
 4.5416857227e-001	 3.9070114582e+000	 2.3354021648e-003
 4.1572149954e-001	 3.9112891599e+000	 3.9414985645e-002
 3.7736752037e-001	 3.9151756786e+000	 9.8034432785e-002
 7.6961996844e-001	 3.8844808406e+000	 7.6549927296e-002
 7.3036369383e-001	 3.8920528670e+000	 8.7016434124e-002
 6.9115549717e-001	 3.8992064550e+000	 6.8867860898e-002
 6.5200142403e-001	 3.9059443414e+000	 2.9645069572e-002
 6.1290742622e-001	 3.9122693665e+000	-2.5080649909e-003
 5.7387935999e-001	 3.9181844704e+000	-2.2353946919e-002
 5.3492298437e-001	 3.9236926896e+000	-3.0635053983e-002
 4.9604395959e-001	 3.9287971546e+000	-2.6884830970e-002
 4.5724784563e-001	 3.9335010856e+000	-9.5081672449e-003
 4.1854010086e-001	 3.9378077903e+000	 2.4132748141e-002
 3.7992608084e-001	 3.9417206597e+000	 7.7629722922e-002
 7.7480286933e-001	 3.9106403479e+000	 7.7211152576e-002
 7.3528222869e-001	 3.9182633671e+000	 8.5635712016e-002
 6.9580998976e-001	 3.9254651299e+000	 6.8716162603e-002
 6.5639223885e-001	 3.9322483918e+000	 3.2335719222e-002
 6.1703496783e-001	 3.9386160119e+000	 8.4103597117e-004
 5.7774407240e-001	 3.9445709502e+000	-1.8796108573e-002
 5.3852535038e-001	 3.9501162638e+000	-2.7439295490e-002
 4.9938450010e-001	 3.9552551041e+000	-2.4747565615e-002
 4.6032711899e-001	 3.9599907131e+000	-9.2700449436e-003
 4.2135870218e-001	 3.9643264207e+000	 2.1454660332e-002
 3.8248464130e-001	 3.9682656408e+000	 7.0796934435e-002
 7.7998577022e-001	 3.9367998552e+000	 8.6803378335e-002
 7.4020076354e-001	 3.9444738672e+000	 9.3104292425e-002
 7.0046448236e-001	 3.9517238049e+000	 7.7114912237e-002
 6.6078305366e-001	 3.9585524421e+000	 4.3709290251e-002
 6.2116250944e-001	 3.9649626573e+000	 1.3104708358e-002
 5.8160878482e-001	 3.9709574300e+000	-6.0962347539e-003
 5.4212771638e-001	 3.9765398380e+000	-1.4763600161e-002
 5.0272504061e-001	 3.9817130536e+000	-1.2568381700e-002
 4.6340639235e-001	 3.9864803406e+000	 1.9078014641e-003
 4.2417730350e-001	 3.9908450511e+000	 3.1058895517e-002
 3.8504320176e-001	 3.9948106218e+000	 7.8139230965e-002
 7.8516867111e-001	 3.9629593625e+000	 1.0084219843e-001
 7.4511929839e-001	 3.9706843673e+000	 1.0513554542e-001
 7.0511897495e-001	 3.9779824798e+000	 9.0037997803e-002
 6.6517386848e-001	 3.9848564924e+000	 5.9903779355e-002
 6.2529005105e-001	 3.9913093026e+000	 3.0775158562e-002
 5.8547349723e-001	 3.9973439098e+000	 1.2671448558e-002
 5.4573008239e-001	 4.0029634122e+000	 4.8546411361e-003
 5.0606558111e-001	 4.0081710031e+000	 7.7726037446e-003
 4.6648566571e-001	 4.0129699681e+000	 2.2699227093e-002
 4.2699590482e-001	 4.0173636815e+000	 5.1760016520e-002
 3.8760176222e-001	 4.0213556029e+000	 9.7842499148e-002
 7.9035157200e-001	 3.9891188698e+000	 1.1483403832e-001
 7.5003783325e-001	 3.9968948674e+000	 1.1742647785e-001
 7.0977346754e-001	 4.0042411548e+000	 1.0350179851e-001
 6.6956468330e-001	 4.0111605428e+000	 7.7425268402e-002
 6.2941759266e-001	 4.0176559480e+000	 5.1298879481e-002
 5.8933820964e-001	 4.0237303896e+000	 3.5856386617e-002
 5.4933244839e-001	 4.0293869863e+000	 3.0268650821e-002
 5.0940612162e-001	 4.0346289526e+000	 3.4718544041e-002
 4.6956493906e-001	 4.0394595956e+000	 5.0323144882e-002
 4.2981450615e-001	 4.0438823119e+000	 7.9016344237e-002
 3.9016032268e-001	 4.0479005840e+000	 1.2344220019e-001
 7.9553447288e-001	 4.0152783771e+000	 1.2520117518e-001
 7.5495636810e-001	 4.0231053675e+000	 1.2777633181e-001
 7.1442796013e-001	 4.0304998298e+000	 1.1680640993e-001
 6.7395549811e-001	 4.0374645931e+000	 9.5962080672e-002
 6.3354513427e-001	 4.0440025933e+000	 7.4211918094e-002
 5.9320292205e-001	 4.0501168695e+000	 6.2078483709e-002
 5.5293481440e-001	 4.0558105605e+000	 5.8945157565e-002
 5.1274666212e-001	 4.0610869021e+000	 6.4927636402e-002
 4.7264421242e-001	 4.0659492230e+000	 8.1019713117e-002
 4.3263310747e-001	 4.0704009423e+000	 1.0897852334e-001
 3.9271888314e-001	 4.0744455651e+000	 1.5122062991e-001
 8.0071737377e-001	 4.0414378845e+000	 1.3203522737e-001
 7.5987490295e-001	 4.0493158676e+000	 1.3577810979e-001
 7.1908245272e-001	 4.0567585047e+000	 1.2828023796e-001
 6.7834631293e-001	 4.0637686435e+000	 1.1285045365e-001
 6.3767267588e-001	 4.0703492387e+000	 9.6128386338e-002
 5.9706763447e-001	 4.0765033493e+000	 8.7680582331e-002
 5.5653718040e-001	 4.0822341347e+000	 8.7188812338e-002
 5.1608720263e-001	 4.0875448516e+000	 9.4713255085e-002
 4.7572348578e-001	 4.0924388505e+000	 1.1113695459e-001
 4.3545170879e-001	 4.0969195727e+000	 1.3805385532e-001
 3.9527744361e-001	 4.1009905462e+000	 1.7766775185e-001
 8.0590027466e-001	 4.0675973918e+000	 1.3271518132e-001
 7.6479343780e-001	 4.0755263677e+000	 1.3830839830e-001
 7.2373694531e-001	 4.0830171797e+000	 1.3468437092e-001
 6.8273712774e-001	 4.0900726938e+000	 1.2479876084e-001
 6.4180021749e-001	 4.0966958841e+000	 1.1357887809e-001
 6.0093234688e-001	 4.1028898291e+000	 1.0913940249e-001
 5.6013954641e-001	 4.1086577088e+000	 1.1144965472e-001
 5.1942774314e-001	 4.1140028011e+000	 1.2052454188e-001
 4.7880275914e-001	 4.1189284780e+000	 1.3714752134e-001
 4.3827031011e-001	 4.1234382031e+000	 1.6276158021e-001
 3.9783600407e-001	 4.1275355273e+000	 1.9937119329e-001
 8.1108317555e-001	 4.0937568991e+000	 1.2434402693e-001
 7.6971197265e-001	 4.1017368678e+000	 1.3236152910e-001
 7.2839143789e-001	 4.1092758546e+000	 1.3293037704e-001
 6.8712794256e-001	 4.1163767441e+000	 1.2866132335e-001
 6.4592775910e-001	 4.1230425294e+000	 1.2325085558e-001
 6.0479705929e-001	 4.1292763089e+000	 1.2308223809e-001
 5.6374191241e-001	 4.1350812830e+000	 1.2832058089e-001
 5.2276828364e-001	 4.1404607506e+000	 1.3894431213e-001
 4.8188203250e-001	 4.1454181055e+000	 1.5564705050e-001
 4.4108891143e-001	 4.1499568335e+000	 1.7973169314e-001
 4.0039456453e-001	 4.1540805083e+000	 2.1301553250e-001
 8.1626607643e-001	 4.1199164064e+000	 1.0417675613e-001
 7.7463050750e-001	 4.1279473679e+000	 1.1508217943e-001
 7.3304593048e-001	 4.1355345296e+000	 1.2007722606e-001
 6.9151875737e-001	 4.1426807945e+000	 1.2143561945e-001
 6.5005530071e-001	 4.1493891748e+000	 1.2198532334e-001
 6.0866177170e-001	 4.1556627888e+000	 1.2628403634e-001
 5.6734427842e-001	 4.1615048572e+000	 1.3453484137e-001
 5.2610882415e-001	 4.1669187001e+000	 1.4668698252e-001
 4.8496130586e-001	 4.1719077330e+000	 1.6335253304e-001
 4.4390751276e-001	 4.1764754639e+000	 1.8570376388e-001
 4.0295312499e-001	 4.1806254894e+000	 2.1538157810e-001
 3.7736752037e-001	 3.9151756786e+000	 9.8034432785e-002
 3.3910613303e-001	 3.9186749587e+000	 1.4946013342e-001
 3.0094827830e-001	 3.9217899151e+000	 1.6653172456e-001
 2.6289904207e-001	 3.9245241489e+000	 1.5698484653e-001
 2.2496340183e-001	 3.9268813314e+000	 1.2946696626e-001
 1.8714622592e-001	 3.9288652011e+000	 9.3465457718e-002
 1.4945227300e-001	 3.9304795604e+000	 5.9242560154e-002
 1.1188619153e-001	 3.9317282725e+000	 3.7778291834e-002
 7.4452519382e-002	 3.9326152578e+000	 4.0722204968e-002
 3.7155683567e-002	 3.9331444916e+000	 8.0354681302e-002
 0.0000000000e+000	 3.9333200000e+000	 1.6955829581e-001
 3.7992608084e-001	 3.9417206597e+000	 7.7629722922e-002
 3.4140528040e-001	 3.9452436650e+000	 1.2385256458e-001
 3.0298871454e-001	 3.9483797409e+000	 1.3730766481e-001
 2.6468150362e-001	 3.9511325128e+000	 1.2540887147e-001
 2.2648865886e-001	 3.9535056771e+000	 9.6403059499e-002
 1.8841508163e-001	 3.9555029975e+000	 5.9290246680e-002
 1.5046556284e-001	 3.9571283022e+000	 2.3751650304e-002
 1.1264478248e-001	 3.9583854805e+000	 8.6790446091e-005
 7.4957309175e-002	 3.9592784797e+000	-8.3945646482e-004
 3.7407599955e-002	 3.9598113016e+000	 3.2360854202e-002
 0.0000000000e+000	 3.9599880000e+000	 1.1156763121e-001
 3.8248464130e-001	 3.9682656408e+000	 7.0796934435e-002
 3.4370442778e-001	 3.9718123712e+000	 1.1336688376e-001
 3.0502915079e-001	 3.9749695666e+000	 1.2543049613e-001
 2.6646396517e-001	 3.9777408767e+000	 1.1410785912e-001
 2.2801391590e-001	 3.9801300227e+000	 8.7267248681e-002
 1.8968393734e-001	 3.9821407938e+000	 5.3436840306e-002
 1.5147885269e-001	 3.9837770439e+000	 2.1725480915e-002
 1.1340337343e-001	 3.9850426886e+000	 1.7536555358e-003
 7.5462098967e-002	 3.9859417015e+000	 3.5955707228e-003
 3.7659516343e-002	 3.9864781117e+000	 3.7733070842e-002
 0.0000000000e+000	 3.9866560000e+000	 1.1502191092e-001
 3.8504320176e-001	 3.9948106218e+000	 7.8139230965e-002
 3.4600357516e-001	 3.9983810775e+000	 1.1963168118e-001
 3.0706958703e-001	 4.0015593924e+000	 1.3362471100e-001
 2.6824642672e-001	 4.0043492407e+000	 1.2677334636e-001
 2.2953917293e-001	 4.0067543684e+000	 1.0645179077e-001
 1.9095279306e-001	 4.0087785902e+000	 8.0658062219e-002
 1.5249214253e-001	 4.0104257857e+000	 5.7924408904e-002
 1.1416196437e-001	 4.0116998966e+000	 4.7252069889e-002
 7.5966888759e-002	 4.0126049233e+000	 5.8051555431e-002
 3.7911432732e-002	 4.0131449217e+000	 1.0008799800e-001
 0.0000000000e+000	 4.0133240000e+000	 1.8343116519e-001
 3.8760176222e-001	 4.0213556029e+000	 9.7842499148e-002
 3.4830272253e-001	 4.0249497838e+000	 1.3905168794e-001
 3.0911002327e-001	 4.0281492181e+000	 1.5507158944e-001
 2.7002888826e-001	 4.0309576046e+000	 1.5222540908e-001
 2.3106442997e-001	 4.0333787141e+000	 1.3747962278e-001
 1.9222164877e-001	 4.0354163865e+000	 1.1836862388e-001
 1.5350543238e-001	 4.0370745274e+000	 1.0292583917e-001
 1.1492055532e-001	 4.0383571047e+000	 9.9620776520e-002
 7.6471678551e-002	 4.0392681452e+000	 1.1730150465e-001
 3.8163349120e-002	 4.0398117318e+000	 1.6514210370e-001
 0.0000000000e+000	 4.0399920000e+000	 2.5259466725e-001
 3.9016032268e-001	 4.0479005840e+000	 1.2344220019e-001
 3.5060186991e-001	 4.0515184901e+000	 1.6349946283e-001
 3.1115045952e-001	 4.0547390439e+000	 1.8059411045e-001
 2.7181134981e-001	 4.0575659685e+000	 1.8062936889e-001
 2.3258968700e-001	 4.0600030598e+000	 1.7011316630e-001
 1.9349050448e-001	 4.0620541829e+000	 1.5608534043e-001
 1.5451872222e-001	 4.0637232692e+000	 1.4605124392e-001
 1.1567914627e-001	 4.0650143127e+000	 1.4792119229e-001
 7.6976468342e-002	 4.0659313670e+000	 1.6995524027e-001
 3.8415265508e-002	 4.0664785418e+000	 2.2071281299e-001
 0.0000000000e+000	 4.0666600000e+000	 3.0900676226e-001
 3.9271888314e-001	 4.0744455651e+000	 1.5122062991e-001
 3.5290101728e-001	 4.0780871964e+000	 1.8946127746e-001
 3.1319089576e-001	 4.0813288697e+000	 2.0681689703e-001
 2.7359381136e-001	 4.0841743324e+000	 2.0873693379e-001
 2.3411494403e-001	 4.0866274055e+000	 2.0123843571e-001
 1.9475936019e-001	 4.0886919793e+000	 1.9083597026e-001
 1.5553201207e-001	 4.0903720110e+000	 1.8447785128e-001
 1.1643773722e-001	 4.0916715208e+000	 1.8948810277e-001
 7.7481258134e-002	 4.0925945888e+000	 2.1351363046e-001
 3.8667181896e-002	 4.0931453519e+000	 2.6447611537e-001
 0.0000000000e+000	 4.0933280000e+000	 3.5052818997e-001
 3.9527744361e-001	 4.1009905462e+000	 1.7766775185e-001
 3.5520016466e-001	 4.1046559027e+000	 2.1352394422e-001
 3.1523133200e-001	 4.1079186954e+000	 2.3042936488e-001
 2.7537627290e-001	 4.1107826964e+000	 2.3334590956e-001
 2.3564020107e-001	 4.1132517511e+000	 2.2776751575e-001
 1.9602821590e-001	 4.1153297756e+000	 2.1965294130e-001
 1.5654530191e-001	 4.1170207527e+000	 2.1536474779e-001
 1.1719632817e-001	 4.1183287288e+000	 2.2161389768e-001
 7.7986047926e-002	 4.1192578107e+000	 2.4540942115e-001
 3.8919098284e-002	 4.1198121619e+000	 2.9401265490e-001
 0.0000000000e+000	 4.1199960000e+000	 3.7489560377e-001
 3.9783600407e-001	 4.1275355273e+000	 1.9937119329e-001
 3.5749931203e-001	 4.1312246089e+000	 2.3235625623e-001
 3.1727176825e-001	 4.1345085212e+000	 2.4818598461e-001
 2.7715873445e-001	 4.1373910603e+000	 2.5130093952e-001
 2.3716545810e-001	 4.1398760968e+000	 2.4663977517e-001
 1.9729707162e-001	 4.1419675720e+000	 2.3957503501e-001
 1.5755859176e-001	 4.1436694945e+000	 2.3585502940e-001
 1.1795491912e-001	 4.1449859369e+000	 2.4155118569e-001
 7.8490837717e-002	 4.1459210325e+000	 2.6301031187e-001
 3.9171014672e-002	 4.1464789720e+000	 3.0681126430e-001
 0.0000000000e+000	 4.1466640000e+000	 3.7972556088e-001
 4.0039456453e-001	 4.1540805083e+000	 2.1301553250e-001
 3.5979845941e-001	 4.1577933152e+000	 2.4270874784e-001
 3.1931220449e-001	 4.1610983469e+000	 2.5690651100e-001
 2.7894119600e-001	 4.1639994242e+000	 2.5949419838e-001
 2.3869071514e-001	 4.1665004425e+000	 2.5482302085e-001
 1.9856592733e-001	 4.1686053684e+000	 2.4764899674e-001
 1.5857188160e-001	 4.1703182362e+000	 2.4307786413e-001
 1.1871351007e-001	 4.1716431449e+000	 2.4651530567e-001
 7.8995627510e-002	 4.1725842543e+000	 2.6362191207e-001
 3.9422931060e-002	 4.1731457820e+000	 3.0027236324e-001
 0.0000000000e+000	 4.1733320000e+000	 3.6251835941e-001
 4.0295312499e-001	 4.1806254894e+000	 2.1538157810e-001
 3.6209760679e-001	 4.1843620215e+000	 2.4141343564e-001
 3.2135264073e-001	 4.1876881727e+000	 2.5347618093e-001
 2.8072365755e-001	 4.1906077882e+000	 2.5486604213e-001
 2.4021597217e-001	 4.1931247882e+000	 2.4931459512e-001
 1.9983478304e-001	 4.1952431647e+000	 2.4093107580e-001
 1.5958517145e-001	 4.1969669780e+000	 2.3415047046e-001
 1.1947210102e-001	 4.1983003530e+000	 2.3368673911e-001
 7.9500417302e-002	 4.1992474762e+000	 2.4449058345e-001
 3.9674847448e-002	 4.1998125921e+000	 2.7171122670e-001
 0.0000000000e+000	 4.2000000000e+000	 3.2066172935e-001
 4.2000000000e+000	 0.0000000000e+000	 5.1678181244e-001
 4.1998125921e+000	 3.9674847448e-002	 5.4683652004e-001
 4.1992474762e+000	 7.9500417302e-002	 5.7012977730e-001
 4.1983003530e+000	 1.1947210102e-001	 5.8696573058e-001
 4.1969669780e+000	 1.5958517145e-001	 5.9798283855e-001
 4.1952431647e+000	 1.9983478304e-001	 6.0410789045e-001
 4.1931247882e+000	 2.4021597217e-001	 6.0650797918e-001
 4.1906077882e+000	 2.8072365755e-001	 6.0653996386e-001
 4.1876881727e+000	 3.2135264073e-001	 6.0569690298e-001
 4.1843620215e+000	 3.6209760679e-001	 6.0555088717e-001
 4.1806254894e+000	 4.0295312499e-001	 6.0769164901e-001
 4.2266680000e+000	 0.0000000000e+000	 5.7799271311e-001
 4.2264794022e+000	 3.9926763837e-002	 5.9504398471e-001
 4.2259106980e+000	 8.0005207095e-002	 6.0777163142e-001
 4.2249575610e+000	 1.2023069197e-001	 6.1617870844e-001
 4.2236157197e+000	 1.6059846130e-001	 6.2058677905e-001
 4.2218809611e+000	 2.0110363876e-001	 6.2159230243e-001
 4.2197491339e+000	 2.4174122921e-001	 6.2002122438e-001
 4.2172161521e+000	 2.8250611909e-001	 6.1688128729e-001
 4.2142779985e+000	 3.2339307698e-001	 6.1331151875e-001
 4.2109307278e+000	 3.6439675416e-001	 6.1052830288e-001
 4.2071704705e+000	 4.0551168545e-001	 6.0976738367e-001
 4.2533360000e+000	 0.0000000000e+000	 6.2926289370e-001
 4.2531462122e+000	 4.0178680226e-002	 6.3565333739e-001
 4.2525739199e+000	 8.0509996888e-002	 6.3973504644e-001
 4.2516147691e+000	 1.2098928292e-001	 6.4125446970e-001
 4.2502644615e+000	 1.6161175114e-001	 6.4026060393e-001
 4.2485187574e+000	 2.0237249447e-001	 6.3706385570e-001
 4.2463734795e+000	 2.4326648624e-001	 6.3219336607e-001
 4.2438245160e+000	 2.8428858064e-001	 6.2635229570e-001
 4.2408678242e+000	 3.2543351322e-001	 6.2037050733e-001
 4.2374994341e+000	 3.6669590154e-001	 6.1515402411e-001
 4.2337154516e+000	 4.0807024591e-001	 6.1163058377e-001
 4.2800040000e+000	 0.0000000000e+000	 6.7034709345e-001
 4.2798130223e+000	 4.0430596615e-002	 6.6831818652e-001
 4.2792371417e+000	 8.1014786682e-002	 6.6560012409e-001
 4.2782719771e+000	 1.2174787387e-001	 6.6172524055e-001
 4.2769132032e+000	 1.6262504099e-001	 6.5651220593e-001
 4.2751565538e+000	 2.0364135018e-001	 6.5002747185e-001
 4.2729978252e+000	 2.4479174328e-001	 6.4254545297e-001
 4.2704328799e+000	 2.8607104219e-001	 6.3450692155e-001
 4.2674576500e+000	 3.2747394947e-001	 6.2647502978e-001
 4.2640681404e+000	 3.6899504892e-001	 6.1908831128e-001
 4.2602604327e+000	 4.1062880637e-001	 6.1300995188e-001
 4.3066720000e+000	 0.0000000000e+000	 7.0105226311e-001
 4.3064798323e+000	 4.0682513004e-002	 6.9273868472e-001
 4.3059003635e+000	 8.1519576475e-002	 6.8498804925e-001
 4.3049291852e+000	 1.2250646482e-001	 6.7715906729e-001
 4.3035619450e+000	 1.6363833084e-001	 6.6888022296e-001
 4.3017943502e+000	 2.0491020590e-001	 6.6001391983e-001
 4.2996221709e+000	 2.4631700032e-001	 6.5061964790e-001
 4.2970412439e+000	 2.8785350374e-001	 6.4091562941e-001
 4.2940474757e+000	 3.2951438571e-001	 6.3123833402e-001
 4.2906368466e+000	 3.7129419629e-001	 6.2199918781e-001
 4.2868054138e+000	 4.1318736684e-001	 6.1363773512e-001
 4.3333400000e+000	 0.0000000000e+000	 7.2123595828e-001
 4.3331466424e+000	 4.0934429394e-002	 7.0865997709e-001
 4.3325635854e+000	 8.2024366269e-002	 6.9755960634e-001
 4.3315863932e+000	 1.2326505578e-001	 6.8715841283e-001
 4.3302106868e+000	 1.6465162068e-001	 6.7693272564e-001
 4.3284321465e+000	 2.0617906161e-001	 6.6657860388e-001
 4.3262465166e+000	 2.4784225735e-001	 6.5597812474e-001
 4.3236496078e+000	 2.8963596529e-001	 6.4516442887e-001
 4.3206373015e+000	 3.3155482196e-001	 6.3428488944e-001
 4.3172055529e+000	 3.7359334367e-001	 6.2356170101e-001
 4.3133503949e+000	 4.1574592730e-001	 6.1324911529e-001
 4.3600080000e+000	 0.0000000000e+000	 7.3080479185e-001
 4.3598134524e+000	 4.1186345783e-002	 7.1587070648e-001
 4.3592268072e+000	 8.2529156063e-002	 7.0301375052e-001
 4.3582436013e+000	 1.2402364673e-001	 6.9135880550e-001
 4.3568594285e+000	 1.6566491053e-001	 6.8026595423e-001
 4.3550699429e+000	 2.0744791733e-001	 6.6930039826e-001
 4.3528708623e+000	 2.4936751439e-001	 6.5820200887e-001
 4.3502579717e+000	 2.9141842684e-001	 6.4685392775e-001
 4.3472271273e+000	 3.3359525820e-001	 6.3524955854e-001
 4.3437742592e+000	 3.7589249104e-001	 6.2345721628e-001
 4.3398953759e+000	 4.1830448776e-001	 6.1158162879e-001
 4.3866760000e+000	 0.0000000000e+000	 7.2971294277e-001
 4.3864802625e+000	 4.1438262172e-002	 7.1420157351e-001
 4.3858900290e+000	 8.3033945857e-002	 7.0108623138e-001
 4.3849008094e+000	 1.2478223768e-001	 6.8942753796e-001
 4.3835081703e+000	 1.6667820038e-001	 6.7850310325e-001
 4.3817077393e+000	 2.0871677304e-001	 6.6778052658e-001
 4.3794952079e+000	 2.5089277143e-001	 6.5689035932e-001
 4.3768663357e+000	 2.9320088839e-001	 6.4559842380e-001
 4.3738169530e+000	 3.3563569445e-001	 6.3377680371e-001
 4.3703429655e+000	 3.7819163842e-001	 6.2137274326e-001
 4.3664403570e+000	 4.2086304822e-001	 6.0837461499e-001
 4.4133440000e+000	 0.0000000000e+000	 7.1796071897e-001
 4.4131470725e+000	 4.1690178561e-002	 7.0352394881e-001
 4.4125532509e+000	 8.3538735650e-002	 6.9154826690e-001
 4.4115580174e+000	 1.2554082863e-001	 6.8106241417e-001
 4.4101569120e+000	 1.6769149023e-001	 6.7129315148e-001
 4.4083455356e+000	 2.0998562876e-001	 6.6164148393e-001
 4.4061195536e+000	 2.5241802846e-001	 6.5165919090e-001
 4.4034746996e+000	 2.9498334994e-001	 6.4102503337e-001
 4.4004067788e+000	 3.3767613069e-001	 6.2951992779e-001
 4.3969116718e+000	 3.8049078580e-001	 6.1700029254e-001
 4.3929853381e+000	 4.2342160868e-001	 6.0336869192e-001
 4.4400120000e+000	 0.0000000000e+000	 6.9559317204e-001
 4.4398138826e+000	 4.1942094950e-002	 6.8374853535e-001
 4.4392164727e+000	 8.4043525443e-002	 6.7420526554e-001
 4.4382152255e+000	 1.2629941958e-001	 6.6599054226e-001
 4.4368056538e+000	 1.6870478007e-001	 6.5830973556e-001
 4.4349833320e+000	 2.1125448447e-001	 6.5052600004e-001
 4.4327438993e+000	 2.5394328550e-001	 6.4214053443e-001
 4.4300830635e+000	 2.9676581148e-001	 6.3277285537e-001
 4.4269966045e+000	 3.3971656693e-001	 6.2214034709e-001
 4.4234803781e+000	 3.8278993317e-001	 6.1003626162e-001
 4.4195303192e+000	 4.2598016914e-001	 5.9630525806e-001
 4.4666800000e+000	 0.0000000000e+000	 6.6269876151e-001
 4.4664806926e+000	 4.2194011339e-002	 6.5482407883e-001
 4.4658796945e+000	 8.4548315236e-002	 6.4889559456e-001
 4.4648724335e+000	 1.2705801053e-001	 6.4396717149e-001
 4.4634543955e+000	 1.6971806992e-001	 6.3925006539e-001
 4.4616211283e+000	 2.1252334018e-001	 6.3409604165e-001
 4.4593682450e+000	 2.5546854253e-001	 6.2798153379e-001
 4.4566914274e+000	 2.9854827303e-001	 6.2049216914e-001
 4.4535864303e+000	 3.4175700318e-001	 6.1130689527e-001
 4.4500490843e+000	 3.8508908055e-001	 6.0018084892e-001
 4.4460753003e+000	 4.2853872961e-001	 5.8692601922e-001
 4.1806254894e+000	 4.0295312499e-001	 6.0769164901e-001
 4.1764754639e+000	 4.4390751276e-001	 6.1023005011e-001
 4.1719077330e+000	 4.8496130586e-001	 6.1043570351e-001
 4.1669187001e+000	 5.2610882415e-001	 6.0848763786e-001
 4.1615048572e+000	 5.6734427842e-001	 6.0433661395e-001
 4.1556627888e+000	 6.0866177170e-001	 5.9761487365e-001
 4.1493891748e+000	 6.5005530071e-001	 5.8753699682e-001
 4.1426807945e+000	 6.9151875737e-001	 5.7307452911e-001
 4.1355345296e+000	 7.3304593048e-001	 5.5504254348e-001
 4.1279473679e+000	 7.7463050750e-001	 5.3492700909e-001
 4.1199164064e+000	 8.1626607643e-001	 5.1411920876e-001
 4.2071704705e+000	 4.0551168545e-001	 6.0976738367e-001
 4.2029940943e+000	 4.4672611408e-001	 6.0935878104e-001
 4.1983973605e+000	 4.8804057921e-001	 6.0703925368e-001
 4.1933766496e+000	 5.2944936465e-001	 6.0302128409e-001
 4.1879284314e+000	 5.7094664442e-001	 5.9730579320e-001
 4.1820492686e+000	 6.1252648411e-001	 5.8959496655e-001
 4.1757358201e+000	 6.5418284232e-001	 5.7919609182e-001
 4.1689848448e+000	 6.9590957218e-001	 5.6518779951e-001
 4.1617932046e+000	 7.3770042307e-001	 5.4810756079e-001
 4.1541578680e+000	 7.7954904235e-001	 5.2908794888e-001
 4.1460759137e+000	 8.2144897732e-001	 5.0920227395e-001
 4.2337154516e+000	 4.0807024591e-001	 6.1163058377e-001
 4.2295127247e+000	 4.4954471540e-001	 6.0836133872e-001
 4.2248869879e+000	 4.9111985257e-001	 6.0353918874e-001
 4.2198345991e+000	 5.3278990516e-001	 5.9742244094e-001
 4.2143520055e+000	 5.7454901042e-001	 5.9007516852e-001
 4.2084357484e+000	 6.1639119652e-001	 5.8128333568e-001
 4.2020824655e+000	 6.5831038393e-001	 5.7046184039e-001
 4.1952888952e+000	 7.0030038700e-001	 5.5676324059e-001
 4.1880518795e+000	 7.4235491566e-001	 5.4045180805e-001
 4.1803683681e+000	 7.8446757720e-001	 5.2235586429e-001
 4.1722354210e+000	 8.2663187820e-001	 5.0325952685e-001
 4.2602604327e+000	 4.1062880637e-001	 6.1300995188e-001
 4.2560313550e+000	 4.5236331672e-001	 6.0703948624e-001
 4.2513766154e+000	 4.9419912593e-001	 5.9981064592e-001
 4.2462925485e+000	 5.3613044566e-001	 5.9163795718e-001
 4.2407755797e+000	 5.7815137642e-001	 5.8265965588e-001
 4.2348222282e+000	 6.2025590893e-001	 5.7275734251e-001
 4.2284291109e+000	 6.6243792553e-001	 5.6146646524e-001
 4.2215929455e+000	 7.0469120181e-001	 5.4797105482e-001
 4.2143105545e+000	 7.4700940824e-001	 5.3228819405e-001
 4.2065788682e+000	 7.8938611205e-001	 5.1498046601e-001
 4.1983949284e+000	 8.3181477909e-001	 4.9657107207e-001
 4.2868054138e+000	 4.1318736684e-001	 6.1363773512e-001
 4.2825499854e+000	 4.5518191804e-001	 6.0519445519e-001
 4.2778662429e+000	 4.9727839929e-001	 5.9572432193e-001
 4.2727504980e+000	 5.3947098617e-001	 5.8560646557e-001
 4.2671991539e+000	 5.8175374243e-001	 5.7506227925e-001
 4.2612087080e+000	 6.2412062134e-001	 5.6407884608e-001
 4.2547757562e+000	 6.6656546714e-001	 5.5232310777e-001
 4.2478969958e+000	 7.0908201662e-001	 5.3896097585e-001
 4.2405692295e+000	 7.5166390083e-001	 5.2380668173e-001
 4.2327893683e+000	 7.9430464689e-001	 5.0718636737e-001
 4.2245544357e+000	 8.3699767997e-001	 4.8939009959e-001
 4.3133503949e+000	 4.1574592730e-001	 6.1324911529e-001
 4.3090686158e+000	 4.5800051936e-001	 6.0262646508e-001
 4.3043558704e+000	 5.0035767265e-001	 5.9114611902e-001
 4.2992084475e+000	 5.4281152667e-001	 5.7925815183e-001
 4.2936227281e+000	 5.8535610843e-001	 5.6727405815e-001
 4.2875951879e+000	 6.2798533375e-001	 5.5529420359e-001
 4.2811224016e+000	 6.7069300875e-001	 5.4312201068e-001
 4.2742010462e+000	 7.1347283143e-001	 5.2986247335e-001
 4.2668279044e+000	 7.5631839342e-001	 5.1517461122e-001
 4.2589998684e+000	 7.9922318174e-001	 4.9917352244e-001
 4.2507139430e+000	 8.4218058085e-001	 4.8194343451e-001
 4.3398953759e+000	 4.1830448776e-001	 6.1158162879e-001
 4.3355872462e+000	 4.6081912068e-001	 5.9913426898e-001
 4.3308454979e+000	 5.0343694600e-001	 5.8593681373e-001
 4.3256663970e+000	 5.4615206717e-001	 5.7251454320e-001
 4.3200463022e+000	 5.8895847443e-001	 5.5927391142e-001
 4.3139816677e+000	 6.3185004616e-001	 5.4643428430e-001
 4.3074690469e+000	 6.7482055036e-001	 5.3393040028e-001
 4.3005050965e+000	 7.1786364625e-001	 5.2078496548e-001
 4.2930865794e+000	 7.6097288600e-001	 5.0653702785e-001
 4.2852103685e+000	 8.0414171659e-001	 4.9111766695e-001
 4.2768734503e+000	 8.4736348174e-001	 4.7443208761e-001
 4.3664403570e+000	 4.2086304822e-001	 6.0837461499e-001
 4.3621058766e+000	 4.6363772201e-001	 5.9451472422e-001
 4.3573351253e+000	 5.0651621936e-001	 5.7995174751e-001
 4.3521243465e+000	 5.4949260768e-001	 5.6528831547e-001
 4.3464698764e+000	 5.9256084044e-001	 5.5102857668e-001
 4.3403681475e+000	 6.3571475857e-001	 5.3751449600e-001
 4.3338156923e+000	 6.7894809196e-001	 5.2480019725e-001
 4.3268091469e+000	 7.2225446106e-001	 5.1181803880e-001
 4.3193452543e+000	 7.6562737859e-001	 4.9801701525e-001
 4.3114208686e+000	 8.0906025144e-001	 4.8317076198e-001
 4.3030329576e+000	 8.5254638262e-001	 4.6703180667e-001
 4.3929853381e+000	 4.2342160868e-001	 6.0336869192e-001
 4.3886245070e+000	 4.6645632333e-001	 5.8856238714e-001
 4.3838247528e+000	 5.0959549272e-001	 5.7304053815e-001
 4.3785822960e+000	 5.5283314818e-001	 5.5748311803e-001
 4.3728934506e+000	 5.9616320644e-001	 5.4249254462e-001
 4.3667546273e+000	 6.3957947098e-001	 5.2853482370e-001
 4.3601623377e+000	 6.8307563357e-001	 5.1576604696e-001
 4.3531131972e+000	 7.2664527587e-001	 5.0303167509e-001
 4.3456039293e+000	 7.7028187117e-001	 4.8971603316e-001
 4.3376313687e+000	 8.1397878628e-001	 4.7546144029e-001
 4.3291924649e+000	 8.5772928351e-001	 4.5989362846e-001
 4.4195303192e+000	 4.2598016914e-001	 5.9630525806e-001
 4.4151431374e+000	 4.6927492465e-001	 5.8106913088e-001
 4.4103143803e+000	 5.1267476608e-001	 5.6504681132e-001
 4.4050402455e+000	 5.5617368869e-001	 5.4899341589e-001
 4.3993170248e+000	 5.9976557244e-001	 5.3360800760e-001
 4.3931411071e+000	 6.4344418339e-001	 5.1947987993e-001
 4.3865089830e+000	 6.8720317518e-001	 5.0684543943e-001
 4.3794172475e+000	 7.3103609068e-001	 4.9447648505e-001
 4.3718626043e+000	 7.7493636376e-001	 4.8171425969e-001
 4.3638418688e+000	 8.1889732113e-001	 4.6809545507e-001
 4.3553519723e+000	 8.6291218439e-001	 4.5314443146e-001
 4.4460753003e+000	 4.2853872961e-001	 5.8692601922e-001
 4.4416617678e+000	 4.7209352597e-001	 5.7182378520e-001
 4.4368040078e+000	 5.1575403944e-001	 5.5580795118e-001
 4.4314981950e+000	 5.5951422919e-001	 5.3970434807e-001
 4.4257405989e+000	 6.0336793844e-001	 5.2430482203e-001
 4.4195275870e+000	 6.4730889580e-001	 5.1031896618e-001
 4.4128556284e+000	 6.9133071679e-001	 4.9803884114e-001
 4.4057212979e+000	 7.3542690550e-001	 4.8618394830e-001
 4.3981212792e+000	 7.7959085635e-001	 4.7407093806e-001
 4.3900523689e+000	 8.2381585598e-001	 4.6115613124e-001
 4.3815114796e+000	 8.6809508528e-001	 4.4688748915e-001
 4.1199164064e+000	 8.1626607643e-001	 5.1411920876e-001
 4.1114375501e+000	 8.5795238189e-001	 4.9318585078e-001
 4.1025092979e+000	 8.9967656574e-001	 4.7210112545e-001
 4.0931290975e+000	 9.4143191729e-001	 4.5125289565e-001
 4.0832945191e+000	 9.8321163488e-001	 4.3094596235e-001
 4.0730032589e+000	 1.0250088285e+000	 4.1138930806e-001
 4.0622531420e+000	 1.0668165223e+000	 3.9268522368e-001
 4.0510421257e+000	 1.1086276574e+000	 3.7481050305e-001
 4.0393683026e+000	 1.1504350948e+000	 3.5760352126e-001
 4.0272299033e+000	 1.1922316182e+000	 3.4074601915e-001
 4.0146252992e+000	 1.2340099371e+000	 3.2374429050e-001
 4.1460759137e+000	 8.2144897732e-001	 5.0920227395e-001
 4.1375432207e+000	 8.6339997096e-001	 4.8894324260e-001
 4.1285582784e+000	 9.0538908352e-001	 4.6841343836e-001
 4.1191185182e+000	 9.4740956166e-001	 4.4799549053e-001
 4.1092214949e+000	 9.8945456057e-001	 4.2799443143e-001
 4.0988648900e+000	 1.0315171465e+000	 4.0862504175e-001
 4.0880465150e+000	 1.0735902992e+000	 3.9000049823e-001
 4.0767643142e+000	 1.1156669151e+000	 3.7211431786e-001
 4.0650163678e+000	 1.1577398098e+000	 3.5482684296e-001
 4.0528008954e+000	 1.1998017212e+000	 3.3784713957e-001
 4.0401162582e+000	 1.2418453126e+000	 3.2071412427e-001
 4.1722354210e+000	 8.2663187820e-001	 5.0325952685e-001
 4.1636488913e+000	 8.6884756003e-001	 4.8356872960e-001
 4.1546072589e+000	 9.1110160129e-001	 4.6348279932e-001
 4.1451079388e+000	 9.5338720603e-001	 4.4337938852e-001
 4.1351484706e+000	 9.9569748625e-001	 4.2356399850e-001
 4.1247265212e+000	 1.0380254644e+000	 4.0425742501e-001
 4.1138398881e+000	 1.0803640761e+000	 3.8558401501e-001
 4.1024865026e+000	 1.1227061728e+000	 3.6755426355e-001
 4.0906644331e+000	 1.1650445248e+000	 3.5005081035e-001
 4.0783718876e+000	 1.2073718243e+000	 3.3281045127e-001
 4.0656072171e+000	 1.2496806881e+000	 3.1540522877e-001
 4.1983949284e+000	 8.3181477909e-001	 4.9657107207e-001
 4.1897545619e+000	 8.7429514911e-001	 4.7737015459e-001
 4.1806562393e+000	 9.1681411906e-001	 4.5764622911e-001
 4.1710973595e+000	 9.5936485040e-001	 4.3777223031e-001
 4.1610754464e+000	 1.0019404119e+000	 4.1805435432e-001
 4.1505881524e+000	 1.0445337824e+000	 3.9871960581e-001
 4.1396332611e+000	 1.0871378530e+000	 3.7990374349e-001
 4.1282086910e+000	 1.1297454305e+000	 3.6163444808e-001
 4.1163124983e+000	 1.1723492399e+000	 3.4381692540e-001
 4.1039428797e+000	 1.2149419273e+000	 3.2621603398e-001
 4.0910981760e+000	 1.2575160636e+000	 3.0843736401e-001
 4.2245544357e+000	 8.3699767997e-001	 4.8939009959e-001
 4.2158602326e+000	 8.7974273818e-001	 4.7062686499e-001
 4.2067052198e+000	 9.2252663683e-001	 4.5121080203e-001
 4.1970867802e+000	 9.6534249477e-001	 4.3151038215e-001
 4.1870024222e+000	 1.0081833376e+000	 4.1183270339e-001
 4.1764497835e+000	 1.0510421003e+000	 3.9241114217e-001
 4.1654266342e+000	 1.0939116299e+000	 3.7339306020e-001
 4.1539308795e+000	 1.1367846882e+000	 3.5482347515e-001
 4.1419605635e+000	 1.1796539549e+000	 3.3663035719e-001
 4.1295138719e+000	 1.2225120303e+000	 3.1860687899e-001
 4.1165891349e+000	 1.2653514390e+000	 3.0039250922e-001
 4.2507139430e+000	 8.4218058085e-001	 4.8194343451e-001
 4.2419659032e+000	 8.8519032725e-001	 4.6359037361e-001
 4.2327542003e+000	 9.2823915460e-001	 4.4445442019e-001
 4.2230762008e+000	 9.7132013914e-001	 4.2489982608e-001
 4.2129293980e+000	 1.0144262633e+000	 4.0523450308e-001
 4.2023114147e+000	 1.0575504183e+000	 3.8569913100e-001
 4.1912200072e+000	 1.1006854068e+000	 3.6645200003e-001
 4.1796530679e+000	 1.1438239459e+000	 3.4755582013e-001
 4.1676086287e+000	 1.1869586699e+000	 3.2896144431e-001
 4.1550848640e+000	 1.2300821334e+000	 3.1049052000e-001
 4.1420800939e+000	 1.2731868145e+000	 2.9181662385e-001
 4.2768734503e+000	 8.4736348174e-001	 4.7443208761e-001
 4.2680715738e+000	 8.9063791633e-001	 4.5648501839e-001
 4.2588031807e+000	 9.3395167238e-001	 4.3762658477e-001
 4.2490656215e+000	 9.7729778351e-001	 4.1821704499e-001
 4.2388563737e+000	 1.0206691890e+000	 3.9856560818e-001
 4.2281730459e+000	 1.0640587363e+000	 3.7891932769e-001
 4.2170133802e+000	 1.1074591837e+000	 3.5944849639e-001
 4.2053752563e+000	 1.1508632036e+000	 3.4023319270e-001
 4.1932566939e+000	 1.1942633849e+000	 3.2124718209e-001
 4.1806558562e+000	 1.2376522364e+000	 3.0234064662e-001
 4.1675710528e+000	 1.2810221900e+000	 2.8322138921e-001
 4.3030329576e+000	 8.5254638262e-001	 4.6703180667e-001
 4.2941772444e+000	 8.9608550540e-001	 4.4950862088e-001
 4.2848521612e+000	 9.3966419015e-001	 4.3094916411e-001
 4.2750550421e+000	 9.8327542788e-001	 4.1170990272e-001
 4.2647833495e+000	 1.0269121147e+000	 3.9210143881e-001
 4.2540346771e+000	 1.0705670542e+000	 3.7237725698e-001
 4.2428067533e+000	 1.1142329606e+000	 3.5271961061e-001
 4.2310974448e+000	 1.1579024613e+000	 3.3322588693e-001
 4.2189047591e+000	 1.2015681000e+000	 3.1389269517e-001
 4.2062268484e+000	 1.2452223395e+000	 2.9459870142e-001
 4.1930620117e+000	 1.2888575655e+000	 2.7508593154e-001
 4.3291924649e+000	 8.5772928351e-001	 4.5989362846e-001
 4.3202829150e+000	 9.0153309447e-001	 4.4283314366e-001
 4.3109011417e+000	 9.4537670792e-001	 4.2461715898e-001
 4.3010444628e+000	 9.8925307225e-001	 4.0559851948e-001
 4.2907103253e+000	 1.0331550403e+000	 3.8608926965e-001
 4.2798963082e+000	 1.0770753722e+000	 3.6634931538e-001
 4.2686001263e+000	 1.1210067375e+000	 3.4657275115e-001
 4.2568196332e+000	 1.1649417191e+000	 3.2687411921e-001
 4.2445528243e+000	 1.2088728150e+000	 3.0727269612e-001
 4.2317978405e+000	 1.2527924425e+000	 2.8767546099e-001
 4.2185529706e+000	 1.2966929409e+000	 2.6785852737e-001
 4.3553519723e+000	 8.6291218439e-001	 4.5314443146e-001
 4.3463885857e+000	 9.0698068355e-001	 4.3660534669e-001
 4.3369501221e+000	 9.5108922569e-001	 4.1879946498e-001
 4.3270338835e+000	 9.9523071662e-001	 4.0007614266e-001
 4.3166373011e+000	 1.0393979660e+000	 3.8074886221e-001
 4.3057579394e+000	 1.0835836901e+000	 3.6108386562e-001
 4.2943934994e+000	 1.1277805145e+000	 3.4128688292e-001
 4.2825418216e+000	 1.1719809768e+000	 3.2148935457e-001
 4.2702008896e+000	 1.2161775300e+000	 3.0173293067e-001
 4.2573688327e+000	 1.2603625456e+000	 2.8195260189e-001
 4.2440439296e+000	 1.3045283164e+000	 2.6195829189e-001
 4.3815114796e+000	 8.6809508528e-001	 4.4688748915e-001
 4.3724942563e+000	 9.1242827262e-001	 4.3094744266e-001
 4.3629991026e+000	 9.5680174346e-001	 4.1363963225e-001
 4.3530233041e+000	 1.0012083610e+000	 3.9531001330e-001
 4.3425642768e+000	 1.0456408917e+000	 3.7627344032e-001
 4.3316195706e+000	 1.0900920081e+000	 3.5680232325e-001
 4.3201868724e+000	 1.1345542914e+000	 3.3711372730e-001
 4.3082640100e+000	 1.1790202345e+000	 3.1735562197e-001
 4.2958489548e+000	 1.2234822450e+000	 2.9759161014e-001
 4.2829398248e+000	 1.2679326486e+000	 2.7778425208e-001
 4.2695348885e+000	 1.3123636919e+000	 2.5777685092e-001
 4.0146252992e+000	 1.2340099371e+000	 3.2374429050e-001
 4.0015530051e+000	 1.2757626898e+000	 3.0497791252e-001
 3.9880116778e+000	 1.3174824442e+000	 2.8264819999e-001
 3.9740001227e+000	 1.3591617033e+000	 2.5617738324e-001
 3.9595172970e+000	 1.4007929095e+000	 2.2798429286e-001
 3.9445623121e+000	 1.4423684478e+000	 1.9866239846e-001
 3.9291344362e+000	 1.4838806500e+000	 1.6853611877e-001
 3.9132330963e+000	 1.5253217981e+000	 1.3792994078e-001
 3.8968578809e+000	 1.5666841286e+000	 1.0716888670e-001
 3.8800085414e+000	 1.6079598367e+000	 7.6577903151e-002
 3.8626849945e+000	 1.6491410796e+000	 4.6480142885e-002
 4.0401162582e+000	 1.2418453126e+000	 3.2071412427e-001
 4.0269609611e+000	 1.2838631754e+000	 3.0179330282e-001
 4.0133336529e+000	 1.3258478303e+000	 2.7927870969e-001
 3.9992331311e+000	 1.3677917329e+000	 2.5342758869e-001
 3.9846583464e+000	 1.4096872774e+000	 2.2636903544e-001
 3.9696084045e+000	 1.4515268006e+000	 1.9832188853e-001
 3.9540825688e+000	 1.4933025855e+000	 1.6949709938e-001
 3.9380802631e+000	 1.5350068651e+000	 1.4011662211e-001
 3.9216010728e+000	 1.5766318268e+000	 1.1041422705e-001
 3.9046447480e+000	 1.6181696159e+000	 8.0635156103e-002
 3.8872112048e+000	 1.6596123402e+000	 5.1034588208e-002
 4.0656072171e+000	 1.2496806881e+000	 3.1540522877e-001
 4.0523689172e+000	 1.2919636610e+000	 2.9623685539e-001
 4.0386556280e+000	 1.3342132165e+000	 2.7350288060e-001
 4.0244661395e+000	 1.3764217625e+000	 2.4786981823e-001
 4.0097993957e+000	 1.4185816454e+000	 2.2103962065e-001
 3.9946544968e+000	 1.4606851534e+000	 1.9368511442e-001
 3.9790307015e+000	 1.5027245210e+000	 1.6585976377e-001
 3.9629274298e+000	 1.5446919322e+000	 1.3758834764e-001
 3.9463442647e+000	 1.5865795250e+000	 1.0900978230e-001
 3.9292809546e+000	 1.6283793952e+000	 8.0285016857e-002
 3.9117374151e+000	 1.6700836007e+000	 5.1595660565e-002
 4.0910981760e+000	 1.2575160636e+000	 3.0843736401e-001
 4.0777768733e+000	 1.3000641465e+000	 2.8895963061e-001
 4.0639776031e+000	 1.3425786026e+000	 2.6607899071e-001
 4.0496991479e+000	 1.3850517921e+000	 2.4065898790e-001
 4.0349404451e+000	 1.4274760133e+000	 2.1386330215e-001
 4.0197005891e+000	 1.4698435062e+000	 1.8635420854e-001
 4.0039788341e+000	 1.5121464565e+000	 1.5876331209e-001
 3.9877745965e+000	 1.5543769993e+000	 1.3141751398e-001
 3.9710874566e+000	 1.5965272232e+000	 1.0396577180e-001
 3.9539171612e+000	 1.6385891745e+000	 7.6456024568e-002
 3.9362636255e+000	 1.6805548613e+000	 4.8990787220e-002
 4.1165891349e+000	 1.2653514390e+000	 3.0039250922e-001
 4.1031848294e+000	 1.3081646321e+000	 2.8057450127e-001
 4.0892995782e+000	 1.3509439888e+000	 2.5762761173e-001
 4.0749321563e+000	 1.3936818217e+000	 2.3238880205e-001
 4.0600814944e+000	 1.4363703812e+000	 2.0569527920e-001
 4.0447466814e+000	 1.4790018590e+000	 1.7816346754e-001
 4.0289269668e+000	 1.5215683920e+000	 1.5038424462e-001
 4.0126217632e+000	 1.5640620664e+000	 1.2292044527e-001
 3.9958306485e+000	 1.6064749214e+000	 9.6270981222e-002
 3.9785533678e+000	 1.6487989537e+000	 7.0055963461e-002
 3.9607898358e+000	 1.6910261218e+000	 4.4027725028e-002
 4.1420800939e+000	 1.2731868145e+000	 2.9181662385e-001
 4.1285927855e+000	 1.3162651177e+000	 2.7165803824e-001
 4.1146215533e+000	 1.3593093749e+000	 2.4869660603e-001
 4.1001651647e+000	 1.4023118513e+000	 2.2362886979e-001
 4.0852225438e+000	 1.4452647492e+000	 1.9710911602e-001
 4.0697927737e+000	 1.4881602118e+000	 1.6971076491e-001
 4.0538750995e+000	 1.5309903275e+000	 1.4198561484e-001
 4.0374689299e+000	 1.5737471334e+000	 1.1446142084e-001
 4.0205738404e+000	 1.6164226195e+000	 8.7639386301e-002
 4.0031895744e+000	 1.6590087330e+000	 6.1991569415e-002
 3.9853160462e+000	 1.7014973824e+000	 3.7494052003e-002
 4.1675710528e+000	 1.2810221900e+000	 2.8322138921e-001
 4.1540007416e+000	 1.3243656032e+000	 2.6275237490e-001
 4.1399435284e+000	 1.3676747611e+000	 2.3981154048e-001
 4.1253981731e+000	 1.4109418809e+000	 2.1492592941e-001
 4.1103635931e+000	 1.4541591171e+000	 1.8865537042e-001
 4.0948388660e+000	 1.4973185646e+000	 1.6153306022e-001
 4.0788232321e+000	 1.5404122631e+000	 1.3407331306e-001
 4.0623160966e+000	 1.5834322005e+000	 1.0676919192e-001
 4.0453170323e+000	 1.6263703177e+000	 8.0090054842e-002
 4.0278257810e+000	 1.6692185123e+000	 5.4479017322e-002
 4.0098422565e+000	 1.7119686430e+000	 3.0350330810e-002
 4.1930620117e+000	 1.2888575655e+000	 2.7508593154e-001
 4.1794086976e+000	 1.3324660888e+000	 2.5436705134e-001
 4.1652655035e+000	 1.3760401472e+000	 2.3147646403e-001
 4.1506311815e+000	 1.4195719105e+000	 2.0680465977e-001
 4.1355046425e+000	 1.4630534850e+000	 1.8086242628e-001
 4.1198849584e+000	 1.5064769174e+000	 1.5414545241e-001
 4.1037713648e+000	 1.5498341986e+000	 1.2713211031e-001
 4.0871632634e+000	 1.5931172676e+000	 1.0028111816e-001
 4.0700602242e+000	 1.6363180159e+000	 7.4029121956e-002
 4.0524619877e+000	 1.6794282915e+000	 4.8788197213e-002
 4.0343684668e+000	 1.7224399035e+000	 2.4943269966e-002
 4.2185529706e+000	 1.2966929409e+000	 2.6785852737e-001
 4.2048166537e+000	 1.3405665744e+000	 2.4698039195e-001
 4.1905874786e+000	 1.3844055334e+000	 2.2417466461e-001
 4.1758641899e+000	 1.4282019401e+000	 1.9976847028e-001
 4.1606456919e+000	 1.4719478530e+000	 1.7423730435e-001
 4.1449310507e+000	 1.5156352702e+000	 1.4804199911e-001
 4.1287194974e+000	 1.5592561341e+000	 1.2162647391e-001
 4.1120104301e+000	 1.6028023347e+000	 9.5415408579e-002
 4.0948034161e+000	 1.6462657141e+000	 6.9811842025e-002
 4.0770981943e+000	 1.6896380708e+000	 4.5194696660e-002
 4.0588946772e+000	 1.7329111641e+000	 2.1916227829e-002
 4.2440439296e+000	 1.3045283164e+000	 2.6195829189e-001
 4.2302246098e+000	 1.3486670600e+000	 2.4102990484e-001
 4.2159094537e+000	 1.3927709195e+000	 2.1836940637e-001
 4.2010971983e+000	 1.4368319697e+000	 1.9430027051e-001
 4.1857867412e+000	 1.4808422209e+000	 1.6926645247e-001
 4.1699771430e+000	 1.5247936230e+000	 1.4369651556e-001
 4.1536676301e+000	 1.5686780696e+000	 1.1800136316e-001
 4.1368575968e+000	 1.6124874017e+000	 9.2571902210e-002
 4.1195466080e+000	 1.6562134122e+000	 6.7776640337e-002
 4.1017344009e+000	 1.6998478501e+000	 4.3959216894e-002
 4.0834208875e+000	 1.7433824246e+000	 2.1435866971e-002
 4.2695348885e+000	 1.3123636919e+000	 2.5777685092e-001
 4.2556325659e+000	 1.3567675455e+000	 2.3692474212e-001
 4.2412314288e+000	 1.4011363057e+000	 2.1450464789e-001
 4.2263302067e+000	 1.4454619993e+000	 1.9086322003e-001
 4.2109277906e+000	 1.4897365888e+000	 1.6641651575e-001
 4.1950232353e+000	 1.5339519758e+000	 1.4156335382e-001
 4.1786157627e+000	 1.5781000051e+000	 1.1668300602e-001
 4.1617047635e+000	 1.6221724688e+000	 9.2132830657e-002
 4.1442897998e+000	 1.6661611104e+000	 6.8245850058e-002
 4.1263706075e+000	 1.7100576294e+000	 4.5328272538e-002
 4.1079470979e+000	 1.7538536852e+000	 2.3656957527e-002
 3.8626849945e+000	 1.6491410796e+000	 4.6480142885e-002
 3.8448900295e+000	 1.6902138288e+000	 1.9504729836e-002
 3.8266213383e+000	 1.7311763688e+000	-2.9528261146e-003
 3.8078793464e+000	 1.7720207765e+000	-2.2440770103e-002
 3.7886646509e+000	 1.8127391083e+000	-4.0552258039e-002
 3.7689780217e+000	 1.8533234054e+000	-5.8929936875e-002
 3.7488204029e+000	 1.8937656981e+000	-7.9271459584e-002
 3.7281929136e+000	 1.9340580104e+000	-1.0333587563e-001
 3.7070968488e+000	 1.9741923649e+000	-1.3295082427e-001
 3.6855336804e+000	 2.0141607875e+000	-1.6918839108e-001
 3.6635050572e+000	 2.0539553118e+000	-2.0414634580e-001
 3.8872112048e+000	 1.6596123402e+000	 5.1034588208e-002
 3.8693032502e+000	 1.7009458817e+000	 2.4074809932e-002
 3.8509185616e+000	 1.7421685144e+000	 1.0866115826e-003
 3.8320575670e+000	 1.7832722646e+000	-1.9383389027e-002
 3.8127208673e+000	 1.8242491384e+000	-3.8832662716e-002
 3.7929092374e+000	 1.8650911265e+000	-5.8807942262e-002
 3.7726236273e+000	 1.9057902084e+000	-8.0911397625e-002
 3.7518651633e+000	 1.9463383578e+000	-1.0680775030e-001
 3.7306351485e+000	 1.9867275464e+000	-1.3823225003e-001
 3.7089350642e+000	 2.0269497493e+000	-1.7412946715e-001
 3.6867665698e+000	 2.0669969500e+000	-2.0680563420e-001
 3.9117374151e+000	 1.6700836007e+000	 5.1595660565e-002
 3.8937164710e+000	 1.7116779347e+000	 2.5158346121e-002
 3.8752157849e+000	 1.7531606600e+000	 2.1520566828e-003
 3.8562357876e+000	 1.7945237527e+000	-1.8799898290e-002
 3.8367770837e+000	 1.8357591685e+000	-3.9116359644e-002
 3.8168404531e+000	 1.8768588475e+000	-6.0264067605e-002
 3.7964268517e+000	 1.9178147188e+000	-8.3764484010e-002
 3.7755374129e+000	 1.9586187052e+000	-1.1120162142e-001
 3.7541734482e+000	 1.9992627278e+000	-1.4423079810e-001
 3.7323364481e+000	 2.0397387112e+000	-1.7865777890e-001
 3.7100280824e+000	 2.0800385881e+000	-2.0938127956e-001
 3.9362636255e+000	 1.6805548613e+000	 4.8990787220e-002
 3.9181296918e+000	 1.7224099876e+000	 2.3478110587e-002
 3.8995130082e+000	 1.7641528056e+000	 8.7415445100e-004
 3.8804140082e+000	 1.8057752408e+000	-2.0138828326e-002
 3.8608333001e+000	 1.8472691986e+000	-4.0917677350e-002
 3.8407716688e+000	 1.8886265686e+000	-6.2864633443e-002
 3.8202300761e+000	 1.9298392292e+000	-8.7434796024e-002
 3.7992096626e+000	 1.9708990526e+000	-1.1614465930e-001
 3.7777117479e+000	 2.0117979092e+000	-1.5009928524e-001
 3.7557378319e+000	 2.0525276731e+000	-1.8258771574e-001
 3.7332895950e+000	 2.0930802263e+000	-2.1166623029e-001
 3.9607898358e+000	 1.6910261218e+000	 4.4027725028e-002
 3.9425429126e+000	 1.7331420406e+000	 1.9738308876e-002
 3.9238102315e+000	 1.7751449511e+000	-2.1342841805e-003
 3.9045922287e+000	 1.8170267289e+000	-2.2866185298e-002
 3.8848895166e+000	 1.8587792288e+000	-4.3768436803e-002
 3.8647028845e+000	 1.9003942897e+000	-6.6193845827e-002
 3.8440333006e+000	 1.9418637396e+000	-9.1545066355e-002
 3.8228819123e+000	 1.9831793999e+000	-1.2128383625e-001
 3.8012500476e+000	 2.0243330906e+000	-1.5500157853e-001
 3.7791392158e+000	 2.0653166350e+000	-1.8575047875e-001
 3.7565511076e+000	 2.1061218644e+000	-2.1347063285e-001
 3.9853160462e+000	 1.7014973824e+000	 3.7494052003e-002
 3.9669561334e+000	 1.7438740935e+000	 1.4623945245e-002
 3.9481074548e+000	 1.7861370967e+000	-6.2790341112e-003
 3.9287704493e+000	 1.8282782170e+000	-2.6466309728e-002
 3.9089457330e+000	 1.8702892589e+000	-4.7218907144e-002
 3.8886341002e+000	 1.9121620108e+000	-6.9854838801e-002
 3.8678365250e+000	 1.9538882500e+000	-9.5737801659e-002
 3.8465541619e+000	 1.9954597473e+000	-1.2628711029e-001
 3.8247883473e+000	 2.0368682721e+000	-1.5878868174e-001
 3.8025405996e+000	 2.0781055968e+000	-1.8799366975e-001
 3.7798126202e+000	 2.1191635026e+000	-2.1462139675e-001
 4.0098422565e+000	 1.7119686430e+000	 3.0350330810e-002
 3.9913693542e+000	 1.7546061465e+000	 8.8001764986e-003
 3.9724046781e+000	 1.7971292423e+000	-1.0985216543e-002
 3.9529486699e+000	 1.8395297051e+000	-3.0442741939e-002
 3.9330019494e+000	 1.8817992890e+000	-5.0838766452e-002
 3.9125653159e+000	 1.9239297319e+000	-7.3470720536e-002
 3.8916397494e+000	 1.9659127604e+000	-9.9676403803e-002
 3.8702264116e+000	 2.0077400947e+000	-1.3067551700e-001
 3.8483266470e+000	 2.0494034535e+000	-1.6132960496e-001
 3.8259419835e+000	 2.0908945587e+000	-1.8918088249e-001
 3.8030741328e+000	 2.1322051407e+000	-2.1496176252e-001
 4.0343684668e+000	 1.7224399035e+000	 2.4943269966e-002
 4.0157825750e+000	 1.7653381994e+000	 3.4084306600e-003
 3.9967019014e+000	 1.8081213878e+000	-1.5698068039e-002
 3.9771268904e+000	 1.8507811932e+000	-3.4319094009e-002
 3.9570581658e+000	 1.8933093192e+000	-5.4218067320e-002
 3.9364965315e+000	 1.9356974530e+000	-7.6685622943e-002
 3.9154429738e+000	 1.9779372708e+000	-1.0304629364e-001
 3.8938986613e+000	 2.0200204421e+000	-1.3360877092e-001
 3.8718649467e+000	 2.0619386349e+000	-1.6250898189e-001
 3.8493433673e+000	 2.1036835206e+000	-1.8919129600e-001
 3.8263356453e+000	 2.1452467789e+000	-2.1435087245e-001
 4.0588946772e+000	 1.7329111641e+000	 2.1916227829e-002
 4.0401957957e+000	 1.7760702524e+000	 5.6077962855e-004
 4.0209991247e+000	 1.8191135334e+000	-1.9017114417e-002
 4.0013051110e+000	 1.8620326814e+000	-3.7636412794e-002
 3.9811143822e+000	 1.9048193493e+000	-5.6968207048e-002
 3.9604277472e+000	 1.9474651741e+000	-7.9165754641e-002
 3.9392461982e+000	 1.9899617812e+000	-1.0555603727e-001
 3.9175709110e+000	 2.0323007895e+000	-1.3491625282e-001
 3.8954032465e+000	 2.0744738163e+000	-1.6222667717e-001
 3.8727447512e+000	 2.1164724825e+000	-1.8791926997e-001
 3.8495971579e+000	 2.1582884170e+000	-2.1266334398e-001
 4.0834208875e+000	 1.7433824246e+000	 2.1435866971e-002
 4.0646090165e+000	 1.7868023053e+000	 4.8704853504e-004
 4.0452963480e+000	 1.8301056790e+000	-1.9300921908e-002
 4.0254833316e+000	 1.8732841695e+000	-3.8726176035e-002
 4.0051705986e+000	 1.9163293794e+000	-5.8669473413e-002
 3.9843589629e+000	 1.9592328952e+000	-8.0600457131e-002
 3.9630494226e+000	 2.0019862916e+000	-1.0692964238e-001
 3.9412431606e+000	 2.0445811369e+000	-1.3450446761e-001
 3.9189415462e+000	 2.0870089978e+000	-1.6039739542e-001
 3.8961461350e+000	 2.1292614443e+000	-1.8527394202e-001
 3.8728586705e+000	 2.1713300552e+000	-2.0978884558e-001
 4.1079470979e+000	 1.7538536852e+000	 2.3656957527e-002
 4.0890222373e+000	 1.7975343583e+000	 3.2476304184e-003
 4.0695935713e+000	 1.8410978246e+000	-1.6549669546e-002
 4.0496615522e+000	 1.8845356576e+000	-3.6526815457e-002
 4.0292268150e+000	 1.9278394095e+000	-5.7551881326e-002
 4.0082901786e+000	 1.9710006163e+000	-8.0570943674e-002
 3.9868526470e+000	 2.0140108020e+000	-1.0654288483e-001
 3.9649154103e+000	 2.0568614843e+000	-1.3229476402e-001
 3.9424798459e+000	 2.0995441792e+000	-1.5695029190e-001
 3.9195475189e+000	 2.1420504062e+000	-1.8117882683e-001
 3.8961201831e+000	 2.1843716934e+000	-2.0563167518e-001
 3.6635050572e+000	 2.0539553118e+000	-2.0414634580e-001
 3.6410093978e+000	 2.0935739135e+000	-2.3638273073e-001
 3.6180519798e+000	 2.1330026723e+000	-2.6653044123e-001
 3.5946349899e+000	 2.1722336741e+000	-2.9486504779e-001
 3.5707607927e+000	 2.2112590326e+000	-3.2164298848e-001
 3.5464319309e+000	 2.2500708939e+000	-3.4710355274e-001
 3.5216511245e+000	 2.2886614419e+000	-3.7147135154e-001
 3.4964212704e+000	 2.3270229028e+000	-3.9495927286e-001
 3.4707454417e+000	 2.3651475504e+000	-4.1777191622e-001
 3.4446268869e+000	 2.4030277108e+000	-4.4010949517e-001
 3.4180690289e+000	 2.4406557675e+000	-4.6217219092e-001
 3.6867665698e+000	 2.0669969500e+000	-2.0680563420e-001
 3.6641280737e+000	 2.1068671109e+000	-2.3660159025e-001
 3.6410248870e+000	 2.1465462235e+000	-2.6410000068e-001
 3.6174592103e+000	 2.1860263235e+000	-2.8974403454e-001
 3.5934334234e+000	 2.2252994745e+000	-3.1395456226e-001
 3.5689500849e+000	 2.2643577727e+000	-3.3713183269e-001
 3.5440119321e+000	 2.3031933522e+000	-3.5965766166e-001
 3.5186218805e+000	 2.3417983901e+000	-3.8189813231e-001
 3.4927830225e+000	 2.3801651111e+000	-4.0420680164e-001
 3.4664986274e+000	 2.4182857924e+000	-4.2692840286e-001
 3.4397721396e+000	 2.4561527694e+000	-4.5040302731e-001
 3.7100280824e+000	 2.0800385881e+000	-2.0938127956e-001
 3.6872467495e+000	 2.1201603083e+000	-2.3714836292e-001
 3.6639977942e+000	 2.1600897748e+000	-2.6242606358e-001
 3.6402834308e+000	 2.1998189730e+000	-2.8579145825e-001
 3.6161060541e+000	 2.2393399163e+000	-3.0779664183e-001
 3.5914682389e+000	 2.2786446514e+000	-3.2897015937e-001
 3.5663727398e+000	 2.3177252626e+000	-3.4981897559e-001
 3.5408224906e+000	 2.3565738775e+000	-3.7083098280e-001
 3.5148206033e+000	 2.3951826718e+000	-3.9247804272e-001
 3.4883703678e+000	 2.4335438741e+000	-4.1521955218e-001
 3.4614752502e+000	 2.4716497713e+000	-4.3950651674e-001
 3.7332895950e+000	 2.0930802263e+000	-2.1166623029e-001
 3.7103654254e+000	 2.1334535057e+000	-2.3779056361e-001
 3.6869707013e+000	 2.1736333260e+000	-2.6125938387e-001
 3.6631076512e+000	 2.2136116224e+000	-2.8275068400e-001
 3.6387786847e+000	 2.2533803582e+000	-3.0291526455e-001
 3.6139863929e+000	 2.2929315301e+000	-3.2237798173e-001
 3.5887335475e+000	 2.3322571729e+000	-3.4173955925e-001
 3.5630231007e+000	 2.3713493648e+000	-3.6157896604e-001
 3.5368581841e+000	 2.4102002324e+000	-3.8245635576e-001
 3.5102421082e+000	 2.4488019558e+000	-4.0491655856e-001
 3.4831783609e+000	 2.4871467732e+000	-4.2949310931e-001
 3.7565511076e+000	 2.1061218644e+000	-2.1347063285e-001
 3.7334841012e+000	 2.1467467031e+000	-2.3831338235e-001
 3.7099436085e+000	 2.1871768773e+000	-2.6036864735e-001
 3.6859318717e+000	 2.2274042718e+000	-2.8038302983e-001
 3.6614513154e+000	 2.2674208001e+000	-2.9907419141e-001
 3.6365045468e+000	 2.3072184088e+000	-3.1713197739e-001
 3.6110943551e+000	 2.3467890832e+000	-3.3522013186e-001
 3.5852237108e+000	 2.3861248521e+000	-3.5397860637e-001
 3.5588957649e+000	 2.4252177931e+000	-3.7402645896e-001
 3.5321138487e+000	 2.4640600374e+000	-3.9596533399e-001
 3.5048814716e+000	 2.5026437751e+000	-4.2038350722e-001
 3.7798126202e+000	 2.1191635026e+000	-2.1462139675e-001
 3.7566027771e+000	 2.1600399005e+000	-2.3851922335e-001
 3.7329165157e+000	 2.2007204285e+000	-2.5953999220e-001
 3.7087560921e+000	 2.2411969213e+000	-2.7846727701e-001
 3.6841239461e+000	 2.2814612420e+000	-2.9605441540e-001
 3.6590227008e+000	 2.3215052875e+000	-3.1302556839e-001
 3.6334551628e+000	 2.3613209935e+000	-3.3007739854e-001
 3.6074243209e+000	 2.4009003395e+000	-3.4788137032e-001
 3.5809333458e+000	 2.4402353538e+000	-3.6708666950e-001
 3.5539855891e+000	 2.4793181191e+000	-3.8832373255e-001
 3.5265845823e+000	 2.5181407770e+000	-4.1220837015e-001
 3.8030741328e+000	 2.1322051407e+000	-2.1496176252e-001
 3.7797214530e+000	 2.1733330979e+000	-2.3822724768e-001
 3.7558894229e+000	 2.2142639798e+000	-2.5857653381e-001
 3.7315803126e+000	 2.2549895707e+000	-2.7679918467e-001
 3.7067965767e+000	 2.2955016839e+000	-2.9365367445e-001
 3.6815408548e+000	 2.3357921662e+000	-3.0986844099e-001
 3.6558159705e+000	 2.3758529038e+000	-3.2614358637e-001
 3.6296249310e+000	 2.4156758268e+000	-3.4315322850e-001
 3.6029709266e+000	 2.4552529145e+000	-3.6154850147e-001
 3.5758573295e+000	 2.4945762008e+000	-3.8196119507e-001
 3.5482876930e+000	 2.5336377790e+000	-4.0500801770e-001
 3.8263356453e+000	 2.1452467789e+000	-2.1435087245e-001
 3.8028401288e+000	 2.1866262953e+000	-2.3727291956e-001
 3.7788623301e+000	 2.2278075310e+000	-2.5729789357e-001
 3.7544045330e+000	 2.2687822201e+000	-2.7519100878e-001
 3.7294692074e+000	 2.3095421257e+000	-2.9168596843e-001
 3.7040590088e+000	 2.3500790449e+000	-3.0748606941e-001
 3.6781767781e+000	 2.3903848141e+000	-3.2326598357e-001
 3.6518255411e+000	 2.4304513141e+000	-3.3967421983e-001
 3.6250085074e+000	 2.4702704752e+000	-3.5733626486e-001
 3.5977290700e+000	 2.5098342824e+000	-3.7685839299e-001
 3.5699908036e+000	 2.5491347809e+000	-3.9883212887e-001
 3.8495971579e+000	 2.1582884170e+000	-2.1266334398e-001
 3.8259588047e+000	 2.1999194927e+000	-2.3550755593e-001
 3.8018352373e+000	 2.2413510823e+000	-2.5553973159e-001
 3.7772287535e+000	 2.2825748696e+000	-2.7347102519e-001
 3.7521418381e+000	 2.3235825676e+000	-2.8998108038e-001
 3.7265771628e+000	 2.3643659237e+000	-3.0571924322e-001
 3.7005375858e+000	 2.4049167245e+000	-3.2130648192e-001
 3.6740261512e+000	 2.4452268014e+000	-3.3733801777e-001
 3.6470460882e+000	 2.4852880359e+000	-3.5438666523e-001
 3.6196008104e+000	 2.5250923641e+000	-3.7300687147e-001
 3.5916939143e+000	 2.5646317828e+000	-3.9373943876e-001
 3.8728586705e+000	 2.1713300552e+000	-2.0978884558e-001
 3.8490774805e+000	 2.2132126902e+000	-2.3279787936e-001
 3.8248081445e+000	 2.2548946335e+000	-2.5315328309e-001
 3.8000529739e+000	 2.2963675190e+000	-2.7148305663e-001
 3.7748144687e+000	 2.3376230095e+000	-2.8838410151e-001
 3.7490953168e+000	 2.3786528024e+000	-3.0442359839e-001
 3.7228983934e+000	 2.4194486348e+000	-3.2014112203e-001
 3.6962267613e+000	 2.4600022888e+000	-3.3605149879e-001
 3.6690836690e+000	 2.5003055965e+000	-3.5264840430e-001
 3.6414725508e+000	 2.5403504458e+000	-3.7040869170e-001
 3.6133970250e+000	 2.5801287847e+000	-3.8979743265e-001
 3.8961201831e+000	 2.1843716934e+000	-2.0563167518e-001
 3.8721961564e+000	 2.2265058876e+000	-2.2902557397e-001
 3.8477810517e+000	 2.2684381848e+000	-2.5000489834e-001
 3.8228771944e+000	 2.3101601684e+000	-2.6908600341e-001
 3.7974870994e+000	 2.3516634514e+000	-2.8675495999e-001
 3.7716134707e+000	 2.3929396811e+000	-3.0346915171e-001
 3.7452592011e+000	 2.4339805451e+000	-3.1965964152e-001
 3.7184273714e+000	 2.4747777761e+000	-3.3573431259e-001
 3.6911212498e+000	 2.5153231572e+000	-3.5208178138e-001
 3.6633442912e+000	 2.5556085274e+000	-3.6907607252e-001
 3.6351001357e+000	 2.5956257866e+000	-3.8708203746e-001
 3.4180690289e+000	 2.4406557675e+000	-4.6217219092e-001
 3.3910754624e+000	 2.4780241655e+000	-4.8130838918e-001
 3.3636499503e+000	 2.5151254134e+000	-4.9340525708e-001
 3.3357964246e+000	 2.5519520908e+000	-4.9651858255e-001
 3.3075189860e+000	 2.5884968541e+000	-4.9616835311e-001
 3.2788219018e+000	 2.6247524410e+000	-5.0187721393e-001
 3.2497096041e+000	 2.6607116751e+000	-5.1336698055e-001
 3.2201866875e+000	 2.6963674709e+000	-5.2942274595e-001
 3.1902579069e+000	 2.7317128383e+000	-5.4774614752e-001
 3.1599281749e+000	 2.7667408867e+000	-5.6668041946e-001
 3.1292025590e+000	 2.8014448300e+000	-5.8437091118e-001
 3.4397721396e+000	 2.4561527694e+000	-4.5040302731e-001
 3.4126071768e+000	 2.4937584389e+000	-4.7239114651e-001
 3.3850075257e+000	 2.5310952621e+000	-4.8905340275e-001
 3.3569771434e+000	 2.5681557714e+000	-4.9837527360e-001
 3.3285201565e+000	 2.6049325766e+000	-4.9866730179e-001
 3.2996408595e+000	 2.6414183691e+000	-5.0014034457e-001
 3.2703437126e+000	 2.6776059272e+000	-5.0854863335e-001
 3.2406333396e+000	 2.7134881204e+000	-5.2201200067e-001
 3.2105145255e+000	 2.7490579140e+000	-5.3877658375e-001
 3.1799922140e+000	 2.7843083738e+000	-5.5717738395e-001
 3.1490715051e+000	 2.8192326707e+000	-5.7532108221e-001
 3.4614752502e+000	 2.4716497713e+000	-4.3950651674e-001
 3.4341388912e+000	 2.5094927124e+000	-4.6353378296e-001
 3.4063651012e+000	 2.5470651107e+000	-4.8380541379e-001
 3.3781578623e+000	 2.5843594519e+000	-4.9827913712e-001
 3.3495213271e+000	 2.6213682990e+000	-5.0498320631e-001
 3.3204598173e+000	 2.6580842972e+000	-5.0390219775e-001
 3.2909778211e+000	 2.6945001794e+000	-5.0769229408e-001
 3.2610799916e+000	 2.7306087699e+000	-5.1740171456e-001
 3.2307711440e+000	 2.7664029897e+000	-5.3159630349e-001
 3.2000562532e+000	 2.8018758610e+000	-5.4861657600e-001
 3.1689404513e+000	 2.8370205113e+000	-5.6656527981e-001
 3.4831783609e+000	 2.4871467732e+000	-4.2949310931e-001
 3.4556706056e+000	 2.5252269858e+000	-4.5482489773e-001
 3.4277226766e+000	 2.5630349594e+000	-4.7781582275e-001
 3.3993385811e+000	 2.6005631325e+000	-4.9643766367e-001
 3.3705224976e+000	 2.6378040214e+000	-5.0873294616e-001
 3.3412787750e+000	 2.6747502254e+000	-5.1279387782e-001
 3.3116119296e+000	 2.7113944315e+000	-5.1119371469e-001
 3.2815266437e+000	 2.7477294193e+000	-5.1599265677e-001
 3.2510277626e+000	 2.7837480654e+000	-5.2657367293e-001
 3.2201202924e+000	 2.8194433481e+000	-5.4131830218e-001
 3.1888093974e+000	 2.8548083520e+000	-5.5835930848e-001
 3.5048814716e+000	 2.5026437751e+000	-4.2038350722e-001
 3.4772023200e+000	 2.5409612592e+000	-4.4636127147e-001
 3.4490802521e+000	 2.5790048081e+000	-4.7124558219e-001
 3.4205192999e+000	 2.6167668131e+000	-4.9306333038e-001
 3.3915236682e+000	 2.6542397438e+000	-5.0991151500e-001
 3.3620977327e+000	 2.6914161535e+000	-5.1967681508e-001
 3.3322460381e+000	 2.7282886836e+000	-5.1943186148e-001
 3.3019732957e+000	 2.7648500688e+000	-5.1814679923e-001
 3.2712843811e+000	 2.8010931411e+000	-5.2403921516e-001
 3.2401843316e+000	 2.8370108352e+000	-5.3556639730e-001
 3.2086783436e+000	 2.8725961926e+000	-5.5092430126e-001
 3.5265845823e+000	 2.5181407770e+000	-4.1220837015e-001
 3.4987340343e+000	 2.5566955327e+000	-4.3824763350e-001
 3.4704378275e+000	 2.5949746568e+000	-4.6426188514e-001
 3.4417000187e+000	 2.6329704936e+000	-4.8837346548e-001
 3.4125248387e+000	 2.6706754662e+000	-5.0876715681e-001
 3.3829166905e+000	 2.7080820816e+000	-5.2294756853e-001
 3.3528801466e+000	 2.7451829358e+000	-5.2834846383e-001
 3.3224199478e+000	 2.7819707182e+000	-5.2418858610e-001
 3.2915409996e+000	 2.8184382168e+000	-5.2428689363e-001
 3.2602483708e+000	 2.8545783224e+000	-5.3160950850e-001
 3.2285472897e+000	 2.8903840333e+000	-5.4444798993e-001
 3.5482876930e+000	 2.5336377790e+000	-4.0500801770e-001
 3.5202657487e+000	 2.5724298061e+000	-4.3059642362e-001
 3.4917954030e+000	 2.6109445055e+000	-4.5703797826e-001
 3.4628807375e+000	 2.6491741742e+000	-4.8259010405e-001
 3.4335260093e+000	 2.6871111886e+000	-5.0542138687e-001
 3.4037356482e+000	 2.7247480097e+000	-5.2291895398e-001
 3.3735142551e+000	 2.7620771879e+000	-5.3290780733e-001
 3.3428665998e+000	 2.7990913677e+000	-5.3335806040e-001
 3.3117976182e+000	 2.8357832925e+000	-5.2757538545e-001
 3.2803124100e+000	 2.8721458095e+000	-5.2966236990e-001
 3.2484162359e+000	 2.9081718739e+000	-5.3908596736e-001
 3.5699908036e+000	 2.5491347809e+000	-3.9883212887e-001
 3.5417974631e+000	 2.5881640796e+000	-4.2352754904e-001
 3.5131529784e+000	 2.6269143542e+000	-4.4975296817e-001
 3.4840614564e+000	 2.6653778548e+000	-4.7593983544e-001
 3.4545271798e+000	 2.7035469110e+000	-5.0010203761e-001
 3.4245546059e+000	 2.7414139378e+000	-5.1990650983e-001
 3.3941483636e+000	 2.7789714400e+000	-5.3342334553e-001
 3.3633132518e+000	 2.8162120171e+000	-5.3876813124e-001
 3.3320542367e+000	 2.8531283682e+000	-5.3412934457e-001
 3.3003764491e+000	 2.8897132967e+000	-5.2990706831e-001
 3.2682851820e+000	 2.9259597146e+000	-5.3496294225e-001
 3.5916939143e+000	 2.5646317828e+000	-3.9373943876e-001
 3.5633291775e+000	 2.6038983530e+000	-4.1716813632e-001
 3.5345105539e+000	 2.6428842029e+000	-4.4259162126e-001
 3.5052421752e+000	 2.6815815353e+000	-4.6859278721e-001
 3.4755283504e+000	 2.7199826334e+000	-4.9310356698e-001
 3.4453735637e+000	 2.7580798659e+000	-5.1422816624e-001
 3.4147824721e+000	 2.7958656922e+000	-5.3022330207e-001
 3.3837599039e+000	 2.8333326666e+000	-5.3938449319e-001
 3.3523108553e+000	 2.8704734439e+000	-5.4005622030e-001
 3.3204404883e+000	 2.9072807838e+000	-5.3249430024e-001
 3.2881541282e+000	 2.9437475552e+000	-5.3217398667e-001
 3.6133970250e+000	 2.5801287847e+000	-3.8979743265e-001
 3.5848608919e+000	 2.6196326264e+000	-4.1165227883e-001
 3.5558681293e+000	 2.6588540516e+000	-4.3574415712e-001
 3.5264228940e+000	 2.6977852159e+000	-4.6071768885e-001
 3.4965295210e+000	 2.7364183558e+000	-4.8472319171e-001
 3.4661925214e+000	 2.7747457941e+000	-5.0620390481e-001
 3.4354165807e+000	 2.8127599443e+000	-5.2363758705e-001
 3.4042065559e+000	 2.8504533161e+000	-5.3553353492e-001
 3.3725674738e+000	 2.8878185197e+000	-5.4044255966e-001
 3.3405045275e+000	 2.9248482709e+000	-5.3696747278e-001
 3.3080230744e+000	 2.9615353959e+000	-5.3078577665e-001
 3.6351001357e+000	 2.5956257866e+000	-3.8708203746e-001
 3.6063926063e+000	 2.6353668999e+000	-4.0712077966e-001
 3.5772257048e+000	 2.6748239003e+000	-4.2939378795e-001
 3.5476036128e+000	 2.7139888964e+000	-4.5257966706e-001
 3.5175306915e+000	 2.7528540782e+000	-4.7526052174e-001
 3.4870114791e+000	 2.7914117222e+000	-4.9615540940e-001
 3.4560506892e+000	 2.8296541964e+000	-5.1399745551e-001
 3.4246532080e+000	 2.8675739655e+000	-5.2754298106e-001
 3.3928240923e+000	 2.9051635954e+000	-5.3558123449e-001
 3.3605685667e+000	 2.9424157581e+000	-5.3694467494e-001
 3.3278920205e+000	 2.9793232365e+000	-5.3083782613e-001
 3.1292025590e+000	 2.8014448300e+000	-5.8437091118e-001
 3.0980909760e+000	 2.8358128606e+000	-6.0048745513e-001
 3.0665942160e+000	 2.8698436485e+000	-6.1595514151e-001
 3.0347177951e+000	 2.9035307518e+000	-6.3048537806e-001
 3.0024673720e+000	 2.9368678494e+000	-6.4359719950e-001
 2.9698487452e+000	 2.9698487452e+000	-6.5464267769e-001
 2.9368678494e+000	 3.0024673720e+000	-6.6283291047e-001
 2.9035307518e+000	 3.0347177951e+000	-6.6726435313e-001
 2.8698436485e+000	 3.0665942160e+000	-6.6694525761e-001
 2.8358128606e+000	 3.0980909760e+000	-6.6082198773e-001
 2.8014448300e+000	 3.1292025590e+000	-6.4780498364e-001
 3.1490715051e+000	 2.8192326707e+000	-5.7532108221e-001
 3.1177623784e+000	 2.8538189218e+000	-5.9234719372e-001
 3.0860656290e+000	 2.8880657891e+000	-6.0866975529e-001
 3.0539868080e+000	 2.9219667895e+000	-6.2397911109e-001
 3.0215316100e+000	 2.9555155617e+000	-6.3776661228e-001
 2.9887058705e+000	 2.9887058705e+000	-6.4935119018e-001
 2.9555155617e+000	 3.0215316100e+000	-6.5790651593e-001
 2.9219667895e+000	 3.0539868080e+000	-6.6248850063e-001
 2.8880657891e+000	 3.0860656290e+000	-6.6206289116e-001
 2.8538189218e+000	 3.1177623784e+000	-6.5553272013e-001
 2.8192326707e+000	 3.1490715051e+000	-6.4176537376e-001
 3.1689404513e+000	 2.8370205113e+000	-5.6656527981e-001
 3.1374337808e+000	 2.8718249831e+000	-5.8405863953e-001
 3.1055370420e+000	 2.9062879297e+000	-6.0096419594e-001
 3.0732558209e+000	 2.9404028271e+000	-6.1692159930e-001
 3.0405958481e+000	 2.9741632741e+000	-6.3136535175e-001
 3.0075629958e+000	 3.0075629958e+000	-6.4355264039e-001
 2.9741632741e+000	 3.0405958481e+000	-6.5259176320e-001
 2.9404028271e+000	 3.0732558209e+000	-6.5747089123e-001
 2.9062879297e+000	 3.1055370420e+000	-6.5708691181e-001
 2.8718249831e+000	 3.1374337808e+000	-6.5027410118e-001
 2.8370205113e+000	 3.1689404513e+000	-6.3583238053e-001
 3.1888093974e+000	 2.8548083520e+000	-5.5835930848e-001
 3.1571051832e+000	 2.8898310444e+000	-5.7580871848e-001
 3.1250084550e+000	 2.9245100703e+000	-5.9296496549e-001
 3.0925248338e+000	 2.9588388648e+000	-6.0938777499e-001
 3.0596600862e+000	 2.9928109864e+000	-6.2442602784e-001
 3.0264201211e+000	 3.0264201211e+000	-6.3724695118e-001
 2.9928109864e+000	 3.0596600862e+000	-6.4686590688e-001
 2.9588388648e+000	 3.0925248338e+000	-6.5217651002e-001
 2.9245100703e+000	 3.1250084550e+000	-6.5198081114e-001
 2.8898310444e+000	 3.1571051832e+000	-6.4501928030e-001
 2.8548083520e+000	 3.1888093974e+000	-6.3000033656e-001
 3.2086783436e+000	 2.8725961926e+000	-5.5092430126e-001
 3.1767765856e+000	 2.9078371057e+000	-5.6775160725e-001
 3.1444798680e+000	 2.9427322108e+000	-5.8476753507e-001
 3.1117938467e+000	 2.9772749024e+000	-6.0142303625e-001
 3.0787243242e+000	 3.0114586987e+000	-6.1695297395e-001
 3.0452772465e+000	 3.0452772465e+000	-6.3040677051e-001
 3.0114586987e+000	 3.0787243242e+000	-6.4067965569e-001
 2.9772749024e+000	 3.1117938467e+000	-6.4654423644e-001
 2.9427322108e+000	 3.1444798680e+000	-6.4668211090e-001
 2.9078371057e+000	 3.1767765856e+000	-6.3971525331e-001
 2.8725961926e+000	 3.2086783436e+000	-6.2423690312e-001
 3.2285472897e+000	 2.8903840333e+000	-5.4444798993e-001
 3.1964479881e+000	 2.9258431670e+000	-5.6000998450e-001
 3.1639512810e+000	 2.9609543514e+000	-5.7643758182e-001
 3.1310628596e+000	 2.9957109400e+000	-5.9304447463e-001
 3.0977885623e+000	 3.0301064111e+000	-6.0892347067e-001
 3.0641343718e+000	 3.0641343718e+000	-6.2297869684e-001
 3.0301064111e+000	 3.0977885623e+000	-6.3395840535e-001
 2.9957109400e+000	 3.1310628596e+000	-6.4048809093e-001
 2.9609543514e+000	 3.1639512810e+000	-6.4110362993e-001
 2.9258431670e+000	 3.1964479881e+000	-6.3428415658e-001
 2.8903840333e+000	 3.2285472897e+000	-6.1848439853e-001
 3.2484162359e+000	 2.9081718739e+000	-5.3908596736e-001
 3.2161193905e+000	 2.9438492282e+000	-5.5267627585e-001
 3.1834226940e+000	 2.9791764920e+000	-5.6801222110e-001
 3.1503318725e+000	 3.0141469777e+000	-5.8424209923e-001
 3.1168528004e+000	 3.0487541234e+000	-6.0028896686e-001
 3.0829914971e+000	 3.0829914971e+000	-6.1488450253e-001
 3.0487541234e+000	 3.1168528004e+000	-6.2660347011e-001
 3.0141469777e+000	 3.1503318725e+000	-6.3389848043e-001
 2.9791764920e+000	 3.1834226940e+000	-6.3513474990e-001
 2.9438492282e+000	 3.2161193905e+000	-6.2862455941e-001
 2.9081718739e+000	 3.2484162359e+000	-6.1266112408e-001
 3.2682851820e+000	 2.9259597146e+000	-5.3496294225e-001
 3.2357907929e+000	 2.9618552895e+000	-5.4581389299e-001
 3.2028941070e+000	 2.9973986326e+000	-5.5950123401e-001
 3.1696008853e+000	 3.0325830153e+000	-5.7498005742e-001
 3.1359170384e+000	 3.0674018357e+000	-5.9097629830e-001
 3.1018486224e+000	 3.1018486224e+000	-6.0602235561e-001
 3.0674018357e+000	 3.1359170384e+000	-6.1849331295e-001
 3.0325830153e+000	 3.1696008853e+000	-6.2664344275e-001
 2.9973986326e+000	 3.2028941070e+000	-6.2864267977e-001
 2.9618552895e+000	 3.2357907929e+000	-6.2261275491e-001
 2.9259597146e+000	 3.2682851820e+000	-6.0666268773e-001
 3.2881541282e+000	 2.9437475552e+000	-5.3217398667e-001
 3.2554621953e+000	 2.9798613508e+000	-5.3945846693e-001
 3.2223655200e+000	 3.0156207731e+000	-5.5088829067e-001
 3.1888698982e+000	 3.0510190530e+000	-5.6519785223e-001
 3.1549812765e+000	 3.0860495481e+000	-5.8088890400e-001
 3.1207057477e+000	 3.1207057477e+000	-5.9626803982e-001
 3.0860495481e+000	 3.1549812765e+000	-6.0948477455e-001
 3.0510190530e+000	 3.1888698982e+000	-6.1856988988e-001
 3.0156207731e+000	 3.2223655200e+000	-6.2147371917e-001
 2.9798613508e+000	 3.2554621953e+000	-6.1610404930e-001
 2.9437475552e+000	 3.2881541282e+000	-6.0036332559e-001
 3.3080230744e+000	 2.9615353959e+000	-5.3078577665e-001
 3.2751335977e+000	 2.9978674121e+000	-5.3361907590e-001
 3.2418369329e+000	 3.0338429137e+000	-5.4213216919e-001
 3.2081389111e+000	 3.0694550906e+000	-5.5481155672e-001
 3.1740455146e+000	 3.1046972604e+000	-5.6990804023e-001
 3.1395628730e+000	 3.1395628730e+000	-5.8547617307e-001
 3.1046972604e+000	 3.1740455146e+000	-5.9941430107e-001
 3.0694550906e+000	 3.2081389111e+000	-6.0950485030e-001
 3.0338429137e+000	 3.2418369329e+000	-6.1345452061e-001
 2.9978674121e+000	 3.2751335977e+000	-6.0893404980e-001
 2.9615353959e+000	 3.3080230744e+000	-5.9361722132e-001
 3.3278920205e+000	 2.9793232365e+000	-5.3083782613e-001
 3.2948050001e+000	 3.0158734733e+000	-5.2827946796e-001
 3.2613083459e+000	 3.0520650543e+000	-5.3316797063e-001
 3.2274079240e+000	 3.0878911282e+000	-5.4371502527e-001
 3.1931097526e+000	 3.1233449728e+000	-5.5789399241e-001
 3.1584199984e+000	 3.1584199984e+000	-5.7348142430e-001
 3.1233449728e+000	 3.1931097526e+000	-5.8809917078e-001
 3.0878911282e+000	 3.2274079240e+000	-5.9925671026e-001
 3.0520650543e+000	 3.2613083459e+000	-6.0439335066e-001
 3.0158734733e+000	 3.2948050001e+000	-6.0091995103e-001
 2.9793232365e+000	 3.3278920205e+000	-5.8625982354e-001
 2.8014448300e+000	 3.1292025590e+000	-6.4780498364e-001
 2.7667408867e+000	 3.1599281749e+000	-6.3544397702e-001
 2.7317128383e+000	 3.1902579069e+000	-6.3055521983e-001
 2.6963674709e+000	 3.2201866875e+000	-6.3097788298e-001
 2.6607116751e+000	 3.2497096041e+000	-6.3458801936e-001
 2.6247524410e+000	 3.2788219018e+000	-6.3757176378e-001
 2.5884968541e+000	 3.3075189860e+000	-6.3808396438e-001
 2.5519520908e+000	 3.3357964246e+000	-6.3567875149e-001
 2.5151254134e+000	 3.3636499503e+000	-6.3125161772e-001
 2.4780241655e+000	 3.3910754624e+000	-6.2491534741e-001
 2.4406557675e+000	 3.4180690289e+000	-6.1573610861e-001
 2.8192326707e+000	 3.1490715051e+000	-6.4176537376e-001
 2.7843083738e+000	 3.1799922140e+000	-6.2844407704e-001
 2.7490579140e+000	 3.2105145255e+000	-6.2256852271e-001
 2.7134881204e+000	 3.2406333396e+000	-6.2201119050e-001
 2.6776059272e+000	 3.2703437126e+000	-6.2473051076e-001
 2.6414183691e+000	 3.2996408595e+000	-6.2813896039e-001
 2.6049325766e+000	 3.3285201565e+000	-6.2915155438e-001
 2.5681557714e+000	 3.3569771434e+000	-6.2812550465e-001
 2.5310952621e+000	 3.3850075257e+000	-6.2600771260e-001
 2.4937584389e+000	 3.4126071768e+000	-6.2189975393e-001
 2.4561527694e+000	 3.4397721396e+000	-6.1491918430e-001
 2.8370205113e+000	 3.1689404513e+000	-6.3583238053e-001
 2.8018758610e+000	 3.2000562532e+000	-6.2154549888e-001
 2.7664029897e+000	 3.2307711440e+000	-6.1459077414e-001
 2.7306087699e+000	 3.2610799916e+000	-6.1289114426e-001
 2.6945001794e+000	 3.2909778211e+000	-6.1445747550e-001
 2.6580842972e+000	 3.3204598173e+000	-6.1734467925e-001
 2.6213682990e+000	 3.3495213271e+000	-6.1892053281e-001
 2.5843594519e+000	 3.3781578623e+000	-6.1993945157e-001
 2.5470651107e+000	 3.4063651012e+000	-6.1979698674e-001
 2.5094927124e+000	 3.4341388912e+000	-6.1762390833e-001
 2.4716497713e+000	 3.4614752502e+000	-6.1260558091e-001
 2.8548083520e+000	 3.1888093974e+000	-6.3000033656e-001
 2.8194433481e+000	 3.2201202924e+000	-6.1476845016e-001
 2.7837480654e+000	 3.2510277626e+000	-6.0666542032e-001
 2.7477294193e+000	 3.2815266437e+000	-6.0368144828e-001
 2.7113944315e+000	 3.3116119296e+000	-6.0389665897e-001
 2.6747502254e+000	 3.3412787750e+000	-6.0562568701e-001
 2.6378040214e+000	 3.3705224976e+000	-6.0875333517e-001
 2.6005631325e+000	 3.3993385811e+000	-6.1150731626e-001
 2.5630349594e+000	 3.4277226766e+000	-6.1301190130e-001
 2.5252269858e+000	 3.4556706056e+000	-6.1248228793e-001
 2.4871467732e+000	 3.4831783609e+000	-6.0918786852e-001
 2.8725961926e+000	 3.2086783436e+000	-6.2423690312e-001
 2.8370108352e+000	 3.2401843316e+000	-6.0810578006e-001
 2.8010931411e+000	 3.2712843811e+000	-5.9880786994e-001
 2.7648500688e+000	 3.3019732957e+000	-5.9441710332e-001
 2.7282886836e+000	 3.3322460381e+000	-5.9309936475e-001
 2.6914161535e+000	 3.3620977327e+000	-5.9471238564e-001
 2.6542397438e+000	 3.3915236682e+000	-5.9901078265e-001
 2.6167668131e+000	 3.4205192999e+000	-6.0315971031e-001
 2.5790048081e+000	 3.4490802521e+000	-6.0598824078e-001
 2.5409612592e+000	 3.4772023200e+000	-6.0681218268e-001
 2.5026437751e+000	 3.5048814716e+000	-6.0500098100e-001
 2.8903840333e+000	 3.2285472897e+000	-6.1848439853e-001
 2.8545783224e+000	 3.2602483708e+000	-6.0152434377e-001
 2.8184382168e+000	 3.2915409996e+000	-5.9100689110e-001
 2.7819707182e+000	 3.3224199478e+000	-5.8510583222e-001
 2.7451829358e+000	 3.3528801466e+000	-5.8285505168e-001
 2.7080820816e+000	 3.3829166905e+000	-5.8508210497e-001
 2.6706754662e+000	 3.4125248387e+000	-5.8996904591e-001
 2.6329704936e+000	 3.4417000187e+000	-5.9517312659e-001
 2.5949746568e+000	 3.4704378275e+000	-5.9900710460e-001
 2.5566955327e+000	 3.4987340343e+000	-6.0089567872e-001
 2.5181407770e+000	 3.5265845823e+000	-6.0032418543e-001
 2.9081718739e+000	 3.2484162359e+000	-6.1266112408e-001
 2.8721458095e+000	 3.2803124100e+000	-5.9496636375e-001
 2.8357832925e+000	 3.3117976182e+000	-5.8322600423e-001
 2.7990913677e+000	 3.3428665998e+000	-5.7591980207e-001
 2.7620771879e+000	 3.3735142551e+000	-5.7412553061e-001
 2.7247480097e+000	 3.4037356482e+000	-5.7679916805e-001
 2.6871111886e+000	 3.4335260093e+000	-5.8198973358e-001
 2.6491741742e+000	 3.4628807375e+000	-5.8777192646e-001
 2.6109445055e+000	 3.4917954030e+000	-5.9229689205e-001
 2.5724298061e+000	 3.5202657487e+000	-5.9496163528e-001
 2.5336377790e+000	 3.5482876930e+000	-5.9538304511e-001
 2.9259597146e+000	 3.2682851820e+000	-6.0666268773e-001
 2.8897132967e+000	 3.3003764491e+000	-5.8835078790e-001
 2.8531283682e+000	 3.3320542367e+000	-5.7540487124e-001
 2.8162120171e+000	 3.3633132518e+000	-5.6812996530e-001
 2.7789714400e+000	 3.3941483636e+000	-5.6692496829e-001
 2.7414139378e+000	 3.4245546059e+000	-5.6988832399e-001
 2.7035469110e+000	 3.4545271798e+000	-5.7519608999e-001
 2.6653778548e+000	 3.4840614564e+000	-5.8113032098e-001
 2.6269143542e+000	 3.5131529784e+000	-5.8603528102e-001
 2.5881640796e+000	 3.5417974631e+000	-5.8918765546e-001
 2.5491347809e+000	 3.5699908036e+000	-5.9035137651e-001
 2.9437475552e+000	 3.2881541282e+000	-6.0036332559e-001
 2.9072807838e+000	 3.3204404883e+000	-5.8157464478e-001
 2.8704734439e+000	 3.3523108553e+000	-5.6823680990e-001
 2.8333326666e+000	 3.3837599039e+000	-5.6194045314e-001
 2.7958656922e+000	 3.4147824721e+000	-5.6122845556e-001
 2.7580798659e+000	 3.4453735637e+000	-5.6433675404e-001
 2.7199826334e+000	 3.4755283504e+000	-5.6958394081e-001
 2.6815815353e+000	 3.5052421752e+000	-5.7539714076e-001
 2.6428842029e+000	 3.5345105539e+000	-5.8035120069e-001
 2.6038983530e+000	 3.5633291775e+000	-5.8370205083e-001
 2.5646317828e+000	 3.5916939143e+000	-5.8535320023e-001
 2.9615353959e+000	 3.3080230744e+000	-5.9361722132e-001
 2.9248482709e+000	 3.3405045275e+000	-5.7462780729e-001
 2.8878185197e+000	 3.3725674738e+000	-5.6260609598e-001
 2.8504533161e+000	 3.4042065559e+000	-5.5727682979e-001
 2.8127599443e+000	 3.4354165807e+000	-5.5697619091e-001
 2.7747457941e+000	 3.4661925214e+000	-5.6009607270e-001
 2.7364183558e+000	 3.4965295210e+000	-5.6511286405e-001
 2.6977852159e+000	 3.5264228940e+000	-5.7061382710e-001
 2.6588540516e+000	 3.5558681293e+000	-5.7532679856e-001
 2.6196326264e+000	 3.5848608919e+000	-5.7858580047e-001
 2.5801287847e+000	 3.6133970250e+000	-5.8046468643e-001
 2.9793232365e+000	 3.3278920205e+000	-5.8625982354e-001
 2.9424157581e+000	 3.3605685667e+000	-5.6864977654e-001
 2.9051635954e+000	 3.3928240923e+000	-5.5839238256e-001
 2.8675739655e+000	 3.4246532080e+000	-5.5403239662e-001
 2.8296541964e+000	 3.4560506892e+000	-5.5407546464e-001
 2.7914117222e+000	 3.4870114791e+000	-5.5708432397e-001
 2.7528540782e+000	 3.5175306915e+000	-5.6170819356e-001
 2.7139888964e+000	 3.5476036128e+000	-5.6670964651e-001
 2.6748239003e+000	 3.5772257048e+000	-5.7098879413e-001
 2.6353668999e+000	 3.6063926063e+000	-5.7387450433e-001
 2.5956257866e+000	 3.6351001357e+000	-5.7571609480e-001
 2.4406557675e+000	 3.4180690289e+000	-6.1573610861e-001
 2.4030277108e+000	 3.4446268869e+000	-6.0277019208e-001
 2.3651475504e+000	 3.4707454417e+000	-5.8641784353e-001
 2.3270229028e+000	 3.4964212704e+000	-5.6783302813e-001
 2.2886614419e+000	 3.5216511245e+000	-5.4820417429e-001
 2.2500708939e+000	 3.5464319309e+000	-5.2875964074e-001
 2.2112590326e+000	 3.5707607927e+000	-5.1077169088e-001
 2.1722336741e+000	 3.5946349899e+000	-4.9555899348e-001
 2.1330026723e+000	 3.6180519798e+000	-4.8448768289e-001
 2.0935739135e+000	 3.6410093978e+000	-4.7897102638e-001
 2.0539553118e+000	 3.6635050572e+000	-4.8046775893e-001
 2.4561527694e+000	 3.4397721396e+000	-6.1491918430e-001
 2.4182857924e+000	 3.4664986274e+000	-6.0379457251e-001
 2.3801651111e+000	 3.4927830225e+000	-5.8857005057e-001
 2.3417983901e+000	 3.5186218805e+000	-5.7040991115e-001
 2.3031933522e+000	 3.5440119321e+000	-5.5051480399e-001
 2.2643577727e+000	 3.5689500849e+000	-5.3012723926e-001
 2.2252994745e+000	 3.5934334234e+000	-5.1053552480e-001
 2.1860263235e+000	 3.6174592103e+000	-4.9307615832e-001
 2.1465462235e+000	 3.6410248870e+000	-4.7913471087e-001
 2.1068671109e+000	 3.6641280737e+000	-4.7014525258e-001
 2.0669969500e+000	 3.6867665698e+000	-4.6758838511e-001
 2.4716497713e+000	 3.4614752502e+000	-6.1260558091e-001
 2.4335438741e+000	 3.4883703678e+000	-6.0316326428e-001
 2.3951826718e+000	 3.5148206033e+000	-5.8898856686e-001
 2.3565738775e+000	 3.5408224906e+000	-5.7124751164e-001
 2.3177252626e+000	 3.5663727398e+000	-5.5114488406e-001
 2.2786446514e+000	 3.5914682389e+000	-5.2992977957e-001
 2.2393399163e+000	 3.6161060541e+000	-5.0889950764e-001
 2.1998189730e+000	 3.6402834308e+000	-4.8940187545e-001
 2.1600897748e+000	 3.6639977942e+000	-4.7283589104e-001
 2.1201603083e+000	 3.6872467495e+000	-4.6065094027e-001
 2.0800385881e+000	 3.7100280824e+000	-4.5434450651e-001
 2.4871467732e+000	 3.4831783609e+000	-6.0918786852e-001
 2.4488019558e+000	 3.5102421082e+000	-6.0126695024e-001
 2.4102002324e+000	 3.5368581841e+000	-5.8806647903e-001
 2.3713493648e+000	 3.5630231007e+000	-5.7074592311e-001
 2.3322571729e+000	 3.5887335475e+000	-5.5050644042e-001
 2.2929315301e+000	 3.6139863929e+000	-5.2859647744e-001
 2.2533803582e+000	 3.6387786847e+000	-5.0631564300e-001
 2.2136116224e+000	 3.6631076512e+000	-4.8501688277e-001
 2.1736333260e+000	 3.6869707013e+000	-4.6610699746e-001
 2.1334535057e+000	 3.7103654254e+000	-4.5104556278e-001
 2.0930802263e+000	 3.7332895950e+000	-4.4134232472e-001
 2.5026437751e+000	 3.5048814716e+000	-6.0500098100e-001
 2.4640600374e+000	 3.5321138487e+000	-5.9843819652e-001
 2.4252177931e+000	 3.5588957649e+000	-5.8613814396e-001
 2.3861248521e+000	 3.5852237108e+000	-5.6924576207e-001
 2.3467890832e+000	 3.6110943551e+000	-5.4895113907e-001
 2.3072184088e+000	 3.6365045468e+000	-5.2649516930e-001
 2.2674208001e+000	 3.6614513154e+000	-5.0317339902e-001
 2.2274042718e+000	 3.6859318717e+000	-4.8033809016e-001
 2.1871768773e+000	 3.7099436085e+000	-4.5939854784e-001
 2.1467467031e+000	 3.7334841012e+000	-4.4181977422e-001
 2.1061218644e+000	 3.7565511076e+000	-4.2911952650e-001
 2.5181407770e+000	 3.5265845823e+000	-6.0032418543e-001
 2.4793181191e+000	 3.5539855891e+000	-5.9495340474e-001
 2.4402353538e+000	 3.5809333458e+000	-5.8348112407e-001
 2.4009003395e+000	 3.6074243209e+000	-5.6703008653e-001
 2.3613209935e+000	 3.6334551628e+000	-5.4677218832e-001
 2.3215052875e+000	 3.6590227008e+000	-5.2393419890e-001
 2.2814612420e+000	 3.6841239461e+000	-4.9980158039e-001
 2.2411969213e+000	 3.7087560921e+000	-4.7572043781e-001
 2.2007204285e+000	 3.7329165157e+000	-4.5309764957e-001
 2.1600399005e+000	 3.7566027771e+000	-4.3339924470e-001
 2.1191635026e+000	 3.7798126202e+000	-4.1814710977e-001
 2.5336377790e+000	 3.5482876930e+000	-5.9538304511e-001
 2.4945762008e+000	 3.5758573295e+000	-5.9103475808e-001
 2.4552529145e+000	 3.6029709266e+000	-5.8031811634e-001
 2.4156758268e+000	 3.6296249310e+000	-5.6432630829e-001
 2.3758529038e+000	 3.6558159705e+000	-5.4420623474e-001
 2.3357921662e+000	 3.6815408548e+000	-5.2116429758e-001
 2.2955016839e+000	 3.7067965767e+000	-4.9647019356e-001
 2.2549895707e+000	 3.7315803126e+000	-4.7145874749e-001
 2.2142639798e+000	 3.7558894229e+000	-4.4752983807e-001
 2.1733330979e+000	 3.7797214530e+000	-4.2614648720e-001
 2.1322051407e+000	 3.8030741328e+000	-4.0883120061e-001
 2.5491347809e+000	 3.5699908036e+000	-5.9035137651e-001
 2.5098342824e+000	 3.5977290700e+000	-5.8685216133e-001
 2.4702704752e+000	 3.6250085074e+000	-5.7681887552e-001
 2.4304513141e+000	 3.6518255411e+000	-5.6130809940e-001
 2.3903848141e+000	 3.6781767781e+000	-5.4143525315e-001
 2.3500790449e+000	 3.7040590088e+000	-5.1838045826e-001
 2.3095421257e+000	 3.7294692074e+000	-4.9339230551e-001
 2.2687822201e+000	 3.7544045330e+000	-4.6778956682e-001
 2.2278075310e+000	 3.7788623301e+000	-4.4296090778e-001
 2.1866262953e+000	 3.8028401288e+000	-4.2036267643e-001
 2.1452467789e+000	 3.8263356453e+000	-4.0151486141e-001
 2.5646317828e+000	 3.5916939143e+000	-5.8535320023e-001
 2.5250923641e+000	 3.6196008104e+000	-5.8252517523e-001
 2.4852880359e+000	 3.6470460882e+000	-5.7310213166e-001
 2.4452268014e+000	 3.6740261512e+000	-5.5809729297e-001
 2.4049167245e+000	 3.7005375858e+000	-5.3858843092e-001
 2.3643659237e+000	 3.7265771628e+000	-5.1572380354e-001
 2.3235825676e+000	 3.7521418381e+000	-4.9072589628e-001
 2.2825748696e+000	 3.7772287535e+000	-4.6489300710e-001
 2.2413510823e+000	 3.8018352373e+000	-4.3959873607e-001
 2.1999194927e+000	 3.8259588047e+000	-4.1628946005e-001
 2.1582884170e+000	 3.8495971579e+000	-3.9647989067e-001
 2.5801287847e+000	 3.6133970250e+000	-5.8046468643e-001
 2.5403504458e+000	 3.6414725508e+000	-5.7812494536e-001
 2.5003055965e+000	 3.6690836690e+000	-5.6923750227e-001
 2.4600022888e+000	 3.6962267613e+000	-5.5476577846e-001
 2.4194486348e+000	 3.7228983934e+000	-5.3574404666e-001
 2.3786528024e+000	 3.7490953168e+000	-5.1328344818e-001
 2.3376230095e+000	 3.7748144687e+000	-4.8857570562e-001
 2.2963675190e+000	 3.8000529739e+000	-4.6289457469e-001
 2.2548946335e+000	 3.8248081445e+000	-4.3759510036e-001
 2.2132126902e+000	 3.8490774805e+000	-4.1411076246e-001
 2.1713300552e+000	 3.8728586705e+000	-3.9394861482e-001
 2.5956257866e+000	 3.6351001357e+000	-5.7571609480e-001
 2.5556085274e+000	 3.6633442912e+000	-5.7367612569e-001
 2.5153231572e+000	 3.6911212498e+000	-5.6524739922e-001
 2.4747777761e+000	 3.7184273714e+000	-5.5133739195e-001
 2.4339805451e+000	 3.7452592011e+000	-5.3293134370e-001
 2.3929396811e+000	 3.7716134707e+000	-5.1109835607e-001
 2.3516634514e+000	 3.7974870994e+000	-4.8699507385e-001
 2.3101601684e+000	 3.8228771944e+000	-4.6186699646e-001
 2.2684381848e+000	 3.8477810517e+000	-4.3704748879e-001
 2.2265058876e+000	 3.8721961564e+000	-4.1395458170e-001
 2.1843716934e+000	 3.8961201831e+000	-3.9408567232e-001
 2.0539553118e+000	 3.6635050572e+000	-4.8046775893e-001
 2.0141607875e+000	 3.6855336804e+000	-4.9339416934e-001
 1.9741923649e+000	 3.7070968488e+000	-5.1277825159e-001
 1.9340580104e+000	 3.7281929136e+000	-5.0740906511e-001
 1.8937656981e+000	 3.7488204029e+000	-4.8165452494e-001
 1.8533234054e+000	 3.7689780217e+000	-4.4278708608e-001
 1.8127391083e+000	 3.7886646509e+000	-3.9771587500e-001
 1.7720207765e+000	 3.8078793464e+000	-3.5296600924e-001
 1.7311763688e+000	 3.8266213383e+000	-3.1466148768e-001
 1.6902138288e+000	 3.8448900295e+000	-2.8851147217e-001
 1.6491410796e+000	 3.8626849945e+000	-2.7979976904e-001
 2.0669969500e+000	 3.6867665698e+000	-4.6758838511e-001
 2.0269497493e+000	 3.7089350642e+000	-4.7526583417e-001
 1.9867275464e+000	 3.7306351485e+000	-4.9532758168e-001
 1.9463383578e+000	 3.7518651633e+000	-4.9734548533e-001
 1.9057902084e+000	 3.7726236273e+000	-4.7779043712e-001
 1.8650911265e+000	 3.7929092374e+000	-4.4401018278e-001
 1.8242491384e+000	 3.8127208673e+000	-4.0297000956e-001
 1.7832722646e+000	 3.8320575670e+000	-3.6123263394e-001
 1.7421685144e+000	 3.8509185616e+000	-3.2494177301e-001
 1.7009458817e+000	 3.8693032502e+000	-2.9980920808e-001
 1.6596123402e+000	 3.8872112048e+000	-2.9110513632e-001
 2.0800385881e+000	 3.7100280824e+000	-4.5434450651e-001
 2.0397387112e+000	 3.7323364481e+000	-4.5709809769e-001
 1.9992627278e+000	 3.7541734482e+000	-4.7302543846e-001
 1.9586187052e+000	 3.7755374129e+000	-4.8172033210e-001
 1.9178147188e+000	 3.7964268517e+000	-4.6763962165e-001
 1.8768588475e+000	 3.8168404531e+000	-4.3818949164e-001
 1.8357591685e+000	 3.8367770837e+000	-4.0037639635e-001
 1.7945237527e+000	 3.8562357876e+000	-3.6078756979e-001
 1.7531606600e+000	 3.8752157849e+000	-3.2557533049e-001
 1.7116779347e+000	 3.8937164710e+000	-3.0044497687e-001
 1.6700836007e+000	 3.9117374151e+000	-2.9064605625e-001
 2.0930802263e+000	 3.7332895950e+000	-4.4134232472e-001
 2.0525276731e+000	 3.7557378319e+000	-4.3956705044e-001
 2.0117979092e+000	 3.7777117479e+000	-4.4919158578e-001
 1.9708990526e+000	 3.7992096626e+000	-4.6211170501e-001
 1.9298392292e+000	 3.8202300761e+000	-4.5295469391e-001
 1.8886265686e+000	 3.8407716688e+000	-4.2728960762e-001
 1.8472691986e+000	 3.8608333001e+000	-3.9214893668e-001
 1.8057752408e+000	 3.8804140082e+000	-3.5413116596e-001
 1.7641528056e+000	 3.8995130082e+000	-3.1938586772e-001
 1.7224099876e+000	 3.9181296918e+000	-2.9360248150e-001
 1.6805548613e+000	 3.9362636255e+000	-2.8200255036e-001
 2.1061218644e+000	 3.7565511076e+000	-4.2911952650e-001
 2.0653166350e+000	 3.7791392158e+000	-4.2327810094e-001
 2.0243330906e+000	 3.8012500476e+000	-4.2713179482e-001
 1.9831793999e+000	 3.8228819123e+000	-4.4000765647e-001
 1.9418637396e+000	 3.8440333006e+000	-4.3539776979e-001
 1.9003942897e+000	 3.8647028845e+000	-4.1318346005e-001
 1.8587792288e+000	 3.8848895166e+000	-3.8040796585e-001
 1.8170267289e+000	 3.9045922287e+000	-3.4366755096e-001
 1.7751449511e+000	 3.9238102315e+000	-3.0909744349e-001
 1.7331420406e+000	 3.9425429126e+000	-2.8236155574e-001
 1.6910261218e+000	 3.9607898358e+000	-2.6864574058e-001
 2.1191635026e+000	 3.7798126202e+000	-4.1814710977e-001
 2.0781055968e+000	 3.8025405996e+000	-4.0876780499e-001
 2.0368682721e+000	 3.8247883473e+000	-4.0748974433e-001
 1.9954597473e+000	 3.8465541619e+000	-4.1680397554e-001
 1.9538882500e+000	 3.8678365250e+000	-4.1653843683e-001
 1.9121620108e+000	 3.8886341002e+000	-3.9765049811e-001
 1.8702892589e+000	 3.9089457330e+000	-3.6717867982e-001
 1.8282782170e+000	 3.9287704493e+000	-3.3170332753e-001
 1.7861370967e+000	 3.9481074548e+000	-2.9733345776e-001
 1.7438740935e+000	 3.9669561334e+000	-2.6969747621e-001
 1.7014973824e+000	 3.9853160462e+000	-2.5393750996e-001
 2.1322051407e+000	 3.8030741328e+000	-4.0883120061e-001
 2.0908945587e+000	 3.8259419835e+000	-3.9650568457e-001
 2.0494034535e+000	 3.8483266470e+000	-3.9083143890e-001
 2.0077400947e+000	 3.8702264116e+000	-3.9445872623e-001
 1.9659127604e+000	 3.8916397494e+000	-3.9785170562e-001
 1.9239297319e+000	 3.9125653159e+000	-3.8237485144e-001
 1.8817992890e+000	 3.9330019494e+000	-3.5438953118e-001
 1.8395297051e+000	 3.9529486699e+000	-3.2044622995e-001
 1.7971292423e+000	 3.9724046781e+000	-2.8661559631e-001
 1.7546061465e+000	 3.9913693542e+000	-2.5848022016e-001
 1.7119686430e+000	 4.0098422565e+000	-2.4118348937e-001
 2.1452467789e+000	 3.8263356453e+000	-4.0151486141e-001
 2.1036835206e+000	 3.8493433673e+000	-3.8689603668e-001
 2.0619386349e+000	 3.8718649467e+000	-3.7765474979e-001
 2.0200204421e+000	 3.8938986613e+000	-3.7634845179e-001
 1.9779372708e+000	 3.9154429738e+000	-3.8071594224e-001
 1.9356974530e+000	 3.9364965315e+000	-3.6894346716e-001
 1.8933093192e+000	 3.9570581658e+000	-3.4387059579e-001
 1.8507811932e+000	 3.9771268904e+000	-3.1200374544e-001
 1.8081213878e+000	 3.9967019014e+000	-2.7936273191e-001
 1.7653381994e+000	 4.0157825750e+000	-2.5159148456e-001
 1.7224399035e+000	 4.0343684668e+000	-2.3328831849e-001
 2.1582884170e+000	 3.8495971579e+000	-3.9647989067e-001
 2.1164724825e+000	 3.8727447512e+000	-3.8027973269e-001
 2.0744738163e+000	 3.8954032465e+000	-3.6839123439e-001
 2.0323007895e+000	 3.9175709110e+000	-3.6326683280e-001
 1.9899617812e+000	 3.9392461982e+000	-3.6641078255e-001
 1.9474651741e+000	 3.9604277472e+000	-3.5884422405e-001
 1.9048193493e+000	 3.9811143822e+000	-3.3735191125e-001
 1.8620326814e+000	 4.0013051110e+000	-3.0838322780e-001
 1.8191135334e+000	 4.0209991247e+000	-2.7806897285e-001
 1.7760702524e+000	 4.0401957957e+000	-2.5114508234e-001
 1.7329111641e+000	 4.0588946772e+000	-2.3134098452e-001
 2.1713300552e+000	 3.8728586705e+000	-3.9394861482e-001
 2.1292614443e+000	 3.8961461350e+000	-3.7693600856e-001
 2.0870089978e+000	 3.9189415462e+000	-3.6340794456e-001
 2.0445811369e+000	 3.9412431606e+000	-3.5570021308e-001
 2.0019862916e+000	 3.9630494226e+000	-3.5614915041e-001
 1.9592328952e+000	 3.9843589629e+000	-3.5346402517e-001
 1.9163293794e+000	 4.0051705986e+000	-3.3648392054e-001
 1.8732841695e+000	 4.0254833316e+000	-3.1171266359e-001
 1.8301056790e+000	 4.0452963480e+000	-2.8408794523e-001
 1.7868023053e+000	 4.0646090165e+000	-2.5770007935e-001
 1.7433824246e+000	 4.0834208875e+000	-2.3613208434e-001
 2.1843716934e+000	 3.8961201831e+000	-3.9408567232e-001
 2.1420504062e+000	 3.9195475189e+000	-3.7708424615e-001
 2.0995441792e+000	 3.9424798459e+000	-3.6300922435e-001
 2.0568614843e+000	 3.9649154103e+000	-3.5406868713e-001
 2.0140108020e+000	 3.9868526470e+000	-3.5249246488e-001
 1.9710006163e+000	 4.0082901786e+000	-3.5414017562e-001
 1.9278394095e+000	 4.0292268150e+000	-3.4299685615e-001
 1.8845356576e+000	 4.0496615522e+000	-3.2267017437e-001
 1.8410978246e+000	 4.0695935713e+000	-2.9759828703e-001
 1.7975343583e+000	 4.0890222373e+000	-2.7170070965e-001
 1.7538536852e+000	 4.1079470979e+000	-2.4840975007e-001
 1.6491410796e+000	 3.8626849945e+000	-2.7979976904e-001
 1.6079598367e+000	 3.8800085414e+000	-2.7807565618e-001
 1.5666841286e+000	 3.8968578809e+000	-2.7092940706e-001
 1.5253217981e+000	 3.9132330963e+000	-2.6016763565e-001
 1.4838806500e+000	 3.9291344362e+000	-2.4731080174e-001
 1.4423684478e+000	 3.9445623121e+000	-2.3359641397e-001
 1.4007929095e+000	 3.9595172970e+000	-2.1998388498e-001
 1.3591617033e+000	 3.9740001227e+000	-2.0716082759e-001
 1.3174824442e+000	 3.9880116778e+000	-1.9436204689e-001
 1.2757626898e+000	 4.0015530051e+000	-1.7113641835e-001
 1.2340099371e+000	 4.0146252992e+000	-1.3804805810e-001
 1.6596123402e+000	 3.8872112048e+000	-2.9110513632e-001
 1.6181696159e+000	 3.9046447480e+000	-2.8925493108e-001
 1.5766318268e+000	 3.9216010728e+000	-2.8258752469e-001
 1.5350068651e+000	 3.9380802631e+000	-2.7269192014e-001
 1.4933025855e+000	 3.9540825688e+000	-2.6089035262e-001
 1.4515268006e+000	 3.9696084045e+000	-2.4824238395e-001
 1.4096872774e+000	 3.9846583464e+000	-2.3555061355e-001
 1.3677917329e+000	 3.9992331311e+000	-2.2336778510e-001
 1.3258478303e+000	 4.0133336529e+000	-2.1160505294e-001
 1.2838631754e+000	 4.0269609611e+000	-1.9151950628e-001
 1.2418453126e+000	 4.0401162582e+000	-1.6115336572e-001
 1.6700836007e+000	 3.9117374151e+000	-2.9064605625e-001
 1.6283793952e+000	 3.9292809546e+000	-2.8766939647e-001
 1.5865795250e+000	 3.9463442647e+000	-2.8081039715e-001
 1.5446919322e+000	 3.9629274298e+000	-2.7148820257e-001
 1.5027245210e+000	 3.9790307015e+000	-2.6086937639e-001
 1.4606851534e+000	 3.9946544968e+000	-2.4987295770e-001
 1.4185816454e+000	 4.0097993957e+000	-2.3914351418e-001
 1.3764217625e+000	 4.0244661395e+000	-2.2861261368e-001
 1.3342132165e+000	 4.0386556280e+000	-2.1765921543e-001
 1.2919636610e+000	 4.0523689172e+000	-2.0042275602e-001
 1.2496806881e+000	 4.0656072171e+000	-1.7296411642e-001
 1.6805548613e+000	 3.9362636255e+000	-2.8200255036e-001
 1.6385891745e+000	 3.9539171612e+000	-2.7728221169e-001
 1.5965272232e+000	 3.9710874566e+000	-2.6988090948e-001
 1.5543769993e+000	 3.9877745965e+000	-2.6109448328e-001
 1.5121464565e+000	 4.0039788341e+000	-2.5197877913e-001
 1.4698435062e+000	 4.0197005891e+000	-2.4317973963e-001
 1.4274760133e+000	 4.0349404451e+000	-2.3446599650e-001
 1.3850517921e+000	 4.0496991479e+000	-2.2530256016e-001
 1.3425786026e+000	 4.0639776031e+000	-2.1499435378e-001
 1.3000641465e+000	 4.0777768733e+000	-2.0004364496e-001
 1.2575160636e+000	 4.0910981760e+000	-1.7553019773e-001
 1.6910261218e+000	 3.9607898358e+000	-2.6864574058e-001
 1.6487989537e+000	 3.9785533678e+000	-2.6194299709e-001
 1.6064749214e+000	 3.9958306485e+000	-2.5396537686e-001
 1.5640620664e+000	 4.0126217632e+000	-2.4595389458e-001
 1.5215683920e+000	 4.0289269668e+000	-2.3842506318e-001
 1.4790018590e+000	 4.0447466814e+000	-2.3114745735e-001
 1.4363703812e+000	 4.0600814944e+000	-2.2369250281e-001
 1.3936818217e+000	 4.0749321563e+000	-2.1546866888e-001
 1.3509439888e+000	 4.0892995782e+000	-2.0574171105e-001
 1.3081646321e+000	 4.1031848294e+000	-1.9244261094e-001
 1.2653514390e+000	 4.1165891349e+000	-1.7076634046e-001
 1.7014973824e+000	 3.9853160462e+000	-2.5393750996e-001
 1.6590087330e+000	 4.0031895744e+000	-2.4539432309e-001
 1.6164226195e+000	 4.0205738404e+000	-2.3714297884e-001
 1.5737471334e+000	 4.0374689299e+000	-2.2955625955e-001
 1.5309903275e+000	 4.0538750995e+000	-2.2253394237e-001
 1.4881602118e+000	 4.0697927737e+000	-2.1578078221e-001
 1.4452647492e+000	 4.0852225438e+000	-2.0882952215e-001
 1.4023118513e+000	 4.1001651647e+000	-2.0106259961e-001
 1.3593093749e+000	 4.1146215533e+000	-1.9173254606e-001
 1.3162651177e+000	 4.1285927855e+000	-1.7955018493e-001
 1.2731868145e+000	 4.1420800939e+000	-1.6045877407e-001
 1.7119686430e+000	 4.0098422565e+000	-2.4118348937e-001
 1.6692185123e+000	 4.0278257810e+000	-2.3123732951e-001
 1.6263703177e+000	 4.0453170323e+000	-2.2205708800e-001
 1.5834322005e+000	 4.0623160966e+000	-2.1373499986e-001
 1.5404122631e+000	 4.0788232321e+000	-2.0615125947e-001
 1.4973185646e+000	 4.0948388660e+000	-1.9899865899e-001
 1.4541591171e+000	 4.1103635931e+000	-1.9180587761e-001
 1.4109418809e+000	 4.1253981731e+000	-1.8395941472e-001
 1.3676747611e+000	 4.1399435284e+000	-1.7472416737e-001
 1.3243656032e+000	 4.1540007416e+000	-1.6317404225e-001
 1.2810221900e+000	 4.1675710528e+000	-1.4627180790e-001
 1.7224399035e+000	 4.0343684668e+000	-2.3328831849e-001
 1.6794282915e+000	 4.0524619877e+000	-2.2125861802e-001
 1.6363180159e+000	 4.0700602242e+000	-2.1016867787e-001
 1.5931172676e+000	 4.0871632634e+000	-2.0013146041e-001
 1.5498341986e+000	 4.1037713648e+000	-1.9105069383e-001
 1.5064769174e+000	 4.1198849584e+000	-1.8264584187e-001
 1.4630534850e+000	 4.1355046425e+000	-1.7447567732e-001
 1.4195719105e+000	 4.1506311815e+000	-1.6596045486e-001
 1.3760401472e+000	 4.1652655035e+000	-1.5640268590e-001
 1.3324660888e+000	 4.1794086976e+000	-1.4500597558e-001
 1.2888575655e+000	 4.1930620117e+000	-1.2975434155e-001
 1.7329111641e+000	 4.0588946772e+000	-2.3134098452e-001
 1.6896380708e+000	 4.0770981943e+000	-2.1659855903e-001
 1.6462657141e+000	 4.0948034161e+000	-2.0286506138e-001
 1.6028023347e+000	 4.1120104301e+000	-1.9032115028e-001
 1.5592561341e+000	 4.1287194974e+000	-1.7893663792e-001
 1.5156352702e+000	 4.1449310507e+000	-1.6849578848e-001
 1.4719478530e+000	 4.1606456919e+000	-1.5862118054e-001
 1.4282019401e+000	 4.1758641899e+000	-1.4879613130e-001
 1.3844055334e+000	 4.1905874786e+000	-1.3838568756e-001
 1.3405665744e+000	 4.2048166537e+000	-1.2665619481e-001
 1.2966929409e+000	 4.2185529706e+000	-1.1234630726e-001
 1.7433824246e+000	 4.0834208875e+000	-2.3613208434e-001
 1.6998478501e+000	 4.1017344009e+000	-2.1834533245e-001
 1.6562134122e+000	 4.1195466080e+000	-2.0147522596e-001
 1.6124874017e+000	 4.1368575968e+000	-1.8581648056e-001
 1.5686780696e+000	 4.1536676301e+000	-1.7144699455e-001
 1.5247936230e+000	 4.1699771430e+000	-1.5825347292e-001
 1.4808422209e+000	 4.1857867412e+000	-1.4595558257e-001
 1.4368319697e+000	 4.2010971983e+000	-1.3412863866e-001
 1.3927709195e+000	 4.2159094537e+000	-1.2222482942e-001
 1.3486670600e+000	 4.2302246098e+000	-1.0959299313e-001
 1.3045283164e+000	 4.2440439296e+000	-9.5385047295e-002
 1.7538536852e+000	 4.1079470979e+000	-2.4840975007e-001
 1.7100576294e+000	 4.1263706075e+000	-2.2753735585e-001
 1.6661611104e+000	 4.1442897998e+000	-2.0727240091e-001
 1.6221724688e+000	 4.1617047635e+000	-1.8806942944e-001
 1.5781000051e+000	 4.1786157627e+000	-1.7015589796e-001
 1.5339519758e+000	 4.1950232353e+000	-1.5355812094e-001
 1.4897365888e+000	 4.2109277906e+000	-1.3812572178e-001
 1.4454619993e+000	 4.2263302067e+000	-1.2355459117e-001
 1.4011363057e+000	 4.2412314288e+000	-1.0940836256e-001
 1.3567675455e+000	 4.2556325659e+000	-9.5138420465e-002
 1.3123636919e+000	 4.2695348885e+000	-8.0111628921e-002
 1.2340099371e+000	 4.0146252992e+000	-1.3804805810e-001
 1.1922316182e+000	 4.0272299033e+000	-1.0115961083e-001
 1.1504350948e+000	 4.0393683026e+000	-6.5753018943e-002
 1.1086276574e+000	 4.0510421257e+000	-3.3166571781e-002
 1.0668165223e+000	 4.0622531420e+000	-4.1815239689e-003
 1.0250088285e+000	 4.0730032589e+000	 2.0907646578e-002
 9.8321163488e-001	 4.0832945191e+000	 4.2226734732e-002
 9.4143191729e-001	 4.0931290975e+000	 6.0274905012e-002
 8.9967656574e-001	 4.1025092979e+000	 7.5859362960e-002
 8.5795238189e-001	 4.1114375501e+000	 9.0057978243e-002
 8.1626607643e-001	 4.1199164064e+000	 1.0417675613e-001
 1.2418453126e+000	 4.0401162582e+000	-1.6115336572e-001
 1.1998017212e+000	 4.0528008954e+000	-1.2652556517e-001
 1.1577398098e+000	 4.0650163678e+000	-9.2959410477e-002
 1.1156669151e+000	 4.0767643142e+000	-6.1734360364e-002
 1.0735902992e+000	 4.0880465150e+000	-3.3595993103e-002
 1.0315171465e+000	 4.0988648900e+000	-8.8257979178e-003
 9.8945456057e-001	 4.1092214949e+000	 1.2693352851e-002
 9.4740956166e-001	 4.1191185182e+000	 3.1429285409e-002
 9.0538908352e-001	 4.1285582784e+000	 4.8138167337e-002
 8.6339997096e-001	 4.1375432207e+000	 6.3826506302e-002
 8.2144897732e-001	 4.1460759137e+000	 7.9709715536e-002
 1.2496806881e+000	 4.0656072171e+000	-1.7296411642e-001
 1.2073718243e+000	 4.0783718876e+000	-1.4105433482e-001
 1.1650445248e+000	 4.0906644331e+000	-1.0987451139e-001
 1.1227061728e+000	 4.1024865026e+000	-8.0629171030e-002
 1.0803640761e+000	 4.1138398881e+000	-5.4013054232e-002
 1.0380254644e+000	 4.1247265212e+000	-3.0280337624e-002
 9.9569748625e-001	 4.1351484706e+000	-9.3090400513e-003
 9.5338720603e-001	 4.1451079388e+000	 9.3503818699e-003
 9.1110160129e-001	 4.1546072589e+000	 2.6415406994e-002
 8.6884756003e-001	 4.1636488913e+000	 4.2833113985e-002
 8.2663187820e-001	 4.1722354210e+000	 5.9739872859e-002
 1.2575160636e+000	 4.0910981760e+000	-1.7553019773e-001
 1.2149419273e+000	 4.1039428797e+000	-1.4661683023e-001
 1.1723492399e+000	 4.1163124983e+000	-1.1819599356e-001
 1.1297454305e+000	 4.1282086910e+000	-9.1381993725e-002
 1.0871378530e+000	 4.1396332611e+000	-6.6804360255e-002
 1.0445337824e+000	 4.1505881524e+000	-4.4676386496e-002
 1.0019404119e+000	 4.1610754464e+000	-2.4858422233e-002
 9.5936485040e-001	 4.1710973595e+000	-6.9068345586e-003
 9.1681411906e-001	 4.1806562393e+000	 9.8689016437e-003
 8.7429514911e-001	 4.1897545619e+000	 2.6367800778e-002
 8.3181477909e-001	 4.1983949284e+000	 4.3658225831e-002
 1.2653514390e+000	 4.1165891349e+000	-1.7076634046e-001
 1.2225120303e+000	 4.1295138719e+000	-1.4495169676e-001
 1.1796539549e+000	 4.1419605635e+000	-1.1949230023e-001
 1.1367846882e+000	 4.1539308795e+000	-9.5397804602e-002
 1.0939116299e+000	 4.1654266342e+000	-7.3218975915e-002
 1.0510421003e+000	 4.1764497835e+000	-5.3115437961e-002
 1.0081833376e+000	 4.1870024222e+000	-3.4917791610e-002
 9.6534249477e-001	 4.1970867802e+000	-1.8176651941e-002
 9.2252663683e-001	 4.2067052198e+000	-2.2173541267e-003
 8.7974273818e-001	 4.2158602326e+000	 1.3821823569e-002
 8.3699767997e-001	 4.2245544357e+000	 3.0951737541e-002
 1.2731868145e+000	 4.1420800939e+000	-1.6045877407e-001
 1.2300821334e+000	 4.1550848640e+000	-1.3767147143e-001
 1.1869586699e+000	 4.1676086287e+000	-1.1520831113e-001
 1.1438239459e+000	 4.1796530679e+000	-9.3960747170e-002
 1.1006854068e+000	 4.1912200072e+000	-7.4388083425e-002
 1.0575504183e+000	 4.2023114147e+000	-5.6584303988e-002
 1.0144262633e+000	 4.2129293980e+000	-4.0337759511e-002
 9.7132013914e-001	 4.2230762008e+000	-2.5185952677e-002
 9.2823915460e-001	 4.2327542003e+000	-1.0456089961e-002
 8.8519032725e-001	 4.2419659032e+000	 4.6852224507e-003
 8.4218058085e-001	 4.2507139430e+000	 2.1201275456e-002
 1.2810221900e+000	 4.1675710528e+000	-1.4627180790e-001
 1.2376522364e+000	 4.1806558562e+000	-1.2626867387e-001
 1.1942633849e+000	 4.1932566939e+000	-1.0667095002e-001
 1.1508632036e+000	 4.2053752563e+000	-8.8239264190e-002
 1.1074591837e+000	 4.2170133802e+000	-7.1329646852e-002
 1.0640587363e+000	 4.2281730459e+000	-5.5959320845e-002
 1.0206691890e+000	 4.2388563737e+000	-4.1865266178e-002
 9.7729778351e-001	 4.2490656215e+000	-2.8557530885e-002
 9.3395167238e-001	 4.2588031807e+000	-1.5359648535e-002
 8.9063791633e-001	 4.2680715738e+000	-1.4556505831e-003
 8.4736348174e-001	 4.2768734503e+000	 1.4079546044e-002
 1.2888575655e+000	 4.1930620117e+000	-1.2975434155e-001
 1.2452223395e+000	 4.2062268484e+000	-1.1212183439e-001
 1.2015681000e+000	 4.2189047591e+000	-9.5094737437e-002
 1.1579024613e+000	 4.2310974448e+000	-7.9291182389e-002
 1.1142329606e+000	 4.2428067533e+000	-6.4953037044e-002
 1.0705670542e+000	 4.2540346771e+000	-5.2010522971e-002
 1.0269121147e+000	 4.2647833495e+000	-4.0139532751e-002
 9.8327542788e-001	 4.2750550421e+000	-2.8813392693e-002
 9.3966419015e-001	 4.2848521612e+000	-1.7342864496e-002
 8.9608550540e-001	 4.2941772444e+000	-4.9206001769e-003
 8.5254638262e-001	 4.3030329576e+000	 9.3490252028e-003
 1.2966929409e+000	 4.2185529706e+000	-1.1234630726e-001
 1.2527924425e+000	 4.2317978405e+000	-9.6501461871e-002
 1.2088728150e+000	 4.2445528243e+000	-8.1587290628e-002
 1.1649417191e+000	 4.2568196332e+000	-6.8068752006e-002
 1.1210067375e+000	 4.2686001263e+000	-5.6063618731e-002
 1.0770753722e+000	 4.2798963082e+000	-4.5405786295e-002
 1.0331550403e+000	 4.2907103253e+000	-3.5701211085e-002
 9.8925307225e-001	 4.3010444628e+000	-2.6378040178e-002
 9.4537670792e-001	 4.3109011417e+000	-1.6725933955e-002
 9.0153309447e-001	 4.3202829150e+000	-5.9380534998e-003
 8.5772928351e-001	 4.3291924649e+000	 6.8598846607e-003
 1.3045283164e+000	 4.2440439296e+000	-9.5385047295e-002
 1.2603625456e+000	 4.2573688327e+000	-8.0575953850e-002
 1.2161775300e+000	 4.2702008896e+000	-6.7154773143e-002
 1.1719809768e+000	 4.2825418216e+000	-5.5423643057e-002
 1.1277805145e+000	 4.2943934994e+000	-4.5367301434e-002
 1.0835836901e+000	 4.3057579394e+000	-3.6714942303e-002
 1.0393979660e+000	 4.3166373011e+000	-2.8994637822e-002
 9.9523071662e-001	 4.3270338835e+000	-2.1581739627e-002
 9.5108922569e-001	 4.3369501221e+000	-1.3737274931e-002
 9.0698068355e-001	 4.3463885857e+000	-4.6475235940e-003
 8.6291218439e-001	 4.3553519723e+000	 6.5479145253e-003
 1.3123636919e+000	 4.2695348885e+000	-8.0111628921e-002
 1.2679326486e+000	 4.2829398248e+000	-6.5417451409e-002
 1.2234822450e+000	 4.2958489548e+000	-5.2707296054e-002
 1.1790202345e+000	 4.3082640100e+000	-4.2111900138e-002
 1.1345542914e+000	 4.3201868724e+000	-3.3475055655e-002
 1.0900920081e+000	 4.3316195706e+000	-2.6413864060e-002
 1.0456408917e+000	 4.3425642768e+000	-2.0371499265e-002
 1.0012083610e+000	 4.3530233041e+000	-1.4663774781e-002
 9.5680174346e-001	 4.3629991026e+000	-8.5163791206e-003
 9.1242827262e-001	 4.3724942563e+000	-1.1020702902e-003
 8.6809508528e-001	 4.3815114796e+000	 8.4324421373e-003
 8.1626607643e-001	 4.1199164064e+000	 1.0417675613e-001
 7.7463050750e-001	 4.1279473679e+000	 1.1508217943e-001
 7.3304593048e-001	 4.1355345296e+000	 1.2007722606e-001
 6.9151875737e-001	 4.1426807945e+000	 1.2143561945e-001
 6.5005530071e-001	 4.1493891748e+000	 1.2198532334e-001
 6.0866177170e-001	 4.1556627888e+000	 1.2628403634e-001
 5.6734427842e-001	 4.1615048572e+000	 1.3453484137e-001
 5.2610882415e-001	 4.1669187001e+000	 1.4668698252e-001
 4.8496130586e-001	 4.1719077330e+000	 1.6335253304e-001
 4.4390751276e-001	 4.1764754639e+000	 1.8570376388e-001
 4.0295312499e-001	 4.1806254894e+000	 2.1538157810e-001
 8.2144897732e-001	 4.1460759137e+000	 7.9709715536e-002
 7.7954904235e-001	 4.1541578680e+000	 9.3253622729e-002
 7.3770042307e-001	 4.1617932046e+000	 1.0223226587e-001
 6.9590957218e-001	 4.1689848448e+000	 1.0859976912e-001
 6.5418284232e-001	 4.1757358201e+000	 1.1458353677e-001
 6.1252648411e-001	 4.1820492686e+000	 1.2298739511e-001
 5.7094664442e-001	 4.1879284314e+000	 1.3385184935e-001
 5.2944936465e-001	 4.1933766496e+000	 1.4711189062e-001
 4.8804057921e-001	 4.1983973605e+000	 1.6331380746e-001
 4.4672611408e-001	 4.2029940943e+000	 1.8351600872e-001
 4.0551168545e-001	 4.2071704705e+000	 2.0920093492e-001
 8.2663187820e-001	 4.1722354210e+000	 5.9739872859e-002
 7.8446757720e-001	 4.1803683681e+000	 7.5107544888e-002
 7.4235491566e-001	 4.1880518795e+000	 8.7097203344e-002
 7.0030038700e-001	 4.1952888952e+000	 9.7370158511e-002
 6.5831038393e-001	 4.2020824655e+000	 1.0774095735e-001
 6.1639119652e-001	 4.2084357484e+000	 1.1946954130e-001
 5.7454901042e-001	 4.2143520055e+000	 1.3220338862e-001
 5.3278990516e-001	 4.2198345991e+000	 1.4588558966e-001
 4.9111985257e-001	 4.2248869879e+000	 1.6101966805e-001
 4.4954471540e-001	 4.2295127247e+000	 1.7857403309e-001
 4.0807024591e-001	 4.2337154516e+000	 1.9989752878e-001
 8.3181477909e-001	 4.1983949284e+000	 4.3658225831e-002
 7.8938611205e-001	 4.2065788682e+000	 6.0140408946e-002
 7.4700940824e-001	 4.2143105545e+000	 7.4293937601e-002
 7.0469120181e-001	 4.2215929455e+000	 8.7513395142e-002
 6.6243792553e-001	 4.2284291109e+000	 1.0131146316e-001
 6.2025590893e-001	 4.2348222282e+000	 1.1571720244e-001
 5.7815137642e-001	 4.2407755797e+000	 1.2972732918e-001
 5.3613044566e-001	 4.2462925485e+000	 1.4331350073e-001
 4.9419912593e-001	 4.2513766154e+000	 1.5695766905e-001
 4.5236331672e-001	 4.2560313550e+000	 1.7156034640e-001
 4.1062880637e-001	 4.2602604327e+000	 1.8835996105e-001
 8.3699767997e-001	 4.2245544357e+000	 3.0951737541e-002
 7.9430464689e-001	 4.2327893683e+000	 4.7938557163e-002
 7.5166390083e-001	 4.2405692295e+000	 6.3526953307e-002
 7.0908201662e-001	 4.2478969958e+000	 7.8870162613e-002
 6.6656546714e-001	 4.2547757562e+000	 9.5225859808e-002
 6.2412062134e-001	 4.2612087080e+000	 1.1178440657e-001
 5.8175374243e-001	 4.2671991539e+000	 1.2661789365e-001
 5.3947098617e-001	 4.2727504980e+000	 1.3974508731e-001
 4.9727839929e-001	 4.2778662429e+000	 1.5164569607e-001
 4.5518191804e-001	 4.2825499854e+000	 1.6317264285e-001
 4.1318736684e-001	 4.2868054138e+000	 1.7547540474e-001
 8.4218058085e-001	 4.2507139430e+000	 2.1201275456e-002
 7.9922318174e-001	 4.2589998684e+000	 3.8176563316e-002
 7.5631839342e-001	 4.2668279044e+000	 5.4582098061e-002
 7.1347283143e-001	 4.2742010462e+000	 7.1354434261e-002
 6.7069300875e-001	 4.2811224016e+000	 8.9513310425e-002
 6.2798533375e-001	 4.2875951879e+000	 1.0779184581e-001
 5.8535610843e-001	 4.2936227281e+000	 1.2312557049e-001
 5.4281152667e-001	 4.2992084475e+000	 1.3557432382e-001
 5.0035767265e-001	 4.3043558704e+000	 1.4563299483e-001
 4.5800051936e-001	 4.3090686158e+000	 1.5412539413e-001
 4.1574592730e-001	 4.3133503949e+000	 1.6213176348e-001
 8.4736348174e-001	 4.2768734503e+000	 1.4079546044e-002
 8.0414171659e-001	 4.2852103685e+000	 3.0615573016e-002
 7.6097288600e-001	 4.2930865794e+000	 4.7325339468e-002
 7.1786364625e-001	 4.3005050965e+000	 6.4952657374e-002
 6.7482055036e-001	 4.3074690469e+000	 8.4305057704e-002
 6.3185004616e-001	 4.3139816677e+000	 1.0392619019e-001
 5.8895847443e-001	 4.3200463022e+000	 1.1955696609e-001
 5.4615206717e-001	 4.3256663970e+000	 1.3124009122e-001
 5.0343694600e-001	 4.3308454979e+000	 1.3950111427e-001
 4.6081912068e-001	 4.3355872462e+000	 1.4515134293e-001
 4.1830448776e-001	 4.3398953759e+000	 1.4921971765e-001
 8.5254638262e-001	 4.3030329576e+000	 9.3490252028e-003
 8.0906025144e-001	 4.3114208686e+000	 2.5101632560e-002
 7.6562737859e-001	 4.3193452543e+000	 4.1701502734e-002
 7.2225446106e-001	 4.3268091469e+000	 5.9722909214e-002
 6.7894809196e-001	 4.3338156923e+000	 7.9786239315e-002
 6.3571475857e-001	 4.3403681475e+000	 1.0043935366e-001
 5.9256084044e-001	 4.3464698764e+000	 1.1627459836e-001
 5.4949260768e-001	 4.3521243465e+000	 1.2722650262e-001
 5.0651621936e-001	 4.3573351253e+000	 1.3386476757e-001
 4.6363772201e-001	 4.3621058766e+000	 1.3700290176e-001
 4.2086304822e-001	 4.3664403570e+000	 1.3763466228e-001
 8.5772928351e-001	 4.3291924649e+000	 6.8598846607e-003
 8.1397878628e-001	 4.3376313687e+000	 2.1564006782e-002
 7.7028187117e-001	 4.3456039293e+000	 3.7732989616e-002
 7.2664527587e-001	 4.3531131972e+000	 5.5794026057e-002
 6.8307563357e-001	 4.3601623377e+000	 7.6204733373e-002
 6.3957947098e-001	 4.3667546273e+000	 9.7647714565e-002
 5.9616320644e-001	 4.3728934506e+000	 1.1369663435e-001
 5.5283314818e-001	 4.3785822960e+000	 1.2406316190e-001
 5.0959549272e-001	 4.3838247528e+000	 1.2937261459e-001
 4.6645632333e-001	 4.3886245070e+000	 1.3045346099e-001
 4.2342160868e-001	 4.3929853381e+000	 1.2827854135e-001
 8.6291218439e-001	 4.3553519723e+000	 6.5479145253e-003
 8.1889732113e-001	 4.3638418688e+000	 2.0013486393e-002
 7.7493636376e-001	 4.3718626043e+000	 3.5518479505e-002
 7.3103609068e-001	 4.3794172475e+000	 5.3364706366e-002
 6.8720317518e-001	 4.3865089830e+000	 7.3870688683e-002
 6.4344418339e-001	 4.3931411071e+000	 9.5931292242e-002
 5.9976557244e-001	 4.3993170248e+000	 1.1229657420e-001
 5.5617368869e-001	 4.4050402455e+000	 1.2232535822e-001
 5.1267476608e-001	 4.4103143803e+000	 1.2670796907e-001
 4.6927492465e-001	 4.4151431374e+000	 1.2629860986e-001
 4.2598016914e-001	 4.4195303192e+000	 1.2206158289e-001
 8.6809508528e-001	 4.3815114796e+000	 8.4324421373e-003
 8.2381585598e-001	 4.3900523689e+000	 2.0540685219e-002
 7.7959085635e-001	 4.3981212792e+000	 3.5231613394e-002
 7.3542690550e-001	 4.4057212979e+000	 5.2702589192e-002
 6.9133071679e-001	 4.4128556284e+000	 7.3156004674e-002
 6.4730889580e-001	 4.4195275870e+000	 9.5732881747e-002
 6.0336793844e-001	 4.4257405989e+000	 1.1260288365e-001
 5.5951422919e-001	 4.4314981950e+000	 1.2263419898e-001
 5.1575403944e-001	 4.4368040078e+000	 1.2658943367e-001
 4.7209352597e-001	 4.4416617678e+000	 1.2535727423e-001
 4.2853872961e-001	 4.4460753003e+000	 1.1990393901e-001
 4.0295312499e-001	 4.1806254894e+000	 2.1538157810e-001
 3.6209760679e-001	 4.1843620215e+000	 2.4141343564e-001
 3.2135264073e-001	 4.1876881727e+000	 2.5347618093e-001
 2.8072365755e-001	 4.1906077882e+000	 2.5486604213e-001
 2.4021597217e-001	 4.1931247882e+000	 2.4931459512e-001
 1.9983478304e-001	 4.1952431647e+000	 2.4093107580e-001
 1.5958517145e-001	 4.1969669780e+000	 2.3415047046e-001
 1.1947210102e-001	 4.1983003530e+000	 2.3368673911e-001
 7.9500417302e-002	 4.1992474762e+000	 2.4449058345e-001
 3.9674847448e-002	 4.1998125921e+000	 2.7171122670e-001
 0.0000000000e+000	 4.2000000000e+000	 3.2066172935e-001
 4.0551168545e-001	 4.2071704705e+000	 2.0920093492e-001
 3.6439675416e-001	 4.2109307278e+000	 2.3120428735e-001
 3.2339307698e-001	 4.2142779985e+000	 2.4077354014e-001
 2.8250611909e-001	 4.2172161521e+000	 2.4063124919e-001
 2.4174122921e-001	 4.2197491339e+000	 2.3390463624e-001
 2.0110363876e-001	 4.2218809611e+000	 2.2407138521e-001
 1.6059846130e-001	 4.2236157197e+000	 2.1491103916e-001
 1.2023069197e-001	 4.2249575610e+000	 2.1046133442e-001
 8.0005207095e-002	 4.2259106980e+000	 2.1497886867e-001
 3.9926763837e-002	 4.2264794022e+000	 2.3290355928e-001
 0.0000000000e+000	 4.2266680000e+000	 2.6882640715e-001
 4.0807024591e-001	 4.2337154516e+000	 1.9989752878e-001
 3.6669590154e-001	 4.2374994341e+000	 2.1761653373e-001
 3.2543351322e-001	 4.2408678242e+000	 2.2455814603e-001
 2.8428858064e-001	 4.2438245160e+000	 2.2293498666e-001
 2.4326648624e-001	 4.2463734795e+000	 2.1533153746e-001
 2.0237249447e-001	 4.2485187574e+000	 2.0465354882e-001
 1.6161175114e-001	 4.2502644615e+000	 1.9408285707e-001
 1.2098928292e-001	 4.2516147691e+000	 1.8703693006e-001
 8.0509996888e-002	 4.2525739199e+000	 1.8713252273e-001
 4.0178680226e-002	 4.2531462122e+000	 1.9815288759e-001
 0.0000000000e+000	 4.2533360000e+000	 2.2401804730e-001
 4.1062880637e-001	 4.2602604327e+000	 1.8835996105e-001
 3.6899504892e-001	 4.2640681404e+000	 2.0172915793e-001
 3.2747394947e-001	 4.2674576500e+000	 2.0605647390e-001
 2.8607104219e-001	 4.2704328799e+000	 2.0310641054e-001
 2.4479174328e-001	 4.2729978252e+000	 1.9498054781e-001
 2.0364135018e-001	 4.2751565538e+000	 1.8407069398e-001
 1.6262504099e-001	 4.2769132032e+000	 1.7301724083e-001
 1.2174787387e-001	 4.2782719771e+000	 1.6467202364e-001
 8.1014786682e-002	 4.2792371417e+000	 1.6206505312e-001
 4.0430596615e-002	 4.2798130223e+000	 1.6837455282e-001
 0.0000000000e+000	 4.2800040000e+000	 1.8689980117e-001
 4.1318736684e-001	 4.2868054138e+000	 1.7547540474e-001
 3.7129419629e-001	 4.2906368466e+000	 1.8460223057e-001
 3.2951438571e-001	 4.2940474757e+000	 1.8645834509e-001
 2.8785350374e-001	 4.2970412439e+000	 1.8242001692e-001
 2.4631700032e-001	 4.2996221709e+000	 1.7416398129e-001
 2.0491020590e-001	 4.3017943502e+000	 1.6362446729e-001
 1.6363833084e-001	 4.3035619450e+000	 1.5295521124e-001
 1.2250646482e-001	 4.3049291852e+000	 1.4449573668e-001
 8.1519576475e-002	 4.3059003635e+000	 1.4074125313e-001
 4.0682513004e-002	 4.3064798323e+000	 1.4431559605e-001
 0.0000000000e+000	 4.3066720000e+000	 1.5794669945e-001
 4.1574592730e-001	 4.3133503949e+000	 1.6213176348e-001
 3.7359334367e-001	 4.3172055529e+000	 1.6727961768e-001
 3.3155482196e-001	 4.3206373015e+000	 1.6692014565e-001
 2.8963596529e-001	 4.3236496078e+000	 1.6209933189e-001
 2.4784225735e-001	 4.3262465166e+000	 1.5412533743e-001
 2.0617906161e-001	 4.3284321465e+000	 1.4452954379e-001
 1.6465162068e-001	 4.3302106868e+000	 1.3503234814e-001
 1.2326505578e-001	 4.3315863932e+000	 1.2751297121e-001
 8.2024366269e-002	 4.3325635854e+000	 1.2398261515e-001
 4.0934429394e-002	 4.3331466424e+000	 1.2656038257e-001
 0.0000000000e+000	 4.3333400000e+000	 1.3745144078e-001
 4.1830448776e-001	 4.3398953759e+000	 1.4921971765e-001
 3.7589249104e-001	 4.3437742592e+000	 1.5079156170e-001
 3.3359525820e-001	 4.3472271273e+000	 1.4856790507e-001
 2.9141842684e-001	 4.3502579717e+000	 1.4332044921e-001
 2.4936751439e-001	 4.3528708623e+000	 1.3604325806e-001
 2.0744791733e-001	 4.3550699429e+000	 1.2791796193e-001
 1.6566491053e-001	 4.3568594285e+000	 1.2028346145e-001
 1.2402364673e-001	 4.3582436013e+000	 1.1460937388e-001
 8.2529156063e-002	 4.3592268072e+000	 1.1247254392e-001
 4.1186345783e-002	 4.3598134524e+000	 1.1553601932e-001
 0.0000000000e+000	 4.3600080000e+000	 1.2552996795e-001
 4.2086304822e-001	 4.3664403570e+000	 1.3763466228e-001
 3.7819163842e-001	 4.3703429655e+000	 1.3615714116e-001
 3.3563569445e-001	 4.3738169530e+000	 1.3250024092e-001
 2.9320088839e-001	 4.3768663357e+000	 1.2721542228e-001
 2.5089277143e-001	 4.3794952079e+000	 1.2103532755e-001
 2.0871677304e-001	 4.3817077393e+000	 1.1484329188e-001
 1.6667820038e-001	 4.3835081703e+000	 1.0964708642e-001
 1.2478223768e-001	 4.3849008094e+000	 1.0655611595e-001
 8.3033945857e-002	 4.3858900290e+000	 1.0676137822e-001
 4.1438262172e-002	 4.3864802625e+000	 1.1151757444e-001
 0.0000000000e+000	 4.3866760000e+000	 1.2212684062e-001
 4.2342160868e-001	 4.3929853381e+000	 1.2827854135e-001
 3.8049078580e-001	 4.3969116718e+000	 1.2438661385e-001
 3.3767613069e-001	 4.4004067788e+000	 1.1979117521e-001
 2.9498334994e-001	 4.4034746996e+000	 1.1487551652e-001
 2.5241802846e-001	 4.4061195536e+000	 1.1016172291e-001
 2.0998562876e-001	 4.4083455356e+000	 1.0628464410e-001
 1.6769149023e-001	 4.4101569120e+000	 1.0396981034e-001
 1.2554082863e-001	 4.4115580174e+000	 1.0401449688e-001
 8.3538735650e-002	 4.4125532509e+000	 1.0727122912e-001
 4.1690178561e-002	 4.4131470725e+000	 1.1463310726e-001
 0.0000000000e+000	 4.4133440000e+000	 1.2702041334e-001
 4.2598016914e-001	 4.4195303192e+000	 1.2206158289e-001
 3.8278993317e-001	 4.4234803781e+000	 1.1648364874e-001
 3.3971656693e-001	 4.4269966045e+000	 1.1149282788e-001
 2.9676581148e-001	 4.4300830635e+000	 1.0735432802e-001
 2.5394328550e-001	 4.4327438993e+000	 1.0442872027e-001
 2.1125448447e-001	 4.4349833320e+000	 1.0315052505e-001
 1.6870478007e-001	 4.4368056538e+000	 1.0401043790e-001
 1.2629941958e-001	 4.4382152255e+000	 1.0754037885e-001
 8.4043525443e-002	 4.4392164727e+000	 1.1430064248e-001
 4.1942094950e-002	 4.4398138826e+000	 1.2486851666e-001
 0.0000000000e+000	 4.4400120000e+000	 1.3982782693e-001
 4.2853872961e-001	 4.4460753003e+000	 1.1990393901e-001
 3.8508908055e-001	 4.4500490843e+000	 1.1344745095e-001
 3.4175700318e-001	 4.4535864303e+000	 1.0863799232e-001
 2.9854827303e-001	 4.4566914274e+000	 1.0567077409e-001
 2.5546854253e-001	 4.4593682450e+000	 1.0479206360e-001
 2.1252334018e-001	 4.4616211283e+000	 1.0628254627e-001
 1.6971806992e-001	 4.4634543955e+000	 1.1044400188e-001
 1.2705801053e-001	 4.4648724335e+000	 1.1758845953e-001
 8.4548315236e-002	 4.4658796945e+000	 1.2802909310e-001
 4.2194011339e-002	 4.4664806926e+000	 1.4207221534e-001
 0.0000000000e+000	 4.4666800000e+000	 1.6000982103e-001
 4.4666800000e+000	 0.0000000000e+000	 6.6269876151e-001
 4.4664806926e+000	 4.2194011339e-002	 6.5482407883e-001
 4.4658796945e+000	 8.4548315236e-002	 6.4889559456e-001
 4.4648724335e+000	 1.2705801053e-001	 6.4396717149e-001
 4.4634543955e+000	 1.6971806992e-001	 6.3925006539e-001
 4.4616211283e+000	 2.1252334018e-001	 6.3409604165e-001
 4.4593682450e+000	 2.5546854253e-001	 6.2798153379e-001
 4.4566914274e+000	 2.9854827303e-001	 6.2049216914e-001
 4.4535864303e+000	 3.4175700318e-001	 6.1130689527e-001
 4.4500490843e+000	 3.8508908055e-001	 6.0018084892e-001
 4.4460753003e+000	 4.2853872961e-001	 5.8692601922e-001
 4.4933440011e+000	 0.0000000000e+000	 6.2653548228e-001
 4.4931435039e+000	 4.2445889952e-002	 6.2283424643e-001
 4.4925389182e+000	 8.5053029335e-002	 6.2066298602e-001
 4.4915256443e+000	 1.2781648773e-001	 6.1912398370e-001
 4.4900991413e+000	 1.7073120782e-001	 6.1745444670e-001
 4.4882549303e+000	 2.1379200563e-001	 6.1501329713e-001
 4.4859885983e+000	 2.5699357085e-001	 6.1126939867e-001
 4.4832958014e+000	 3.0033046730e-001	 6.0579052080e-001
 4.4801722689e+000	 3.4379713346e-001	 5.9823224517e-001
 4.4766138066e+000	 3.8738788317e-001	 5.8832592263e-001
 4.4726163009e+000	 4.3109690641e-001	 5.7586469397e-001
 4.5200080089e+000	 0.0000000000e+000	 5.9432809680e-001
 4.5198063219e+000	 4.2697768628e-002	 5.9390573680e-001
 4.5191981485e+000	 8.5557743560e-002	 5.9465926053e-001
 4.5181788617e+000	 1.2857496512e-001	 5.9575470370e-001
 4.5167438937e+000	 1.7174434598e-001	 5.9646818541e-001
 4.5148887390e+000	 2.1506067140e-001	 5.9617652308e-001
 4.5126089583e+000	 2.5851859956e-001	 5.9434969777e-001
 4.5099001820e+000	 3.0211266201e-001	 5.9054444622e-001
 4.5067581141e+000	 3.4583726425e-001	 5.8439815478e-001
 4.5031785355e+000	 3.8968668636e-001	 5.7562212910e-001
 4.4991573082e+000	 4.3365508385e-001	 5.6399321352e-001
 4.5466720300e+000	 0.0000000000e+000	 5.6619536027e-001
 4.5464691533e+000	 4.2949647430e-002	 5.6811987884e-001
 4.5458573921e+000	 8.6062458036e-002	 5.7094180183e-001
 4.5448320925e+000	 1.2933344288e-001	 5.7390428627e-001
 4.5433886594e+000	 1.7275748464e-001	 5.7633326034e-001
 4.5415225610e+000	 2.1632933779e-001	 5.7763202077e-001
 4.5392293316e+000	 2.6004362902e-001	 5.7727811466e-001
 4.5365045760e+000	 3.0389485761e-001	 5.7482175691e-001
 4.5333439727e+000	 3.4787739605e-001	 5.6988492782e-001
 4.5297432778e+000	 3.9198549070e-001	 5.6216018967e-001
 4.5256983287e+000	 4.3621326257e-001	 5.5140815561e-001
 4.5733360711e+000	 0.0000000000e+000	 5.4229667914e-001
 4.5731320046e+000	 4.3201526421e-002	 5.4559070145e-001
 4.5725166558e+000	 8.6567172891e-002	 5.4959346015e-001
 4.5714853432e+000	 1.3009192122e-001	 5.5363661423e-001
 4.5700334451e+000	 1.7377062406e-001	 5.5710471030e-001
 4.5681564029e+000	 2.1759800514e-001	 5.5943392709e-001
 4.5658497249e+000	 2.6156865963e-001	 5.6011355947e-001
 4.5631089899e+000	 3.0567705455e-001	 5.5868946679e-001
 4.5599298511e+000	 3.4991752939e-001	 5.5476859951e-001
 4.5563080399e+000	 3.9428429676e-001	 5.4802360620e-001
 4.5522393692e+000	 4.3877144321e-001	 5.3819641292e-001
 4.6000001389e+000	 0.0000000000e+000	 5.2283093752e-001
 4.5997948826e+000	 4.3453405663e-002	 5.2646387808e-001
 4.5991759461e+000	 8.7071888250e-002	 5.3072161433e-001
 4.5981386206e+000	 1.3085040031e-001	 5.3503367683e-001
 4.5966782575e+000	 1.7478376449e-001	 5.3884992646e-001
 4.5947902715e+000	 2.1886667376e-001	 5.4164361791e-001
 4.5924701447e+000	 2.6309369176e-001	 5.4291767903e-001
 4.5897134304e+000	 3.0745925327e-001	 5.4221340440e-001
 4.5865157562e+000	 3.5195766477e-001	 5.3912064499e-001
 4.5828728286e+000	 3.9658310513e-001	 5.3328845896e-001
 4.5787804362e+000	 4.4132962641e-001	 5.2443507290e-001
 4.6266642400e+000	 0.0000000000e+000	 5.0803536447e-001
 4.6264577939e+000	 4.3705285220e-002	 5.1091570813e-001
 4.6258352697e+000	 8.7576604240e-002	 5.1445726700e-001
 4.6247919314e+000	 1.3160888035e-001	 5.1819477748e-001
 4.6233231032e+000	 1.7579690619e-001	 5.2164797068e-001
 4.6214241734e+000	 2.2013534396e-001	 5.2432913400e-001
 4.6190905979e+000	 2.6461872580e-001	 5.2575438691e-001
 4.6163179041e+000	 3.0924145422e-001	 5.2545784228e-001
 4.6131016945e+000	 3.5399780270e-001	 5.2300770254e-001
 4.6094376505e+000	 3.9888191636e-001	 5.1802321743e-001
 4.6053215364e+000	 4.4388781281e-001	 5.1019130863e-001
 4.6533283810e+000	 0.0000000000e+000	 4.9818444037e-001
 4.6531207452e+000	 4.3957165155e-002	 4.9915213354e-001
 4.6524946333e+000	 8.8081320987e-002	 5.0095417127e-001
 4.6514452821e+000	 1.3236736153e-001	 5.0323576950e-001
 4.6499679888e+000	 1.7681004941e-001	 5.0558891856e-001
 4.6480581152e+000	 2.2140401607e-001	 5.0756462891e-001
 4.6457110910e+000	 2.6614376212e-001	 5.0868941241e-001
 4.6429224177e+000	 3.1102365784e-001	 5.0848514286e-001
 4.6396876726e+000	 3.5603794368e-001	 5.0649131119e-001
 4.6360025122e+000	 4.0118073105e-001	 5.0228856325e-001
 4.6318626763e+000	 4.4644600304e-001	 4.9552228029e-001
 4.6799925688e+000	 0.0000000000e+000	 4.9326656936e-001
 4.6797837432e+000	 4.4209045530e-002	 4.9149269376e-001
 4.6791540436e+000	 8.8586038617e-002	 4.9076392317e-001
 4.6780986794e+000	 1.3312584404e-001	 4.9080607585e-001
 4.6766129211e+000	 1.7782319440e-001	 4.9128477746e-001
 4.6746921036e+000	 2.2267269039e-001	 4.9182035301e-001
 4.6723316306e+000	 2.6766880112e-001	 4.9200355190e-001
 4.6695269779e+000	 3.1280586458e-001	 4.9141221224e-001
 4.6662736973e+000	 3.5807808824e-001	 4.8962766181e-001
 4.6625674204e+000	 4.0347954975e-001	 4.8613722507e-001
 4.6584038627e+000	 4.4900419775e-001	 4.8047504682e-001
 4.7066568099e+000	 0.0000000000e+000	 4.9097769276e-001
 4.7064467945e+000	 4.4460926409e-002	 4.8811980790e-001
 4.7058135072e+000	 8.9090757256e-002	 4.8614999142e-001
 4.7047521301e+000	 1.3388432806e-001	 4.8484661225e-001
 4.7032579066e+000	 1.7883634142e-001	 4.8392986862e-001
 4.7013261453e+000	 2.2394136725e-001	 4.8307625242e-001
 4.6989522236e+000	 2.6919384316e-001	 4.8193381513e-001
 4.6961315913e+000	 3.1458807488e-001	 4.8013834596e-001
 4.6928597752e+000	 3.6011823688e-001	 4.7733058225e-001
 4.6891323818e+000	 4.0577837306e-001	 4.7317458132e-001
 4.6849451022e+000	 4.5156239757e-001	 4.6737739124e-001
 4.7333211109e+000	 0.0000000000e+000	 4.8956754703e-001
 4.7331099057e+000	 4.4712807855e-002	 4.8784351538e-001
 4.7324730307e+000	 8.9595477031e-002	 4.8645866534e-001
 4.7314056407e+000	 1.3464281379e-001	 4.8527499844e-001
 4.7299029521e+000	 1.7984949071e-001	 4.8409857041e-001
 4.7279602469e+000	 2.2521004697e-001	 4.8269345169e-001
 4.7255728763e+000	 2.7071888863e-001	 4.8079645474e-001
 4.7227362646e+000	 3.1637028919e-001	 4.7813274311e-001
 4.7194459128e+000	 3.6215839011e-001	 4.7443244774e-001
 4.7156974029e+000	 4.0807720153e-001	 4.6944842521e-001
 4.7114864015e+000	 4.5412060315e-001	 4.6297530210e-001
 4.4460753003e+000	 4.2853872961e-001	 5.8692601922e-001
 4.4416617678e+000	 4.7209352597e-001	 5.7182378520e-001
 4.4368040078e+000	 5.1575403944e-001	 5.5580795118e-001
 4.4314981950e+000	 5.5951422919e-001	 5.3970434807e-001
 4.4257405989e+000	 6.0336793844e-001	 5.2430482203e-001
 4.4195275870e+000	 6.4730889580e-001	 5.1031896618e-001
 4.4128556284e+000	 6.9133071679e-001	 4.9803884114e-001
 4.4057212979e+000	 7.3542690550e-001	 4.8618394830e-001
 4.3981212792e+000	 7.7959085635e-001	 4.7407093806e-001
 4.3900523689e+000	 8.2381585598e-001	 4.6115613124e-001
 4.3815114796e+000	 8.6809508528e-001	 4.4688748915e-001
 4.4726163009e+000	 4.3109690641e-001	 5.7586469397e-001
 4.4681764217e+000	 4.7491170464e-001	 5.6125287519e-001
 4.4632896631e+000	 5.1883285105e-001	 5.4558588593e-001
 4.4579521772e+000	 5.6285426878e-001	 5.2974895991e-001
 4.4521602109e+000	 6.0696976427e-001	 5.1461590550e-001
 4.4459101101e+000	 6.5117302869e-001	 5.0100660895e-001
 4.4391983230e+000	 6.9545763947e-001	 4.8923753846e-001
 4.4320214039e+000	 7.3981706190e-001	 4.7799897588e-001
 4.4243760167e+000	 7.8424465099e-001	 4.6659416632e-001
 4.4162589387e+000	 8.2873365329e-001	 4.5441900097e-001
 4.4076670643e+000	 8.7327720898e-001	 4.4086465466e-001
 4.4991573082e+000	 4.3365508385e-001	 5.6399321352e-001
 4.4946910823e+000	 4.7772988402e-001	 5.4999553283e-001
 4.4897753251e+000	 5.2191166344e-001	 5.3482966743e-001
 4.4844061659e+000	 5.6619430921e-001	 5.1942214538e-001
 4.4785798294e+000	 6.1057159100e-001	 5.0471105044e-001
 4.4722926399e+000	 6.5503716255e-001	 4.9160963897e-001
 4.4655410243e+000	 6.9958456318e-001	 4.8042225531e-001
 4.4583215165e+000	 7.4420721941e-001	 4.6983332472e-001
 4.4506307607e+000	 7.8889844680e-001	 4.5913729679e-001
 4.4424655151e+000	 8.3365145183e-001	 4.4768435509e-001
 4.4338226555e+000	 8.7845933398e-001	 4.3482323710e-001
 4.5256983287e+000	 4.3621326257e-001	 5.5140815561e-001
 4.5212057561e+000	 4.8054806480e-001	 5.3815275334e-001
 4.5162610003e+000	 5.2499047737e-001	 5.2364661480e-001
 4.5108601678e+000	 5.6953435130e-001	 5.0883725838e-001
 4.5049994612e+000	 6.1417341953e-001	 4.9470715300e-001
 4.4986751828e+000	 6.5890129835e-001	 4.8224380297e-001
 4.4918837387e+000	 7.0371148895e-001	 4.7170358725e-001
 4.4846216423e+000	 7.4859737911e-001	 4.6179215146e-001
 4.4768855178e+000	 7.9355224493e-001	 4.5179868258e-001
 4.4686721045e+000	 8.3856925284e-001	 4.4104212710e-001
 4.4599782598e+000	 8.8364146158e-001	 4.2884286291e-001
 4.5522393692e+000	 4.3877144321e-001	 5.3819641292e-001
 4.5477204498e+000	 4.8336624770e-001	 5.2581369978e-001
 4.5427466954e+000	 5.2806929361e-001	 5.1213021204e-001
 4.5373141896e+000	 5.7287439590e-001	 4.9809191287e-001
 4.5314191127e+000	 6.1777525075e-001	 4.8470351656e-001
 4.5250577455e+000	 6.6276543704e-001	 4.7300540752e-001
 4.5182264729e+000	 7.0783841783e-001	 4.6317197519e-001
 4.5109217877e+000	 7.5298754210e-001	 4.5395948233e-001
 4.5031402947e+000	 7.9820604656e-001	 4.4465484589e-001
 4.4948787136e+000	 8.4348705752e-001	 4.3455999618e-001
 4.4861338837e+000	 8.8882359306e-001	 4.2298075869e-001
 4.5787804362e+000	 4.4132962641e-001	 5.2443507290e-001
 4.5742351699e+000	 4.8618443341e-001	 5.1305565996e-001
 4.5692324169e+000	 5.3114811292e-001	 5.0036014017e-001
 4.5637682378e+000	 5.7621444384e-001	 4.8726808795e-001
 4.5578387907e+000	 6.2137708559e-001	 4.7478202659e-001
 4.5514403346e+000	 6.6662957959e-001	 4.6397155975e-001
 4.5445692334e+000	 7.1196535083e-001	 4.5489798438e-001
 4.5372219595e+000	 7.5737770949e-001	 4.4639856925e-001
 4.5293950978e+000	 8.0285985284e-001	 4.3776091118e-001
 4.5210853490e+000	 8.4840486713e-001	 4.2828389675e-001
 4.5122895337e+000	 8.9400572972e-001	 4.1727233650e-001
 4.6053215364e+000	 4.4388781281e-001	 5.1019130863e-001
 4.6007499233e+000	 4.8900262265e-001	 4.9994401283e-001
 4.5957181716e+000	 5.3422693609e-001	 4.8840231753e-001
 4.5902223192e+000	 5.7955449595e-001	 4.7643223969e-001
 4.5842585017e+000	 6.2497892492e-001	 4.6500733081e-001
 4.5778229567e+000	 6.7049372698e-001	 4.5519534410e-001
 4.5709120268e+000	 7.1609228898e-001	 4.4693258622e-001
 4.5635221642e+000	 7.6176788236e-001	 4.3915224798e-001
 4.5556499337e+000	 8.0751366493e-001	 4.3115103924e-001
 4.5472920170e+000	 8.5332268289e-001	 4.2223852822e-001
 4.5384452165e+000	 8.9918787286e-001	 4.1173177864e-001
 4.6318626763e+000	 4.4644600304e-001	 4.9552228029e-001
 4.6272647164e+000	 4.9182081611e-001	 4.8653220400e-001
 4.6222039660e+000	 5.3730576387e-001	 4.7630894780e-001
 4.6166764401e+000	 5.8289455307e-001	 4.6563541918e-001
 4.6106782524e+000	 6.2858076965e-001	 4.5542702445e-001
 4.6042056184e+000	 6.7435788016e-001	 4.4671153679e-001
 4.5972548598e+000	 7.2021923333e-001	 4.3930744305e-001
 4.5898224083e+000	 7.6615806182e-001	 4.3224329799e-001
 4.5819048089e+000	 8.1216748401e-001	 4.2483886223e-001
 4.5734987244e+000	 8.5824050602e-001	 4.1642786479e-001
 4.5646009385e+000	 9.0437002377e-001	 4.0635262174e-001
 4.6584038627e+000	 4.4900419775e-001	 4.8047504682e-001
 4.6537795559e+000	 4.9463901451e-001	 4.7286173003e-001
 4.6486898067e+000	 5.4038459704e-001	 4.6411857527e-001
 4.6431306074e+000	 5.8623461604e-001	 4.5491339680e-001
 4.6370980492e+000	 6.3218262069e-001	 4.4607184040e-001
 4.6305883262e+000	 6.7822204010e-001	 4.3854256454e-001
 4.6235977388e+000	 7.2434618490e-001	 4.3203519545e-001
 4.6161226984e+000	 7.7054824896e-001	 4.2567480408e-001
 4.6081597302e+000	 8.1682131123e-001	 4.1881791952e-001
 4.5997054777e+000	 8.6315833775e-001	 4.1083566542e-001
 4.5907567062e+000	 9.0955218375e-001	 4.0110834034e-001
 4.6849451022e+000	 4.5156239757e-001	 4.6737739124e-001
 4.6802944484e+000	 4.9745721854e-001	 4.6017408746e-001
 4.6751757004e+000	 5.4346343637e-001	 4.5229708970e-001
 4.6695848276e+000	 5.8957468569e-001	 4.4433387629e-001
 4.6635178989e+000	 6.3578447894e-001	 4.3695584408e-001
 4.6569710867e+000	 6.8208620777e-001	 4.3069299734e-001
 4.6499406706e+000	 7.2847314472e-001	 4.2510975233e-001
 4.6424230411e+000	 7.7493844487e-001	 4.1943051968e-001
 4.6344147039e+000	 8.2147514776e-001	 4.1306209442e-001
 4.6259122833e+000	 8.6807617933e-001	 4.0542598376e-001
 4.6169125263e+000	 9.1473435410e-001	 3.9595292992e-001
 4.7114864015e+000	 4.5412060315e-001	 4.6297530210e-001
 4.7068094006e+000	 5.0027542892e-001	 4.5525543448e-001
 4.7016616537e+000	 5.4654228262e-001	 4.4694227208e-001
 4.6960391073e+000	 5.9291476285e-001	 4.3857709497e-001
 4.6899378081e+000	 6.3938634528e-001	 4.3083244263e-001
 4.6833539067e+000	 6.8595038414e-001	 4.2443232412e-001
 4.6762836616e+000	 7.3260011383e-001	 4.1889036357e-001
 4.6687234430e+000	 7.7932865067e-001	 4.1349064933e-001
 4.6606697367e+000	 8.2612899476e-001	 4.0752605165e-001
 4.6521191480e+000	 8.7299403196e-001	 4.0014367834e-001
 4.6430684052e+000	 9.1991653610e-001	 3.9082148938e-001
 4.3815114796e+000	 8.6809508528e-001	 4.4688748915e-001
 4.3724942563e+000	 9.1242827262e-001	 4.3094744266e-001
 4.3629991026e+000	 9.5680174346e-001	 4.1363963225e-001
 4.3530233041e+000	 1.0012083610e+000	 3.9531001330e-001
 4.3425642768e+000	 1.0456408917e+000	 3.7627344032e-001
 4.3316195706e+000	 1.0900920081e+000	 3.5680232325e-001
 4.3201868724e+000	 1.1345542914e+000	 3.3711372730e-001
 4.3082640100e+000	 1.1790202345e+000	 3.1735562197e-001
 4.2958489548e+000	 1.2234822450e+000	 2.9759161014e-001
 4.2829398248e+000	 1.2679326486e+000	 2.7778425208e-001
 4.2695348885e+000	 1.3123636919e+000	 2.5777685092e-001
 4.4076670643e+000	 8.7327720898e-001	 4.4086465466e-001
 4.3985960123e+000	 9.1787504482e-001	 4.2556508219e-001
 4.3890441770e+000	 9.6251340464e-001	 4.0880731418e-001
 4.3790088277e+000	 1.0071851090e+000	 3.9093467237e-001
 4.3684873648e+000	 1.0518828813e+000	 3.7226383007e-001
 4.3574773238e+000	 1.0965993501e+000	 3.5307353377e-001
 4.3459763777e+000	 1.1413270525e+000	 3.3359204815e-001
 4.3339823414e+000	 1.1860584366e+000	 3.1398348581e-001
 4.3214931740e+000	 1.2307858647e+000	 2.9433278154e-001
 4.3085069826e+000	 1.2755016165e+000	 2.7462923652e-001
 4.2950220250e+000	 1.3201978924e+000	 2.5474852686e-001
 4.4338226555e+000	 8.7845933398e-001	 4.3482323710e-001
 4.4246977749e+000	 9.2332181839e-001	 4.2014932011e-001
 4.4150892579e+000	 9.6822506725e-001	 4.0393473460e-001
 4.4049943577e+000	 1.0131618585e+000	 3.8652159925e-001
 4.3944104593e+000	 1.0581248724e+000	 3.6822923869e-001
 4.3833350834e+000	 1.1031066938e+000	 3.4934328826e-001
 4.3717658895e+000	 1.1480998154e+000	 3.3010317708e-001
 4.3597006792e+000	 1.1930966405e+000	 3.1068872616e-001
 4.3471373997e+000	 1.2380894862e+000	 2.9120535270e-001
 4.3340741467e+000	 1.2830705863e+000	 2.7166785872e-001
 4.3205091679e+000	 1.3280320950e+000	 2.5198268992e-001
 4.4599782598e+000	 8.8364146158e-001	 4.2884286291e-001
 4.4507995505e+000	 9.2876859468e-001	 4.1476775453e-001
 4.4411343519e+000	 9.7393673271e-001	 3.9907603109e-001
 4.4309799007e+000	 1.0191386110e+000	 3.8210988076e-001
 4.4203335667e+000	 1.0643668666e+000	 3.6419209103e-001
 4.4091928560e+000	 1.1096140407e+000	 3.4561546954e-001
 4.3975554141e+000	 1.1548725817e+000	 3.2663044731e-001
 4.3854190299e+000	 1.2001348480e+000	 3.0743193812e-001
 4.3727816382e+000	 1.2453931114e+000	 2.8814479853e-001
 4.3596413237e+000	 1.2906395599e+000	 2.6880788641e-001
 4.3459963236e+000	 1.3358663014e+000	 2.4935507080e-001
 4.4861338837e+000	 8.8882359306e-001	 4.2298075869e-001
 4.4769013457e+000	 9.3421537506e-001	 4.0946570576e-001
 4.4671794653e+000	 9.7964840245e-001	 3.9426343877e-001
 4.4569654632e+000	 1.0251153680e+000	 3.7771736645e-001
 4.4462566936e+000	 1.0706088655e+000	 3.6015439536e-001
 4.4350506480e+000	 1.1161213925e+000	 3.4187464079e-001
 4.4233449581e+000	 1.1616453530e+000	 3.2313919471e-001
 4.4111373998e+000	 1.2071730607e+000	 3.0415725867e-001
 4.3984258959e+000	 1.2526967420e+000	 2.8507188277e-001
 4.3852085198e+000	 1.2982085391e+000	 2.6594432098e-001
 4.3714834983e+000	 1.3437005137e+000	 2.4671198975e-001
 4.5122895337e+000	 8.9400572972e-001	 4.1727233650e-001
 4.5030031670e+000	 9.3966216088e-001	 4.0426687672e-001
 4.4932246048e+000	 9.8536007791e-001	 3.8950802528e-001
 4.4829510517e+000	 1.0310921310e+000	 3.7334143166e-001
 4.4721798464e+000	 1.0768508707e+000	 3.5609862572e-001
 4.4609084658e+000	 1.1226287508e+000	 3.3808700014e-001
 4.4491345279e+000	 1.1684181311e+000	 3.1957778394e-001
 4.4368557955e+000	 1.2142112805e+000	 3.0079346319e-001
 4.4240701793e+000	 1.2600003799e+000	 2.8189382366e-001
 4.4107757415e+000	 1.3057775260e+000	 2.6296063099e-001
 4.3969706986e+000	 1.3515347338e+000	 2.4390697743e-001
 4.5384452165e+000	 8.9918787286e-001	 4.1173177864e-001
 4.5291050209e+000	 9.4510895351e-001	 3.9917401216e-001
 4.5192697769e+000	 9.9107176051e-001	 3.8480042406e-001
 4.5089366726e+000	 1.0370689014e+000	 3.6895978755e-001
 4.4981030316e+000	 1.0830928836e+000	 3.5198860159e-001
 4.4867663160e+000	 1.1291361172e+000	 3.3420133271e-001
 4.4749241299e+000	 1.1751909177e+000	 3.1587863176e-001
 4.4625742233e+000	 1.2212495090e+000	 2.9725505911e-001
 4.4497144947e+000	 1.2673040270e+000	 2.7850545678e-001
 4.4363429951e+000	 1.3133465222e+000	 2.5972998298e-001
 4.4224579307e+000	 1.3593689638e+000	 2.4079576164e-001
 4.5646009385e+000	 9.0437002377e-001	 4.0635262174e-001
 4.5552069140e+000	 9.5055575431e-001	 3.9416955664e-001
 4.5453149880e+000	 9.9678345167e-001	 3.8011156590e-001
 4.5349223326e+000	 1.0430456808e+000	 3.6453128594e-001
 4.5240262557e+000	 1.0893349060e+000	 3.4777036533e-001
 4.5126242049e+000	 1.1356434934e+000	 3.3014995992e-001
 4.5007137706e+000	 1.1819637144e+000	 3.1195922756e-001
 4.4882926896e+000	 1.2282877481e+000	 2.9344337675e-001
 4.4753588486e+000	 1.2746076850e+000	 2.7479039524e-001
 4.4619102871e+000	 1.3209155299e+000	 2.5611646979e-001
 4.4479452010e+000	 1.3672032054e+000	 2.3723021470e-001
 4.5907567062e+000	 9.0955218375e-001	 4.0110834034e-001
 4.5813088528e+000	 9.5600256464e-001	 3.8921631141e-001
 4.5713602447e+000	 1.0024951528e+000	 3.7539340892e-001
 4.5609080380e+000	 1.0490224707e+000	 3.5999672197e-001
 4.5499495252e+000	 1.0955769392e+000	 3.4337305723e-001
 4.5384821391e+000	 1.1421508810e+000	 3.2584968631e-001
 4.5265034564e+000	 1.1887365230e+000	 3.0772315132e-001
 4.5140112010e+000	 1.2353259996e+000	 2.8924765761e-001
 4.5010032474e+000	 1.2819113558e+000	 2.7062218729e-001
 4.4874776238e+000	 1.3284845508e+000	 2.5197633643e-001
 4.4734325159e+000	 1.3750374608e+000	 2.3305859640e-001
 4.6169125263e+000	 9.1473435410e-001	 3.9595292992e-001
 4.6074108437e+000	 9.6144938587e-001	 3.8425809020e-001
 4.5974055535e+000	 1.0082068654e+000	 3.7057966697e-001
 4.5868937954e+000	 1.0549992725e+000	 3.5527963496e-001
 4.5758728465e+000	 1.1018189849e+000	 3.3870978834e-001
 4.5643401250e+000	 1.1486582816e+000	 3.2120274404e-001
 4.5522931938e+000	 1.1955093451e+000	 3.0306108907e-001
 4.5397297639e+000	 1.2423642651e+000	 2.8454614007e-001
 4.5266476974e+000	 1.2892150412e+000	 2.6586547145e-001
 4.5130450117e+000	 1.3360535868e+000	 2.4715778605e-001
 4.4989198818e+000	 1.3828717319e+000	 2.2812579483e-001
 4.6430684052e+000	 9.1991653610e-001	 3.9082148938e-001
 4.6335128934e+000	 9.6689621935e-001	 3.7922037395e-001
 4.6234509209e+000	 1.0139185908e+000	 3.6558666403e-001
 4.6128796112e+000	 1.0609760877e+000	 3.5028710739e-001
 4.6017962261e+000	 1.1080610447e+000	 3.3367851130e-001
 4.5901981691e+000	 1.1551656968e+000	 3.1609773504e-001
 4.5780829893e+000	 1.2022821825e+000	 2.9785184591e-001
 4.5654483845e+000	 1.2494025464e+000	 2.7920714268e-001
 4.5522922052e+000	 1.2965187431e+000	 2.6037712930e-001
 4.5386124571e+000	 1.3436226398e+000	 2.4149248427e-001
 4.5244073051e+000	 1.3907060206e+000	 2.2227356516e-001
 4.2695348885e+000	 1.3123636919e+000	 2.5777685092e-001
 4.2556325659e+000	 1.3567675455e+000	 2.3692474212e-001
 4.2412314288e+000	 1.4011363057e+000	 2.1450464789e-001
 4.2263302067e+000	 1.4454619993e+000	 1.9086322003e-001
 4.2109277906e+000	 1.4897365888e+000	 1.6641651575e-001
 4.1950232353e+000	 1.5339519758e+000	 1.4156335382e-001
 4.1786157627e+000	 1.5781000051e+000	 1.1668300602e-001
 4.1617047635e+000	 1.6221724688e+000	 9.2132830657e-002
 4.1442897998e+000	 1.6661611104e+000	 6.8245850058e-002
 4.1263706075e+000	 1.7100576294e+000	 4.5328272538e-002
 4.1079470979e+000	 1.7538536852e+000	 2.3656957527e-002
 4.2950220250e+000	 1.3201978924e+000	 2.5474852686e-001
 4.2810367120e+000	 1.3648668164e+000	 2.3406265304e-001
 4.2665496069e+000	 1.4095004374e+000	 2.1194958898e-001
 4.2515594314e+000	 1.4540907348e+000	 1.8877973948e-001
 4.2360650700e+000	 1.4986296230e+000	 1.6494310355e-001
 4.2200655720e+000	 1.5431089553e+000	 1.4081021973e-001
 4.2035601544e+000	 1.5875205278e+000	 1.1672981007e-001
 4.1865482044e+000	 1.6318560836e+000	 9.3026377699e-002
 4.1690292815e+000	 1.6761073169e+000	 6.9997760053e-002
 4.1510031199e+000	 1.7202658777e+000	 4.7912638090e-002
 4.1324696305e+000	 1.7643233755e+000	 2.7008000082e-002
 4.3205091679e+000	 1.3280320950e+000	 2.5198268992e-001
 4.3064408645e+000	 1.3729660894e+000	 2.3148171977e-001
 4.2918677912e+000	 1.4178645713e+000	 2.0968445928e-001
 4.2767886624e+000	 1.4627194725e+000	 1.8696761891e-001
 4.2612023557e+000	 1.5075226595e+000	 1.6369523508e-001
 4.2451079149e+000	 1.5522659371e+000	 1.4021001599e-001
 4.2285045523e+000	 1.5969410529e+000	 1.1683094631e-001
 4.2113916514e+000	 1.6415397008e+000	 9.3850857029e-002
 4.1937687693e+000	 1.6860535259e+000	 7.1533962703e-002
 4.1756356384e+000	 1.7304741285e+000	 5.0113366275e-002
 4.1569921692e+000	 1.7747930685e+000	 2.9788529890e-002
 4.3459963236e+000	 1.3358663014e+000	 2.4935507080e-001
 4.3318450297e+000	 1.3810653663e+000	 2.2903618222e-001
 4.3171859883e+000	 1.4262287093e+000	 2.0755387921e-001
 4.3020179060e+000	 1.4713482145e+000	 1.8526680584e-001
 4.2863396540e+000	 1.5164157003e+000	 1.6251315645e-001
 4.2701502703e+000	 1.5614229235e+000	 1.3960827635e-001
 4.2534489626e+000	 1.6063615826e+000	 1.1684223532e-001
 4.2362351109e+000	 1.6512233228e+000	 9.4477378009e-002
 4.2185082695e+000	 1.6959997399e+000	 7.2745853608e-002
 4.2002681693e+000	 1.7406823845e+000	 5.1847124713e-002
 4.1815147202e+000	 1.7852627668e+000	 3.1945453627e-002
 4.3714834983e+000	 1.3437005137e+000	 2.4671198975e-001
 4.3572492139e+000	 1.3891646494e+000	 2.2657609743e-001
 4.3425042043e+000	 1.4345928536e+000	 2.0539859769e-001
 4.3272471685e+000	 1.4799769629e+000	 1.8351358286e-001
 4.3114769711e+000	 1.5253087479e+000	 1.6123354909e-001
 4.2951926445e+000	 1.5705799167e+000	 1.3884696220e-001
 4.2783933917e+000	 1.6157821194e+000	 1.1661580813e-001
 4.2610785891e+000	 1.6609069522e+000	 9.4773132278e-002
 4.2432477882e+000	 1.7059459613e+000	 7.3520569959e-002
 4.2249007186e+000	 1.7508906481e+000	 5.3025867904e-002
 4.2060372896e+000	 1.7957324728e+000	 3.3420394637e-002
 4.3969706986e+000	 1.3515347338e+000	 2.4390697743e-001
 4.3826534236e+000	 1.3972639405e+000	 2.2394759500e-001
 4.3678224456e+000	 1.4429570062e+000	 2.0305575713e-001
 4.3524764563e+000	 1.4886057200e+000	 1.8154084598e-001
 4.3366143134e+000	 1.5342018043e+000	 1.5968982517e-001
 4.3202350437e+000	 1.5797369191e+000	 1.3776477885e-001
 4.3033378457e+000	 1.6252026657e+000	 1.1600044724e-001
 4.2859220920e+000	 1.6705905912e+000	 9.4601763246e-002
 4.2679873317e+000	 1.7158921927e+000	 7.3741392250e-002
 4.2495332926e+000	 1.7610989219e+000	 5.3557274876e-002
 4.2305598835e+000	 1.8062021894e+000	 3.4150170212e-002
 4.4224579307e+000	 1.3593689638e+000	 2.4079576164e-001
 4.4080576650e+000	 1.4053632418e+000	 2.2099313034e-001
 4.3931407186e+000	 1.4513211693e+000	 2.0035915637e-001
 4.3777057756e+000	 1.4972344879e+000	 1.7917838083e-001
 4.3617516871e+000	 1.5430948719e+000	 1.5771242083e-001
 4.3452774742e+000	 1.5888939329e+000	 1.3619748950e-001
 4.3282823309e+000	 1.6346232237e+000	 1.1484192493e-001
 4.3107656260e+000	 1.6802742423e+000	 9.3823732424e-002
 4.2927269061e+000	 1.7258384365e+000	 7.3288142227e-002
 4.2741658974e+000	 1.7713072085e+000	 5.3345182359e-002
 4.2550825081e+000	 1.8166719190e+000	 3.4067263541e-002
 4.4479452010e+000	 1.3672032054e+000	 2.3723021470e-001
 4.4334619445e+000	 1.4134625552e+000	 2.1755173603e-001
 4.4184590296e+000	 1.4596853450e+000	 1.9713951168e-001
 4.4029351327e+000	 1.5058632687e+000	 1.7625313710e-001
 4.3868890985e+000	 1.5519879528e+000	 1.5512908751e-001
 4.3703199423e+000	 1.5980509605e+000	 1.3397822703e-001
 4.3532268535e+000	 1.6440437958e+000	 1.1298333906e-001
 4.3356091973e+000	 1.6899579079e+000	 9.2296682725e-002
 4.3174665176e+000	 1.7357846952e+000	 7.2037577236e-002
 4.2987985391e+000	 1.7815155104e+000	 5.2290013647e-002
 4.2796051695e+000	 1.8271416644e+000	 3.3100290553e-002
 4.4734325159e+000	 1.3750374608e+000	 2.3305859640e-001
 4.4588662684e+000	 1.4215618828e+000	 2.1345927105e-001
 4.4437773848e+000	 1.4680495353e+000	 1.9322471604e-001
 4.4281645340e+000	 1.5144920646e+000	 1.7258950107e-001
 4.4120265538e+000	 1.5608810493e+000	 1.5176518134e-001
 4.3953624543e+000	 1.6072080041e+000	 1.3093780360e-001
 4.3781714198e+000	 1.6534643845e+000	 1.1026544634e-001
 4.3604528121e+000	 1.6996415905e+000	 8.9875798857e-002
 4.3422061724e+000	 1.7457309714e+000	 6.9863781104e-002
 4.3234312239e+000	 1.7917238301e+000	 5.0289203347e-002
 4.3041278737e+000	 1.8376114280e+000	 3.1174461861e-002
 4.4989198818e+000	 1.3828717319e+000	 2.2812579483e-001
 4.4842706432e+000	 1.4296612266e+000	 2.0854866832e-001
 4.4690957907e+000	 1.4764137423e+000	 1.8844009654e-001
 4.4533939857e+000	 1.5231208778e+000	 1.6800956643e-001
 4.4371640595e+000	 1.5697741635e+000	 1.4744395059e-001
 4.4204050163e+000	 1.6163650660e+000	 1.2690501819e-001
 4.4031160359e+000	 1.6628849919e+000	 1.0652699325e-001
 4.3852964765e+000	 1.7093252924e+000	 8.6414164929e-002
 4.3669458767e+000	 1.7556772674e+000	 6.6638551706e-002
 4.3480639580e+000	 1.8019321703e+000	 4.7237618163e-002
 4.3286506270e+000	 1.8480812126e+000	 2.8212039995e-002
 4.5244073051e+000	 1.3907060206e+000	 2.2227356516e-001
 4.5096750751e+000	 1.4377605886e+000	 2.0265018034e-001
 4.4944142536e+000	 1.4847779682e+000	 1.8260867019e-001
 4.4786234942e+000	 1.5317497104e+000	 1.6233340341e-001
 4.4623016217e+000	 1.5786672978e+000	 1.4198682145e-001
 4.4454476346e+000	 1.6255221485e+000	 1.2170696222e-001
 4.4280607082e+000	 1.6723056206e+000	 1.0160504474e-001
 4.4101401969e+000	 1.7190090161e+000	 8.1763119373e-002
 4.3916856366e+000	 1.7656235858e+000	 6.2231785344e-002
 4.3726967475e+000	 1.8121405334e+000	 4.3027973884e-002
 4.3531734355e+000	 1.8585510208e+000	 2.4132792128e-002
 4.1079470979e+000	 1.7538536852e+000	 2.3656957527e-002
 4.0890222373e+000	 1.7975343583e+000	 3.2476304184e-003
 4.0695935713e+000	 1.8410978246e+000	-1.6549669546e-002
 4.0496615522e+000	 1.8845356576e+000	-3.6526815457e-002
 4.0292268150e+000	 1.9278394095e+000	-5.7551881326e-002
 4.0082901786e+000	 1.9710006163e+000	-8.0570943674e-002
 3.9868526470e+000	 2.0140108020e+000	-1.0654288483e-001
 3.9649154103e+000	 2.0568614843e+000	-1.3229476402e-001
 3.9424798459e+000	 2.0995441792e+000	-1.5695029190e-001
 3.9195475189e+000	 2.1420504062e+000	-1.8117882683e-001
 3.8961201831e+000	 2.1843716934e+000	-2.0563167518e-001
 4.1324696305e+000	 1.7643233755e+000	 2.7008000082e-002
 4.1134317973e+000	 1.8082648019e+000	 7.0882369525e-003
 4.0938871512e+000	 1.8520883219e+000	-1.2682925449e-002
 4.0738361472e+000	 1.8957854585e+000	-3.3096951771e-002
 4.0532794241e+000	 1.9393477137e+000	-5.5014994583e-002
 4.0322178058e+000	 1.9827665728e+000	-7.9369601605e-002
 4.0106523021e+000	 2.0260335093e+000	-1.0585496299e-001
 3.9885841103e+000	 2.0691399902e+000	-1.3015491701e-001
 3.9660146160e+000	 2.1120774810e+000	-1.5364973755e-001
 3.9429453937e+000	 2.1548374504e+000	-1.7723057904e-001
 3.9193782076e+000	 2.1974113759e+000	-2.0155309240e-001
 4.1569921692e+000	 1.7747930685e+000	 2.9788529890e-002
 4.1378413634e+000	 1.8189952483e+000	 1.0206758049e-002
 4.1181807371e+000	 1.8630788219e+000	-9.6000355042e-003
 4.0980107483e+000	 1.9070352623e+000	-3.0420236869e-002
 4.0773320393e+000	 1.9508560208e+000	-5.3106004524e-002
 4.0561454389e+000	 1.9945325322e+000	-7.8574887169e-002
 4.0344519631e+000	 2.0380562196e+000	-1.0521341223e-001
 4.0122528162e+000	 2.0814184992e+000	-1.2954048713e-001
 3.9895493920e+000	 2.1246107859e+000	-1.5212762940e-001
 3.9663432743e+000	 2.1676244977e+000	-1.7492065607e-001
 3.9426362379e+000	 2.2104510617e+000	-1.9885082048e-001
 4.1815147202e+000	 1.7852627668e+000	 3.1945453627e-002
 4.1622509417e+000	 1.8297257000e+000	 1.2578497217e-002
 4.1424743353e+000	 1.8740693274e+000	-7.3059648506e-003
 4.1221853614e+000	 1.9182850717e+000	-2.8490625281e-002
 4.1013846665e+000	 1.9623643336e+000	-5.1816624911e-002
 4.0800730841e+000	 2.0062984976e+000	-7.8121660984e-002
 4.0582516360e+000	 2.0500789359e+000	-1.0439650997e-001
 4.0359215339e+000	 2.0936970144e+000	-1.2883794583e-001
 4.0130841797e+000	 2.1371440970e+000	-1.5184897243e-001
 3.9897411667e+000	 2.1804115515e+000	-1.7404041408e-001
 3.9658942799e+000	 2.2234907540e+000	-1.9735870920e-001
 4.2060372896e+000	 1.7957324728e+000	 3.3420394637e-002
 4.1866605383e+000	 1.8404561597e+000	 1.4172945659e-002
 4.1667679516e+000	 1.8850598412e+000	-5.8118216853e-003
 4.1463599927e+000	 1.9295348895e+000	-2.7308348100e-002
 4.1254373117e+000	 1.9738726551e+000	-5.1144783525e-002
 4.1040007471e+000	 2.0180644717e+000	-7.7723524000e-002
 4.0820513268e+000	 2.0621016612e+000	-1.0351867421e-001
 4.0595902694e+000	 2.1059755387e+000	-1.2792420551e-001
 4.0366189852e+000	 2.1496774176e+000	-1.5132230095e-001
 4.0131390766e+000	 2.1931986148e+000	-1.7411631875e-001
 3.9891523392e+000	 2.2365304562e+000	-1.9692616858e-001
 4.2305598835e+000	 1.8062021894e+000	 3.4150170212e-002
 4.2110701594e+000	 1.8511866302e+000	 1.4954298240e-002
 4.1910615923e+000	 1.8960503660e+000	-5.1343081621e-003
 4.1705346482e+000	 1.9407847185e+000	-2.6879336360e-002
 4.1494899810e+000	 1.9853809880e+000	-5.1094023699e-002
 4.1279284341e+000	 2.0298304576e+000	-7.7436597797e-002
 4.1058510414e+000	 2.0741243986e+000	-1.0268841184e-001
 4.0832590286e+000	 2.1182540753e+000	-1.2691689861e-001
 4.0601538141e+000	 2.1622107507e+000	-1.5048464842e-001
 4.0365370098e+000	 2.2059856910e+000	-1.7377194501e-001
 4.0124104219e+000	 2.2495701713e+000	-1.9717738373e-001
 4.2550825081e+000	 1.8166719190e+000	 3.4067263541e-002
 4.2354798109e+000	 1.8619171141e+000	 1.4881963328e-002
 4.2153552633e+000	 1.9070409045e+000	-5.2951780303e-003
 4.1947093338e+000	 1.9520345617e+000	-2.7214651571e-002
 4.1735426804e+000	 1.9968893354e+000	-5.1672913207e-002
 4.1518561510e+000	 2.0415964583e+000	-7.7362969548e-002
 4.1296507858e+000	 2.0861471510e+000	-1.0200822118e-001
 4.1069278174e+000	 2.1305326273e+000	-1.2592722435e-001
 4.0836886725e+000	 2.1747440995e+000	-1.4946419886e-001
 4.0599349724e+000	 2.2187727831e+000	-1.7297818639e-001
 4.0356685336e+000	 2.2626099028e+000	-1.9684368194e-001
 4.2796051695e+000	 1.8271416644e+000	 3.3100290553e-002
 4.2598894991e+000	 1.8726476141e+000	 1.3911066748e-002
 4.2396489707e+000	 1.9180314595e+000	-6.3207007425e-003
 4.2188840558e+000	 1.9632844217e+000	-2.8329923121e-002
 4.1975954158e+000	 2.0083977000e+000	-5.2817741863e-002
 4.1757839038e+000	 2.0533624765e+000	-7.7598863806e-002
 4.1534505658e+000	 2.0981699214e+000	-1.0157450137e-001
 4.1305966416e+000	 2.1428111977e+000	-1.2505987128e-001
 4.1072235661e+000	 2.1872774670e+000	-1.4838203888e-001
 4.0833329700e+000	 2.2315598944e+000	-1.7188062243e-001
 4.0589266802e+000	 2.2756496538e+000	-1.9590844404e-001
 4.3041278737e+000	 1.8376114280e+000	 3.1174461861e-002
 4.2842992299e+000	 1.8833781329e+000	 1.1992950095e-002
 4.2639427207e+000	 1.9290220337e+000	-8.2411317679e-003
 4.2430588200e+000	 1.9745343013e+000	-3.0244792253e-002
 4.2216481933e+000	 2.0199060847e+000	-5.4383224877e-002
 4.1997116985e+000	 2.0651285154e+000	-7.8234550827e-002
 4.1772503875e+000	 2.1101927129e+000	-1.0147746838e-001
 4.1542655073e+000	 2.1550897896e+000	-1.2441294602e-001
 4.1307585010e+000	 2.1998108565e+000	-1.4735210428e-001
 4.1067310086e+000	 2.2443470280e+000	-1.7061694279e-001
 4.0821848675e+000	 2.2886894276e+000	-1.9454101685e-001
 4.3286506270e+000	 1.8480812126e+000	 2.8212039995e-002
 4.3087090096e+000	 1.8941086732e+000	 9.0756636250e-003
 4.2882365192e+000	 1.9400126299e+000	-1.1090188863e-002
 4.2672336326e+000	 1.9857842035e+000	-3.2982362381e-002
 4.2457010189e+000	 2.0314144925e+000	-5.6450117747e-002
 4.2236395410e+000	 2.0768945778e+000	-7.9354261382e-002
 4.2010502567e+000	 2.1222155284e+000	-1.0180107728e-001
 4.1779344203e+000	 2.1673684060e+000	-1.2407790799e-001
 4.1542934829e+000	 2.2123442711e+000	-1.4648113213e-001
 4.1301290939e+000	 2.2571341873e+000	-1.6931692149e-001
 4.1054431013e+000	 2.3017292275e+000	-1.9290194939e-001
 4.3531734355e+000	 1.8585510208e+000	 2.4132792128e-002
 4.3331188442e+000	 1.9048392375e+000	 5.1044539530e-003
 4.3125303724e+000	 1.9510032508e+000	-1.4904534057e-002
 4.2914084996e+000	 1.9970341310e+000	-3.6568655458e-002
 4.2697538987e+000	 2.0429229261e+000	-5.9104642217e-002
 4.2475674374e+000	 2.0886606667e+000	-8.1036107805e-002
 4.2248501796e+000	 2.1342383709e+000	-1.0262295068e-001
 4.2016033865e+000	 2.1796470501e+000	-1.2413950987e-001
 4.1778285178e+000	 2.2248777138e+000	-1.4586861809e-001
 4.1535272320e+000	 2.2699213753e+000	-1.6810239589e-001
 4.1287013875e+000	 2.3147690567e+000	-1.9114299817e-001
 3.8961201831e+000	 2.1843716934e+000	-2.0563167518e-001
 3.8721961564e+000	 2.2265058876e+000	-2.2902557397e-001
 3.8477810517e+000	 2.2684381848e+000	-2.5000489834e-001
 3.8228771944e+000	 2.3101601684e+000	-2.6908600341e-001
 3.7974870994e+000	 2.3516634514e+000	-2.8675495999e-001
 3.7716134707e+000	 2.3929396811e+000	-3.0346915171e-001
 3.7452592011e+000	 2.4339805451e+000	-3.1965964152e-001
 3.7184273714e+000	 2.4747777761e+000	-3.3573431259e-001
 3.6911212498e+000	 2.5153231572e+000	-3.5208178138e-001
 3.6633442912e+000	 2.5556085274e+000	-3.6907607252e-001
 3.6351001357e+000	 2.5956257866e+000	-3.8708203746e-001
 3.9193782076e+000	 2.1974113759e+000	-2.0155309240e-001
 3.8953113656e+000	 2.2397970917e+000	-2.2525741852e-001
 3.8707505140e+000	 2.2819797052e+000	-2.4683339274e-001
 3.8456979923e+000	 2.3239507497e+000	-2.6667954615e-001
 3.8201563303e+000	 2.3657017879e+000	-2.8516485764e-001
 3.7941282481e+000	 2.4072244175e+000	-3.0263058264e-001
 3.7676166557e+000	 2.4485102764e+000	-3.1939288432e-001
 3.7406246525e+000	 2.4895510478e+000	-3.3574627258e-001
 3.7131555261e+000	 2.5303384660e+000	-3.5196784855e-001
 3.6852127520e+000	 2.5708643211e+000	-3.6832234361e-001
 3.6567999920e+000	 2.6111204647e+000	-3.8506793433e-001
 3.9426362379e+000	 2.2104510617e+000	-1.9885082048e-001
 3.9184265806e+000	 2.2530882991e+000	-2.2254100598e-001
 3.8937199822e+000	 2.2955212290e+000	-2.4439328246e-001
 3.8685187960e+000	 2.3377413343e+000	-2.6470393207e-001
 3.8428255668e+000	 2.3797401279e+000	-2.8373985882e-001
 3.8166430311e+000	 2.4215091574e+000	-3.0174061795e-001
 3.7899741160e+000	 2.4630400112e+000	-3.1892128278e-001
 3.7628219391e+000	 2.5043243232e+000	-3.3547615485e-001
 3.7351898079e+000	 2.5453537786e+000	-3.5158331485e-001
 3.7070812182e+000	 2.5861201187e+000	-3.6741000317e-001
 3.6784998537e+000	 2.6266151467e+000	-3.8311881061e-001
 3.9658942799e+000	 2.2234907540e+000	-1.9735870920e-001
 3.9415418071e+000	 2.2663795131e+000	-2.2075315496e-001
 3.9166894618e+000	 2.3090627595e+000	-2.4259730961e-001
 3.8913396110e+000	 2.3515319259e+000	-2.6310060323e-001
 3.8654948147e+000	 2.3937784749e+000	-2.8244270410e-001
 3.8391578253e+000	 2.4357939045e+000	-3.0077571776e-001
 3.8123315874e+000	 2.4775697534e+000	-3.1822726069e-001
 3.7850192369e+000	 2.5190976061e+000	-3.3490441464e-001
 3.7572241007e+000	 2.5603690986e+000	-3.5089855933e-001
 3.7289496954e+000	 2.6013759238e+000	-3.6629107199e-001
 3.7001997262e+000	 2.6421098364e+000	-3.8115987370e-001
 3.9891523392e+000	 2.2365304562e+000	-1.9692616858e-001
 3.9646570510e+000	 2.2796707371e+000	-2.1978498448e-001
 3.9396589586e+000	 2.3226043002e+000	-2.4137142418e-001
 3.9141604432e+000	 2.3653225278e+000	-2.6182329106e-001
 3.8881640796e+000	 2.4078168325e+000	-2.8124768535e-001
 3.8616726365e+000	 2.4500786623e+000	-2.9972334214e-001
 3.8346890756e+000	 2.4920995064e+000	-3.1730388295e-001
 3.8072165513e+000	 2.5338709000e+000	-3.3402198767e-001
 3.7792584100e+000	 2.5753844299e+000	-3.4989448434e-001
 3.7508181889e+000	 2.6166317404e+000	-3.6492834548e-001
 3.7218996151e+000	 2.6576045378e+000	-3.7912757009e-001
 4.0124104219e+000	 2.2495701713e+000	-1.9717738373e-001
 3.9877723179e+000	 2.2929619745e+000	-2.1954145221e-001
 3.9626284784e+000	 2.3361458544e+000	-2.4065434263e-001
 3.9369812982e+000	 2.3791131435e+000	-2.6083759121e-001
 3.9108333672e+000	 2.4218552041e+000	-2.8014023271e-001
 3.8841874701e+000	 2.4643634344e+000	-2.9858154571e-001
 3.8570465861e+000	 2.5066292740e+000	-3.1615445342e-001
 3.8294138879e+000	 2.5486442086e+000	-3.3282988648e-001
 3.8012927413e+000	 2.5903997763e+000	-3.4856210565e-001
 3.7726867043e+000	 2.6318875722e+000	-3.6329497267e-001
 3.7435995256e+000	 2.6730992547e+000	-3.7696822203e-001
 4.0356685336e+000	 2.2626099028e+000	-1.9684368194e-001
 4.0108876138e+000	 2.3062532284e+000	-2.1976438506e-001
 3.9855980269e+000	 2.3496874256e+000	-2.4039710920e-001
 3.9598021817e+000	 2.3929037764e+000	-2.6012054048e-001
 3.9335026831e+000	 2.4358935932e+000	-2.7911650303e-001
 3.9067023319e+000	 2.4786482244e+000	-2.9735857348e-001
 3.8794041246e+000	 2.5211590597e+000	-3.1479211368e-001
 3.8516112522e+000	 2.5634175357e+000	-3.3133879785e-001
 3.8233271002e+000	 2.6054151414e+000	-3.4690214385e-001
 3.7945552471e+000	 2.6471434231e+000	-3.6137403681e-001
 3.7652994632e+000	 2.6885939909e+000	-3.7463666365e-001
 4.0589266802e+000	 2.2756496538e+000	-1.9590844404e-001
 4.0340029444e+000	 2.3195445022e+000	-2.1929005012e-001
 4.0085676099e+000	 2.3632290171e+000	-2.4045855467e-001
 3.9826230995e+000	 2.4066944300e+000	-2.5966019570e-001
 3.9561720330e+000	 2.4499320034e+000	-2.7818296974e-001
 3.9292172275e+000	 2.4929330358e+000	-2.9607245772e-001
 3.9017616966e+000	 2.5356888672e+000	-3.1323944285e-001
 3.8738086499e+000	 2.5781908850e+000	-3.2956868107e-001
 3.8453614922e+000	 2.6204305290e+000	-3.4492461675e-001
 3.8164238226e+000	 2.6623992969e+000	-3.5915813739e-001
 3.7869994334e+000	 2.7040887503e+000	-3.7211268675e-001
 4.0821848675e+000	 2.2886894276e+000	-1.9454101685e-001
 4.0571183154e+000	 2.3328357994e+000	-2.1808502853e-001
 4.0315372331e+000	 2.3767706323e+000	-2.3979120511e-001
 4.0054440571e+000	 2.4204851078e+000	-2.5941526713e-001
 3.9788414226e+000	 2.4639704382e+000	-2.7735601420e-001
 3.9517321625e+000	 2.5072178722e+000	-2.9475061597e-001
 3.9241193077e+000	 2.5502187002e+000	-3.1152805823e-001
 3.8960060863e+000	 2.5929642602e+000	-3.2754836718e-001
 3.8673959227e+000	 2.6354459429e+000	-3.4264843293e-001
 3.8382924365e+000	 2.6776551974e+000	-3.5665435245e-001
 3.8086994416e+000	 2.7195835369e+000	-3.6938655532e-001
 4.1054431013e+000	 2.3017292275e+000	-1.9290194939e-001
 4.0802337326e+000	 2.3461271231e+000	-2.1634191797e-001
 4.0545069021e+000	 2.3903122745e+000	-2.3830357219e-001
 4.0282650605e+000	 2.4342758131e+000	-2.5849347676e-001
 4.0015108575e+000	 2.4780089010e+000	-2.7665860115e-001
 3.9742471425e+000	 2.5215027371e+000	-2.9342945003e-001
 3.9464769636e+000	 2.5647485622e+000	-3.0969821684e-001
 3.9182035672e+000	 2.6077376649e+000	-3.2531515912e-001
 3.8894303972e+000	 2.6504613868e+000	-3.4010098639e-001
 3.8601610940e+000	 2.6929111284e+000	-3.5389308282e-001
 3.8303994932e+000	 2.7350783545e+000	-3.6645554690e-001
 4.1287013875e+000	 2.3147690567e+000	-1.9114299817e-001
 4.1033492018e+000	 2.3594184767e+000	-2.1424365224e-001
 4.0774766229e+000	 2.4038539472e+000	-2.3620457421e-001
 4.0510861151e+000	 2.4480665494e+000	-2.5669521869e-001
 4.0241803434e+000	 2.4920473954e+000	-2.7542424076e-001
 3.9967621731e+000	 2.5357876342e+000	-2.9215394596e-001
 3.9688346697e+000	 2.5792784569e+000	-3.0779841778e-001
 3.9404010980e+000	 2.6225111028e+000	-3.2291443258e-001
 3.9114649214e+000	 2.6654768645e+000	-3.3731775203e-001
 3.8820298008e+000	 2.7081670937e+000	-3.5090325900e-001
 3.8520995936e+000	 2.7505732069e+000	-3.6332332510e-001
 3.6351001357e+000	 2.5956257866e+000	-3.8708203746e-001
 3.6063926063e+000	 2.6353668999e+000	-4.0712077966e-001
 3.5772257048e+000	 2.6748239003e+000	-4.2939378795e-001
 3.5476036128e+000	 2.7139888964e+000	-4.5257966706e-001
 3.5175306915e+000	 2.7528540782e+000	-4.7526052174e-001
 3.4870114791e+000	 2.7914117222e+000	-4.9615540940e-001
 3.4560506892e+000	 2.8296541964e+000	-5.1399745551e-001
 3.4246532080e+000	 2.8675739655e+000	-5.2754298106e-001
 3.3928240923e+000	 2.9051635954e+000	-5.3558123449e-001
 3.3605685667e+000	 2.9424157581e+000	-5.3694467494e-001
 3.3278920205e+000	 2.9793232365e+000	-5.3083782613e-001
 3.6567999920e+000	 2.6111204647e+000	-3.8506793433e-001
 3.6279210920e+000	 2.6510988139e+000	-4.0334002878e-001
 3.5985800776e+000	 2.6907913543e+000	-4.2363434250e-001
 3.5687811556e+000	 2.7301901472e+000	-4.4481416578e-001
 3.5385287129e+000	 2.7692873361e+000	-4.6583902846e-001
 3.5078273150e+000	 2.8080751512e+000	-4.8569515278e-001
 3.4766817036e+000	 2.8465459153e+000	-5.0337454690e-001
 3.4450967940e+000	 2.8846920477e+000	-5.1788383840e-001
 3.4130776734e+000	 2.9225060702e+000	-5.2825375731e-001
 3.3806295973e+000	 2.9599806109e+000	-5.3354921481e-001
 3.3477579873e+000	 2.9971084099e+000	-5.3287991673e-001
 3.6784998537e+000	 2.6266151467e+000	-3.8311881061e-001
 3.6494495830e+000	 2.6668307320e+000	-3.9990395614e-001
 3.6199344558e+000	 2.7067588123e+000	-4.1841048384e-001
 3.5899587036e+000	 2.7463914021e+000	-4.3779681387e-001
 3.5595267396e+000	 2.7857205980e+000	-4.5729911802e-001
 3.5286431562e+000	 2.8247385844e+000	-4.7614376051e-001
 3.4973127231e+000	 2.8634376383e+000	-4.9355515035e-001
 3.4655403852e+000	 2.9018101342e+000	-5.0876433423e-001
 3.4333312595e+000	 2.9398485493e+000	-5.2101828417e-001
 3.4006906328e+000	 2.9775454682e+000	-5.2958982565e-001
 3.3676239591e+000	 3.0148935877e+000	-5.3378814455e-001
 3.7001997262e+000	 2.6421098364e+000	-3.8115987370e-001
 3.6709780849e+000	 2.6825626578e+000	-3.9668739436e-001
 3.6412888447e+000	 2.7227262783e+000	-4.1362263611e-001
 3.6111362623e+000	 2.7625926651e+000	-4.3141795850e-001
 3.5805247767e+000	 2.8021538682e+000	-4.4953013989e-001
 3.5494590077e+000	 2.8414020260e+000	-4.6739917050e-001
 3.5179437530e+000	 2.8803293698e+000	-4.8445587089e-001
 3.4859839866e+000	 2.9189282292e+000	-5.0013029694e-001
 3.4535848557e+000	 2.9571910371e+000	-5.1386088526e-001
 3.4207516785e+000	 2.9951103342e+000	-5.2510428447e-001
 3.3874899407e+000	 3.0326787744e+000	-5.3334580917e-001
 3.7218996151e+000	 2.6576045378e+000	-3.7912757009e-001
 3.6925066029e+000	 2.6982945955e+000	-3.9359087389e-001
 3.6626432496e+000	 2.7386937563e+000	-4.0918191767e-001
 3.6323138368e+000	 2.7787939402e+000	-4.2557864980e-001
 3.6015228296e+000	 2.8185871507e+000	-4.4243197466e-001
 3.5702748748e+000	 2.8580654800e+000	-4.5936948853e-001
 3.5385747984e+000	 2.8972211140e+000	-4.7600291568e-001
 3.5064276033e+000	 2.9360463371e+000	-4.9193637782e-001
 3.4738384671e+000	 2.9745335379e+000	-5.0677545014e-001
 3.4408127391e+000	 3.0126752135e+000	-5.2013694882e-001
 3.4073559373e+000	 3.0504639744e+000	-5.3165938571e-001
 3.7435995256e+000	 2.6730992547e+000	-3.7696822203e-001
 3.7140351424e+000	 2.7140265489e+000	-3.9055382822e-001
 3.6839976758e+000	 2.7546612502e+000	-4.0500946842e-001
 3.6534914325e+000	 2.7949952315e+000	-4.2018995987e-001
 3.6225209035e+000	 2.8350204497e+000	-4.3591435168e-001
 3.5910907628e+000	 2.8747289507e+000	-4.5197231149e-001
 3.5592058643e+000	 2.9141128750e+000	-4.6813143035e-001
 3.5268712405e+000	 2.9531644621e+000	-4.8414540836e-001
 3.4940920988e+000	 2.9918760561e+000	-4.9976307397e-001
 3.4608738198e+000	 3.0302401103e+000	-5.1473818050e-001
 3.4272219538e+000	 3.0682491922e+000	-5.2883991480e-001
 3.7652994632e+000	 2.6885939909e+000	-3.7463666365e-001
 3.7355637088e+000	 2.7297585220e+000	-3.8752489353e-001
 3.7053521288e+000	 2.7706287641e+000	-4.0103578016e-001
 3.6746690547e+000	 2.8111965430e+000	-4.1517230511e-001
 3.6435190037e+000	 2.8514537691e+000	-4.2989616988e-001
 3.6119066767e+000	 2.8913924423e+000	-4.4513405372e-001
 3.5798369561e+000	 2.9310046572e+000	-4.6078483797e-001
 3.5473149032e+000	 2.9702826085e+000	-4.7672775941e-001
 3.5143457558e+000	 3.0092185959e+000	-4.9283144471e-001
 3.4809349256e+000	 3.0478050290e+000	-5.0896376880e-001
 3.4470879951e+000	 3.0860344322e+000	-5.2500247030e-001
 3.7869994334e+000	 2.7040887503e+000	-3.7211268675e-001
 3.7570923075e+000	 2.7454905186e+000	-3.8446125598e-001
 3.7267066137e+000	 2.7865963019e+000	-3.9720002995e-001
 3.6958467086e+000	 2.8273978789e+000	-4.1045477172e-001
 3.6645171353e+000	 2.8678871133e+000	-4.2430482179e-001
 3.6327226219e+000	 2.9080559588e+000	-4.3878927618e-001
 3.6004680788e+000	 2.9478964647e+000	-4.5391418050e-001
 3.5677585966e+000	 2.9874007806e+000	-4.6966070202e-001
 3.5345994432e+000	 3.0265611617e+000	-4.8599423106e-001
 3.5009960615e+000	 3.0653699741e+000	-5.0287435341e-001
 3.4669540662e+000	 3.1038196989e+000	-5.2026562535e-001
 3.8086994416e+000	 2.7195835369e+000	-3.6938655532e-001
 3.7786209439e+000	 2.7612225428e+000	-3.8132800146e-001
 3.7480611361e+000	 2.8025638677e+000	-3.9344941624e-001
 3.7170243996e+000	 2.8435992431e+000	-4.0597444419e-001
 3.6855153037e+000	 2.8843204861e+000	-4.1907552054e-001
 3.6535386035e+000	 2.9247195045e+000	-4.3288001844e-001
 3.6210992376e+000	 2.9647883017e+000	-4.4747746249e-001
 3.5882023257e+000	 3.0045189826e+000	-4.6292777008e-001
 3.5548531660e+000	 3.0439037579e+000	-4.7927047122e-001
 3.5210572325e+000	 3.0829349499e+000	-4.9653484695e-001
 3.4868201720e+000	 3.1216049968e+000	-5.1475091653e-001
 3.8303994932e+000	 2.7350783545e+000	-3.6645554690e-001
 3.8001496233e+000	 2.7769545985e+000	-3.7809746766e-001
 3.7694157011e+000	 2.8185314654e+000	-3.8973849783e-001
 3.7382021329e+000	 2.8598006397e+000	-4.0167573666e-001
 3.7065135141e+000	 2.9007538919e+000	-4.1415062970e-001
 3.6743546268e+000	 2.9413830835e+000	-4.2735513332e-001
 3.6417304377e+000	 2.9816801726e+000	-4.4143899707e-001
 3.6086460957e+000	 3.0216372188e+000	-4.5651812448e-001
 3.5751069293e+000	 3.0612463888e+000	-4.7268396241e-001
 3.5411184436e+000	 3.1004999609e+000	-4.9001385725e-001
 3.5066863176e+000	 3.1393903302e+000	-5.0858230647e-001
 3.8520995936e+000	 2.7505732069e+000	-3.6332332510e-001
 3.8216783512e+000	 2.7926866895e+000	-3.7474859850e-001
 3.7907703142e+000	 2.8344990990e+000	-3.8602853534e-001
 3.7593799139e+000	 2.8760020728e+000	-3.9750972712e-001
 3.7275117717e+000	 2.9171873346e+000	-4.0947899595e-001
 3.6951706969e+000	 2.9580467000e+000	-4.2216962413e-001
 3.6623616842e+000	 2.9985720814e+000	-4.3576875413e-001
 3.6290899118e+000	 3.0387554936e+000	-4.5042591886e-001
 3.5953607382e+000	 3.0785890587e+000	-4.6626265112e-001
 3.5611796998e+000	 3.1180650113e+000	-4.8338310915e-001
 3.5265525078e+000	 3.1571757036e+000	-5.0188564472e-001
 3.3278920205e+000	 2.9793232365e+000	-5.3083782613e-001
 3.2948050001e+000	 3.0158734733e+000	-5.2827946796e-001
 3.2613083459e+000	 3.0520650543e+000	-5.3316797063e-001
 3.2274079240e+000	 3.0878911282e+000	-5.4371502527e-001
 3.1931097526e+000	 3.1233449728e+000	-5.5789399241e-001
 3.1584199984e+000	 3.1584199984e+000	-5.7348142430e-001
 3.1233449728e+000	 3.1931097526e+000	-5.8809917078e-001
 3.0878911282e+000	 3.2274079240e+000	-5.9925671026e-001
 3.0520650543e+000	 3.2613083459e+000	-6.0439335066e-001
 3.0158734733e+000	 3.2948050001e+000	-6.0091995103e-001
 2.9793232365e+000	 3.3278920205e+000	-5.8625982354e-001
 3.3477579873e+000	 2.9971084099e+000	-5.3287991673e-001
 3.3144734528e+000	 3.0338768346e+000	-5.2613463702e-001
 3.2807768392e+000	 3.0702844624e+000	-5.2645845761e-001
 3.2466740475e+000	 3.1063244014e+000	-5.3404187475e-001
 3.2121711320e+000	 3.1419898888e+000	-5.4658261363e-001
 3.1772742960e+000	 3.1772742960e+000	-5.6158093806e-001
 3.1419898888e+000	 3.2121711320e+000	-5.7638387659e-001
 3.1063244014e+000	 3.2466740475e+000	-5.8822965113e-001
 3.0702844624e+000	 3.2807768392e+000	-5.9429193790e-001
 3.0338768346e+000	 3.3144734528e+000	-5.9172359729e-001
 2.9971084099e+000	 3.3477579873e+000	-5.7815855584e-001
 3.3676239591e+000	 3.0148935877e+000	-5.3378814455e-001
 3.3341419104e+000	 3.0518802003e+000	-5.2983028685e-001
 3.3002453373e+000	 3.0885038752e+000	-5.2449290748e-001
 3.2659401758e+000	 3.1247576791e+000	-5.2801119789e-001
 3.2312325161e+000	 3.1606348096e+000	-5.3784402865e-001
 3.1961285984e+000	 3.1961285984e+000	-5.5124403986e-001
 3.1606348096e+000	 3.2312325161e+000	-5.6531140597e-001
 3.1247576791e+000	 3.2659401758e+000	-5.7704037033e-001
 3.0885038752e+000	 3.3002453373e+000	-5.8336557423e-001
 3.0518802003e+000	 3.3341419104e+000	-5.8120935754e-001
 3.0148935877e+000	 3.3676239591e+000	-5.7009271663e-001
 3.3874899407e+000	 3.0326787744e+000	-5.3334580917e-001
 3.3538103778e+000	 3.0698835751e+000	-5.3493387620e-001
 3.3197138451e+000	 3.1067232970e+000	-5.2721707746e-001
 3.2852063138e+000	 3.1431909661e+000	-5.2561767089e-001
 3.2502939098e+000	 3.1792797397e+000	-5.3171364341e-001
 3.2149829103e+000	 3.2149829103e+000	-5.4253799426e-001
 3.1792797397e+000	 3.2502939098e+000	-5.5497134453e-001
 3.1431909661e+000	 3.2852063138e+000	-5.6579058820e-001
 3.1067232970e+000	 3.3197138451e+000	-5.7171729970e-001
 3.0698835751e+000	 3.3538103778e+000	-5.7038112558e-001
 3.0326787744e+000	 3.3874899407e+000	-5.6216497378e-001
 3.4073559373e+000	 3.0504639744e+000	-5.3165938571e-001
 3.3734788600e+000	 3.0878869634e+000	-5.3786788395e-001
 3.3391823675e+000	 3.1249427324e+000	-5.3421213019e-001
 3.3044724662e+000	 3.1616242669e+000	-5.2683485176e-001
 3.2693553177e+000	 3.1979246837e+000	-5.2820535871e-001
 3.2338372362e+000	 3.2338372362e+000	-5.3550834093e-001
 3.1979246837e+000	 3.2693553177e+000	-5.4543150722e-001
 3.1616242669e+000	 3.3044724662e+000	-5.5456038960e-001
 3.1249427324e+000	 3.3391823675e+000	-5.5950333465e-001
 3.0878869634e+000	 3.3734788600e+000	-5.6005195514e-001
 3.0504639744e+000	 3.4073559373e+000	-5.5438399148e-001
 3.4272219538e+000	 3.0682491922e+000	-5.2883991480e-001
 3.3931473618e+000	 3.1058903696e+000	-5.3880649391e-001
 3.3586509095e+000	 3.1431621861e+000	-5.4012150575e-001
 3.3237386378e+000	 3.1800575861e+000	-5.3161648509e-001
 3.2884167448e+000	 3.2165696465e+000	-5.2731292680e-001
 3.2526915810e+000	 3.2526915810e+000	-5.3018029573e-001
 3.2165696465e+000	 3.2884167448e+000	-5.3673937618e-001
 3.1800575861e+000	 3.3237386378e+000	-5.4340969018e-001
 3.1431621861e+000	 3.3586509095e+000	-5.4793004131e-001
 3.1058903696e+000	 3.3931473618e+000	-5.5022402745e-001
 3.0682491922e+000	 3.4272219538e+000	-5.4673099393e-001
 3.4470879951e+000	 3.0860344322e+000	-5.2500247030e-001
 3.4128158883e+000	 3.1238937984e+000	-5.3792650515e-001
 3.3781194757e+000	 3.1613816626e+000	-5.4331514919e-001
 3.3430048336e+000	 3.1984909284e+000	-5.3901697314e-001
 3.3074781956e+000	 3.2352146325e+000	-5.2901130088e-001
 3.2715459494e+000	 3.2715459494e+000	-5.2656014397e-001
 3.2352146325e+000	 3.3074781956e+000	-5.2892353012e-001
 3.1984909284e+000	 3.3430048336e+000	-5.3257605720e-001
 3.1613816626e+000	 3.3781194757e+000	-5.3738408766e-001
 3.1238937984e+000	 3.4128158883e+000	-5.4087350392e-001
 3.0860344322e+000	 3.4470879951e+000	-5.3916183009e-001
 3.4669540662e+000	 3.1038196989e+000	-5.2026562535e-001
 3.4324844442e+000	 3.1418972542e+000	-5.3540684326e-001
 3.3975880711e+000	 3.1796011664e+000	-5.4402563288e-001
 3.3622710582e+000	 3.2169242983e+000	-5.4388637774e-001
 3.3265396750e+000	 3.2538596464e+000	-5.3325797767e-001
 3.2904003461e+000	 3.2904003461e+000	-5.2463662596e-001
 3.2538596464e+000	 3.3265396750e+000	-5.2199506549e-001
 3.2169242983e+000	 3.3622710582e+000	-5.2321823068e-001
 3.1796011664e+000	 3.3975880711e+000	-5.2782615407e-001
 3.1418972542e+000	 3.4324844442e+000	-5.3195258317e-001
 3.1038196989e+000	 3.4669540662e+000	-5.3160903060e-001
 3.4868201720e+000	 3.1216049968e+000	-5.1475091653e-001
 3.4521530345e+000	 3.1599007414e+000	-5.3142806841e-001
 3.4170567006e+000	 3.1978207021e+000	-5.4248602200e-001
 3.3815373165e+000	 3.2353577004e+000	-5.4563343589e-001
 3.3456011878e+000	 3.2725046930e+000	-5.3867853364e-001
 3.3092547757e+000	 3.3092547757e+000	-5.2438231543e-001
 3.2725046930e+000	 3.3456011878e+000	-5.1625039115e-001
 3.2353577004e+000	 3.3815373165e+000	-5.1546523712e-001
 3.1978207021e+000	 3.4170567006e+000	-5.1919450372e-001
 3.1599007414e+000	 3.4521530345e+000	-5.2339154994e-001
 3.1216049968e+000	 3.4868201720e+000	-5.2398385694e-001
 3.5066863176e+000	 3.1393903302e+000	-5.0858230647e-001
 3.4718216642e+000	 3.1779042647e+000	-5.2617188041e-001
 3.4365253691e+000	 3.2160402742e+000	-5.3892941820e-001
 3.4008036134e+000	 3.2537911395e+000	-5.4453581322e-001
 3.3646627387e+000	 3.2911497769e+000	-5.4077143992e-001
 3.3281092431e+000	 3.3281092431e+000	-5.2575499076e-001
 3.2911497769e+000	 3.3646627387e+000	-5.1268837731e-001
 3.2537911395e+000	 3.4008036134e+000	-5.0923204314e-001
 3.2160402742e+000	 3.4365253691e+000	-5.1140701420e-001
 3.1779042647e+000	 3.4718216642e+000	-5.1510081643e-001
 3.1393903302e+000	 3.5066863176e+000	-5.1617834351e-001
 3.5265525078e+000	 3.1571757036e+000	-5.0188564472e-001
 3.4914903382e+000	 3.1959078285e+000	-5.1982062073e-001
 3.4559940813e+000	 3.2342598873e+000	-5.3358849928e-001
 3.4200699536e+000	 3.2722246200e+000	-5.4086987501e-001
 3.3837243325e+000	 3.3097949028e+000	-5.3944407929e-001
 3.3469637528e+000	 3.3469637528e+000	-5.2755843122e-001
 3.3097949028e+000	 3.3837243325e+000	-5.1128486500e-001
 3.2722246200e+000	 3.4200699536e+000	-5.0441484939e-001
 3.2342598873e+000	 3.4559940813e+000	-5.0436320167e-001
 3.1959078285e+000	 3.4914903382e+000	-5.0697295621e-001
 3.1571757036e+000	 3.5265525078e+000	-5.0806733253e-001
 2.9793232365e+000	 3.3278920205e+000	-5.8625982354e-001
 2.9424157581e+000	 3.3605685667e+000	-5.6864977654e-001
 2.9051635954e+000	 3.3928240923e+000	-5.5839238256e-001
 2.8675739655e+000	 3.4246532080e+000	-5.5403239662e-001
 2.8296541964e+000	 3.4560506892e+000	-5.5407546464e-001
 2.7914117222e+000	 3.4870114791e+000	-5.5708432397e-001
 2.7528540782e+000	 3.5175306915e+000	-5.6170819356e-001
 2.7139888964e+000	 3.5476036128e+000	-5.6670964651e-001
 2.6748239003e+000	 3.5772257048e+000	-5.7098879413e-001
 2.6353668999e+000	 3.6063926063e+000	-5.7387450433e-001
 2.5956257866e+000	 3.6351001357e+000	-5.7571609480e-001
 2.9971084099e+000	 3.3477579873e+000	-5.7815855584e-001
 2.9599806109e+000	 3.3806295973e+000	-5.6324353890e-001
 2.9225060702e+000	 3.4130776734e+000	-5.5476673923e-001
 2.8846920477e+000	 3.4450967940e+000	-5.5137328860e-001
 2.8465459153e+000	 3.4766817036e+000	-5.5173487657e-001
 2.8080751512e+000	 3.5078273150e+000	-5.5458220591e-001
 2.7692873361e+000	 3.5385287129e+000	-5.5873501776e-001
 2.7301901472e+000	 3.5687811556e+000	-5.6312948286e-001
 2.6907913543e+000	 3.5985800776e+000	-5.6684278350e-001
 2.6510988139e+000	 3.6279210920e+000	-5.6919571319e-001
 2.6111204647e+000	 3.6567999920e+000	-5.7070783282e-001
 3.0148935877e+000	 3.3676239591e+000	-5.7009271663e-001
 2.9775454682e+000	 3.4006906328e+000	-5.5778258410e-001
 2.9398485493e+000	 3.4333312595e+000	-5.5100510002e-001
 2.9018101342e+000	 3.4655403852e+000	-5.4854828223e-001
 2.8634376383e+000	 3.4973127231e+000	-5.4922874730e-001
 2.8247385844e+000	 3.5286431562e+000	-5.5192497694e-001
 2.7857205980e+000	 3.5595267396e+000	-5.5560803774e-001
 2.7463914021e+000	 3.5899587036e+000	-5.5936954462e-001
 2.7067588123e+000	 3.6199344558e+000	-5.6244668778e-001
 2.6668307320e+000	 3.6494495830e+000	-5.6424417289e-001
 2.6266151467e+000	 3.6784998537e+000	-5.6513183661e-001
 3.0326787744e+000	 3.3874899407e+000	-5.6216497378e-001
 2.9951103342e+000	 3.4207516785e+000	-5.5227883464e-001
 2.9571910371e+000	 3.4535848557e+000	-5.4709755101e-001
 2.9189282292e+000	 3.4859839866e+000	-5.4553036683e-001
 2.8803293698e+000	 3.5179437530e+000	-5.4651804513e-001
 2.8414020260e+000	 3.5494590077e+000	-5.4906701144e-001
 2.8021538682e+000	 3.5805247767e+000	-5.5228082797e-001
 2.7625926651e+000	 3.6111362623e+000	-5.5538878289e-001
 2.7227262783e+000	 3.6412888447e+000	-5.5777140922e-001
 2.6825626578e+000	 3.6709780849e+000	-5.5898277966e-001
 2.6421098364e+000	 3.7001997262e+000	-5.5909116303e-001
 3.0504639744e+000	 3.4073559373e+000	-5.5438399148e-001
 3.0126752135e+000	 3.4408127391e+000	-5.4671533802e-001
 2.9745335379e+000	 3.4738384671e+000	-5.4300573260e-001
 2.9360463371e+000	 3.5064276033e+000	-5.4226429595e-001
 2.8972211140e+000	 3.5385747984e+000	-5.4353548330e-001
 2.8580654800e+000	 3.5702748748e+000	-5.4593417103e-001
 2.8185871507e+000	 3.6015228296e+000	-5.4867794558e-001
 2.7787939402e+000	 3.6323138368e+000	-5.5111637216e-001
 2.7386937563e+000	 3.6626432496e+000	-5.5275705273e-001
 2.6982945955e+000	 3.6925066029e+000	-5.5328831561e-001
 2.6576045378e+000	 3.7218996151e+000	-5.5264607380e-001
 3.0682491922e+000	 3.4272219538e+000	-5.4673099393e-001
 3.0302401103e+000	 3.4608738198e+000	-5.4104833407e-001
 2.9918760561e+000	 3.4940920988e+000	-5.3866490210e-001
 2.9531644621e+000	 3.5268712405e+000	-5.3866864662e-001
 2.9141128750e+000	 3.5592058643e+000	-5.4018757727e-001
 2.8747289507e+000	 3.5910907628e+000	-5.4242586160e-001
 2.8350204497e+000	 3.6225209035e+000	-5.4469698902e-001
 2.7949952315e+000	 3.6534914325e+000	-5.4645377286e-001
 2.7546612502e+000	 3.6839976758e+000	-5.4731499451e-001
 2.7140265489e+000	 3.7140351424e+000	-5.4708852781e-001
 2.6730992547e+000	 3.7435995256e+000	-5.4579081707e-001
 3.0860344322e+000	 3.4470879951e+000	-5.3916183009e-001
 3.0478050290e+000	 3.4809349256e+000	-5.3520931456e-001
 3.0092185959e+000	 3.5143457558e+000	-5.3398598918e-001
 2.9702826085e+000	 3.5473149032e+000	-5.3463787158e-001
 2.9310046572e+000	 3.5798369561e+000	-5.3635669520e-001
 2.8913924423e+000	 3.6119066767e+000	-5.3841708351e-001
 2.8514537691e+000	 3.6435190037e+000	-5.4021064983e-001
 2.8111965430e+000	 3.6746690547e+000	-5.4127678670e-001
 2.7706287641e+000	 3.7053521288e+000	-5.4132994320e-001
 2.7297585220e+000	 3.7355637088e+000	-5.4028322422e-001
 2.6885939909e+000	 3.7652994632e+000	-5.3826818209e-001
 3.1038196989e+000	 3.4669540662e+000	-5.3160903060e-001
 3.0653699741e+000	 3.5009960615e+000	-5.2910707544e-001
 3.0265611617e+000	 3.5345994432e+000	-5.2885764416e-001
 2.9874007806e+000	 3.5677585966e+000	-5.3004434483e-001
 2.9478964647e+000	 3.6004680788e+000	-5.3190310186e-001
 2.9080559588e+000	 3.6327226219e+000	-5.3376047536e-001
 2.8678871133e+000	 3.6645171353e+000	-5.3506875785e-001
 2.8273978789e+000	 3.6958467086e+000	-5.3543760510e-001
 2.7865963019e+000	 3.7267066137e+000	-5.3466199373e-001
 2.7454905186e+000	 3.7570923075e+000	-5.3274633515e-001
 2.7040887503e+000	 3.7869994334e+000	-5.2992461331e-001
 3.1216049968e+000	 3.4868201720e+000	-5.2398385694e-001
 3.0829349499e+000	 3.5210572325e+000	-5.2262976195e-001
 3.0439037579e+000	 3.5548531660e+000	-5.2314827973e-001
 3.0045189826e+000	 3.5882023257e+000	-5.2474040072e-001
 2.9647883017e+000	 3.6210992376e+000	-5.2666699630e-001
 2.9247195045e+000	 3.6535386035e+000	-5.2828835150e-001
 2.8843204861e+000	 3.6855153037e+000	-5.2910032007e-001
 2.8435992431e+000	 3.7170243996e+000	-5.2876685114e-001
 2.8025638677e+000	 3.7480611361e+000	-5.2714867418e-001
 2.7612225428e+000	 3.7786209439e+000	-5.2432796728e-001
 2.7195835369e+000	 3.8086994416e+000	-5.2062887318e-001
 3.1393903302e+000	 3.5066863176e+000	-5.1617834351e-001
 3.1004999609e+000	 3.5411184436e+000	-5.1564690688e-001
 3.0612463888e+000	 3.5751069293e+000	-5.1670810618e-001
 3.0216372188e+000	 3.6086460957e+000	-5.1856036699e-001
 2.9816801726e+000	 3.6417304377e+000	-5.2047054354e-001
 2.9413830835e+000	 3.6743546268e+000	-5.2181473357e-001
 2.9007538919e+000	 3.7065135141e+000	-5.2211555344e-001
 2.8598006397e+000	 3.7382021329e+000	-5.2107561519e-001
 2.8185314654e+000	 3.7694157011e+000	-5.1860698601e-001
 2.7769545985e+000	 3.8001496233e+000	-5.1485645039e-001
 2.7350783545e+000	 3.8303994932e+000	-5.1022643634e-001
 3.1571757036e+000	 3.5265525078e+000	-5.0806733253e-001
 3.1180650113e+000	 3.5611796998e+000	-5.0801146242e-001
 3.0785890587e+000	 3.5953607382e+000	-5.0937116050e-001
 3.0387554936e+000	 3.6290899118e+000	-5.1132259177e-001
 2.9985720814e+000	 3.6623616842e+000	-5.1311990048e-001
 2.9580467000e+000	 3.6951706969e+000	-5.1413737634e-001
 2.9171873346e+000	 3.7275117717e+000	-5.1390791183e-001
 2.8760020728e+000	 3.7593799139e+000	-5.1215748447e-001
 2.8344990990e+000	 3.7907703142e+000	-5.0883543789e-001
 2.7926866895e+000	 3.8216783512e+000	-5.0414037733e-001
 2.7505732069e+000	 3.8520995936e+000	-4.9854153761e-001
 2.5956257866e+000	 3.6351001357e+000	-5.7571609480e-001
 2.5556085274e+000	 3.6633442912e+000	-5.7367612569e-001
 2.5153231572e+000	 3.6911212498e+000	-5.6524739922e-001
 2.4747777761e+000	 3.7184273714e+000	-5.5133739195e-001
 2.4339805451e+000	 3.7452592011e+000	-5.3293134370e-001
 2.3929396811e+000	 3.7716134707e+000	-5.1109835607e-001
 2.3516634514e+000	 3.7974870994e+000	-4.8699507385e-001
 2.3101601684e+000	 3.8228771944e+000	-4.6186699646e-001
 2.2684381848e+000	 3.8477810517e+000	-4.3704748879e-001
 2.2265058876e+000	 3.8721961564e+000	-4.1395458170e-001
 2.1843716934e+000	 3.8961201831e+000	-3.9408567232e-001
 2.6111204647e+000	 3.6567999920e+000	-5.7070783282e-001
 2.5708643211e+000	 3.6852127520e+000	-5.6869143172e-001
 2.5303384660e+000	 3.7131555261e+000	-5.6050055122e-001
 2.4895510478e+000	 3.7406246525e+000	-5.4698544332e-001
 2.4485102764e+000	 3.7676166557e+000	-5.2908188147e-001
 2.4072244175e+000	 3.7941282481e+000	-5.0781733264e-001
 2.3657017879e+000	 3.8201563303e+000	-4.8431459450e-001
 2.3239507497e+000	 3.8456979923e+000	-4.5979294843e-001
 2.2819797052e+000	 3.8707505140e+000	-4.3556690220e-001
 2.2397970917e+000	 3.8953113656e+000	-4.1304261811e-001
 2.1974113759e+000	 3.9193782076e+000	-3.9371214273e-001
 2.6266151467e+000	 3.6784998537e+000	-5.6513183661e-001
 2.5861201187e+000	 3.7070812182e+000	-5.6280554632e-001
 2.5453537786e+000	 3.7351898079e+000	-5.5452201469e-001
 2.5043243232e+000	 3.7628219391e+000	-5.4107774431e-001
 2.4630400112e+000	 3.7899741160e+000	-5.2336360101e-001
 2.4215091574e+000	 3.8166430311e+000	-5.0237104185e-001
 2.3797401279e+000	 3.8428255668e+000	-4.7919568488e-001
 2.3377413343e+000	 3.8685187960e+000	-4.5503827502e-001
 2.2955212290e+000	 3.8937199822e+000	-4.3120312482e-001
 2.2530882991e+000	 3.9184265806e+000	-4.0909413152e-001
 2.2104510617e+000	 3.9426362379e+000	-3.9020849288e-001
 2.6421098364e+000	 3.7001997262e+000	-5.5909116303e-001
 2.6013759238e+000	 3.7289496954e+000	-5.5615975006e-001
 2.5603690986e+000	 3.7572241007e+000	-5.4750013701e-001
 2.5190976061e+000	 3.7850192369e+000	-5.3385872135e-001
 2.4775697534e+000	 3.8123315874e+000	-5.1608620030e-001
 2.4357939045e+000	 3.8391578253e+000	-4.9514383658e-001
 2.3937784749e+000	 3.8654948147e+000	-4.7210693665e-001
 2.3515319259e+000	 3.8913396110e+000	-4.4816560005e-001
 2.3090627595e+000	 3.9166894618e+000	-4.2462282356e-001
 2.2663795131e+000	 3.9415418071e+000	-4.0289006722e-001
 2.2234907540e+000	 3.9658942799e+000	-3.8448041198e-001
 2.6576045378e+000	 3.7218996151e+000	-5.5264607380e-001
 2.6166317404e+000	 3.7508181889e+000	-5.4885081904e-001
 2.5753844299e+000	 3.7792584100e+000	-5.3957678015e-001
 2.5338709000e+000	 3.8072165513e+000	-5.2552406574e-001
 2.4920995064e+000	 3.8346890756e+000	-5.0750812732e-001
 2.4500786623e+000	 3.8616726365e+000	-4.8646604377e-001
 2.4078168325e+000	 3.8881640796e+000	-4.6345988345e-001
 2.3653225278e+000	 3.9141604432e+000	-4.3967720671e-001
 2.3226043002e+000	 3.9396589586e+000	-4.1642879751e-001
 2.2796707371e+000	 3.9646570510e+000	-3.9514373782e-001
 2.2365304562e+000	 3.9891523392e+000	-3.7736196119e-001
 2.6730992547e+000	 3.7435995256e+000	-5.4579081707e-001
 2.6318875722e+000	 3.7726867043e+000	-5.4093308841e-001
 2.5903997763e+000	 3.8012927413e+000	-5.3084940270e-001
 2.5486442086e+000	 3.8294138879e+000	-5.1622283773e-001
 2.5066292740e+000	 3.8570465861e+000	-4.9783870950e-001
 2.4643634344e+000	 3.8841874701e+000	-4.7661612288e-001
 2.4218552041e+000	 3.9108333672e+000	-4.5361119205e-001
 2.3791131435e+000	 3.9369812982e+000	-4.3001726487e-001
 2.3361458544e+000	 3.9626284784e+000	-4.0716224533e-001
 2.2929619745e+000	 3.9877723179e+000	-3.8650313431e-001
 2.2495701713e+000	 4.0124104219e+000	-3.6973151613e-001
 2.6885939909e+000	 3.7652994632e+000	-5.3826818209e-001
 2.6471434231e+000	 3.7945552471e+000	-5.3242050594e-001
 2.6054151414e+000	 3.8233271002e+000	-5.2137313081e-001
 2.5634175357e+000	 3.8516112522e+000	-5.0605955794e-001
 2.5211590597e+000	 3.8794041246e+000	-4.8724026912e-001
 2.4786482244e+000	 3.9067023319e+000	-4.6582280861e-001
 2.4358935932e+000	 3.9335026831e+000	-4.4286483569e-001
 2.3929037764e+000	 3.9598021817e+000	-4.1957403865e-001
 2.3496874256e+000	 3.9855980269e+000	-3.9730501048e-001
 2.3062532284e+000	 4.0108876138e+000	-3.7764266552e-001
 2.2626099028e+000	 4.0356685336e+000	-3.6249605626e-001
 2.7040887503e+000	 3.7869994334e+000	-5.2992461331e-001
 2.6623992969e+000	 3.8164238226e+000	-5.2328867597e-001
 2.6204305290e+000	 3.8453614922e+000	-5.1116281841e-001
 2.5781908850e+000	 3.8738086499e+000	-4.9509628699e-001
 2.5356888672e+000	 3.9017616966e+000	-4.7583022535e-001
 2.4929330358e+000	 3.9292172275e+000	-4.5426723852e-001
 2.4499320034e+000	 3.9561720330e+000	-4.3147425053e-001
 2.4066944300e+000	 3.9826230995e+000	-4.0868207505e-001
 2.3632290171e+000	 4.0085676099e+000	-3.8733859042e-001
 2.3195445022e+000	 4.0340029444e+000	-3.6937147393e-001
 2.2756496538e+000	 4.0589266802e+000	-3.5546652752e-001
 2.7195835369e+000	 3.8086994416e+000	-5.2062887318e-001
 2.6776551974e+000	 3.8382924365e+000	-5.1338297634e-001
 2.6354459429e+000	 3.8673959227e+000	-5.0019509719e-001
 2.5929642602e+000	 3.8960060863e+000	-4.8335469355e-001
 2.5502187002e+000	 3.9241193077e+000	-4.6368318330e-001
 2.5072178722e+000	 3.9517321625e+000	-4.4208506609e-001
 2.4639704382e+000	 3.9788414226e+000	-4.1964447588e-001
 2.4204851078e+000	 4.0054440571e+000	-3.9764784797e-001
 2.3767706323e+000	 4.0315372331e+000	-3.7798476491e-001
 2.3328357994e+000	 4.0571183154e+000	-3.6146610305e-001
 2.2886894276e+000	 4.0821848675e+000	-3.4835159952e-001
 2.7350783545e+000	 3.8303994932e+000	-5.1022643634e-001
 2.6929111284e+000	 3.8601610940e+000	-5.0233658194e-001
 2.6504613868e+000	 3.8894303972e+000	-4.8841041689e-001
 2.6077376649e+000	 3.9182035672e+000	-4.7081811141e-001
 2.5647485622e+000	 3.9464769636e+000	-4.5083301079e-001
 2.5215027371e+000	 3.9742471425e+000	-4.2936855995e-001
 2.4780089010e+000	 4.0015108575e+000	-4.0753612243e-001
 2.4342758131e+000	 4.0282650605e+000	-3.8708968825e-001
 2.3903122745e+000	 4.0545069021e+000	-3.6902308086e-001
 2.3461271231e+000	 4.0802337326e+000	-3.5357166914e-001
 2.3017292275e+000	 4.1054431013e+000	-3.4088218775e-001
 2.7505732069e+000	 3.8520995936e+000	-4.9854153761e-001
 2.7081670937e+000	 3.8820298008e+000	-4.8998144778e-001
 2.6654768645e+000	 3.9114649214e+000	-4.7571507599e-001
 2.6225111028e+000	 3.9404010980e+000	-4.5743358604e-001
 2.5792784569e+000	 3.9688346697e+000	-4.3727490319e-001
 2.5357876342e+000	 3.9967621731e+000	-4.1616868977e-001
 2.4920473954e+000	 4.0241803434e+000	-3.9561489892e-001
 2.4480665494e+000	 4.0510861151e+000	-3.7683687766e-001
 2.4038539472e+000	 4.0774766229e+000	-3.6004538061e-001
 2.3594184767e+000	 4.1033492018e+000	-3.4535806007e-001
 2.3147690567e+000	 4.1287013875e+000	-3.3281168020e-001
 2.1843716934e+000	 3.8961201831e+000	-3.9408567232e-001
 2.1420504062e+000	 3.9195475189e+000	-3.7708424615e-001
 2.0995441792e+000	 3.9424798459e+000	-3.6300922435e-001
 2.0568614843e+000	 3.9649154103e+000	-3.5406868713e-001
 2.0140108020e+000	 3.9868526470e+000	-3.5249246488e-001
 1.9710006163e+000	 4.0082901786e+000	-3.5414017562e-001
 1.9278394095e+000	 4.0292268150e+000	-3.4299685615e-001
 1.8845356576e+000	 4.0496615522e+000	-3.2267017437e-001
 1.8410978246e+000	 4.0695935713e+000	-2.9759828703e-001
 1.7975343583e+000	 4.0890222373e+000	-2.7170070965e-001
 1.7538536852e+000	 4.1079470979e+000	-2.4840975007e-001
 2.1974113759e+000	 3.9193782076e+000	-3.9371214273e-001
 2.1548374504e+000	 3.9429453937e+000	-3.7714994138e-001
 2.1120774810e+000	 3.9660146160e+000	-3.6325955387e-001
 2.0691399902e+000	 3.9885841103e+000	-3.5413488022e-001
 2.0260335093e+000	 4.0106523021e+000	-3.5199693368e-001
 1.9827665728e+000	 4.0322178058e+000	-3.5695431775e-001
 1.9393477137e+000	 4.0532794241e+000	-3.5159754243e-001
 1.8957854585e+000	 4.0738361472e+000	-3.3559118168e-001
 1.8520883219e+000	 4.0938871512e+000	-3.1318609334e-001
 1.8082648019e+000	 4.1134317973e+000	-2.8813411737e-001
 1.7643233755e+000	 4.1324696305e+000	-2.6372013240e-001
 2.2104510617e+000	 3.9426362379e+000	-3.9020849288e-001
 2.1676244977e+000	 3.9663432743e+000	-3.7416281285e-001
 2.1246107859e+000	 3.9895493920e+000	-3.6083514322e-001
 2.0814184992e+000	 4.0122528162e+000	-3.5235144597e-001
 2.0380562196e+000	 4.0344519631e+000	-3.5082563005e-001
 1.9945325322e+000	 4.0561454389e+000	-3.5692834753e-001
 1.9508560208e+000	 4.0773320393e+000	-3.5683766497e-001
 1.9070352623e+000	 4.0980107483e+000	-3.4495461733e-001
 1.8630788219e+000	 4.1181807371e+000	-3.2535769613e-001
 1.8189952483e+000	 4.1378413634e+000	-3.0164381962e-001
 1.7747930685e+000	 4.1569921692e+000	-2.7696101453e-001
 2.2234907540e+000	 3.9658942799e+000	-3.8448041198e-001
 2.1804115515e+000	 3.9897411667e+000	-3.6914585056e-001
 2.1371440970e+000	 4.0130841797e+000	-3.5697381115e-001
 2.0936970144e+000	 4.0359215339e+000	-3.4998797353e-001
 2.0500789359e+000	 4.0582516360e+000	-3.4896493043e-001
 2.0062984976e+000	 4.0800730841e+000	-3.5448640723e-001
 1.9623643336e+000	 4.1013846665e+000	-3.5887120199e-001
 1.9182850717e+000	 4.1221853614e+000	-3.5085636561e-001
 1.8740693274e+000	 4.1424743353e+000	-3.3411867059e-001
 1.8297257000e+000	 4.1622509417e+000	-3.1211260785e-001
 1.7852627668e+000	 4.1815147202e+000	-2.8785970733e-001
 2.2365304562e+000	 3.9891523392e+000	-3.7736196119e-001
 2.1931986148e+000	 4.0131390766e+000	-3.6317174224e-001
 2.1496774176e+000	 4.0366189852e+000	-3.5281281619e-001
 2.1059755387e+000	 4.0595902694e+000	-3.4698921956e-001
 2.0621016612e+000	 4.0820513268e+000	-3.4620923345e-001
 2.0180644717e+000	 4.1040007471e+000	-3.5091261830e-001
 1.9738726551e+000	 4.1254373117e+000	-3.5783020484e-001
 1.9295348895e+000	 4.1463599927e+000	-3.5337164920e-001
 1.8850598412e+000	 4.1667679516e+000	-3.3945587055e-001
 1.8404561597e+000	 4.1866605383e+000	-3.1940717797e-001
 1.7957324728e+000	 4.2060372896e+000	-2.9613074764e-001
 2.2495701713e+000	 4.0124104219e+000	-3.6973151613e-001
 2.2059856910e+000	 4.0365370098e+000	-3.5725863239e-001
 2.1622107507e+000	 4.0601538141e+000	-3.4825698495e-001
 2.1182540753e+000	 4.0832590286e+000	-3.4316684207e-001
 2.0741243986e+000	 4.1058510414e+000	-3.4236785298e-001
 2.0298304576e+000	 4.1279284341e+000	-3.4618216412e-001
 1.9853809880e+000	 4.1494899810e+000	-3.5382663452e-001
 1.9407847185e+000	 4.1705346482e+000	-3.5255678705e-001
 1.8960503660e+000	 4.1910615923e+000	-3.4133908638e-001
 1.8511866302e+000	 4.2110701594e+000	-3.2337966705e-001
 1.8062021894e+000	 4.2305598835e+000	-3.0147729234e-001
 2.2626099028e+000	 4.0356685336e+000	-3.6249605626e-001
 2.2187727831e+000	 4.0599349724e+000	-3.5126693572e-001
 2.1747440995e+000	 4.0836886725e+000	-3.4310803917e-001
 2.1305326273e+000	 4.1069278174e+000	-3.3834851265e-001
 2.0861471510e+000	 4.1296507858e+000	-3.3726554449e-001
 2.0415964583e+000	 4.1518561510e+000	-3.4008762350e-001
 1.9968893354e+000	 4.1735426804e+000	-3.4695416657e-001
 1.9520345617e+000	 4.1947093338e+000	-3.4845092214e-001
 1.9070409045e+000	 4.2153552633e+000	-3.3972267534e-001
 1.8619171141e+000	 4.2354798109e+000	-3.2386916561e-001
 1.8166719190e+000	 4.2550825081e+000	-3.0359249191e-001
 2.2756496538e+000	 4.0589266802e+000	-3.5546652752e-001
 2.2315598944e+000	 4.0833329700e+000	-3.4496337003e-001
 2.1872774670e+000	 4.1072235661e+000	-3.3718533979e-001
 2.1428111977e+000	 4.1305966416e+000	-3.3237838905e-001
 2.0981699214e+000	 4.1534505658e+000	-3.3074299992e-001
 2.0533624765e+000	 4.1757839038e+000	-3.3243757263e-001
 2.0083977000e+000	 4.1975954158e+000	-3.3758189351e-001
 1.9632844217e+000	 4.2188840558e+000	-3.4107772060e-001
 1.9180314595e+000	 4.2396489707e+000	-3.3454716548e-001
 1.8726476141e+000	 4.2598894991e+000	-3.2070320640e-001
 1.8271416644e+000	 4.2796051695e+000	-3.0216084414e-001
 2.2886894276e+000	 4.0821848675e+000	-3.4835159952e-001
 2.2443470280e+000	 4.1067310086e+000	-3.3813438763e-001
 2.1998108565e+000	 4.1307585010e+000	-3.3032629042e-001
 2.1550897896e+000	 4.1542655073e+000	-3.2511755810e-001
 2.1101927129e+000	 4.1772503875e+000	-3.2265731252e-001
 2.0651285154e+000	 4.1997116985e+000	-3.2305705390e-001
 2.0199060847e+000	 4.2216481933e+000	-3.2639423769e-001
 1.9745343013e+000	 4.2430588200e+000	-3.3044704313e-001
 1.9290220337e+000	 4.2639427207e+000	-3.2574083408e-001
 1.8833781329e+000	 4.2842992299e+000	-3.1369923067e-001
 1.8376114280e+000	 4.3041278737e+000	-2.9685952888e-001
 2.3017292275e+000	 4.1054431013e+000	-3.4088218775e-001
 2.2571341873e+000	 4.1301290939e+000	-3.3058649622e-001
 2.2123442711e+000	 4.1542934829e+000	-3.2238671326e-001
 2.1673684060e+000	 4.1779344203e+000	-3.1644445008e-001
 2.1222155284e+000	 4.2010502567e+000	-3.1288241269e-001
 2.0768945778e+000	 4.2236395410e+000	-3.1178801607e-001
 2.0314144925e+000	 4.2457010189e+000	-3.1321706277e-001
 1.9857842035e+000	 4.2672336326e+000	-3.1655658997e-001
 1.9400126299e+000	 4.2882365192e+000	-3.1322126171e-001
 1.8941086732e+000	 4.3087090096e+000	-3.0266603277e-001
 1.8480812126e+000	 4.3286506270e+000	-2.8735972455e-001
 2.3147690567e+000	 4.1287013875e+000	-3.3281168020e-001
 2.2699213753e+000	 4.1535272320e+000	-3.2214655478e-001
 2.2248777138e+000	 4.1778285178e+000	-3.1324119860e-001
 2.1796470501e+000	 4.2016033865e+000	-3.0625522560e-001
 2.1342383709e+000	 4.2248501796e+000	-3.0130947598e-001
 2.0886606667e+000	 4.2475674374e+000	-2.9848972689e-001
 2.0429229261e+000	 4.2697538987e+000	-2.9785046596e-001
 1.9970341310e+000	 4.2914084996e+000	-2.9939352040e-001
 1.9510032508e+000	 4.3125303724e+000	-2.9689686297e-001
 1.9048392375e+000	 4.3331188442e+000	-2.8740518409e-001
 1.8585510208e+000	 4.3531734355e+000	-2.7332790722e-001
 1.7538536852e+000	 4.1079470979e+000	-2.4840975007e-001
 1.7100576294e+000	 4.1263706075e+000	-2.2753735585e-001
 1.6661611104e+000	 4.1442897998e+000	-2.0727240091e-001
 1.6221724688e+000	 4.1617047635e+000	-1.8806942944e-001
 1.5781000051e+000	 4.1786157627e+000	-1.7015589796e-001
 1.5339519758e+000	 4.1950232353e+000	-1.5355812094e-001
 1.4897365888e+000	 4.2109277906e+000	-1.3812572178e-001
 1.4454619993e+000	 4.2263302067e+000	-1.2355459117e-001
 1.4011363057e+000	 4.2412314288e+000	-1.0940836256e-001
 1.3567675455e+000	 4.2556325659e+000	-9.5138420465e-002
 1.3123636919e+000	 4.2695348885e+000	-8.0111628921e-002
 1.7643233755e+000	 4.1324696305e+000	-2.6372013240e-001
 1.7202658777e+000	 4.1510031199e+000	-2.4040678002e-001
 1.6761073169e+000	 4.1690292815e+000	-2.1724095687e-001
 1.6318560836e+000	 4.1865482044e+000	-1.9484667368e-001
 1.5875205278e+000	 4.2035601544e+000	-1.7360960237e-001
 1.5431089553e+000	 4.2200655720e+000	-1.5370333660e-001
 1.4986296230e+000	 4.2360650700e+000	-1.3511413290e-001
 1.4540907348e+000	 4.2515594314e+000	-1.1766413716e-001
 1.4095004374e+000	 4.2665496069e+000	-1.0103310798e-001
 1.3648668164e+000	 4.2810367120e+000	-8.4778655549e-002
 1.3201978924e+000	 4.2950220250e+000	-6.8378711651e-002
 1.7747930685e+000	 4.1569921692e+000	-2.7696101453e-001
 1.7304741285e+000	 4.1756356384e+000	-2.5223790111e-001
 1.6860535259e+000	 4.1937687693e+000	-2.2717004649e-001
 1.6415397008e+000	 4.2113916514e+000	-2.0252510159e-001
 1.5969410529e+000	 4.2285045523e+000	-1.7882340895e-001
 1.5522659371e+000	 4.2451079149e+000	-1.5636456877e-001
 1.5075226595e+000	 4.2612023557e+000	-1.3525245677e-001
 1.4627194725e+000	 4.2767886624e+000	-1.1541870093e-001
 1.4178645713e+000	 4.2918677912e+000	-9.6644631447e-002
 1.3729660894e+000	 4.3064408645e+000	-7.8581724774e-002
 1.3280320950e+000	 4.3205091679e+000	-6.0776659981e-002
 1.7852627668e+000	 4.1815147202e+000	-2.8785970733e-001
 1.7406823845e+000	 4.2002681693e+000	-2.6259768977e-001
 1.6959997399e+000	 4.2185082695e+000	-2.3648969879e-001
 1.6512233228e+000	 4.2362351109e+000	-2.1042154405e-001
 1.6063615826e+000	 4.2534489626e+000	-1.8502501833e-001
 1.5614229235e+000	 4.2701502703e+000	-1.6070475914e-001
 1.5164157003e+000	 4.2863396540e+000	-1.3766352911e-001
 1.4713482145e+000	 4.3020179060e+000	-1.1592592478e-001
 1.4262287093e+000	 4.3171859883e+000	-9.5360531015e-002
 1.3810653663e+000	 4.3318450297e+000	-7.5700544671e-002
 1.3358663014e+000	 4.3459963236e+000	-5.6562896853e-002
 1.7957324728e+000	 4.2060372896e+000	-2.9613074764e-001
 1.7508906481e+000	 4.2249007186e+000	-2.7104371561e-001
 1.7059459613e+000	 4.2432477882e+000	-2.4462331274e-001
 1.6609069522e+000	 4.2610785891e+000	-2.1784836824e-001
 1.6157821194e+000	 4.2783933917e+000	-1.9143922722e-001
 1.5705799167e+000	 4.2951926445e+000	-1.6588489732e-001
 1.5253087479e+000	 4.3114769711e+000	-1.4146857667e-001
 1.4799769629e+000	 4.3272471685e+000	-1.1829157602e-001
 1.4345928536e+000	 4.3425042043e+000	-9.6295654931e-002
 1.3891646494e+000	 4.3572492139e+000	-7.5283798958e-002
 1.3437005137e+000	 4.3714834983e+000	-5.4939469943e-002
 1.8062021894e+000	 4.2305598835e+000	-3.0147729234e-001
 1.7610989219e+000	 4.2495332926e+000	-2.7712539621e-001
 1.7158921927e+000	 4.2679873317e+000	-2.5098877768e-001
 1.6705905912e+000	 4.2859220920e+000	-2.2411448635e-001
 1.6252026657e+000	 4.3033378457e+000	-1.9728884258e-001
 1.5797369191e+000	 4.3202350437e+000	-1.7106485777e-001
 1.5342018043e+000	 4.3366143134e+000	-1.4578799451e-001
 1.4886057200e+000	 4.3524764563e+000	-1.2162028244e-001
 1.4429570062e+000	 4.3678224456e+000	-9.8562813229e-002
 1.3972639405e+000	 4.3826534236e+000	-7.6476644419e-002
 1.3515347338e+000	 4.3969706986e+000	-5.5102147937e-002
 1.8166719190e+000	 4.2550825081e+000	-3.0359249191e-001
 1.7713072085e+000	 4.2741658974e+000	-2.8038522940e-001
 1.7258384365e+000	 4.2927269061e+000	-2.5499958039e-001
 1.6802742423e+000	 4.3107656260e+000	-2.2852635377e-001
 1.6346232237e+000	 4.3282823309e+000	-2.0179558737e-001
 1.5888939329e+000	 4.3452774742e+000	-1.7540422999e-001
 1.5430948719e+000	 4.3617516871e+000	-1.4974211750e-001
 1.4972344879e+000	 4.3777057756e+000	-1.2501626239e-001
 1.4513211693e+000	 4.3931407186e+000	-1.0127348365e-001
 1.4053632418e+000	 4.4080576650e+000	-7.8421410216e-002
 1.3593689638e+000	 4.4224579307e+000	-5.6247897130e-002
 1.8271416644e+000	 4.2796051695e+000	-3.0216084414e-001
 1.7815155104e+000	 4.2987985391e+000	-2.8036000952e-001
 1.7357846952e+000	 4.3174665176e+000	-2.5606589939e-001
 1.6899579079e+000	 4.3356091973e+000	-2.3038895706e-001
 1.6440437958e+000	 4.3532268535e+000	-2.0418099827e-001
 1.5980509605e+000	 4.3703199423e+000	-1.7806314211e-001
 1.5519879528e+000	 4.3868890985e+000	-1.5245198627e-001
 1.5058632687e+000	 4.4029351327e+000	-1.2758404953e-001
 1.4596853450e+000	 4.4184590296e+000	-1.0353851210e-001
 1.4134625552e+000	 4.4334619445e+000	-8.0258290911e-002
 1.3672032054e+000	 4.4479452010e+000	-5.7569492474e-002
 1.8376114280e+000	 4.3041278737e+000	-2.9685952888e-001
 1.7917238301e+000	 4.3234312239e+000	-2.7658202837e-001
 1.7457309714e+000	 4.3422061724e+000	-2.5359568696e-001
 1.6996415905e+000	 4.3604528121e+000	-2.2900679234e-001
 1.6534643845e+000	 4.3781714198e+000	-2.0366731573e-001
 1.6072080041e+000	 4.3953624543e+000	-1.7820307828e-001
 1.5608810493e+000	 4.4120265538e+000	-1.5304010776e-001
 1.5144920646e+000	 4.4281645340e+000	-1.2842921264e-001
 1.4680495353e+000	 4.4437773848e+000	-1.0446880784e-001
 1.4215618828e+000	 4.4588662684e+000	-8.1126033449e-002
 1.3750374608e+000	 4.4734325159e+000	-5.8256212833e-002
 1.8480812126e+000	 4.3286506270e+000	-2.8735972455e-001
 1.8019321703e+000	 4.3480639580e+000	-2.6858026138e-001
 1.7556772674e+000	 4.3669458767e+000	-2.4699573939e-001
 1.7093252924e+000	 4.3852964765e+000	-2.2368483419e-001
 1.6628849919e+000	 4.4031160359e+000	-1.9947836656e-001
 1.6163650660e+000	 4.4204050163e+000	-1.7498768999e-001
 1.5697741635e+000	 4.4371640595e+000	-1.5063121061e-001
 1.5231208778e+000	 4.4533939857e+000	-1.2665907057e-001
 1.4764137423e+000	 4.4690957907e+000	-1.0317603366e-001
 1.4296612266e+000	 4.4842706432e+000	-8.0162618350e-002
 1.3828717319e+000	 4.4989198818e+000	-5.7494529151e-002
 1.8585510208e+000	 4.3531734355e+000	-2.7332790722e-001
 1.8121405334e+000	 4.3726967475e+000	-2.5588153962e-001
 1.7656235858e+000	 4.3916856366e+000	-2.3567275593e-001
 1.7190090161e+000	 4.4101401969e+000	-2.1372949578e-001
 1.6723056206e+000	 4.4280607082e+000	-1.9084043948e-001
 1.6255221485e+000	 4.4454476346e+000	-1.6758360174e-001
 1.5786672978e+000	 4.4623016217e+000	-1.4435299565e-001
 1.5317497104e+000	 4.4786234942e+000	-1.2138340258e-001
 1.4847779682e+000	 4.4944142536e+000	-9.8773291209e-002
 1.4377605886e+000	 4.5096750751e+000	-7.6505935344e-002
 1.3907060206e+000	 4.5244073051e+000	-5.4468785794e-002
 1.3123636919e+000	 4.2695348885e+000	-8.0111628921e-002
 1.2679326486e+000	 4.2829398248e+000	-6.5417451409e-002
 1.2234822450e+000	 4.2958489548e+000	-5.2707296054e-002
 1.1790202345e+000	 4.3082640100e+000	-4.2111900138e-002
 1.1345542914e+000	 4.3201868724e+000	-3.3475055655e-002
 1.0900920081e+000	 4.3316195706e+000	-2.6413864060e-002
 1.0456408917e+000	 4.3425642768e+000	-2.0371499265e-002
 1.0012083610e+000	 4.3530233041e+000	-1.4663774781e-002
 9.5680174346e-001	 4.3629991026e+000	-8.5163791206e-003
 9.1242827262e-001	 4.3724942563e+000	-1.1020702902e-003
 8.6809508528e-001	 4.3815114796e+000	 8.4324421373e-003
 1.3201978924e+000	 4.2950220250e+000	-6.8378711651e-002
 1.2755016165e+000	 4.3085069826e+000	-5.3099778669e-002
 1.2307858647e+000	 4.3214931740e+000	-4.0458302759e-002
 1.1860584366e+000	 4.3339823414e+000	-3.0418446744e-002
 1.1413270525e+000	 4.3459763777e+000	-2.2687323856e-002
 1.0965993501e+000	 4.3574773238e+000	-1.6773504881e-002
 1.0518828813e+000	 4.3684873648e+000	-1.2037984661e-002
 1.0071851090e+000	 4.3790088277e+000	-7.7388123065e-003
 9.6251340464e-001	 4.3890441770e+000	-3.0669570497e-003
 9.1787504482e-001	 4.3985960123e+000	 2.8188625723e-003
 8.7327720898e-001	 4.4076670643e+000	 1.0766652847e-002
 1.3280320950e+000	 4.3205091679e+000	-6.0776659981e-002
 1.2830705863e+000	 4.3340741467e+000	-4.4635934840e-002
 1.2380894862e+000	 4.3471373997e+000	-3.1743043080e-002
 1.1930966405e+000	 4.3597006792e+000	-2.1913651174e-002
 1.1480998154e+000	 4.3717658895e+000	-1.4734510804e-002
 1.1031066938e+000	 4.3833350834e+000	-9.6200745330e-003
 1.0581248724e+000	 4.3944104593e+000	-5.8615326548e-003
 1.0131618585e+000	 4.4049943577e+000	-2.6689581918e-003
 9.6822506725e-001	 4.4150892579e+000	 7.9214198494e-004
 9.2332181839e-001	 4.4246977749e+000	 5.3728367956e-003
 8.7845933398e-001	 4.4338226555e+000	 1.1912265709e-002
 1.3358663014e+000	 4.3459963236e+000	-5.6562896853e-002
 1.2906395599e+000	 4.3596413237e+000	-3.9411914066e-002
 1.2453931114e+000	 4.3727816382e+000	-2.6053454431e-002
 1.2001348480e+000	 4.3854190299e+000	-1.6175513338e-002
 1.1548725817e+000	 4.3975554141e+000	-9.2617596596e-003
 1.1096140407e+000	 4.4091928560e+000	-4.6478794939e-003
 1.0643668666e+000	 4.4203335667e+000	-1.5685438894e-003
 1.0191386110e+000	 4.4309799007e+000	 8.0251058685e-004
 9.7393673271e-001	 4.4411343519e+000	 3.3180759281e-003
 9.2876859468e-001	 4.4507995505e+000	 6.8310324580e-003
 8.8364146158e-001	 4.4599782598e+000	 1.2168306971e-002
 1.3437005137e+000	 4.3714834983e+000	-5.4939469943e-002
 1.2982085391e+000	 4.3852085198e+000	-3.6773824193e-002
 1.2526967420e+000	 4.3984258959e+000	-2.2833745604e-002
 1.2071730607e+000	 4.4111373998e+000	-1.2727378727e-002
 1.1616453530e+000	 4.4233449581e+000	-5.8535928298e-003
 1.1161213925e+000	 4.4350506480e+000	-1.4856394341e-003
 1.0706088655e+000	 4.4462566936e+000	 1.1840950608e-003
 1.0251153680e+000	 4.4569654632e+000	 3.0062067555e-003
 9.7964840245e-001	 4.4671794653e+000	 4.8421123080e-003
 9.3421537506e-001	 4.4769013457e+000	 7.5393431768e-003
 8.8882359306e-001	 4.4861338837e+000	 1.1907952298e-002
 1.3515347338e+000	 4.3969706986e+000	-5.5102147937e-002
 1.3057775260e+000	 4.4107757415e+000	-3.6032522879e-002
 1.2600003799e+000	 4.4240701793e+000	-2.1484792855e-002
 1.2142112805e+000	 4.4368557955e+000	-1.1042081946e-002
 1.1684181311e+000	 4.4491345279e+000	-4.0377909492e-003
 1.1226287508e+000	 4.4609084658e+000	 2.9990988795e-004
 1.0768508707e+000	 4.4721798464e+000	 2.8056959011e-003
 1.0310921310e+000	 4.4829510517e+000	 4.3415430222e-003
 9.8536007791e-001	 4.4932246048e+000	 5.7669178693e-003
 9.3966216088e-001	 4.5030031670e+000	 7.9159830695e-003
 8.9400572972e-001	 4.5122895337e+000	 1.1576460206e-002
 1.3593689638e+000	 4.4224579307e+000	-5.6247897130e-002
 1.3133465222e+000	 4.4363429951e+000	-3.6468244077e-002
 1.2673040270e+000	 4.4497144947e+000	-2.1368525429e-002
 1.2212495090e+000	 4.4625742233e+000	-1.0546079360e-002
 1.1751909177e+000	 4.4749241299e+000	-3.2892612119e-003
 1.1291361172e+000	 4.4867663160e+000	 1.2004235187e-003
 1.0830928836e+000	 4.4981030316e+000	 3.7684611638e-003
 1.0370689014e+000	 4.5089366726e+000	 5.2742684954e-003
 9.9107176051e-001	 4.5192697769e+000	 6.5638518221e-003
 9.4510895351e-001	 4.5291050209e+000	 8.4490940727e-003
 8.9918787286e-001	 4.5384452165e+000	 1.1689102003e-002
 1.3672032054e+000	 4.4479452010e+000	-5.7569492474e-002
 1.3209155299e+000	 4.4619102871e+000	-3.7335215319e-002
 1.2746076850e+000	 4.4753588486e+000	-2.1812300986e-002
 1.2282877481e+000	 4.4882926896e+000	-1.0623571297e-002
 1.1819637144e+000	 4.5007137706e+000	-3.0338955138e-003
 1.1356434934e+000	 4.5126242049e+000	 1.7623635783e-003
 1.0893349060e+000	 4.5240262557e+000	 4.6041847388e-003
 1.0430456808e+000	 4.5349223326e+000	 6.3334628402e-003
 9.9678345167e-001	 4.5453149880e+000	 7.7702625551e-003
 9.5055575431e-001	 4.5552069140e+000	 9.6943535980e-003
 9.0437002377e-001	 4.5646009385e+000	 1.2829088359e-002
 1.3750374608e+000	 4.4734325159e+000	-5.8256212833e-002
 1.3284845508e+000	 4.4874776238e+000	-3.7866266202e-002
 1.2819113558e+000	 4.5010032474e+000	-2.2113271355e-002
 1.2353259996e+000	 4.5140112010e+000	-1.0620614266e-002
 1.1887365230e+000	 4.5265034564e+000	-2.6524188327e-003
 1.1421508810e+000	 4.5384821391e+000	 2.5834245102e-003
 1.0955769392e+000	 4.5499495252e+000	 5.9009600496e-003
 1.0490224707e+000	 4.5609080380e+000	 8.1085361916e-003
 1.0024951528e+000	 4.5713602447e+000	 9.9867876591e-003
 9.5600256464e-001	 4.5813088528e+000	 1.2272582502e-002
 9.0955218375e-001	 4.5907567062e+000	 1.5645492636e-002
 1.3828717319e+000	 4.4989198818e+000	-5.7494529151e-002
 1.3360535868e+000	 4.5130450117e+000	-3.7276877268e-002
 1.2892150412e+000	 4.5266476974e+000	-2.1542739039e-002
 1.2423642651e+000	 4.5397297639e+000	-9.8492236134e-003
 1.1955093451e+000	 4.5522931938e+000	-1.4842282621e-003
 1.1486582816e+000	 4.5643401250e+000	 4.3089669321e-003
 1.1018189849e+000	 4.5758728465e+000	 8.2998955544e-003
 1.0549992725e+000	 4.5868937954e+000	 1.1246234583e-002
 1.0082068654e+000	 4.5974055535e+000	 1.3874657120e-002
 9.6144938587e-001	 4.6074108437e+000	 1.6867353350e-002
 9.1473435410e-001	 4.6169125263e+000	 2.0851171113e-002
 1.3907060206e+000	 4.5244073051e+000	-5.4468785794e-002
 1.3436226398e+000	 4.5386124571e+000	-3.4774100022e-002
 1.2965187431e+000	 4.5522922052e+000	-1.9350504875e-002
 1.2494025464e+000	 4.5654483845e+000	-7.5914670202e-003
 1.2022821825e+000	 4.5780829893e+000	 1.1687769070e-003
 1.1551656968e+000	 4.5901981691e+000	 7.6284597252e-003
 1.1080610447e+000	 4.6017962261e+000	 1.2491837261e-002
 1.0609760877e+000	 4.6128796112e+000	 1.6447650651e-002
 1.0139185908e+000	 4.6234509209e+000	 2.0153150720e-002
 9.6689621935e-001	 4.6335128934e+000	 2.4222598947e-002
 9.1991653610e-001	 4.6430684052e+000	 2.9220680196e-002
 8.6809508528e-001	 4.3815114796e+000	 8.4324421373e-003
 8.2381585598e-001	 4.3900523689e+000	 2.0540685219e-002
 7.7959085635e-001	 4.3981212792e+000	 3.5231613394e-002
 7.3542690550e-001	 4.4057212979e+000	 5.2702589192e-002
 6.9133071679e-001	 4.4128556284e+000	 7.3156004674e-002
 6.4730889580e-001	 4.4195275870e+000	 9.5732881747e-002
 6.0336793844e-001	 4.4257405989e+000	 1.1260288365e-001
 5.5951422919e-001	 4.4314981950e+000	 1.2263419898e-001
 5.1575403944e-001	 4.4368040078e+000	 1.2658943367e-001
 4.7209352597e-001	 4.4416617678e+000	 1.2535727423e-001
 4.2853872961e-001	 4.4460753003e+000	 1.1990393901e-001
 8.7327720898e-001	 4.4076670643e+000	 1.0766652847e-002
 8.2873365329e-001	 4.4162589387e+000	 2.1544445461e-002
 7.8424465099e-001	 4.4243760167e+000	 3.5435500350e-002
 7.3981706190e-001	 4.4320214039e+000	 5.2550255507e-002
 6.9545763947e-001	 4.4391983230e+000	 7.2993694549e-002
 6.5117302869e-001	 4.4459101101e+000	 9.6147439187e-002
 6.0696976427e-001	 4.4521602109e+000	 1.1387140592e-001
 5.6285426878e-001	 4.4579521772e+000	 1.2439822247e-001
 5.1883285105e-001	 4.4632896631e+000	 1.2856098373e-001
 4.7491170464e-001	 4.4681764217e+000	 1.2728187537e-001
 4.3109690641e-001	 4.4726163009e+000	 1.2152912325e-001
 8.7845933398e-001	 4.4338226555e+000	 1.1912265709e-002
 8.3365145183e-001	 4.4424655151e+000	 2.1503598594e-002
 7.8889844680e-001	 4.4506307607e+000	 3.4725209788e-002
 7.4420721941e-001	 4.4583215165e+000	 5.1614790449e-002
 6.9958456318e-001	 4.4655410243e+000	 7.2194462891e-002
 6.5503716255e-001	 4.4722926399e+000	 9.6049527341e-002
 6.1057159100e-001	 4.4785798294e+000	 1.1501436522e-001
 5.6619430921e-001	 4.4844061659e+000	 1.2653978020e-001
 5.2191166344e-001	 4.4897753251e+000	 1.3151863904e-001
 4.7772988402e-001	 4.4946910823e+000	 1.3089605493e-001
 4.3365508385e-001	 4.4991573082e+000	 1.2563214190e-001
 8.8364146158e-001	 4.4599782598e+000	 1.2168306971e-002
 8.3856925284e-001	 4.4686721045e+000	 2.0742465541e-002
 7.9355224493e-001	 4.4768855178e+000	 3.3431421797e-002
 7.4859737911e-001	 4.4846216423e+000	 5.0213633714e-002
 7.0371148895e-001	 4.4918837387e+000	 7.1042335136e-002
 6.5890129835e-001	 4.4986751828e+000	 9.5649778696e-002
 6.1417341953e-001	 4.5049994612e+000	 1.1613575528e-001
 5.6953435130e-001	 4.5108601678e+000	 1.2903284745e-001
 5.2499047737e-001	 4.5162610003e+000	 1.3528096261e-001
 4.8054806480e-001	 4.5212057561e+000	 1.3583567635e-001
 4.3621326257e-001	 4.5256983287e+000	 1.3163710763e-001
 8.8882359306e-001	 4.4861338837e+000	 1.1907952298e-002
 8.4348705752e-001	 4.4948787136e+000	 1.9658124792e-002
 7.9820604656e-001	 4.5031402947e+000	 3.1955699033e-002
 7.5298754210e-001	 4.5109217877e+000	 4.8732731519e-002
 7.0783841783e-001	 4.5182264729e+000	 6.9886950536e-002
 6.6276543704e-001	 4.5250577455e+000	 9.5227390850e-002
 6.1777525075e-001	 4.5314191127e+000	 1.1740624042e-001
 5.7287439590e-001	 4.5373141896e+000	 1.3191545881e-001
 5.2806929361e-001	 4.5427466954e+000	 1.3972719423e-001
 4.8336624770e-001	 4.5477204498e+000	 1.4179307511e-001
 4.3877144321e-001	 4.5522393692e+000	 1.3901953069e-001
 8.9400572972e-001	 4.5122895337e+000	 1.1576460206e-002
 8.4840486713e-001	 4.5210853490e+000	 1.8718670378e-002
 8.0285985284e-001	 4.5293950978e+000	 3.0769056259e-002
 7.5737770949e-001	 4.5372219595e+000	 4.7625404279e-002
 7.1196535083e-001	 4.5445692334e+000	 6.9142714063e-002
 6.6662957959e-001	 4.5514403346e+000	 9.5128795675e-002
 6.2137708559e-001	 4.5578387907e+000	 1.1906216366e-001
 5.7621444384e-001	 4.5637682378e+000	 1.3528903738e-001
 5.3114811292e-001	 4.5692324169e+000	 1.4479688223e-001
 4.8618443341e-001	 4.5742351699e+000	 1.4851697350e-001
 4.4132962641e-001	 4.5787804362e+000	 1.4730649661e-001
 8.9918787286e-001	 4.5384452165e+000	 1.1689102003e-002
 8.5332268289e-001	 4.5472920170e+000	 1.8461462257e-002
 8.0751366493e-001	 4.5556499337e+000	 3.0410518342e-002
 7.6176788236e-001	 4.5635221642e+000	 4.7411198906e-002
 7.1609228898e-001	 4.5709120268e+000	 6.9287929273e-002
 6.7049372698e-001	 4.5778229567e+000	 9.5811683043e-002
 6.2497892492e-001	 4.5842585017e+000	 1.2140452895e-001
 5.7955449595e-001	 4.5902223192e+000	 1.3931769495e-001
 5.3422693609e-001	 4.5957181716e+000	 1.5048948304e-001
 4.8900262265e-001	 4.6007499233e+000	 1.5581236051e-001
 4.4388781281e-001	 4.6053215364e+000	 1.5607680627e-001
 9.0437002377e-001	 4.5646009385e+000	 1.2829088359e-002
 8.5824050602e-001	 4.5734987244e+000	 1.9491369404e-002
 8.1216748401e-001	 4.5819048089e+000	 3.1485667163e-002
 7.6615806182e-001	 4.5898224083e+000	 4.8674726370e-002
 7.2021923333e-001	 4.5972548598e+000	 7.0863912921e-002
 6.7435788016e-001	 4.6042056184e+000	 9.7799765209e-002
 6.2858076965e-001	 4.6106782524e+000	 1.2479795850e-001
 5.8289455307e-001	 4.6166764401e+000	 1.4422750424e-001
 5.3730576387e-001	 4.6222039660e+000	 1.5686393002e-001
 4.9182081611e-001	 4.6272647164e+000	 1.6354033802e-001
 4.4644600304e-001	 4.6318626763e+000	 1.6496107979e-001
 9.0955218375e-001	 4.5907567062e+000	 1.5645492636e-002
 8.6315833775e-001	 4.5997054777e+000	 2.2479005891e-002
 8.1682131123e-001	 4.6081597302e+000	 3.4665177882e-002
 7.7054824896e-001	 4.6161226984e+000	 5.2064485112e-002
 7.2434618490e-001	 4.6235977388e+000	 7.4474092042e-002
 6.7822204010e-001	 4.6305883262e+000	 1.0162796390e-001
 6.3218262069e-001	 4.6370980492e+000	 1.2966962644e-001
 5.8623461604e-001	 4.6431306074e+000	 1.5030574436e-001
 5.4038459704e-001	 4.6486898067e+000	 1.6403817268e-001
 4.9463901451e-001	 4.6537795559e+000	 1.7161793489e-001
 4.4900419775e-001	 4.6584038627e+000	 1.7364182574e-001
 9.1473435410e-001	 4.6169125263e+000	 2.0851171113e-002
 8.6807617933e-001	 4.6259122833e+000	 2.8158960252e-002
 8.2147514776e-001	 4.6344147039e+000	 4.0683344985e-002
 7.7493844487e-001	 4.6424230411e+000	 5.8291670858e-002
 7.2847314472e-001	 4.6499406706e+000	 8.0783084198e-002
 6.8208620777e-001	 4.6569710867e+000	 1.0789027008e-001
 6.3578447894e-001	 4.6635178989e+000	 1.3650816944e-001
 5.8957468569e-001	 4.6695848276e+000	 1.5785931729e-001
 5.4346343637e-001	 4.6751757004e+000	 1.7181027362e-001
 4.9745721854e-001	 4.6802944484e+000	 1.7898867720e-001
 4.5156239757e-001	 4.6849451022e+000	 1.7992889744e-001
 9.1991653610e-001	 4.6430684052e+000	 2.9220680196e-002
 8.7299403196e-001	 4.6521191480e+000	 3.7328018367e-002
 8.2612899476e-001	 4.6606697367e+000	 5.0336598502e-002
 7.7932865067e-001	 4.6687234430e+000	 6.8115187832e-002
 7.3260011383e-001	 4.6762836616e+000	 9.0174790460e-002
 6.8595038414e-001	 4.6833539067e+000	 1.1611263745e-001
 6.3938634528e-001	 4.6899378081e+000	 1.4347910783e-001
 5.9291476285e-001	 4.6960391073e+000	 1.6332695098e-001
 5.4654228262e-001	 4.7016616537e+000	 1.7537771317e-001
 5.0027542892e-001	 4.7068094006e+000	 1.8027810234e-001
 4.5412060315e-001	 4.7114864015e+000	 1.7853037985e-001
 4.2853872961e-001	 4.4460753003e+000	 1.1990393901e-001
 3.8508908055e-001	 4.4500490843e+000	 1.1344745095e-001
 3.4175700318e-001	 4.4535864303e+000	 1.0863799232e-001
 2.9854827303e-001	 4.4566914274e+000	 1.0567077409e-001
 2.5546854253e-001	 4.4593682450e+000	 1.0479206360e-001
 2.1252334018e-001	 4.4616211283e+000	 1.0628254627e-001
 1.6971806992e-001	 4.4634543955e+000	 1.1044400188e-001
 1.2705801053e-001	 4.4648724335e+000	 1.1758845953e-001
 8.4548315236e-002	 4.4658796945e+000	 1.2802909310e-001
 4.2194011339e-002	 4.4664806926e+000	 1.4207221534e-001
 0.0000000000e+000	 4.4666800000e+000	 1.6000982103e-001
 4.3109690641e-001	 4.4726163009e+000	 1.2152912325e-001
 3.8738788317e-001	 4.4766138066e+000	 1.1501271462e-001
 3.4379713346e-001	 4.4801722689e+000	 1.1087996354e-001
 3.0033046730e-001	 4.4832958014e+000	 1.0928140672e-001
 2.5699357085e-001	 4.4859885983e+000	 1.1037765066e-001
 2.1379200563e-001	 4.4882549303e+000	 1.1432759277e-001
 1.7073120782e-001	 4.4900991413e+000	 1.2127960741e-001
 1.2781648773e-001	 4.4915256443e+000	 1.3136484107e-001
 8.5053029335e-002	 4.4925389182e+000	 1.4469186430e-001
 4.2445889952e-002	 4.4931435039e+000	 1.6134202815e-001
 0.0000000000e+000	 4.4933440011e+000	 1.8136497066e-001
 4.3365508385e-001	 4.4991573082e+000	 1.2563214190e-001
 3.8968668636e-001	 4.5031785355e+000	 1.1971498510e-001
 3.4583726425e-001	 4.5067581141e+000	 1.1657942217e-001
 3.0211266201e-001	 4.5099001820e+000	 1.1633403205e-001
 2.5851859956e-001	 4.5126089583e+000	 1.1906392313e-001
 2.1506067140e-001	 4.5148887390e+000	 1.2482382347e-001
 1.7174434598e-001	 4.5167438937e+000	 1.3363375694e-001
 1.2857496512e-001	 4.5181788617e+000	 1.4547643024e-001
 8.5557743560e-002	 4.5191981485e+000	 1.6029556444e-001
 4.2697768628e-002	 4.5198063219e+000	 1.7799450981e-001
 0.0000000000e+000	 4.5200080089e+000	 1.9843458488e-001
 4.3621326257e-001	 4.5256983287e+000	 1.3163710763e-001
 3.9198549070e-001	 4.5297432778e+000	 1.2678563480e-001
 3.4787739605e-001	 4.5333439727e+000	 1.2484202617e-001
 3.0389485761e-001	 4.5365045760e+000	 1.2587384724e-001
 2.6004362902e-001	 4.5392293316e+000	 1.2989918611e-001
 2.1632933779e-001	 4.5415225610e+000	 1.3688462867e-001
 1.7275748464e-001	 4.5433886594e+000	 1.4674541050e-001
 1.2933344288e-001	 4.5448320925e+000	 1.5934685177e-001
 8.6062458036e-002	 4.5458573921e+000	 1.7450629532e-001
 4.2949647430e-002	 4.5464691533e+000	 1.9199487847e-001
 0.0000000000e+000	 4.5466720300e+000	 2.1153857608e-001
 4.3877144321e-001	 4.5522393692e+000	 1.3901953069e-001
 3.9428429676e-001	 4.5563080399e+000	 1.3550028502e-001
 3.4991752939e-001	 4.5599298511e+000	 1.3480726652e-001
 3.0567705455e-001	 4.5631089899e+000	 1.3696617378e-001
 2.6156865963e-001	 4.5658497249e+000	 1.4193484730e-001
 2.1759800514e-001	 4.5681564029e+000	 1.4960615189e-001
 1.7377062406e-001	 4.5700334451e+000	 1.5981259536e-001
 1.3009192122e-001	 4.5714853432e+000	 1.7233177181e-001
 8.6567172891e-002	 4.5725166558e+000	 1.8689183666e-001
 4.3201526421e-002	 4.5731320046e+000	 2.0317633692e-001
 0.0000000000e+000	 4.5733360711e+000	 2.2082783129e-001
 4.4132962641e-001	 4.5787804362e+000	 1.4730649661e-001
 3.9658310513e-001	 4.5828728286e+000	 1.4517925942e-001
 3.5195766477e-001	 4.5865157562e+000	 1.4564924220e-001
 3.0745925327e-001	 4.5897134304e+000	 1.4869759851e-001
 2.6309369176e-001	 4.5924701447e+000	 1.5422696783e-001
 2.1886667376e-001	 4.5947902715e+000	 1.6206929349e-001
 1.7478376449e-001	 4.5966782575e+000	 1.7199490464e-001
 1.3085040031e-001	 4.5981386206e+000	 1.8372193268e-001
 8.7071888250e-002	 4.5991759461e+000	 1.9692525749e-001
 4.3453405663e-002	 4.5997948826e+000	 2.1124430002e-001
 0.0000000000e+000	 4.6000001389e+000	 2.2628909462e-001
 4.4388781281e-001	 4.6053215364e+000	 1.5607680627e-001
 3.9888191636e-001	 4.6094376505e+000	 1.5518799621e-001
 3.5399780270e-001	 4.6131016945e+000	 1.5657738774e-001
 3.0924145422e-001	 4.6163179041e+000	 1.6017705926e-001
 2.6461872580e-001	 4.6190905979e+000	 1.6583774773e-001
 2.2013534396e-001	 4.6214241734e+000	 1.7334163683e-001
 1.7579690619e-001	 4.6233231032e+000	 1.8241590402e-001
 1.3160888035e-001	 4.6247919314e+000	 1.9274607943e-001
 8.7576604240e-002	 4.6258352697e+000	 2.0398840080e-001
 4.3705285220e-002	 4.6264577939e+000	 2.1578047513e-001
 0.0000000000e+000	 4.6266642400e+000	 2.2774967993e-001
 4.4644600304e-001	 4.6318626763e+000	 1.6496107979e-001
 4.0118073105e-001	 4.6360025122e+000	 1.6493742047e-001
 3.5603794368e-001	 4.6396876726e+000	 1.6683715552e-001
 3.1102365784e-001	 4.6429224177e+000	 1.7053687755e-001
 2.6614376212e-001	 4.6457110910e+000	 1.7583694865e-001
 2.2140401607e-001	 4.6480581152e+000	 1.8247929984e-001
 1.7681004941e-001	 4.6499679888e+000	 1.9016545028e-001
 1.3236736153e-001	 4.6514452821e+000	 1.9857378241e-001
 8.8081320987e-002	 4.6524946333e+000	 2.0737524662e-001
 4.3957165155e-002	 4.6531207452e+000	 2.1624680117e-001
 0.0000000000e+000	 4.6533283810e+000	 2.2488202091e-001
 4.4900419775e-001	 4.6584038627e+000	 1.7364182574e-001
 4.0347954975e-001	 4.6625674204e+000	 1.7388427856e-001
 3.5807808824e-001	 4.6662736973e+000	 1.7571065460e-001
 3.1280586458e-001	 4.6695269779e+000	 1.7888334598e-001
 2.6766880112e-001	 4.6723316306e+000	 1.8311181731e-001
 2.2267269039e-001	 4.6746921036e+000	 1.8817266548e-001
 1.7782319440e-001	 4.6766129211e+000	 1.9382026922e-001
 1.3312584404e-001	 4.6780986794e+000	 1.9979835528e-001
 8.8586038617e-002	 4.6791540436e+000	 2.0585228170e-001
 4.4209045530e-002	 4.6797837432e+000	 2.1174093361e-001
 0.0000000000e+000	 4.6799925688e+000	 2.1724828747e-001
 4.5156239757e-001	 4.6849451022e+000	 1.7992889744e-001
 4.0577837306e-001	 4.6891323818e+000	 1.7857228614e-001
 3.6011823688e-001	 4.6928597752e+000	 1.7851897580e-001
 3.1458807488e-001	 4.6961315913e+000	 1.7965946662e-001
 2.6919384316e-001	 4.6989522236e+000	 1.8184583789e-001
 2.2394136725e-001	 4.7013261453e+000	 1.8490493109e-001
 1.7883634142e-001	 4.7032579066e+000	 1.8865094092e-001
 1.3388432806e-001	 4.7047521301e+000	 1.9289748315e-001
 8.9090757256e-002	 4.7058135072e+000	 1.9746920668e-001
 4.4460926409e-002	 4.7064467945e+000	 2.0221301414e-001
 0.0000000000e+000	 4.7066568099e+000	 2.0700895239e-001
 4.5412060315e-001	 4.7114864015e+000	 1.7853037985e-001
 4.0807720153e-001	 4.7156974029e+000	 1.7440927700e-001
 3.6215839011e-001	 4.7194459128e+000	 1.7189262233e-001
 3.1637028919e-001	 4.7227362646e+000	 1.7091306899e-001
 2.7071888863e-001	 4.7255728763e+000	 1.7138189251e-001
 2.2521004697e-001	 4.7279602469e+000	 1.7320136246e-001
 1.7984949071e-001	 4.7299029521e+000	 1.7627649735e-001
 1.3464281379e-001	 4.7314056407e+000	 1.8052627845e-001
 8.9595477031e-002	 4.7324730307e+000	 1.8589439611e-001
 4.4712807855e-002	 4.7331099057e+000	 1.9235959916e-001
 0.0000000000e+000	 4.7333211109e+000	 1.9994571456e-001
 4.7333211109e+000	 0.0000000000e+000	 4.8956754703e-001
 4.7331099057e+000	 4.4712807855e-002	 4.8784351538e-001
 4.7324730307e+000	 8.9595477031e-002	 4.8645866534e-001
 4.7314056407e+000	 1.3464281379e-001	 4.8527499844e-001
 4.7299029521e+000	 1.7984949071e-001	 4.8409857041e-001
 4.7279602469e+000	 2.2521004697e-001	 4.8269345169e-001
 4.7255728763e+000	 2.7071888863e-001	 4.8079645474e-001
 4.7227362646e+000	 3.1637028919e-001	 4.7813274311e-001
 4.7194459128e+000	 3.6215839011e-001	 4.7443244774e-001
 4.7156974029e+000	 4.0807720153e-001	 4.6944842521e-001
 4.7114864015e+000	 4.5412060315e-001	 4.6297530210e-001
 4.7599894698e+000	 0.0000000000e+000	 4.8817685503e-001
 4.7597770747e+000	 4.4964727633e-002	 4.8859376670e-001
 4.7591366114e+000	 9.0100273615e-002	 4.8866174317e-001
 4.7580632075e+000	 1.3540141494e-001	 4.8833372589e-001
 4.7565520525e+000	 1.8086279419e-001	 4.8750900813e-001
 4.7545984018e+000	 2.2647891975e-001	 4.8604664876e-001
 4.7521975803e+000	 2.7224416619e-001	 4.8377961540e-001
 4.7493449866e+000	 3.1815277473e-001	 4.8052977683e-001
 4.7460360964e+000	 3.6419885381e-001	 4.7612387552e-001
 4.7422664668e+000	 4.1037637985e-001	 4.7041062085e-001
 4.7380317398e+000	 4.5667919805e-001	 4.6327905373e-001
 4.7866578487e+000	 0.0000000000e+000	 4.8719574339e-001
 4.7864442636e+000	 4.5216647599e-002	 4.8941276651e-001
 4.7858002120e+000	 9.0605070578e-002	 4.9071144046e-001
 4.7847207943e+000	 1.3616001667e-001	 4.9111969587e-001
 4.7832011729e+000	 1.8187609843e-001	 4.9061405741e-001
 4.7812365766e+000	 2.2774779349e-001	 4.8913250047e-001
 4.7788223043e+000	 2.7376944490e-001	 4.8658799861e-001
 4.7759537286e+000	 3.1993526160e-001	 4.8288288672e-001
 4.7726263000e+000	 3.6623931904e-001	 4.7792417595e-001
 4.7688355505e+000	 4.1267555989e-001	 4.7163996748e-001
 4.7645770980e+000	 4.5923779486e-001	 4.6399712236e-001
 4.8133262010e+000	 0.0000000000e+000	 4.8701269446e-001
 4.8131114259e+000	 4.5468567315e-002	 4.9063353120e-001
 4.8124637861e+000	 9.1109867036e-002	 4.9288434207e-001
 4.8113783544e+000	 1.3691861764e-001	 4.9385258046e-001
 4.8098502666e+000	 1.8288940166e-001	 4.9357649149e-001
 4.8078747248e+000	 2.2901666596e-001	 4.9205740016e-001
 4.8054470016e+000	 2.7529472208e-001	 4.8927265028e-001
 4.8025624440e+000	 3.2171774669e-001	 4.8518932425e-001
 4.7992164769e+000	 3.6827978224e-001	 4.7977888545e-001
 4.7954046077e+000	 4.1497473763e-001	 4.7303289644e-001
 4.7911224297e+000	 4.6179638912e-001	 4.6497997730e-001
 4.8399944799e+000	 0.0000000000e+000	 4.8800714642e-001
 4.8397785148e+000	 4.5720486337e-002	 4.9258147280e-001
 4.8391272868e+000	 9.1614662108e-002	 4.9545082315e-001
 4.8380358413e+000	 1.3767721652e-001	 4.9674719006e-001
 4.8364992871e+000	 1.8390270211e-001	 4.9655552211e-001
 4.8345127998e+000	 2.3028553495e-001	 4.9492543078e-001
 4.8320716258e+000	 2.7681999506e-001	 4.9188350682e-001
 4.8291710862e+000	 3.2350022688e-001	 4.8744638118e-001
 4.8258065808e+000	 3.7032023982e-001	 4.8163467829e-001
 4.8219735919e+000	 4.1727390906e-001	 4.7448802125e-001
 4.8176676884e+000	 4.6435497634e-001	 4.6608126040e-001
 4.8666626388e+000	 0.0000000000e+000	 4.9054974071e-001
 4.8664454838e+000	 4.5972404228e-002	 4.9557460983e-001
 4.8657906675e+000	 9.2119454909e-002	 4.9867522355e-001
 4.8646932082e+000	 1.3843581199e-001	 5.0001361180e-001
 4.8631481876e+000	 1.8491599799e-001	 4.9970690255e-001
 4.8611507549e+000	 2.3155439822e-001	 4.9783843353e-001
 4.8586961301e+000	 2.7834526119e-001	 4.9446943058e-001
 4.8557796087e+000	 3.2528269905e-001	 4.8965139302e-001
 4.8523965650e+000	 3.7236068822e-001	 4.8343933978e-001
 4.8485424565e+000	 4.1957307013e-001	 4.7590608252e-001
 4.8442128277e+000	 4.6691355205e-001	 4.6715770457e-001
 4.8933306310e+000	 0.0000000000e+000	 4.9500256148e-001
 4.8931122861e+000	 4.6224320544e-002	 4.9992377122e-001
 4.8924538816e+000	 9.2624244557e-002	 5.0281601646e-001
 4.8913504085e+000	 1.3919440273e-001	 5.0385734337e-001
 4.8897969216e+000	 1.8592928754e-001	 5.0318302730e-001
 4.8877885435e+000	 2.3282325357e-001	 5.0089607414e-001
 4.8853204680e+000	 2.7987051778e-001	 4.9707824389e-001
 4.8823879649e+000	 3.2706516008e-001	 4.9180174227e-001
 4.8789863830e+000	 3.7440112388e-001	 4.8514174018e-001
 4.8751111550e+000	 4.2187221684e-001	 4.7718989429e-001
 4.8707578010e+000	 4.6947211177e-001	 4.6806905475e-001
 4.9199984100e+000	 0.0000000000e+000	 5.0171936740e-001
 4.9197788751e+000	 4.6476234846e-002	 5.0593279377e-001
 4.9191168823e+000	 9.3129030168e-002	 5.0812597167e-001
 4.9180073955e+000	 1.3995298739e-001	 5.0847942249e-001
 4.9164454424e+000	 1.8694256899e-001	 5.0713302842e-001
 4.9144261190e+000	 2.3409209877e-001	 5.0419590705e-001
 4.9119445930e+000	 2.8139576218e-001	 4.9975676205e-001
 4.9089961082e+000	 3.2884760685e-001	 4.9389486143e-001
 4.9055759883e+000	 3.7644154321e-001	 4.8669180940e-001
 4.9016796411e+000	 4.2417134516e-001	 4.7824429213e-001
 4.8973025621e+000	 4.7203065102e-001	 4.6867799132e-001
 4.9466659289e+000	 0.0000000000e+000	 5.1104581589e-001
 4.9464452040e+000	 4.6728146693e-002	 5.1389871316e-001
 4.9457796232e+000	 9.3633810859e-002	 5.1485231357e-001
 4.9446641227e+000	 1.4071156466e-001	 5.1407655226e-001
 4.9430937035e+000	 1.8795584057e-001	 5.1170286879e-001
 4.9410634348e+000	 2.3536093160e-001	 5.0783343734e-001
 4.9385684584e+000	 2.8292099170e-001	 5.0255082505e-001
 4.9356039921e+000	 3.3063003625e-001	 4.9592823586e-001
 4.9321653344e+000	 3.7848194265e-001	 4.8804051228e-001
 4.9282478681e+000	 4.2647045107e-001	 4.7897608266e-001
 4.9238470643e+000	 4.7458916533e-001	 4.6885005577e-001
 4.9733331411e+000	 0.0000000000e+000	 5.2331968042e-001
 4.9731112264e+000	 4.6980055644e-002	 5.2411194897e-001
 4.9724420574e+000	 9.4138585748e-002	 5.2323687410e-001
 4.9713205433e+000	 1.4147013321e-001	 5.2084122241e-001
 4.9697416580e+000	 1.8896910049e-001	 5.1703543230e-001
 4.9677004443e+000	 2.3662974984e-001	 5.1190218068e-001
 4.9651920176e+000	 2.8444620369e-001	 5.0550532822e-001
 4.9622115701e+000	 3.3241244516e-001	 4.9789940628e-001
 4.9587543747e+000	 3.8052231863e-001	 4.8913982457e-001
 4.9548157895e+000	 4.2876953053e-001	 4.7929399456e-001
 4.9503912612e+000	 4.7714765022e-001	 4.6845357867e-001
 5.0000000000e+000	 0.0000000000e+000	 5.3887106071e-001
 4.9997768954e+000	 4.7231961259e-002	 5.3685648376e-001
 4.9991041383e+000	 9.4643353951e-002	 5.3351624077e-001
 4.9979766107e+000	 1.4222869172e-001	 5.2896182671e-001
 4.9963892595e+000	 1.8998234699e-001	 5.2327061113e-001
 4.9943371009e+000	 2.3789855127e-001	 5.1649372123e-001
 4.9918152240e+000	 2.8597139548e-001	 5.0866425180e-001
 4.9888187954e+000	 3.3419483045e-001	 4.9980597125e-001
 4.9853430627e+000	 3.8256266757e-001	 4.8994270958e-001
 4.9813833590e+000	 4.3106857954e-001	 4.7910863102e-001
 4.9769351065e+000	 4.7970610120e-001	 4.6735960970e-001
 4.7114864015e+000	 4.5412060315e-001	 4.6297530210e-001
 4.7068094006e+000	 5.0027542892e-001	 4.5525543448e-001
 4.7016616537e+000	 5.4654228262e-001	 4.4694227208e-001
 4.6960391073e+000	 5.9291476285e-001	 4.3857709497e-001
 4.6899378081e+000	 6.3938634528e-001	 4.3083244263e-001
 4.6833539067e+000	 6.8595038414e-001	 4.2443232412e-001
 4.6762836616e+000	 7.3260011383e-001	 4.1889036357e-001
 4.6687234430e+000	 7.7932865067e-001	 4.1349064933e-001
 4.6606697367e+000	 8.2612899476e-001	 4.0752605165e-001
 4.6521191480e+000	 8.7299403196e-001	 4.0014367834e-001
 4.6430684052e+000	 9.1991653610e-001	 3.9082148938e-001
 4.7380317398e+000	 4.5667919805e-001	 4.6327905373e-001
 4.7333283879e+000	 5.0309406817e-001	 4.5498912303e-001
 4.7281516376e+000	 5.4962159742e-001	 4.4612579202e-001
 4.7224974129e+000	 5.9625534832e-001	 4.3719101419e-001
 4.7163617379e+000	 6.4298875977e-001	 4.2881308562e-001
 4.7097407416e+000	 6.8981514856e-001	 4.2162923251e-001
 4.7026306615e+000	 7.3672771099e-001	 4.1512264860e-001
 4.6950278473e+000	 7.8371952458e-001	 4.0867930662e-001
 4.6869287650e+000	 8.3078354999e-001	 4.0178112065e-001
 4.6783300008e+000	 8.7791263301e-001	 3.9391475714e-001
 4.6692282646e+000	 9.2509950674e-001	 3.8456787044e-001
 4.7645770980e+000	 4.5923779486e-001	 4.6399712236e-001
 4.7598473950e+000	 5.0591270954e-001	 4.5526394804e-001
 4.7546416415e+000	 5.5270091453e-001	 4.4595920810e-001
 4.7489557383e+000	 5.9959593629e-001	 4.3654609917e-001
 4.7427856875e+000	 6.4659117696e-001	 4.2760928524e-001
 4.7361275963e+000	 6.9367991589e-001	 4.1969856213e-001
 4.7289776812e+000	 7.4085531125e-001	 4.1229130241e-001
 4.7213322714e+000	 7.8811040178e-001	 4.0486803554e-001
 4.7131878131e+000	 8.3543810871e-001	 3.9697597416e-001
 4.7045408733e+000	 8.8283123775e-001	 3.8816563374e-001
 4.6953881436e+000	 9.3028248127e-001	 3.7798706035e-001
 4.7911224297e+000	 4.6179638912e-001	 4.6497997730e-001
 4.7863663757e+000	 5.0873134809e-001	 4.5588831501e-001
 4.7811316189e+000	 5.5578022856e-001	 4.4621330959e-001
 4.7754140372e+000	 6.0293652092e-001	 4.3638021132e-001
 4.7692096106e+000	 6.5019359054e-001	 4.2693089680e-001
 4.7625144247e+000	 6.9754467935e-001	 4.1832898314e-001
 4.7553246745e+000	 7.4498290738e-001	 4.1006778500e-001
 4.7476366691e+000	 7.9250127459e-001	 4.0171535653e-001
 4.7394468349e+000	 8.4009266278e-001	 3.9288346474e-001
 4.7307517196e+000	 8.8774983756e-001	 3.8318603194e-001
 4.7215479964e+000	 9.3546545062e-001	 3.7223537136e-001
 4.8176676884e+000	 4.6435497634e-001	 4.6608126040e-001
 4.8128852834e+000	 5.1154997889e-001	 4.5667473241e-001
 4.8076215234e+000	 5.5885953413e-001	 4.4666385807e-001
 4.8018722634e+000	 6.0627709636e-001	 4.3643699815e-001
 4.7956334612e+000	 6.5379599422e-001	 4.2649432544e-001
 4.7889011804e+000	 7.0140943218e-001	 4.1721636935e-001
 4.7816715954e+000	 7.4911049215e-001	 4.0813119621e-001
 4.7739409946e+000	 7.9689213533e-001	 3.9888776102e-001
 4.7657057845e+000	 8.4474720405e-001	 3.8916159228e-001
 4.7569624938e+000	 8.9266842386e-001	 3.7862952779e-001
 4.7477077773e+000	 9.4064840571e-001	 3.6696597383e-001
 4.8442128277e+000	 4.6691355205e-001	 4.6715770457e-001
 4.8394040719e+000	 5.1436859701e-001	 4.5743970641e-001
 4.8341113087e+000	 5.6193882583e-001	 4.4709146102e-001
 4.8283303706e+000	 6.0961765677e-001	 4.3646574858e-001
 4.8220571928e+000	 6.5739838170e-001	 4.2602236604e-001
 4.8152878175e+000	 7.0527416762e-001	 4.1606360059e-001
 4.8080183978e+000	 7.5323805836e-001	 4.0616806196e-001
 4.8002452017e+000	 8.0128297631e-001	 3.9605948354e-001
 4.7919646159e+000	 8.4940172438e-001	 3.8547631245e-001
 4.7831731501e+000	 8.9758698802e-001	 3.7415776023e-001
 4.7738674405e+000	 9.4583133749e-001	 3.6184010163e-001
 4.8707578010e+000	 4.6947211177e-001	 4.6806905475e-001
 4.8659226945e+000	 5.1718719751e-001	 4.5800363874e-001
 4.8606009285e+000	 5.6501809830e-001	 4.4728144941e-001
 4.8547883124e+000	 6.1295819631e-001	 4.3622125280e-001
 4.8484807593e+000	 6.6100074665e-001	 4.2524404821e-001
 4.8416742897e+000	 7.0913887891e-001	 4.1458037065e-001
 4.8343650355e+000	 7.5736559877e-001	 4.0387212646e-001
 4.8265492444e+000	 8.0567378985e-001	 3.9291228015e-001
 4.8182232832e+000	 8.5405621561e-001	 3.8150130333e-001
 4.8093836426e+000	 9.0250552144e-001	 3.6944018789e-001
 4.8000269402e+000	 9.5101423687e-001	 3.5652680097e-001
 4.8973025621e+000	 4.7203065102e-001	 4.6867799132e-001
 4.8924411051e+000	 5.2000577547e-001	 4.5819072784e-001
 4.8870903364e+000	 5.6809734613e-001	 4.4702375904e-001
 4.8812460426e+000	 6.1629870912e-001	 4.3546366662e-001
 4.8749041144e+000	 6.6460308279e-001	 4.2389448632e-001
 4.8680605507e+000	 7.1300355928e-001	 4.1248300071e-001
 4.8607114624e+000	 7.6149310617e-001	 4.0094415020e-001
 4.8528530766e+000	 8.1006456827e-001	 3.8913521301e-001
 4.8444817405e+000	 8.5871066962e-001	 3.7691773833e-001
 4.8355939254e+000	 9.0742401552e-001	 3.6415385226e-001
 4.8261862307e+000	 9.5619709479e-001	 3.5070268574e-001
 4.9238470643e+000	 4.7458916533e-001	 4.6885005577e-001
 4.9189592571e+000	 5.2282432595e-001	 4.5782887299e-001
 4.9135794860e+000	 5.7117656394e-001	 4.4611281562e-001
 4.9077035148e+000	 6.1963918937e-001	 4.3395838004e-001
 4.9013272119e+000	 6.6820538381e-001	 4.2171452044e-001
 4.8944465545e+000	 7.1686820198e-001	 4.0949425784e-001
 4.8870576325e+000	 7.6562057332e-001	 3.9709171355e-001
 4.8791566525e+000	 8.1445530387e-001	 3.8442444071e-001
 4.8707399418e+000	 8.6336507824e-001	 3.7141406520e-001
 4.8618039526e+000	 9.1234246164e-001	 3.5798314720e-001
 4.8523452661e+000	 9.6137990218e-001	 3.4405169920e-001
 4.9503912612e+000	 4.7714765022e-001	 4.6845357867e-001
 4.9454771042e+000	 5.2564284401e-001	 4.5674958133e-001
 4.9400683310e+000	 5.7425574634e-001	 4.4434742339e-001
 4.9341606827e+000	 6.2297963120e-001	 4.3147588996e-001
 4.9277500055e+000	 6.7180764341e-001	 4.1844943802e-001
 4.9208322549e+000	 7.2073280023e-001	 4.0534317859e-001
 4.9134034996e+000	 7.6974799300e-001	 3.9202902564e-001
 4.9054599258e+000	 8.1884598899e-001	 3.7848301432e-001
 4.8969978411e+000	 8.6801943334e-001	 3.6468579088e-001
 4.8880136785e+000	 9.1726085120e-001	 3.5061959430e-001
 4.8785040006e+000	 9.6656264996e-001	 3.3626488171e-001
 4.9769351065e+000	 4.7970610120e-001	 4.6735960970e-001
 4.9719945999e+000	 5.2846132473e-001	 4.5478787772e-001
 4.9665568250e+000	 5.7733488795e-001	 4.4153065712e-001
 4.9606175001e+000	 6.2632002876e-001	 4.2779167672e-001
 4.9541724491e+000	 6.7540985527e-001	 4.1385203437e-001
 4.9472176057e+000	 7.2459734727e-001	 3.9976489737e-001
 4.9397490176e+000	 7.7387535800e-001	 3.8547673845e-001
 4.9317628506e+000	 8.2323661592e-001	 3.7102067882e-001
 4.9232553924e+000	 8.7267372677e-001	 3.5643527203e-001
 4.9142230571e+000	 9.2217917559e-001	 3.4176162410e-001
 4.9046623886e+000	 9.7174532908e-001	 3.2704014428e-001
 4.6430684052e+000	 9.1991653610e-001	 3.9082148938e-001
 4.6335128934e+000	 9.6689621935e-001	 3.7922037395e-001
 4.6234509209e+000	 1.0139185908e+000	 3.6558666403e-001
 4.6128796112e+000	 1.0609760877e+000	 3.5028710739e-001
 4.6017962261e+000	 1.1080610447e+000	 3.3367851130e-001
 4.5901981691e+000	 1.1551656968e+000	 3.1609773504e-001
 4.5780829893e+000	 1.2022821825e+000	 2.9785184591e-001
 4.5654483845e+000	 1.2494025464e+000	 2.7920714268e-001
 4.5522922052e+000	 1.2965187431e+000	 2.6037712930e-001
 4.5386124571e+000	 1.3436226398e+000	 2.4149248427e-001
 4.5244073051e+000	 1.3907060206e+000	 2.2227356516e-001
 4.6692282646e+000	 9.2509950674e-001	 3.8456787044e-001
 4.6596189153e+000	 9.7234388174e-001	 3.7325078193e-001
 4.6495002519e+000	 1.0196311855e+000	 3.5985845893e-001
 4.6388693816e+000	 1.0669538126e+000	 3.4474301674e-001
 4.6277235508e+000	 1.1143040544e+000	 3.2826312708e-001
 4.6160601483e+000	 1.1616741024e+000	 3.1075690717e-001
 4.6038767094e+000	 1.2090560505e+000	 2.9253243841e-001
 4.5911709191e+000	 1.2564418989e+000	 2.7385722540e-001
 4.5779406155e+000	 1.3038235564e+000	 2.5494665584e-001
 4.5641837933e+000	 1.3511928448e+000	 2.3591036326e-001
 4.5498986071e+000	 1.3985415015e+000	 2.1654369894e-001
 4.6953881436e+000	 9.3028248127e-001	 3.7798706035e-001
 4.6857249569e+000	 9.7779154822e-001	 3.6611786879e-001
 4.6755496025e+000	 1.0253437844e+000	 3.5272703400e-001
 4.6648591716e+000	 1.0729315419e+000	 3.3808094752e-001
 4.6536508949e+000	 1.1205470688e+000	 3.2215891675e-001
 4.6419221469e+000	 1.1681825128e+000	 3.0512079331e-001
 4.6296704489e+000	 1.2158299237e+000	 2.8727034515e-001
 4.6168934730e+000	 1.2634812566e+000	 2.6887089491e-001
 4.6035890452e+000	 1.3111283752e+000	 2.5013431604e-001
 4.5897551488e+000	 1.3587630554e+000	 2.3114515244e-001
 4.5753899282e+000	 1.4063769883e+000	 2.1180816192e-001
 4.7215479964e+000	 9.3546545062e-001	 3.7223537136e-001
 4.7118309723e+000	 9.8323920925e-001	 3.5975417529e-001
 4.7015989270e+000	 1.0310563777e+000	 3.4590566326e-001
 4.6908489355e+000	 1.0789092652e+000	 3.3094648642e-001
 4.6795782131e+000	 1.1267900770e+000	 3.1511903823e-001
 4.6677841197e+000	 1.1746909167e+000	 2.9864406930e-001
 4.6554641627e+000	 1.2226037901e+000	 2.8152929835e-001
 4.6426160012e+000	 1.2705206073e+000	 2.6373031303e-001
 4.6292374491e+000	 1.3184331867e+000	 2.4544792183e-001
 4.6153264787e+000	 1.3663332584e+000	 2.2674620017e-001
 4.6008812238e+000	 1.4142124673e+000	 2.0765132237e-001
 4.7477077773e+000	 9.4064840571e-001	 3.6696597383e-001
 4.7379369159e+000	 9.8868685530e-001	 3.5393889540e-001
 4.7276481799e+000	 1.0367689552e+000	 3.3970266772e-001
 4.7168386280e+000	 1.0848869721e+000	 3.2449284757e-001
 4.7055054601e+000	 1.1330330679e+000	 3.0852921858e-001
 4.6936460213e+000	 1.1811993028e+000	 2.9200851350e-001
 4.6812578055e+000	 1.2293776378e+000	 2.7509723192e-001
 4.6683384586e+000	 1.2775599386e+000	 2.5792370042e-001
 4.6548857826e+000	 1.3257379781e+000	 2.4039945271e-001
 4.6408977383e+000	 1.3739034406e+000	 2.2226668758e-001
 4.6263724493e+000	 1.4220479247e+000	 2.0366084569e-001
 4.7738674405e+000	 9.4583133749e-001	 3.6184010163e-001
 4.7640427421e+000	 9.9413447684e-001	 3.4833659088e-001
 4.7536973156e+000	 1.0424815070e+000	 3.3378954978e-001
 4.7428282035e+000	 1.0908646521e+000	 3.1840886471e-001
 4.7314325903e+000	 1.1392760308e+000	 3.0238743870e-001
 4.7195078066e+000	 1.1877076595e+000	 2.8589403652e-001
 4.7070513322e+000	 1.2361514551e+000	 2.6906614596e-001
 4.6940608004e+000	 1.2845992382e+000	 2.5200207164e-001
 4.6805340007e+000	 1.3330427367e+000	 2.3475236978e-001
 4.6664688829e+000	 1.3814735888e+000	 2.1726367850e-001
 4.6518635601e+000	 1.4298833469e+000	 1.9942777914e-001
 4.8000269402e+000	 9.5101423687e-001	 3.5652680097e-001
 4.7901484051e+000	 9.9958206434e-001	 3.4261952580e-001
 4.7797462885e+000	 1.0481940231e+000	 3.2784530222e-001
 4.7688176166e+000	 1.0968422947e+000	 3.1238380734e-001
 4.7573595586e+000	 1.1455189547e+000	 2.9639683196e-001
 4.7453694302e+000	 1.1942159756e+000	 2.8002126451e-001
 4.7328446978e+000	 1.2429252300e+000	 2.6336201631e-001
 4.7197829813e+000	 1.2916384939e+000	 2.4648416750e-001
 4.7061820584e+000	 1.3403474496e+000	 2.2940332296e-001
 4.6920398676e+000	 1.3890436896e+000	 2.1208115560e-001
 4.6773545116e+000	 1.4377187201e+000	 1.9467088208e-001
 4.8261862307e+000	 9.5619709479e-001	 3.5070268574e-001
 4.8162538593e+000	 1.0050296083e+000	 3.3646741585e-001
 4.8057950530e+000	 1.0539064935e+000	 3.2155615314e-001
 4.7948068218e+000	 1.1028198895e+000	 3.0611386140e-001
 4.7832863194e+000	 1.1517618286e+000	 2.9026702437e-001
 4.7712308470e+000	 1.2007242396e+000	 2.7411678535e-001
 4.7586378570e+000	 1.2496989508e+000	 2.5773195709e-001
 4.7455049565e+000	 1.2986776933e+000	 2.4114123802e-001
 4.7318299110e+000	 1.3476521041e+000	 2.2432380545e-001
 4.7176106477e+000	 1.3966137299e+000	 2.0727010402e-001
 4.7028452592e+000	 1.4455540306e+000	 1.9013202999e-001
 4.8523452661e+000	 9.6137990218e-001	 3.4405169920e-001
 4.8423590590e+000	 1.0104770991e+000	 3.2956728920e-001
 4.8318435636e+000	 1.0596189083e+000	 3.1461531722e-001
 4.8207957736e+000	 1.1087974261e+000	 2.9930187780e-001
 4.8092128274e+000	 1.1580046417e+000	 2.8371388212e-001
 4.7970920116e+000	 1.2072324402e+000	 2.6791289713e-001
 4.7844307647e+000	 1.2564726055e+000	 2.5192815542e-001
 4.7712266809e+000	 1.3057168240e+000	 2.3574886028e-001
 4.7574775135e+000	 1.3549566873e+000	 2.1932052926e-001
 4.7431811786e+000	 1.4041836964e+000	 2.0266119169e-001
 4.7283357583e+000	 1.4533892647e+000	 1.8589608312e-001
 4.8785040006e+000	 9.6656264996e-001	 3.3626488171e-001
 4.8684639585e+000	 1.0159245272e+000	 3.2161281789e-001
 4.8578917746e+000	 1.0653312573e+000	 3.0672275288e-001
 4.8467844266e+000	 1.1147748939e+000	 2.9165712678e-001
 4.8351390374e+000	 1.1642473830e+000	 2.7645926484e-001
 4.8229528789e+000	 1.2137405659e+000	 2.6114736194e-001
 4.8102233759e+000	 1.2632461823e+000	 2.4570762761e-001
 4.7969481095e+000	 1.3127558737e+000	 2.3008669869e-001
 4.7831248211e+000	 1.3622611866e+000	 2.1420156328e-001
 4.7687514154e+000	 1.4117535758e+000	 1.9808589292e-001
 4.7538259642e+000	 1.4612244087e+000	 1.8182198666e-001
 4.9046623886e+000	 9.7174532908e-001	 3.2704014428e-001
 4.8945685121e+000	 1.0213718832e+000	 3.1230474531e-001
 4.8839396404e+000	 1.0710435306e+000	 2.9758492532e-001
 4.8727727352e+000	 1.1207522825e+000	 2.8289505802e-001
 4.8610649037e+000	 1.1704900415e+000	 2.6823078436e-001
 4.8488134034e+000	 1.2202486053e+000	 2.5356316494e-001
 4.8360156452e+000	 1.2700196694e+000	 2.3883198024e-001
 4.8226691973e+000	 1.3197948302e+000	 2.2393826977e-001
 4.8087717889e+000	 1.3695655890e+000	 2.0877631785e-001
 4.7943213134e+000	 1.4193233549e+000	 1.9337656140e-001
 4.7793158324e+000	 1.4690594489e+000	 1.7776903257e-001
 4.5244073051e+000	 1.3907060206e+000	 2.2227356516e-001
 4.5096750751e+000	 1.4377605886e+000	 2.0265018034e-001
 4.4944142536e+000	 1.4847779682e+000	 1.8260867019e-001
 4.4786234942e+000	 1.5317497104e+000	 1.6233340341e-001
 4.4623016217e+000	 1.5786672978e+000	 1.4198682145e-001
 4.4454476346e+000	 1.6255221485e+000	 1.2170696222e-001
 4.4280607082e+000	 1.6723056206e+000	 1.0160504474e-001
 4.4101401969e+000	 1.7190090161e+000	 8.1763119373e-002
 4.3916856366e+000	 1.7656235858e+000	 6.2231785344e-002
 4.3726967475e+000	 1.8121405334e+000	 4.3027973884e-002
 4.3531734355e+000	 1.8585510208e+000	 2.4132792128e-002
 4.5498986071e+000	 1.3985415015e+000	 2.1654369894e-001
 4.5350833731e+000	 1.4458611832e+000	 1.9688470927e-001
 4.5197365695e+000	 1.4931434669e+000	 1.7690758788e-001
 4.5038568422e+000	 1.5403798561e+000	 1.5677408066e-001
 4.4874430094e+000	 1.5875617854e+000	 1.3662476242e-001
 4.4704940640e+000	 1.6346806246e+000	 1.1657657384e-001
 4.4530091766e+000	 1.6817276829e+000	 9.6720433524e-002
 4.4349876980e+000	 1.7286942135e+000	 7.7118929971e-002
 4.4164291615e+000	 1.7755714178e+000	 5.7804094725e-002
 4.3973332856e+000	 1.8223504501e+000	 3.8775254931e-002
 4.3776999759e+000	 1.8690224222e+000	 1.9996959732e-002
 4.5753899282e+000	 1.4063769883e+000	 2.1180816192e-001
 4.5604916902e+000	 1.4539617839e+000	 1.9223528585e-001
 4.5450589044e+000	 1.5015089719e+000	 1.7240396475e-001
 4.5290902091e+000	 1.5490100083e+000	 1.5245829860e-001
 4.5125844159e+000	 1.5964562797e+000	 1.3252182660e-001
 4.4955405122e+000	 1.6438391075e+000	 1.1269507039e-001
 4.4779576637e+000	 1.6911497523e+000	 9.3053167432e-002
 4.4598352177e+000	 1.7383794182e+000	 7.3643599510e-002
 4.4411727050e+000	 1.7855192573e+000	 5.4484017416e-002
 4.4219698423e+000	 1.8325603744e+000	 3.5560159668e-002
 4.4022265347e+000	 1.8794938316e+000	 1.6823859156e-002
 4.6008812238e+000	 1.4142124673e+000	 2.0765132237e-001
 4.5858999819e+000	 1.4620623764e+000	 1.8832258304e-001
 4.5703812139e+000	 1.5098744685e+000	 1.6875290721e-001
 4.5543235508e+000	 1.5576401519e+000	 1.4907366097e-001
 4.5377257974e+000	 1.6053507651e+000	 1.2939611120e-001
 4.5205869353e+000	 1.6529975813e+000	 1.0980896812e-001
 4.5029061259e+000	 1.7005718123e+000	 9.0376034179e-002
 4.4846827126e+000	 1.7480646132e+000	 7.1133964155e-002
 4.4659162237e+000	 1.7954670869e+000	 5.2090137440e-002
 4.4466063743e+000	 1.8427702886e+000	 3.3220640004e-002
 4.4267530690e+000	 1.8899652304e+000	 1.4468349354e-002
 4.6263724493e+000	 1.4220479247e+000	 2.0366084569e-001
 4.6113082037e+000	 1.4701629467e+000	 1.8477002692e-001
 4.5957034539e+000	 1.5182399422e+000	 1.6561179092e-001
 4.5795568231e+000	 1.5662702718e+000	 1.4630961735e-001
 4.5628671097e+000	 1.6142452261e+000	 1.2696719633e-001
 4.5456332896e+000	 1.6621560298e+000	 1.0766596373e-001
 4.5278545195e+000	 1.7099938463e+000	 8.8462759837e-002
 4.5095301392e+000	 1.7577497816e+000	 6.9387616312e-002
 4.4906596744e+000	 1.8054148891e+000	 5.0441672473e-002
 4.4712428386e+000	 1.8529801746e+000	 3.1595217842e-002
 4.4512795359e+000	 1.9004366005e+000	 1.2785853790e-002
 4.6518635601e+000	 1.4298833469e+000	 1.9942777914e-001
 4.6367163112e+000	 1.4782634806e+000	 1.8120391725e-001
 4.6210255799e+000	 1.5266053782e+000	 1.6264041641e-001
 4.6047899819e+000	 1.5749003528e+000	 1.4385765290e-001
 4.5880083088e+000	 1.6231396470e+000	 1.2495636812e-001
 4.5706795311e+000	 1.6713144372e+000	 1.0601518998e-001
 4.5528028008e+000	 1.7194158380e+000	 8.7088295871e-002
 4.5343774540e+000	 1.7674349064e+000	 6.8203222083e-002
 4.5154030137e+000	 1.8153626466e+000	 4.9358820625e-002
 4.4958791920e+000	 1.8631900147e+000	 3.0523360016e-002
 4.4758058924e+000	 1.9109079234e+000	 1.1632762330e-002
 4.6773545116e+000	 1.4377187201e+000	 1.9467088208e-001
 4.6621242599e+000	 1.4863639638e+000	 1.7725355048e-001
 4.6463475476e+000	 1.5349707619e+000	 1.5950116640e-001
 4.6300229829e+000	 1.5835303799e+000	 1.4141147937e-001
 4.6131493509e+000	 1.6320340123e+000	 1.2308684244e-001
 4.5957256162e+000	 1.6804727874e+000	 1.0460747117e-001
 4.5777509262e+000	 1.7288377708e+000	 8.6029105520e-002
 4.5592246135e+000	 1.7771199706e+000	 6.7380837532e-002
 4.5401461984e+000	 1.8253103419e+000	 4.8663105530e-002
 4.5205153914e+000	 1.8733997910e+000	 2.9845851116e-002
 4.5003320956e+000	 1.9213791809e+000	 1.0866830631e-002
 4.7028452592e+000	 1.4455540306e+000	 1.9013202999e-001
 4.6875320053e+000	 1.4944643822e+000	 1.7300519403e-001
 4.6716693128e+000	 1.5433360787e+000	 1.5588240348e-001
 4.6552557821e+000	 1.5921603379e+000	 1.3866722707e-001
 4.6382901918e+000	 1.6409283065e+000	 1.2108398898e-001
 4.6207715009e+000	 1.6896310642e+000	 1.0319557851e-001
 4.6026988520e+000	 1.7382596282e+000	 8.5063449506e-002
 4.5840715742e+000	 1.7868049574e+000	 6.6722223775e-002
 4.5648891852e+000	 1.8352579576e+000	 4.8177719816e-002
 4.5451513938e+000	 1.8836094856e+000	 2.9405164256e-002
 4.5248581026e+000	 1.9318503547e+000	 1.0347577087e-002
 4.7283357583e+000	 1.4533892647e+000	 1.8589608312e-001
 4.7129395030e+000	 1.5025647216e+000	 1.6910763667e-001
 4.6969908311e+000	 1.5517013139e+000	 1.5230442507e-001
 4.6804883353e+000	 1.6007902118e+000	 1.3549636617e-001
 4.6634307876e+000	 1.6498225140e+000	 1.1867555582e-001
 4.6458171413e+000	 1.6987892518e+000	 1.0153448537e-001
 4.6276465346e+000	 1.7476813937e+000	 8.3971671096e-002
 4.6089182927e+000	 1.7964898498e+000	 6.6031160937e-002
 4.5896319307e+000	 1.8452054763e+000	 4.7727866973e-002
 4.5697871560e+000	 1.8938190807e+000	 2.9045829831e-002
 4.5493838705e+000	 1.9423214263e+000	 9.9366774038e-003
 4.7538259642e+000	 1.4612244087e+000	 1.8182198666e-001
 4.7383467086e+000	 1.5106649679e+000	 1.6546916772e-001
 4.7223120582e+000	 1.5600664530e+000	 1.4904553273e-001
 4.7057205984e+000	 1.6094199865e+000	 1.3256025627e-001
 4.6885710943e+000	 1.6587166192e+000	 1.1601377244e-001
 4.6708624938e+000	 1.7079473341e+000	 9.9395503736e-002
 4.6525939303e+000	 1.7571030509e+000	 8.2536480507e-002
 4.6337647254e+000	 1.8061746307e+000	 6.5113760972e-002
 4.6143743917e+000	 1.8551528806e+000	 4.7141101660e-002
 4.5944226349e+000	 1.9040285584e+000	 2.8614802330e-002
 4.5739093563e+000	 1.9527923776e+000	 9.4983568620e-003
 4.7793158324e+000	 1.4690594489e+000	 1.7776903257e-001
 4.7637535775e+000	 1.5187651069e+000	 1.6197734767e-001
 4.7476329498e+000	 1.5684314812e+000	 1.4602015174e-001
 4.7309525271e+000	 1.6180496468e+000	 1.2990948070e-001
 4.7137110679e+000	 1.6676106065e+000	 1.1364884918e-001
 4.6959075144e+000	 1.7171052950e+000	 9.7231036561e-002
 4.6775409954e+000	 1.7665245833e+000	 8.0635543288e-002
 4.6586108290e+000	 1.8158592834e+000	 6.3778779393e-002
 4.6391165248e+000	 1.8651001532e+000	 4.6247668495e-002
 4.6190577873e+000	 1.9142379008e+000	 2.7961825227e-002
 4.5984345172e+000	 1.9632631901e+000	 8.8997803209e-003
 4.3531734355e+000	 1.8585510208e+000	 2.4132792128e-002
 4.3331188442e+000	 1.9048392375e+000	 5.1044539530e-003
 4.3125303724e+000	 1.9510032508e+000	-1.4904534057e-002
 4.2914084996e+000	 1.9970341310e+000	-3.6568655458e-002
 4.2697538987e+000	 2.0429229261e+000	-5.9104642217e-002
 4.2475674374e+000	 2.0886606667e+000	-8.1036107805e-002
 4.2248501796e+000	 2.1342383709e+000	-1.0262295068e-001
 4.2016033865e+000	 2.1796470501e+000	-1.2413950987e-001
 4.1778285178e+000	 2.2248777138e+000	-1.4586861809e-001
 4.1535272320e+000	 2.2699213753e+000	-1.6810239589e-001
 4.1287013875e+000	 2.3147690567e+000	-1.9114299817e-001
 4.3776999759e+000	 1.8690224222e+000	 1.9996959732e-002
 4.3575323935e+000	 1.9155714349e+000	 1.0718311882e-003
 4.3368279227e+000	 1.9619955443e+000	-1.8775321616e-002
 4.3155870456e+000	 2.0082857706e+000	-4.0144720380e-002
 4.2938104388e+000	 2.0544331112e+000	-6.1698968087e-002
 4.2714989751e+000	 2.1004285461e+000	-8.2737467034e-002
 4.2486537243e+000	 2.1462630431e+000	-1.0351175150e-001
 4.2252759548e+000	 2.1919275628e+000	-1.2428083259e-001
 4.2013671343e+000	 2.2374130640e+000	-1.4531207831e-001
 4.1769289308e+000	 2.2827105093e+000	-1.6688205525e-001
 4.1519632131e+000	 2.3278108704e+000	-1.8927732310e-001
 4.4022265347e+000	 1.8794938316e+000	 1.6823859156e-002
 4.3819459612e+000	 1.9263036403e+000	-2.0781393586e-003
 4.3611254912e+000	 1.9729878461e+000	-2.1847025932e-002
 4.3397656097e+000	 2.0195374185e+000	-4.2861345293e-002
 4.3178669970e+000	 2.0659433048e+000	-6.3633015694e-002
 4.2954305308e+000	 2.1121964344e+000	-8.3961233801e-002
 4.2724572869e+000	 2.1582877244e+000	-1.0407695402e-001
 4.2489485408e+000	 2.2042080846e+000	-1.2421865029e-001
 4.2249057684e+000	 2.2499484235e+000	-1.4463325693e-001
 4.2003306471e+000	 2.2954996529e+000	-1.6557707181e-001
 4.1752250562e+000	 2.3408526939e+000	-1.8731661212e-001
 4.4267530690e+000	 1.8899652304e+000	 1.4468349354e-002
 4.4063595044e+000	 1.9370358350e+000	-4.4765148283e-003
 4.3854230354e+000	 1.9839801368e+000	-2.4239838993e-002
 4.3639441496e+000	 2.0307890552e+000	-4.4875901312e-002
 4.3419235312e+000	 2.0774534870e+000	-6.5055326852e-002
 4.3193620626e+000	 2.1239643109e+000	-8.4844035360e-002
 4.2962608257e+000	 2.1703123936e+000	-1.0444705400e-001
 4.2726211032e+000	 2.2164885942e+000	-1.2407719545e-001
 4.2484443790e+000	 2.2624837705e+000	-1.4395607361e-001
 4.2237323400e+000	 2.3082887837e+000	-1.6431508171e-001
 4.1984868760e+000	 2.3538945043e+000	-1.8539632302e-001
 4.4512795359e+000	 1.9004366005e+000	 1.2785853790e-002
 4.4307729805e+000	 1.9477680002e+000	-6.2537299021e-003
 4.4097205128e+000	 1.9949723973e+000	-2.6073202947e-002
 4.3881226230e+000	 2.0420406610e+000	-4.6344357519e-002
 4.3659799992e+000	 2.0889636375e+000	-6.6106364482e-002
 4.3432935286e+000	 2.1357321551e+000	-8.5514457617e-002
 4.3200642991e+000	 2.1823370297e+000	-1.0474247526e-001
 4.2962936004e+000	 2.2287690700e+000	-1.2397252758e-001
 4.2719829249e+000	 2.2750190830e+000	-1.4339610097e-001
 4.2471339687e+000	 2.3210778793e+000	-1.6321512492e-001
 4.2217486319e+000	 2.3669362788e+000	-1.8364299087e-001
 4.4758058924e+000	 1.9109079234e+000	 1.1632762330e-002
 4.4551863468e+000	 1.9585001171e+000	-7.5391693864e-003
 4.4340178809e+000	 2.0059646084e+000	-2.7451274448e-002
 4.4123009877e+000	 2.0532922162e+000	-4.7414491518e-002
 4.3900363589e+000	 2.1004737362e+000	-6.6918501925e-002
 4.3672248869e+000	 2.1474999463e+000	-8.6093035065e-002
 4.3438676654e+000	 2.1943616118e+000	-1.0507556223e-001
 4.3199659911e+000	 2.2410494906e+000	-1.2401253025e-001
 4.2955213649e+000	 2.2875543391e+000	-1.4306056842e-001
 4.2705354920e+000	 2.3338669174e+000	-1.6238765775e-001
 4.2450102831e+000	 2.3799779947e+000	-1.8217425137e-001
 4.5003320956e+000	 1.9213791809e+000	 1.0866830631e-002
 4.4795995605e+000	 1.9692321670e+000	-8.4607436491e-003
 4.4583150972e+000	 2.0169567508e+000	-2.8434384272e-002
 4.4364792012e+000	 2.0645437010e+000	-4.8225883615e-002
 4.4140925684e+000	 2.1119837630e+000	-6.7616015983e-002
 4.3911560956e+000	 2.1592676640e+000	-8.6692244545e-002
 4.3676708828e+000	 2.2063861187e+000	-1.0555057633e-001
 4.3436382339e+000	 2.2533298344e+000	-1.2429691206e-001
 4.3190596578e+000	 2.3000895169e+000	-1.4304836953e-001
 4.2939368690e+000	 2.3466558755e+000	-1.6193456880e-001
 4.2682717890e+000	 2.3930196291e+000	-1.8109886741e-001
 4.5248581026e+000	 1.9318503547e+000	 1.0347577087e-002
 4.5040125789e+000	 1.9799641309e+000	-9.1444668284e-003
 4.4826121190e+000	 2.0279488052e+000	-2.9161014610e-002
 4.4606572214e+000	 2.0757950959e+000	-4.8909914448e-002
 4.4381485853e+000	 2.1234936977e+000	-6.8315083563e-002
 4.4150871129e+000	 2.1710352875e+000	-8.7416502674e-002
 4.3914739099e+000	 2.2184105294e+000	-1.0626369596e-001
 4.3673102874e+000	 2.2656100800e+000	-1.2491721114e-001
 4.3425977623e+000	 2.3126245944e+000	-1.4345007302e-001
 4.3173380589e+000	 2.3594447314e+000	-1.6194919824e-001
 4.2915331087e+000	 2.4060611591e+000	-1.8051675873e-001
 4.5493838705e+000	 1.9423214263e+000	 9.9366774038e-003
 4.5284253593e+000	 1.9906959903e+000	-9.7140377372e-003
 4.5069089040e+000	 2.0389407525e+000	-2.9772758160e-002
 4.4848350058e+000	 2.0870463810e+000	-4.9589765953e-002
 4.4622043678e+000	 2.1350035202e+000	-6.9123781793e-002
 4.4390178969e+000	 2.1828027963e+000	-8.8362166843e-002
 4.4152767049e+000	 2.2304348228e+000	-1.0730302022e-001
 4.3909821100e+000	 2.2778902058e+000	-1.2595680326e-001
 4.3661356374e+000	 2.3251595497e+000	-1.4434793708e-001
 4.3407390206e+000	 2.3722334625e+000	-1.6251636043e-001
 4.3147942016e+000	 2.4191025620e+000	-1.8051903461e-001
 4.5739093563e+000	 1.9527923776e+000	 9.4983568620e-003
 4.5528378589e+000	 2.0014277262e+000	-1.0290043857e-002
 4.5312054096e+000	 2.0499325734e+000	-3.0402860498e-002
 4.5090125121e+000	 2.0982975368e+000	-5.0380425562e-002
 4.4862598736e+000	 2.1465132103e+000	-7.0142091497e-002
 4.4629484056e+000	 2.1945701698e+000	-8.9617539629e-002
 4.4390792262e+000	 2.2424589780e+000	-1.0874857591e-001
 4.4146536604e+000	 2.2901701905e+000	-1.2749091328e-001
 4.3896732418e+000	 2.3376943608e+000	-1.4581592709e-001
 4.3641397131e+000	 2.3850220466e+000	-1.6371236956e-001
 4.3380550271e+000	 2.4321438149e+000	-1.8118802942e-001
 4.5984345172e+000	 1.9632631901e+000	 8.8997803209e-003
 4.5772500350e+000	 2.0121593200e+000	-1.0969229514e-002
 4.5555015932e+000	 2.0609242486e+000	-3.1176229544e-002
 4.5331896981e+000	 2.1095485434e+000	-5.1388693499e-002
 4.5103150606e+000	 2.1580227479e+000	-7.1461903905e-002
 4.4868785973e+000	 2.2063373874e+000	-9.1262876538e-002
 4.4628814320e+000	 2.2544829739e+000	-1.1067232796e-001
 4.4383248971e+000	 2.3024500124e+000	-1.2958662995e-001
 4.4132105343e+000	 2.3502290059e+000	-1.4791973648e-001
 4.3875400957e+000	 2.3978104613e+000	-1.6560506838e-001
 4.3613155443e+000	 2.4451848950e+000	-1.8259734097e-001
 4.1287013875e+000	 2.3147690567e+000	-1.9114299817e-001
 4.1033492018e+000	 2.3594184767e+000	-2.1424365224e-001
 4.0774766229e+000	 2.4038539472e+000	-2.3620457421e-001
 4.0510861151e+000	 2.4480665494e+000	-2.5669521869e-001
 4.0241803434e+000	 2.4920473954e+000	-2.7542424076e-001
 3.9967621731e+000	 2.5357876342e+000	-2.9215394596e-001
 3.9688346697e+000	 2.5792784569e+000	-3.0779841778e-001
 3.9404010980e+000	 2.6225111028e+000	-3.2291443258e-001
 3.9114649214e+000	 2.6654768645e+000	-3.3731775203e-001
 3.8820298008e+000	 2.7081670937e+000	-3.5090325900e-001
 3.8520995936e+000	 2.7505732069e+000	-3.6332332510e-001
 4.1519632131e+000	 2.3278108704e+000	-1.8927732310e-001
 4.1264681888e+000	 2.3727118530e+000	-2.1189291010e-001
 4.1004498393e+000	 2.4173976808e+000	-2.3366606593e-001
 4.0739106427e+000	 2.4618593845e+000	-2.5424213619e-001
 4.0468532792e+000	 2.5060880263e+000	-2.7330428030e-001
 4.0192806301e+000	 2.5500747052e+000	-2.9057530395e-001
 3.9911957783e+000	 2.5938105628e+000	-3.0590776215e-001
 3.9626020069e+000	 2.6372867889e+000	-3.2041138494e-001
 3.9335027988e+000	 2.6804946273e+000	-3.3435681779e-001
 3.9039018356e+000	 2.7234253807e+000	-3.4769789448e-001
 3.8738029964e+000	 2.7660704174e+000	-3.5996145344e-001
 4.1752250562e+000	 2.3408526939e+000	-1.8731661212e-001
 4.1495871931e+000	 2.3860052393e+000	-2.0937768668e-001
 4.1234230729e+000	 2.4309414244e+000	-2.3083565321e-001
 4.0967351875e+000	 2.4756522299e+000	-2.5132569137e-001
 4.0695262320e+000	 2.5201286676e+000	-2.7051946424e-001
 4.0417991041e+000	 2.5643617869e+000	-2.8812698218e-001
 4.0135569037e+000	 2.6083426796e+000	-3.0389833825e-001
 3.9848029324e+000	 2.6520624862e+000	-3.1787320911e-001
 3.9555406927e+000	 2.6955124013e+000	-3.3130048762e-001
 3.9257738867e+000	 2.7386836792e+000	-3.4431751007e-001
 3.8955064154e+000	 2.7815676394e+000	-3.5638798204e-001
 4.1984868760e+000	 2.3538945043e+000	-1.8539632302e-001
 4.1727061744e+000	 2.3992986122e+000	-2.0684367810e-001
 4.1463962835e+000	 2.4444851546e+000	-2.2786979191e-001
 4.1195597094e+000	 2.4894450615e+000	-2.4811338803e-001
 4.0921991621e+000	 2.5341692950e+000	-2.6724839843e-001
 4.0643175555e+000	 2.5786488543e+000	-2.8498583613e-001
 4.0359180067e+000	 2.6228747818e+000	-3.0107553926e-001
 4.0070038358e+000	 2.6668381687e+000	-3.1530777856e-001
 3.9775785646e+000	 2.7105301604e+000	-3.2821895890e-001
 3.9476459161e+000	 2.7539419624e+000	-3.4083719086e-001
 3.9172098127e+000	 2.7970648460e+000	-3.5268155740e-001
 4.2217486319e+000	 2.3669362788e+000	-1.8364299087e-001
 4.1958250920e+000	 2.4125919487e+000	-2.0442729047e-001
 4.1693694310e+000	 2.4580288475e+000	-2.2491528126e-001
 4.1423841686e+000	 2.5032378552e+000	-2.4476271224e-001
 4.1148720299e+000	 2.5482098837e+000	-2.6365932015e-001
 4.0868359450e+000	 2.5929358824e+000	-2.8133068870e-001
 4.0582790482e+000	 2.6374068441e+000	-2.9753997856e-001
 4.0292046781e+000	 2.6816138106e+000	-3.1211805226e-001
 3.9996163759e+000	 2.7255478781e+000	-3.2518595350e-001
 3.9695178853e+000	 2.7692002036e+000	-3.3733511044e-001
 3.9389131504e+000	 2.8125620100e+000	-3.4892341420e-001
 4.2450102831e+000	 2.3799779947e+000	-1.8217425137e-001
 4.2189439057e+000	 2.4258852253e+000	-2.0225567521e-001
 4.1923424751e+000	 2.4715724794e+000	-2.2210931115e-001
 4.1652085251e+000	 2.5170305868e+000	-2.4142119135e-001
 4.1375447957e+000	 2.5622504092e+000	-2.5991016860e-001
 4.1093542332e+000	 2.6072228463e+000	-2.7732974001e-001
 4.0806399892e+000	 2.6519388410e+000	-2.9346974071e-001
 4.0514054205e+000	 2.6963893859e+000	-3.0827097450e-001
 4.0216540881e+000	 2.7405655283e+000	-3.2184081457e-001
 3.9913897560e+000	 2.7844583762e+000	-3.3389194460e-001
 3.9606163904e+000	 2.8280591043e+000	-3.4519678930e-001
 4.2682717890e+000	 2.3930196291e+000	-1.8109886741e-001
 4.2420625748e+000	 2.4391784189e+000	-2.0044676729e-001
 4.2153153756e+000	 2.4851160267e+000	-2.1957951201e-001
 4.1880327389e+000	 2.5308232322e+000	-2.3822645539e-001
 4.1602174198e+000	 2.5762908470e+000	-2.5614865738e-001
 4.1318723806e+000	 2.6215097208e+000	-2.7314065061e-001
 4.1030007903e+000	 2.6664707471e+000	-2.8903207548e-001
 4.0736060241e+000	 2.7111648690e+000	-3.0394116138e-001
 4.0436916625e+000	 2.7555830846e+000	-3.1785829626e-001
 4.0132614901e+000	 2.7997164535e+000	-3.3043575591e-001
 3.9823194948e+000	 2.8435561017e+000	-3.4158633608e-001
 4.2915331087e+000	 2.4060611591e+000	-1.8051675873e-001
 4.2651810590e+000	 2.4524715061e+000	-1.9910932630e-001
 4.2382880923e+000	 2.4986594657e+000	-2.1744400718e-001
 4.2108567701e+000	 2.5446157673e+000	-2.3530630055e-001
 4.1828898625e+000	 2.5903311725e+000	-2.5251234896e-001
 4.1543903479e+000	 2.6357964811e+000	-2.6891062631e-001
 4.1253614126e+000	 2.6810025370e+000	-2.8441285162e-001
 4.0958064502e+000	 2.7259402338e+000	-2.9929028711e-001
 4.0657290606e+000	 2.7706005208e+000	-3.1340631582e-001
 4.0351330492e+000	 2.8149744086e+000	-3.2646529223e-001
 4.0040224255e+000	 2.8590529751e+000	-3.3816421164e-001
 4.3147942016e+000	 2.4191025620e+000	-1.8051903461e-001
 4.2882993178e+000	 2.4657644637e+000	-1.9834298023e-001
 4.2612605851e+000	 2.5122027726e+000	-2.1581146783e-001
 4.2336805788e+000	 2.5584081679e+000	-2.3277875500e-001
 4.2055620842e+000	 2.6043713611e+000	-2.4912873094e-001
 4.1769080956e+000	 2.6500831021e+000	-2.6477650464e-001
 4.1477218169e+000	 2.6955341851e+000	-2.7978636831e-001
 4.1180066598e+000	 2.7407154546e+000	-2.9446747360e-001
 4.0877662438e+000	 2.7856178106e+000	-3.0864031614e-001
 4.0570043951e+000	 2.8302322150e+000	-3.2207382864e-001
 4.0257251447e+000	 2.8745496975e+000	-3.3452764806e-001
 4.3380550271e+000	 2.4321438149e+000	-1.8118802942e-001
 4.3114173107e+000	 2.4790572684e+000	-1.9823827184e-001
 4.2842328136e+000	 2.5257459238e+000	-2.1478117010e-001
 4.2565041250e+000	 2.5722004099e+000	-2.3075214672e-001
 4.2282340451e+000	 2.6184113882e+000	-2.4611529429e-001
 4.1994255844e+000	 2.6643695588e+000	-2.6086484296e-001
 4.1700819640e+000	 2.7100656662e+000	-2.7528255527e-001
 4.1402066141e+000	 2.7554905054e+000	-2.8960968118e-001
 4.1098031737e+000	 2.8006349276e+000	-3.0370352705e-001
 4.0788754894e+000	 2.8454898460e+000	-3.1740986216e-001
 4.0474276143e+000	 2.8900462416e+000	-3.3056317641e-001
 4.3613155443e+000	 2.4451848950e+000	-1.8259734097e-001
 4.3345349974e+000	 2.4923498970e+000	-1.9887670769e-001
 4.3072047378e+000	 2.5392888956e+000	-2.1444305460e-001
 4.2793273689e+000	 2.5859924692e+000	-2.2932517327e-001
 4.2509057056e+000	 2.6324512293e+000	-2.4357961320e-001
 4.2219427749e+000	 2.6786558262e+000	-2.5731263567e-001
 4.1924418148e+000	 2.7245969547e+000	-2.7101961724e-001
 4.1624062742e+000	 2.7702653605e+000	-2.8484210046e-001
 4.1318398115e+000	 2.8156518457e+000	-2.9872736994e-001
 4.1007462939e+000	 2.8607472748e+000	-3.1261005974e-001
 4.0691297963e+000	 2.9055425804e+000	-3.2641149654e-001
 3.8520995936e+000	 2.7505732069e+000	-3.6332332510e-001
 3.8216783512e+000	 2.7926866895e+000	-3.7474859850e-001
 3.7907703142e+000	 2.8344990990e+000	-3.8602853534e-001
 3.7593799139e+000	 2.8760020728e+000	-3.9750972712e-001
 3.7275117717e+000	 2.9171873346e+000	-4.0947899595e-001
 3.6951706969e+000	 2.9580467000e+000	-4.2216962413e-001
 3.6623616842e+000	 2.9985720814e+000	-4.3576875413e-001
 3.6290899118e+000	 3.0387554936e+000	-4.5042591886e-001
 3.5953607382e+000	 3.0785890587e+000	-4.6626265112e-001
 3.5611796998e+000	 3.1180650113e+000	-4.8338310915e-001
 3.5265525078e+000	 3.1571757036e+000	-5.0188564472e-001
 3.8738029964e+000	 2.7660704174e+000	-3.5996145344e-001
 3.8432103554e+000	 2.8084211747e+000	-3.7121384303e-001
 3.8121281771e+000	 2.8504691626e+000	-3.8222307611e-001
 3.7805609178e+000	 2.8922059714e+000	-3.9336306090e-001
 3.7485132249e+000	 2.9336232782e+000	-4.0494387515e-001
 3.7159899348e+000	 2.9747128524e+000	-4.1721810510e-001
 3.6829960704e+000	 3.0154665609e+000	-4.3038840877e-001
 3.6495368390e+000	 3.0558763735e+000	-4.4461626307e-001
 3.6156176293e+000	 3.0959343678e+000	-4.6003184216e-001
 3.5812440090e+000	 3.1356327349e+000	-4.7674496244e-001
 3.5464217214e+000	 3.1749637836e+000	-4.9485701824e-001
 3.8955064154e+000	 2.7815676394e+000	-3.5638798204e-001
 3.8647423757e+000	 2.8241556717e+000	-3.6749081025e-001
 3.8334860560e+000	 2.8664392382e+000	-3.7830541347e-001
 3.8017419376e+000	 2.9084098822e+000	-3.8921258337e-001
 3.7695146939e+000	 2.9500592341e+000	-4.0052500583e-001
 3.7368091883e+000	 2.9913790173e+000	-4.1249374967e-001
 3.7036304721e+000	 3.0323610531e+000	-4.2531603612e-001
 3.6699837815e+000	 3.0729972662e+000	-4.3914424754e-001
 3.6358745357e+000	 3.1132796900e+000	-4.5409612144e-001
 3.6013083333e+000	 3.1532004716e+000	-4.7026606345e-001
 3.5662909498e+000	 3.1927518770e+000	-4.8773750094e-001
 3.9172098127e+000	 2.7970648460e+000	-3.5268155740e-001
 3.8862743745e+000	 2.8398901530e+000	-3.6366117322e-001
 3.8548439135e+000	 2.8824092978e+000	-3.7436102515e-001
 3.8229229361e+000	 2.9246137768e+000	-3.8514875723e-001
 3.7905161418e+000	 2.9664951736e+000	-3.9631940984e-001
 3.7576284210e+000	 3.0080451656e+000	-4.0810209848e-001
 3.7242648531e+000	 3.0492555284e+000	-4.2066803175e-001
 3.6904307036e+000	 3.0901181418e+000	-4.3413982623e-001
 3.6561314218e+000	 3.1306249948e+000	-4.4860206260e-001
 3.6213726375e+000	 3.1707681908e+000	-4.6411301501e-001
 3.5861601584e+000	 3.2105399526e+000	-4.8071747274e-001
 3.9389131504e+000	 2.8125620100e+000	-3.4892341420e-001
 3.9078063141e+000	 2.8556245910e+000	-3.5980874599e-001
 3.8762017123e+000	 2.8983793136e+000	-3.7047710886e-001
 3.8441038765e+000	 2.9408176268e+000	-3.8126336270e-001
 3.8115175320e+000	 2.9829310679e+000	-3.9242503509e-001
 3.7784475965e+000	 3.0247112680e+000	-4.0414922984e-001
 3.7448991774e+000	 3.0661499572e+000	-4.1656093566e-001
 3.7108775695e+000	 3.1072389703e+000	-4.2973269120e-001
 3.6763882522e+000	 3.1479702519e+000	-4.4369554967e-001
 3.6414368865e+000	 3.1883358617e+000	-4.5845127273e-001
 3.6060293124e+000	 3.2283279793e+000	-4.7398567026e-001
 3.9606163904e+000	 2.8280591043e+000	-3.4519678930e-001
 3.9293381567e+000	 2.8713589582e+000	-3.5601889824e-001
 3.8975594150e+000	 2.9143492574e+000	-3.6674199837e-001
 3.8652847215e+000	 2.9570214039e+000	-3.7764891633e-001
 3.8325188277e+000	 2.9993668883e+000	-3.8894017842e-001
 3.7992666783e+000	 3.0413772954e+000	-4.0074118845e-001
 3.7655334089e+000	 3.0830443100e+000	-4.1311086857e-001
 3.7313243434e+000	 3.1243597218e+000	-4.2605171857e-001
 3.6966449914e+000	 3.1653154310e+000	-4.3952123496e-001
 3.6615010452e+000	 3.2059034535e+000	-4.5344461736e-001
 3.6258983769e+000	 3.2461159260e+000	-4.6772867622e-001
 3.9823194948e+000	 2.8435561017e+000	-3.4158633608e-001
 3.9508698649e+000	 2.8870932270e+000	-3.5237797000e-001
 3.9189169843e+000	 2.9303191015e+000	-3.6324457965e-001
 3.8864654342e+000	 2.9732250798e+000	-3.7439808965e-001
 3.8535199921e+000	 3.0158026059e+000	-3.8596290825e-001
 3.8200856300e+000	 3.0580432187e+000	-3.9798341342e-001
 3.7861675114e+000	 3.0999385572e+000	-4.1043296729e-001
 3.7517709895e+000	 3.1414803662e+000	-4.2322441329e-001
 3.7169016041e+000	 3.1826605016e+000	-4.3622199541e-001
 3.6815650786e+000	 3.2234709355e+000	-4.4925462506e-001
 3.6457673173e+000	 3.2639037614e+000	-4.6213040643e-001
 4.0040224255e+000	 2.8590529751e+000	-3.3816421164e-001
 3.9724014008e+000	 2.9028273700e+000	-3.4897268638e-001
 3.9402743827e+000	 2.9462888178e+000	-3.6007370681e-001
 3.9076459774e+000	 2.9894286260e+000	-3.7160312752e-001
 3.8745209886e+000	 3.0322381921e+000	-3.8359048660e-001
 3.8409044151e+000	 3.0747090086e+000	-3.9598016572e-001
 3.8068014488e+000	 3.1168326693e+000	-4.0864081929e-001
 3.7722174720e+000	 3.1586008738e+000	-4.2137635266e-001
 3.7371580547e+000	 3.2000054335e+000	-4.3393838736e-001
 3.7016289514e+000	 3.2410382770e+000	-4.4604013585e-001
 3.6656360987e+000	 3.2816914546e+000	-4.5737159437e-001
 4.0257251447e+000	 2.8745496975e+000	-3.3452764806e-001
 3.9939327267e+000	 2.9185613596e+000	-3.4588957246e-001
 3.9616315728e+000	 2.9622583784e+000	-3.5731761813e-001
 3.9288263141e+000	 3.0056320142e+000	-3.6935526641e-001
 3.8955217803e+000	 3.0486736180e+000	-3.8191879095e-001
 3.8617229972e+000	 3.0913746361e+000	-3.9483395511e-001
 3.8274351851e+000	 3.1337266166e+000	-4.0784589637e-001
 3.7926637552e+000	 3.1757212144e+000	-4.2063062892e-001
 3.7574143078e+000	 3.2173501963e+000	-4.3280809998e-001
 3.7216926286e+000	 3.2586054472e+000	-4.4395672027e-001
 3.6855046864e+000	 3.2994789744e+000	-4.5362927361e-001
 4.0474276143e+000	 2.8900462416e+000	-3.3056317641e-001
 4.0154638050e+000	 2.9342951683e+000	-3.4303610333e-001
 3.9829885173e+000	 2.9782277553e+000	-3.5506335201e-001
 3.9500064073e+000	 3.0218352162e+000	-3.6774415240e-001
 3.9165223304e+000	 3.0651088549e+000	-3.8104173571e-001
 3.8825413400e+000	 3.1080400719e+000	-3.9464496647e-001
 3.8480686841e+000	 3.1506203697e+000	-4.0815698773e-001
 3.8131098033e+000	 3.1928413581e+000	-4.2110729068e-001
 3.7776703279e+000	 3.2346947597e+000	-4.3296540742e-001
 3.7417560751e+000	 3.2761724154e+000	-4.4315614432e-001
 3.7053730457e+000	 3.3172662896e+000	-4.5107625809e-001
 4.0691297963e+000	 2.9055425804e+000	-3.2641149654e-001
 4.0369945981e+000	 2.9500287685e+000	-3.4003871726e-001
 4.0043451789e+000	 2.9941969207e+000	-3.5338313829e-001
 3.9711862198e+000	 3.0380382034e+000	-3.6685725925e-001
 3.9375226023e+000	 3.0815438740e+000	-3.8105069343e-001
 3.9033594069e+000	 3.1247052869e+000	-3.9551048583e-001
 3.8687019096e+000	 3.1675138990e+000	-4.0967963230e-001
 3.8335555804e+000	 3.2099612749e+000	-4.2292278364e-001
 3.7979260797e+000	 3.2520390932e+000	-4.3454061965e-001
 3.7618192558e+000	 3.2937391508e+000	-4.4378583289e-001
 3.7252411416e+000	 3.3350533691e+000	-4.4988390874e-001
 3.5265525078e+000	 3.1571757036e+000	-5.0188564472e-001
 3.4914903382e+000	 3.1959078285e+000	-5.1982062073e-001
 3.4559940813e+000	 3.2342598873e+000	-5.3358849928e-001
 3.4200699536e+000	 3.2722246200e+000	-5.4086987501e-001
 3.3837243325e+000	 3.3097949028e+000	-5.3944407929e-001
 3.3469637528e+000	 3.3469637528e+000	-5.2755843122e-001
 3.3097949028e+000	 3.3837243325e+000	-5.1128486500e-001
 3.2722246200e+000	 3.4200699536e+000	-5.0441484939e-001
 3.2342598873e+000	 3.4559940813e+000	-5.0436320167e-001
 3.1959078285e+000	 3.4914903382e+000	-5.0697295621e-001
 3.1571757036e+000	 3.5265525078e+000	-5.0806733253e-001
 3.5464217214e+000	 3.1749637836e+000	-4.9485701824e-001
 3.5111620053e+000	 3.2139141321e+000	-5.1267312885e-001
 3.4754657564e+000	 3.2524822731e+000	-5.2686738797e-001
 3.4393392258e+000	 3.2906609057e+000	-5.3514881618e-001
 3.4027888272e+000	 3.3284428661e+000	-5.3532373546e-001
 3.3658211319e+000	 3.3658211319e+000	-5.2725390944e-001
 3.3284428661e+000	 3.4027888272e+000	-5.1242216514e-001
 3.2906609057e+000	 3.4393392258e+000	-5.0153216073e-001
 3.2524822731e+000	 3.4754657564e+000	-4.9872668411e-001
 3.2139141321e+000	 3.5111620053e+000	-4.9982655887e-001
 3.1749637836e+000	 3.5464217214e+000	-5.0063516003e-001
 3.5662909498e+000	 3.1927518770e+000	-4.8773750094e-001
 3.5308336872e+000	 3.2319204492e+000	-5.0505158386e-001
 3.4949374460e+000	 3.2707046726e+000	-5.1917147631e-001
 3.4586085125e+000	 3.3090972053e+000	-5.2786456187e-001
 3.4218533361e+000	 3.3470908433e+000	-5.2932393414e-001
 3.3846785252e+000	 3.3846785252e+000	-5.2525941632e-001
 3.3470908433e+000	 3.4218533361e+000	-5.1500417028e-001
 3.3090972053e+000	 3.4586085125e+000	-5.0097722393e-001
 3.2707046726e+000	 3.4949374460e+000	-4.9501263059e-001
 3.2319204492e+000	 3.5308336872e+000	-4.9430756064e-001
 3.1927518770e+000	 3.5662909498e+000	-4.9466825814e-001
 3.5861601584e+000	 3.2105399526e+000	-4.8071747274e-001
 3.5505053495e+000	 3.2499267483e+000	-4.9716917829e-001
 3.5144091162e+000	 3.2889270539e+000	-5.1073051916e-001
 3.4778777799e+000	 3.3275334865e+000	-5.1925663826e-001
 3.4409178260e+000	 3.3657388020e+000	-5.2247475383e-001
 3.4035358996e+000	 3.4035358996e+000	-5.2171455023e-001
 3.3657388020e+000	 3.4409178260e+000	-5.1546631246e-001
 3.3275334865e+000	 3.4778777799e+000	-5.0243704034e-001
 3.2889270539e+000	 3.5144091162e+000	-4.9287668450e-001
 3.2499267483e+000	 3.5505053495e+000	-4.9002917494e-001
 3.2105399526e+000	 3.5861601584e+000	-4.8972575317e-001
 3.6060293124e+000	 3.2283279793e+000	-4.7398567026e-001
 3.5701769576e+000	 3.2679329979e+000	-4.8923702915e-001
 3.5338807328e+000	 3.3071493850e+000	-5.0177194273e-001
 3.4971469943e+000	 3.3459697169e+000	-5.0981651760e-001
 3.4599822634e+000	 3.3843867093e+000	-5.1495879420e-001
 3.4223932221e+000	 3.4223932221e+000	-5.1675387127e-001
 3.3843867093e+000	 3.4599822634e+000	-5.1375343176e-001
 3.3459697169e+000	 3.4971469943e+000	-5.0455574635e-001
 3.3071493850e+000	 3.5338807328e+000	-4.9196850197e-001
 3.2679329979e+000	 3.5701769576e+000	-4.8660000536e-001
 3.2283279793e+000	 3.6060293124e+000	-4.8536365753e-001
 3.6258983769e+000	 3.2461159260e+000	-4.6772867622e-001
 3.5898484772e+000	 3.2859391665e+000	-4.8146368436e-001
 3.5533522618e+000	 3.3253716342e+000	-4.9252036469e-001
 3.5164161221e+000	 3.3644058644e+000	-5.0050033337e-001
 3.4790466151e+000	 3.4030345328e+000	-5.0691155323e-001
 3.4412504598e+000	 3.4412504598e+000	-5.1050715782e-001
 3.4030345328e+000	 3.4790466151e+000	-5.0998131077e-001
 3.3644058644e+000	 3.5164161221e+000	-5.0407095698e-001
 3.3253716342e+000	 3.5533522618e+000	-4.9193363187e-001
 3.2859391665e+000	 3.5898484772e+000	-4.8362591368e-001
 3.2461159260e+000	 3.6258983769e+000	-4.8113671734e-001
 3.6457673173e+000	 3.2639037614e+000	-4.6213040643e-001
 3.6095198739e+000	 3.3039452225e+000	-4.7405462624e-001
 3.5728236691e+000	 3.3435937694e+000	-4.8334744443e-001
 3.5356851293e+000	 3.3828418967e+000	-4.9149101302e-001
 3.4981108476e+000	 3.4216822397e+000	-4.9846377068e-001
 3.4601075796e+000	 3.4601075796e+000	-5.0309965980e-001
 3.4216822397e+000	 3.4981108476e+000	-5.0426160420e-001
 3.3828418967e+000	 3.5356851293e+000	-5.0085080396e-001
 3.3435937694e+000	 3.5728236691e+000	-4.9181577345e-001
 3.3039452225e+000	 3.6095198739e+000	-4.8071188682e-001
 3.2639037614e+000	 3.6457673173e+000	-4.7660026001e-001
 3.6656360987e+000	 3.2816914546e+000	-4.5737159437e-001
 3.6291911133e+000	 3.3219511345e+000	-4.6721177223e-001
 3.5922949207e+000	 3.3618157590e+000	-4.7513139808e-001
 3.5549539825e+000	 3.4012777815e+000	-4.8291257566e-001
 3.5171749276e+000	 3.4403297974e+000	-4.8974167962e-001
 3.4789645486e+000	 3.4789645486e+000	-4.9465234871e-001
 3.4403297974e+000	 3.5171749276e+000	-4.9670208242e-001
 3.4012777815e+000	 3.5549539825e+000	-4.9498146227e-001
 3.3618157590e+000	 3.5922949207e+000	-4.8862311643e-001
 3.3219511345e+000	 3.6291911133e+000	-4.7746390252e-001
 3.2816914546e+000	 3.6656360987e+000	-4.7131204163e-001
 3.6855046864e+000	 3.2994789744e+000	-4.5362927361e-001
 3.6488621608e+000	 3.3399568709e+000	-4.6118816994e-001
 3.6117659824e+000	 3.3800375708e+000	-4.6807518644e-001
 3.5742226478e+000	 3.4197134865e+000	-4.7488470686e-001
 3.5362388218e+000	 3.4589771734e+000	-4.8086725472e-001
 3.4978213337e+000	 3.4978213337e+000	-4.8528216456e-001
 3.4589771734e+000	 3.5362388218e+000	-4.8740687223e-001
 3.4197134865e+000	 3.5742226478e+000	-4.8654602112e-001
 3.3800375708e+000	 3.6117659824e+000	-4.8204031314e-001
 3.3399568709e+000	 3.6488621608e+000	-4.7327503552e-001
 3.2994789744e+000	 3.6855046864e+000	-4.6483409398e-001
 3.7053730457e+000	 3.3172662896e+000	-4.5107625809e-001
 3.6685329821e+000	 3.3579624003e+000	-4.5673740265e-001
 3.6312368202e+000	 3.3982591731e+000	-4.6228531416e-001
 3.5934910915e+000	 3.4381489796e+000	-4.6752300075e-001
 3.5553024967e+000	 3.4776243349e+000	-4.7195845747e-001
 3.5166779020e+000	 3.5166779020e+000	-4.7510225983e-001
 3.4776243349e+000	 3.5553024967e+000	-4.7647669474e-001
 3.4381489796e+000	 3.5934910915e+000	-4.7562471103e-001
 3.3982591731e+000	 3.6312368202e+000	-4.7211861682e-001
 3.3579624003e+000	 3.6685329821e+000	-4.6556845379e-001
 3.3172662896e+000	 3.7053730457e+000	-4.5673457129e-001
 3.7252411416e+000	 3.3350533691e+000	-4.4988390874e-001
 3.6882035428e+000	 3.3759676911e+000	-4.5411419269e-001
 3.6507074000e+000	 3.4164805340e+000	-4.5786448625e-001
 3.6127592798e+000	 3.4565842284e+000	-4.6093919896e-001
 3.5743659190e+000	 3.4962712493e+000	-4.6312947834e-001
 3.5355342204e+000	 3.5355342204e+000	-4.6422224051e-001
 3.4962712493e+000	 3.5743659190e+000	-4.6400910084e-001
 3.4565842284e+000	 3.6127592798e+000	-4.6229512861e-001
 3.4164805340e+000	 3.6507074000e+000	-4.5890735176e-001
 3.3759676911e+000	 3.6882035428e+000	-4.5370294025e-001
 3.3350533691e+000	 3.7252411416e+000	-4.4657699983e-001
 3.1571757036e+000	 3.5265525078e+000	-5.0806733253e-001
 3.1180650113e+000	 3.5611796998e+000	-5.0801146242e-001
 3.0785890587e+000	 3.5953607382e+000	-5.0937116050e-001
 3.0387554936e+000	 3.6290899118e+000	-5.1132259177e-001
 2.9985720814e+000	 3.6623616842e+000	-5.1311990048e-001
 2.9580467000e+000	 3.6951706969e+000	-5.1413737634e-001
 2.9171873346e+000	 3.7275117717e+000	-5.1390791183e-001
 2.8760020728e+000	 3.7593799139e+000	-5.1215748447e-001
 2.8344990990e+000	 3.7907703142e+000	-5.0883543789e-001
 2.7926866895e+000	 3.8216783512e+000	-5.0414037733e-001
 2.7505732069e+000	 3.8520995936e+000	-4.9854153761e-001
 3.1749637836e+000	 3.5464217214e+000	-5.0063516003e-001
 3.1356327349e+000	 3.5812440090e+000	-5.0089112165e-001
 3.0959343678e+000	 3.6156176293e+000	-5.0250577577e-001
 3.0558763735e+000	 3.6495368390e+000	-5.0460393282e-001
 3.0154665609e+000	 3.6829960704e+000	-5.0639944408e-001
 2.9747128524e+000	 3.7159899348e+000	-5.0723880402e-001
 2.9336232782e+000	 3.7485132249e+000	-5.0664086633e-001
 2.8922059714e+000	 3.7805609178e+000	-5.0433239925e-001
 2.8504691626e+000	 3.8121281771e+000	-5.0027924743e-001
 2.8084211747e+000	 3.8432103554e+000	-4.9471291089e-001
 2.7660704174e+000	 3.8738029964e+000	-4.8815239580e-001
 3.1927518770e+000	 3.5662909498e+000	-4.9466825814e-001
 3.1532004716e+000	 3.6013083333e+000	-4.9523320831e-001
 3.1132796900e+000	 3.6358745357e+000	-4.9724423581e-001
 3.0729972662e+000	 3.6699837815e+000	-4.9973650697e-001
 3.0323610531e+000	 3.7036304721e+000	-5.0184730016e-001
 2.9913790173e+000	 3.7368091883e+000	-5.0286114389e-001
 2.9500592341e+000	 3.7695146939e+000	-5.0225088198e-001
 2.9084098822e+000	 3.8017419376e+000	-4.9971438253e-001
 2.8664392382e+000	 3.8334860560e+000	-4.9520665123e-001
 2.8241556717e+000	 3.8647423757e+000	-4.8896715436e-001
 2.7815676394e+000	 3.8955064154e+000	-4.8154220259e-001
 3.2105399526e+000	 3.5861601584e+000	-4.8972575317e-001
 3.1707681908e+000	 3.6213726375e+000	-4.9054287541e-001
 3.1306249948e+000	 3.6561314218e+000	-4.9305033970e-001
 3.0901181418e+000	 3.6904307036e+000	-4.9615590102e-001
 3.0492555284e+000	 3.7242648531e+000	-4.9888451823e-001
 3.0080451656e+000	 3.7576284210e+000	-5.0042512805e-001
 2.9664951736e+000	 3.7905161418e+000	-5.0017314981e-001
 2.9246137768e+000	 3.8229229361e+000	-4.9776842872e-001
 2.8824092978e+000	 3.8548439135e+000	-4.9312837120e-001
 2.8398901530e+000	 3.8862743745e+000	-4.8647607202e-001
 2.7970648460e+000	 3.9172098127e+000	-4.7836328107e-001
 3.2283279793e+000	 3.6060293124e+000	-4.8536365753e-001
 3.1883358617e+000	 3.6414368865e+000	-4.8632351111e-001
 3.1479702519e+000	 3.6763882522e+000	-4.8938704287e-001
 3.1072389703e+000	 3.7108775695e+000	-4.9329733571e-001
 3.0661499572e+000	 3.7448991774e+000	-4.9693180102e-001
 3.0247112680e+000	 3.7784475965e+000	-4.9935068901e-001
 2.9829310679e+000	 3.8115175320e+000	-4.9984112360e-001
 2.9408176268e+000	 3.8441038765e+000	-4.9795636077e-001
 2.8983793136e+000	 3.8762017123e+000	-4.9355001620e-001
 2.8556245910e+000	 3.9078063141e+000	-4.8680505667e-001
 2.8125620100e+000	 3.9389131504e+000	-4.7825739898e-001
 3.2461159260e+000	 3.6258983769e+000	-4.8113671734e-001
 3.2059034535e+000	 3.6615010452e+000	-4.8207856467e-001
 3.1653154310e+000	 3.6966449914e+000	-4.8571826768e-001
 3.1243597218e+000	 3.7313243434e+000	-4.9059746759e-001
 3.0830443100e+000	 3.7655334089e+000	-4.9541130464e-001
 3.0413772954e+000	 3.7992666783e+000	-4.9905876537e-001
 2.9993668883e+000	 3.8325188277e+000	-5.0068833867e-001
 2.9570214039e+000	 3.8652847215e+000	-4.9973866991e-001
 2.9143492574e+000	 3.8975594150e+000	-4.9597395120e-001
 2.8713589582e+000	 3.9293381567e+000	-4.8951383666e-001
 2.8280591043e+000	 3.9606163904e+000	-4.8085772240e-001
 3.2639037614e+000	 3.6457673173e+000	-4.7660026001e-001
 3.2234709355e+000	 3.6815650786e+000	-4.7731337337e-001
 3.1826605016e+000	 3.7169016041e+000	-4.8151071570e-001
 3.1414803662e+000	 3.7517709895e+000	-4.8749619311e-001
 3.0999385572e+000	 3.7861675114e+000	-4.9374844100e-001
 3.0580432187e+000	 3.8200856300e+000	-4.9897310963e-001
 3.0158026059e+000	 3.8535199921e+000	-5.0215023242e-001
 2.9732250798e+000	 3.8864654342e+000	-5.0257635658e-001
 2.9303191015e+000	 3.9189169843e+000	-4.9990116632e-001
 2.8870932270e+000	 3.9508698649e+000	-4.9415838124e-001
 2.8435561017e+000	 3.9823194948e+000	-4.8579076599e-001
 3.2816914546e+000	 3.6656360987e+000	-4.7131204163e-001
 3.2410382770e+000	 3.7016289514e+000	-4.7153699017e-001
 3.2000054335e+000	 3.7371580547e+000	-4.7623568154e-001
 3.1586008738e+000	 3.7722174720e+000	-4.8343845453e-001
 3.1168326693e+000	 3.8068014488e+000	-4.9137368238e-001
 3.0747090086e+000	 3.8409044151e+000	-4.9852209808e-001
 3.0322381921e+000	 3.8745209886e+000	-5.0366596641e-001
 2.9894286260e+000	 3.9076459774e+000	-5.0593277201e-001
 2.9462888178e+000	 3.9402743827e+000	-5.0483314551e-001
 2.9028273700e+000	 3.9724014008e+000	-5.0029280432e-001
 2.8590529751e+000	 4.0040224255e+000	-4.9268799794e-001
 3.2994789744e+000	 3.6855046864e+000	-4.6483409398e-001
 3.2586054472e+000	 3.7216926286e+000	-4.6426401209e-001
 3.2173501963e+000	 3.7574143078e+000	-4.6937086796e-001
 3.1757212144e+000	 3.7926637552e+000	-4.7787604775e-001
 3.1337266166e+000	 3.8274351851e+000	-4.8772436792e-001
 3.0913746361e+000	 3.8617229972e+000	-4.9714054236e-001
 3.0486736180e+000	 3.8955217803e+000	-5.0468024985e-001
 3.0056320142e+000	 3.9288263141e+000	-5.0927546052e-001
 2.9622583784e+000	 3.9616315728e+000	-5.1027373500e-001
 2.9185613596e+000	 3.9939327267e+000	-5.0747126645e-001
 2.8745496975e+000	 4.0257251447e+000	-5.0149004676e-001
 3.3172662896e+000	 3.7053730457e+000	-4.5673457129e-001
 3.2761724154e+000	 3.7417560751e+000	-4.5501640905e-001
 3.2346947597e+000	 3.7776703279e+000	-4.6040220221e-001
 3.1928413581e+000	 3.8131098033e+000	-4.7026943163e-001
 3.1506203697e+000	 3.8480686841e+000	-4.8224651187e-001
 3.1080400719e+000	 3.8825413400e+000	-4.9427150278e-001
 3.0651088549e+000	 3.9165223304e+000	-5.0464516429e-001
 3.0218352162e+000	 3.9500064073e+000	-5.1207800235e-001
 2.9782277553e+000	 3.9829885173e+000	-5.1573101118e-001
 2.9342951683e+000	 4.0154638050e+000	-5.1537590395e-001
 2.8900462416e+000	 4.0474276143e+000	-5.1184927246e-001
 3.3350533691e+000	 3.7252411416e+000	-4.4657699983e-001
 3.2937391508e+000	 3.7618192558e+000	-4.4332535305e-001
 3.2520390932e+000	 3.7979260797e+000	-4.4882565330e-001
 3.2099612749e+000	 3.8335555804e+000	-4.6008953867e-001
 3.1675138990e+000	 3.8687019096e+000	-4.7439661331e-001
 3.1247052869e+000	 3.9033594069e+000	-4.8936810295e-001
 3.0815438740e+000	 3.9375226023e+000	-5.0302198930e-001
 3.0380382034e+000	 3.9711862198e+000	-5.1382185684e-001
 2.9941969207e+000	 4.0043451789e+000	-5.2072879541e-001
 2.9500287685e+000	 4.0369945981e+000	-5.2384314273e-001
 2.9055425804e+000	 4.0691297963e+000	-5.2324903771e-001
 2.7505732069e+000	 3.8520995936e+000	-4.9854153761e-001
 2.7081670937e+000	 3.8820298008e+000	-4.8998144778e-001
 2.6654768645e+000	 3.9114649214e+000	-4.7571507599e-001
 2.6225111028e+000	 3.9404010980e+000	-4.5743358604e-001
 2.5792784569e+000	 3.9688346697e+000	-4.3727490319e-001
 2.5357876342e+000	 3.9967621731e+000	-4.1616868977e-001
 2.4920473954e+000	 4.0241803434e+000	-3.9561489892e-001
 2.4480665494e+000	 4.0510861151e+000	-3.7683687766e-001
 2.4038539472e+000	 4.0774766229e+000	-3.6004538061e-001
 2.3594184767e+000	 4.1033492018e+000	-3.4535806007e-001
 2.3147690567e+000	 4.1287013875e+000	-3.3281168020e-001
 2.7660704174e+000	 3.8738029964e+000	-4.8815239580e-001
 2.7234253807e+000	 3.9039018356e+000	-4.7889422716e-001
 2.6804946273e+000	 3.9335027988e+000	-4.6450374219e-001
 2.6372867889e+000	 3.9626020069e+000	-4.4571266838e-001
 2.5938105628e+000	 3.9911957783e+000	-4.2546578279e-001
 2.5500747052e+000	 4.0192806301e+000	-4.0513787646e-001
 2.5060880263e+000	 4.0468532792e+000	-3.8614006758e-001
 2.4618593845e+000	 4.0739106427e+000	-3.6870701844e-001
 2.4173976808e+000	 4.1004498393e+000	-3.5292875064e-001
 2.3727118530e+000	 4.1264681888e+000	-3.3881801253e-001
 2.3278108704e+000	 4.1519632131e+000	-3.2631410508e-001
 2.7815676394e+000	 3.8955064154e+000	-4.8154220259e-001
 2.7386836792e+000	 3.9257738867e+000	-4.7159951867e-001
 2.6955124013e+000	 3.9555406927e+000	-4.5707258208e-001
 2.6520624862e+000	 3.9848029324e+000	-4.3815422070e-001
 2.6083426796e+000	 4.0135569037e+000	-4.1797800751e-001
 2.5643617869e+000	 4.0417991041e+000	-3.9879404522e-001
 2.5201286676e+000	 4.0695262320e+000	-3.8094725194e-001
 2.4756522299e+000	 4.0967351875e+000	-3.6451475586e-001
 2.4309414244e+000	 4.1234230729e+000	-3.4949870054e-001
 2.3860052393e+000	 4.1495871931e+000	-3.3582997076e-001
 2.3408526939e+000	 4.1752250562e+000	-3.2337219013e-001
 2.7970648460e+000	 3.9172098127e+000	-4.7836328107e-001
 2.7539419624e+000	 3.9476459161e+000	-4.6783176400e-001
 2.7105301604e+000	 3.9775785646e+000	-4.5322466587e-001
 2.6668381687e+000	 4.0070038358e+000	-4.3466487320e-001
 2.6228747818e+000	 4.0359180067e+000	-4.1504751054e-001
 2.5786488543e+000	 4.0643175555e+000	-3.9665736988e-001
 2.5341692950e+000	 4.0921991621e+000	-3.7957683192e-001
 2.4894450615e+000	 4.1195597094e+000	-3.6381434438e-001
 2.4444851546e+000	 4.1463962835e+000	-3.4930801696e-001
 2.3992986122e+000	 4.1727061744e+000	-3.3592949866e-001
 2.3538945043e+000	 4.1984868760e+000	-3.2348812448e-001
 2.8125620100e+000	 3.9389131504e+000	-4.7825739898e-001
 2.7692002036e+000	 3.9695178853e+000	-4.6731166270e-001
 2.7255478781e+000	 3.9996163759e+000	-4.5274757079e-001
 2.6816138106e+000	 4.0292046781e+000	-4.3526565129e-001
 2.6374068441e+000	 4.0582790482e+000	-4.1623855316e-001
 2.5929358824e+000	 4.0868359450e+000	-3.9827049356e-001
 2.5482098837e+000	 4.1148720299e+000	-3.8159945643e-001
 2.5032378552e+000	 4.1423841686e+000	-3.6618980996e-001
 2.4580288475e+000	 4.1693694310e+000	-3.5193905415e-001
 2.4125919487e+000	 4.1958250920e+000	-3.3868182459e-001
 2.3669362788e+000	 4.2217486319e+000	-3.2619416615e-001
 2.8280591043e+000	 3.9606163904e+000	-4.8085772240e-001
 2.7844583762e+000	 3.9913897560e+000	-4.6974817257e-001
 2.7405655283e+000	 4.0216540881e+000	-4.5568976958e-001
 2.6963893859e+000	 4.0514054205e+000	-4.3943414670e-001
 2.6519388410e+000	 4.0806399892e+000	-4.2108353358e-001
 2.6072228463e+000	 4.1093542332e+000	-4.0320699082e-001
 2.5622504092e+000	 4.1375447957e+000	-3.8661595246e-001
 2.5170305868e+000	 4.1652085251e+000	-3.7125488162e-001
 2.4715724794e+000	 4.1923424751e+000	-3.5700368007e-001
 2.4258852253e+000	 4.2189439057e+000	-3.4368179398e-001
 2.3799779947e+000	 4.2450102831e+000	-3.3105259284e-001
 2.8435561017e+000	 3.9823194948e+000	-4.8579076599e-001
 2.7997164535e+000	 4.0132614901e+000	-4.7494582926e-001
 2.7555830846e+000	 4.0436916625e+000	-4.6192332241e-001
 2.7111648690e+000	 4.0736060241e+000	-4.4669617934e-001
 2.6664707471e+000	 4.1030007903e+000	-4.2914663574e-001
 2.6215097208e+000	 4.1318723806e+000	-4.1107123442e-001
 2.5762908470e+000	 4.1602174198e+000	-3.9425722109e-001
 2.5308232322e+000	 4.1880327389e+000	-3.7865290946e-001
 2.4851160267e+000	 4.2153153756e+000	-3.6414320892e-001
 2.4391784189e+000	 4.2420625748e+000	-3.5055380837e-001
 2.3930196291e+000	 4.2682717890e+000	-3.3765563936e-001
 2.8590529751e+000	 4.0040224255e+000	-4.9268799794e-001
 2.8149744086e+000	 4.0351330492e+000	-4.8291966591e-001
 2.7706005208e+000	 4.0657290606e+000	-4.7095605745e-001
 2.7259402338e+000	 4.0958064502e+000	-4.5661771191e-001
 2.6810025370e+000	 4.1253614126e+000	-4.3984376082e-001
 2.6357964811e+000	 4.1543903479e+000	-4.2149825010e-001
 2.5903311725e+000	 4.1828898625e+000	-4.0418412106e-001
 2.5446157673e+000	 4.2108567701e+000	-3.8805676974e-001
 2.4986594657e+000	 4.2382880923e+000	-3.7302832029e-001
 2.4524715061e+000	 4.2651810590e+000	-3.5895175128e-001
 2.4060611591e+000	 4.2915331087e+000	-3.4562542240e-001
 2.8745496975e+000	 4.0257251447e+000	-5.0149004676e-001
 2.8302322150e+000	 4.0570043951e+000	-4.9320023536e-001
 2.7856178106e+000	 4.0877662438e+000	-4.8233598410e-001
 2.7407154546e+000	 4.1180066598e+000	-4.6880378703e-001
 2.6955341851e+000	 4.1477218169e+000	-4.5262681118e-001
 2.6500831021e+000	 4.1769080956e+000	-4.3415356000e-001
 2.6043713611e+000	 4.2055620842e+000	-4.1608734004e-001
 2.5584081679e+000	 4.2336805788e+000	-3.9916875730e-001
 2.5122027726e+000	 4.2612605851e+000	-3.8335896569e-001
 2.4657644637e+000	 4.2882993178e+000	-3.6855890137e-001
 2.4191025620e+000	 4.3147942016e+000	-3.5461385287e-001
 2.8900462416e+000	 4.0474276143e+000	-5.1184927246e-001
 2.8454898460e+000	 4.0788754894e+000	-5.0530765684e-001
 2.8006349276e+000	 4.1098031737e+000	-4.9565026835e-001
 2.7554905054e+000	 4.1402066141e+000	-4.8289745525e-001
 2.7100656662e+000	 4.1700819640e+000	-4.6718306320e-001
 2.6643695588e+000	 4.1994255844e+000	-4.4873301501e-001
 2.6184113882e+000	 4.2282340451e+000	-4.2968725429e-001
 2.5722004099e+000	 4.2565041250e+000	-4.1172046591e-001
 2.5257459238e+000	 4.2842328136e+000	-3.9486426276e-001
 2.4790572684e+000	 4.3114173107e+000	-3.7908783346e-001
 2.4321438149e+000	 4.3380550271e+000	-3.6430253638e-001
 2.9055425804e+000	 4.0691297963e+000	-5.2324903771e-001
 2.8607472748e+000	 4.1007462939e+000	-5.1880143341e-001
 2.8156518457e+000	 4.1318398115e+000	-5.1052409864e-001
 2.7702653605e+000	 4.1624062742e+000	-4.9857869422e-001
 2.7245969547e+000	 4.1924418148e+000	-4.8323594437e-001
 2.6786558262e+000	 4.2219427749e+000	-4.6484901079e-001
 2.6324512293e+000	 4.2509057056e+000	-4.4473377709e-001
 2.5859924692e+000	 4.2793273689e+000	-4.2547265694e-001
 2.5392888956e+000	 4.3072047378e+000	-4.0730237753e-001
 2.4923498970e+000	 4.3345349974e+000	-3.9028030767e-001
 2.4451848950e+000	 4.3613155443e+000	-3.7440266223e-001
 2.3147690567e+000	 4.1287013875e+000	-3.3281168020e-001
 2.2699213753e+000	 4.1535272320e+000	-3.2214655478e-001
 2.2248777138e+000	 4.1778285178e+000	-3.1324119860e-001
 2.1796470501e+000	 4.2016033865e+000	-3.0625522560e-001
 2.1342383709e+000	 4.2248501796e+000	-3.0130947598e-001
 2.0886606667e+000	 4.2475674374e+000	-2.9848972689e-001
 2.0429229261e+000	 4.2697538987e+000	-2.9785046596e-001
 1.9970341310e+000	 4.2914084996e+000	-2.9939352040e-001
 1.9510032508e+000	 4.3125303724e+000	-2.9689686297e-001
 1.9048392375e+000	 4.3331188442e+000	-2.8740518409e-001
 1.8585510208e+000	 4.3531734355e+000	-2.7332790722e-001
 2.3278108704e+000	 4.1519632131e+000	-3.2631410508e-001
 2.2827105093e+000	 4.1769289308e+000	-3.1522824745e-001
 2.2374130640e+000	 4.2013671343e+000	-3.0557593925e-001
 2.1919275628e+000	 4.2252759548e+000	-2.9752357539e-001
 2.1462630431e+000	 4.2486537243e+000	-2.9119794593e-001
 2.1004285461e+000	 4.2714989751e+000	-2.8669004713e-001
 2.0544331112e+000	 4.2938104388e+000	-2.8405895563e-001
 2.0082857706e+000	 4.3155870456e+000	-2.8333573342e-001
 1.9619955443e+000	 4.3368279227e+000	-2.8113934706e-001
 1.9155714349e+000	 4.3575323935e+000	-2.7239075014e-001
 1.8690224222e+000	 4.3776999759e+000	-2.5926288734e-001
 2.3408526939e+000	 4.1752250562e+000	-3.2337219013e-001
 2.2954996529e+000	 4.2003306471e+000	-3.1197767753e-001
 2.2499484235e+000	 4.2249057684e+000	-3.0174934552e-001
 2.2042080846e+000	 4.2489485408e+000	-2.9285161812e-001
 2.1582877244e+000	 4.2724572869e+000	-2.8540863297e-001
 2.1121964344e+000	 4.2954305308e+000	-2.7950817119e-001
 2.0659433048e+000	 4.3178669970e+000	-2.7520565015e-001
 2.0195374185e+000	 4.3397656097e+000	-2.7252814529e-001
 1.9729878461e+000	 4.3611254912e+000	-2.6995786785e-001
 1.9263036403e+000	 4.3819459612e+000	-2.6179329879e-001
 1.8794938316e+000	 4.4022265347e+000	-2.4943714002e-001
 2.3538945043e+000	 4.1984868760e+000	-3.2348812448e-001
 2.3082887837e+000	 4.2237323400e+000	-3.1185473032e-001
 2.2624837705e+000	 4.2484443790e+000	-3.0117759455e-001
 2.2164885942e+000	 4.2726211032e+000	-2.9161050477e-001
 2.1703123936e+000	 4.2962608257e+000	-2.8326643064e-001
 2.1239643109e+000	 4.3193620626e+000	-2.7622159108e-001
 2.0774534870e+000	 4.3419235312e+000	-2.7051958379e-001
 2.0307890552e+000	 4.3639441496e+000	-2.6617554165e-001
 1.9839801368e+000	 4.3854230354e+000	-2.6270838854e-001
 1.9370358350e+000	 4.4063595044e+000	-2.5495207954e-001
 1.8899652304e+000	 4.4267530690e+000	-2.4317257971e-001
 2.3669362788e+000	 4.2217486319e+000	-3.2619416615e-001
 2.3210778793e+000	 4.2471339687e+000	-3.1434991091e-001
 2.2750190830e+000	 4.2719829249e+000	-3.0330801234e-001
 2.2287690700e+000	 4.2962936004e+000	-2.9320303833e-001
 2.1823370297e+000	 4.3200642991e+000	-2.8412835749e-001
 2.1357321551e+000	 4.3432935286e+000	-2.7614036245e-001
 2.0889636375e+000	 4.3659799992e+000	-2.6926275463e-001
 2.0420406610e+000	 4.3881226230e+000	-2.6349085293e-001
 1.9949723973e+000	 4.4097205128e+000	-2.5875520051e-001
 1.9477680002e+000	 4.4307729805e+000	-2.5121434264e-001
 1.9004366005e+000	 4.4512795359e+000	-2.3979873312e-001
 2.3799779947e+000	 4.2450102831e+000	-3.3105259284e-001
 2.3338669174e+000	 4.2705354920e+000	-3.1898428894e-001
 2.2875543391e+000	 4.2955213649e+000	-3.0761901326e-001
 2.2410494906e+000	 4.3199659911e+000	-2.9706360856e-001
 2.1943616118e+000	 4.3438676654e+000	-2.8738348766e-001
 2.1474999463e+000	 4.3672248869e+000	-2.7860703177e-001
 2.1004737362e+000	 4.3900363589e+000	-2.7073004894e-001
 2.0532922162e+000	 4.4123009877e+000	-2.6372025328e-001
 2.0059646084e+000	 4.4340178809e+000	-2.5752172644e-001
 1.9585001171e+000	 4.4551863468e+000	-2.4993642036e-001
 1.9109079234e+000	 4.4758058924e+000	-2.3865377719e-001
 2.3930196291e+000	 4.2682717890e+000	-3.3765563936e-001
 2.3466558755e+000	 4.2939368690e+000	-3.2530943082e-001
 2.3000895169e+000	 4.3190596578e+000	-3.1362002729e-001
 2.2533298344e+000	 4.3436382339e+000	-3.0265811497e-001
 2.2063861187e+000	 4.3676708828e+000	-2.9245287031e-001
 2.1592676640e+000	 4.3911560956e+000	-2.8299655271e-001
 2.1119837630e+000	 4.4140925684e+000	-2.7424915533e-001
 2.0645437010e+000	 4.4364792012e+000	-2.6614307314e-001
 2.0169567508e+000	 4.4583150972e+000	-2.5858774761e-001
 1.9692321670e+000	 4.4795995605e+000	-2.5048480021e-001
 1.9213791809e+000	 4.5003320956e+000	-2.3908556937e-001
 2.4060611591e+000	 4.2915331087e+000	-3.4562542240e-001
 2.3594447314e+000	 4.3173380589e+000	-3.3290731949e-001
 2.3126245944e+000	 4.3425977623e+000	-3.2085141554e-001
 2.2656100800e+000	 4.3673102874e+000	-3.0948387849e-001
 2.2184105294e+000	 4.3914739099e+000	-2.9878943808e-001
 2.1710352875e+000	 4.4150871129e+000	-2.8871619213e-001
 2.1234936977e+000	 4.4381485853e+000	-2.7918046889e-001
 2.0757950959e+000	 4.4606572214e+000	-2.7007170230e-001
 2.0279488052e+000	 4.4826121190e+000	-2.6125727791e-001
 1.9799641309e+000	 4.5040125789e+000	-2.5223719024e-001
 1.9318503547e+000	 4.5248581026e+000	-2.4045267045e-001
 2.4191025620e+000	 4.3147942016e+000	-3.5461385287e-001
 2.3722334625e+000	 4.3407390206e+000	-3.4139026242e-001
 2.3251595497e+000	 4.3661356374e+000	-3.2888437430e-001
 2.2778902058e+000	 4.3909821100e+000	-3.1706954231e-001
 2.2304348228e+000	 4.4152767049e+000	-3.0587790516e-001
 2.1828027963e+000	 4.4390178969e+000	-2.9520542607e-001
 2.1350035202e+000	 4.4622043678e+000	-2.8491698578e-001
 2.0870463810e+000	 4.4848350058e+000	-2.7485148384e-001
 2.0389407525e+000	 4.5069089040e+000	-2.6482690384e-001
 1.9906959903e+000	 4.5284253593e+000	-2.5458357652e-001
 1.9423214263e+000	 4.5493838705e+000	-2.4212535993e-001
 2.4321438149e+000	 4.3380550271e+000	-3.6430253638e-001
 2.3850220466e+000	 4.3641397131e+000	-3.5040078811e-001
 2.3376943608e+000	 4.3896732418e+000	-3.3732082815e-001
 2.2901701905e+000	 4.4146536604e+000	-3.2497496201e-001
 2.2424589780e+000	 4.4390792262e+000	-3.1323465522e-001
 2.1945701698e+000	 4.4629484056e+000	-3.0193582603e-001
 2.1465132103e+000	 4.4862598736e+000	-2.9088418855e-001
 2.0982975368e+000	 4.5090125121e+000	-2.7986059912e-001
 2.0499325734e+000	 4.5312054096e+000	-2.6862635919e-001
 2.0014277262e+000	 4.5528378589e+000	-2.5692842964e-001
 1.9527923776e+000	 4.5739093563e+000	-2.4348664443e-001
 2.4451848950e+000	 4.3613155443e+000	-3.7440266223e-001
 2.3978104613e+000	 4.3875400957e+000	-3.5961153155e-001
 2.3502290059e+000	 4.4132105343e+000	-3.4579331238e-001
 2.3024500124e+000	 4.4383248971e+000	-3.3279108562e-001
 2.2544829739e+000	 4.4628814320e+000	-3.2040761959e-001
 2.2063373874e+000	 4.4868785973e+000	-3.0841093590e-001
 2.1580227479e+000	 4.5103150606e+000	-2.9653992252e-001
 2.1095485434e+000	 4.5331896981e+000	-2.8450994431e-001
 2.0609242486e+000	 4.5555015932e+000	-2.7201840236e-001
 2.0121593200e+000	 4.5772500350e+000	-2.5875019472e-001
 1.9632631901e+000	 4.5984345172e+000	-2.4393325905e-001
 1.8585510208e+000	 4.3531734355e+000	-2.7332790722e-001
 1.8121405334e+000	 4.3726967475e+000	-2.5588153962e-001
 1.7656235858e+000	 4.3916856366e+000	-2.3567275593e-001
 1.7190090161e+000	 4.4101401969e+000	-2.1372949578e-001
 1.6723056206e+000	 4.4280607082e+000	-1.9084043948e-001
 1.6255221485e+000	 4.4454476346e+000	-1.6758360174e-001
 1.5786672978e+000	 4.4623016217e+000	-1.4435299565e-001
 1.5317497104e+000	 4.4786234942e+000	-1.2138340258e-001
 1.4847779682e+000	 4.4944142536e+000	-9.8773291209e-002
 1.4377605886e+000	 4.5096750751e+000	-7.6505935344e-002
 1.3907060206e+000	 4.5244073051e+000	-5.4468785794e-002
 1.8690224222e+000	 4.3776999759e+000	-2.5926288734e-001
 1.8223504501e+000	 4.3973332856e+000	-2.4294504925e-001
 1.7755714178e+000	 4.4164291615e+000	-2.2401078440e-001
 1.7286942135e+000	 4.4349876980e+000	-2.0342758768e-001
 1.6817276829e+000	 4.4530091766e+000	-1.8193278507e-001
 1.6346806246e+000	 4.4704940640e+000	-1.6006232487e-001
 1.5875617854e+000	 4.4874430094e+000	-1.3817757582e-001
 1.5403798561e+000	 4.5038568422e+000	-1.1649017259e-001
 1.4931434669e+000	 4.5197365695e+000	-9.5084956210e-002
 1.4458611832e+000	 4.5350833731e+000	-7.3941063937e-002
 1.3985415015e+000	 4.5498986071e+000	-5.2951228380e-002
 1.8794938316e+000	 4.4022265347e+000	-2.4943714002e-001
 1.8325603744e+000	 4.4219698423e+000	-2.3407732026e-001
 1.7855192573e+000	 4.4411727050e+000	-2.1628951072e-001
 1.7383794182e+000	 4.4598352177e+000	-1.9698427559e-001
 1.6911497523e+000	 4.4779576637e+000	-1.7684997812e-001
 1.6438391075e+000	 4.4955405122e+000	-1.5638176710e-001
 1.5964562797e+000	 4.5125844159e+000	-1.3590850830e-001
 1.5490100083e+000	 4.5290902091e+000	-1.1561770600e-001
 1.5015089719e+000	 4.5450589044e+000	-9.5578467142e-002
 1.4539617839e+000	 4.5604916902e+000	-7.5762567159e-002
 1.4063769883e+000	 4.5753899282e+000	-5.6063682098e-002
 1.8899652304e+000	 4.4267530690e+000	-2.4317257971e-001
 1.8427702886e+000	 4.4466063743e+000	-2.2857337187e-001
 1.7954670869e+000	 4.4659162237e+000	-2.1175844166e-001
 1.7480646132e+000	 4.4846827126e+000	-1.9358495689e-001
 1.7005718123e+000	 4.5029061259e+000	-1.7469475071e-001
 1.6529975813e+000	 4.5205869353e+000	-1.5554349987e-001
 1.6053507651e+000	 4.5377257974e+000	-1.3642778754e-001
 1.5576401519e+000	 4.5543235508e+000	-1.1751010047e-001
 1.5098744685e+000	 4.5703812139e+000	-9.8841817975e-002
 1.4620623764e+000	 4.5858999819e+000	-8.0384256608e-002
 1.4142124673e+000	 4.6008812238e+000	-6.2027839994e-002
 1.9004366005e+000	 4.4512795359e+000	-2.3979873312e-001
 1.8529801746e+000	 4.4712428386e+000	-2.2573558973e-001
 1.8054148891e+000	 4.4906596744e+000	-2.0967455406e-001
 1.7577497816e+000	 4.5095301392e+000	-1.9242295902e-001
 1.7099938463e+000	 4.5278545195e+000	-1.7457858765e-001
 1.6621560298e+000	 4.5456332896e+000	-1.5655903875e-001
 1.6142452261e+000	 4.5628671097e+000	-1.3862891801e-001
 1.5662702718e+000	 4.5795568231e+000	-1.2092490923e-001
 1.5182399422e+000	 4.5957034539e+000	-1.0347878824e-001
 1.4701629467e+000	 4.6113082037e+000	-8.6238448242e-002
 1.4220479247e+000	 4.6263724493e+000	-6.9087010985e-002
 1.9109079234e+000	 4.4758058924e+000	-2.3865377719e-001
 1.8631900147e+000	 4.4958791920e+000	-2.2487471567e-001
 1.8153626466e+000	 4.5154030137e+000	-2.0930322600e-001
 1.7674349064e+000	 4.5343774540e+000	-1.9270040167e-001
 1.7194158380e+000	 4.5528028008e+000	-1.7562250945e-001
 1.6713144372e+000	 4.5706795311e+000	-1.5845053697e-001
 1.6231396470e+000	 4.5880083088e+000	-1.4141750795e-001
 1.5749003528e+000	 4.6047899819e+000	-1.2463362487e-001
 1.5266053782e+000	 4.6210255799e+000	-1.0810930679e-001
 1.4782634806e+000	 4.6367163112e+000	-9.1776196110e-002
 1.4298833469e+000	 4.6518635601e+000	-7.5506213638e-002
 1.9213791809e+000	 4.5003320956e+000	-2.3908556937e-001
 1.8733997910e+000	 4.5205153914e+000	-2.2531083032e-001
 1.8253103419e+000	 4.5401461984e+000	-2.0991916175e-001
 1.7771199706e+000	 4.5592246135e+000	-1.9362905400e-001
 1.7288377708e+000	 4.5777509262e+000	-1.7695785181e-001
 1.6804727874e+000	 4.5957256162e+000	-1.6025147723e-001
 1.6320340123e+000	 4.6131493509e+000	-1.4371186369e-001
 1.5835303799e+000	 4.6300229829e+000	-1.2742216638e-001
 1.5349707619e+000	 4.6463475476e+000	-1.1136982181e-001
 1.4863639638e+000	 4.6621242599e+000	-9.5467535630e-002
 1.4377187201e+000	 4.6773545116e+000	-7.9719140582e-002
 1.9318503547e+000	 4.5248581026e+000	-2.4045267045e-001
 1.8836094856e+000	 4.5451513938e+000	-2.2637432877e-001
 1.8352579576e+000	 4.5648891852e+000	-2.1080731056e-001
 1.7868049574e+000	 4.5840715742e+000	-1.9443118693e-001
 1.7382596282e+000	 4.6026988520e+000	-1.7772704176e-001
 1.6896310642e+000	 4.6207715009e+000	-1.6100736212e-001
 1.6409283065e+000	 4.6382901918e+000	-1.4444358480e-001
 1.5921603379e+000	 4.6552557821e+000	-1.2809136948e-001
 1.5433360787e+000	 4.6716693128e+000	-1.1194071008e-001
 1.4944643822e+000	 4.6875320053e+000	-9.6379527303e-002
 1.4455540306e+000	 4.7028452592e+000	-8.1656695850e-002
 1.9423214263e+000	 4.5493838705e+000	-2.4212535993e-001
 1.8938190807e+000	 4.5697871560e+000	-2.2740688944e-001
 1.8452054763e+000	 4.5896319307e+000	-2.1126377956e-001
 1.7964898498e+000	 4.6089182927e+000	-1.9434042073e-001
 1.7476813937e+000	 4.6276465346e+000	-1.7708437059e-001
 1.6987892518e+000	 4.6458171413e+000	-1.5977640304e-001
 1.6498225140e+000	 4.6634307876e+000	-1.4255815969e-001
 1.6007902118e+000	 4.6804883353e+000	-1.2567162209e-001
 1.5517013139e+000	 4.6969908311e+000	-1.0965979953e-001
 1.5025647216e+000	 4.7129395030e+000	-9.4720158882e-002
 1.4533892647e+000	 4.7283357583e+000	-8.0973073850e-002
 1.9527923776e+000	 4.5739093563e+000	-2.4348664443e-001
 1.9040285584e+000	 4.5944226349e+000	-2.2776243637e-001
 1.8551528806e+000	 4.6143743917e+000	-2.1059674091e-001
 1.8061746307e+000	 4.6337647254e+000	-1.9260256788e-001
 1.7571030509e+000	 4.6525939303e+000	-1.7419676341e-001
 1.7079473341e+000	 4.6708624938e+000	-1.5564630031e-001
 1.6587166192e+000	 4.6885710943e+000	-1.3756543477e-001
 1.6094199865e+000	 4.7057205984e+000	-1.2045543840e-001
 1.5600664530e+000	 4.7223120582e+000	-1.0457229708e-001
 1.5106649679e+000	 4.7383467086e+000	-9.0087204030e-002
 1.4612244087e+000	 4.7538259642e+000	-7.7102170661e-002
 1.9632631901e+000	 4.5984345172e+000	-2.4393325905e-001
 1.9142379008e+000	 4.6190577873e+000	-2.2680809509e-001
 1.8651001532e+000	 4.6391165248e+000	-2.0812733330e-001
 1.8158592834e+000	 4.6586108290e+000	-1.8847647147e-001
 1.7665245833e+000	 4.6775409954e+000	-1.6835575641e-001
 1.7171052950e+000	 4.6959075144e+000	-1.4864766841e-001
 1.6676106065e+000	 4.7137110679e+000	-1.2986959242e-001
 1.6180496468e+000	 4.7309525271e+000	-1.1236619877e-001
 1.5684314812e+000	 4.7476329498e+000	-9.6377207050e-002
 1.5187651069e+000	 4.7637535775e+000	-8.2054795949e-002
 1.4690594489e+000	 4.7793158324e+000	-6.9479130228e-002
 1.3907060206e+000	 4.5244073051e+000	-5.4468785794e-002
 1.3436226398e+000	 4.5386124571e+000	-3.4774100022e-002
 1.2965187431e+000	 4.5522922052e+000	-1.9350504875e-002
 1.2494025464e+000	 4.5654483845e+000	-7.5914670202e-003
 1.2022821825e+000	 4.5780829893e+000	 1.1687769070e-003
 1.1551656968e+000	 4.5901981691e+000	 7.6284597252e-003
 1.1080610447e+000	 4.6017962261e+000	 1.2491837261e-002
 1.0609760877e+000	 4.6128796112e+000	 1.6447650651e-002
 1.0139185908e+000	 4.6234509209e+000	 2.0153150720e-002
 9.6689621935e-001	 4.6335128934e+000	 2.4222598947e-002
 9.1991653610e-001	 4.6430684052e+000	 2.9220680196e-002
 1.3985415015e+000	 4.5498986071e+000	-5.2951228380e-002
 1.3511928448e+000	 4.5641837933e+000	-3.4124517087e-002
 1.3038235564e+000	 4.5779406155e+000	-1.9271158455e-002
 1.2564418989e+000	 4.5911709191e+000	-7.5560378529e-003
 1.2090560505e+000	 4.6038767094e+000	 1.6554851325e-003
 1.1616741024e+000	 4.6160601483e+000	 8.9882111355e-003
 1.1143040544e+000	 4.6277235508e+000	 1.5066368558e-002
 1.0669538126e+000	 4.6388693816e+000	 2.0495421116e-002
 1.0196311855e+000	 4.6495002519e+000	 2.5849287171e-002
 9.7234388174e-001	 4.6596189153e+000	 3.1661876384e-002
 9.2509950674e-001	 4.6692282646e+000	 3.8406944993e-002
 1.4063769883e+000	 4.5753899282e+000	-5.6063682098e-002
 1.3587630554e+000	 4.5897551488e+000	-3.8292975188e-002
 1.3111283752e+000	 4.6035890452e+000	-2.4107183368e-002
 1.2634812566e+000	 4.6168934730e+000	-1.2430071778e-002
 1.2158299237e+000	 4.6296704489e+000	-2.6014818453e-003
 1.1681825128e+000	 4.6419221469e+000	 5.9230445109e-003
 1.1205470688e+000	 4.6536508949e+000	 1.3678894343e-002
 1.0729315419e+000	 4.6648591716e+000	 2.1177788238e-002
 1.0253437844e+000	 4.6755496025e+000	 2.8726478792e-002
 9.7779154822e-001	 4.6857249569e+000	 3.6385544649e-002
 9.3028248127e-001	 4.6953881436e+000	 4.4464815228e-002
 1.4142124673e+000	 4.6008812238e+000	-6.2027839994e-002
 1.3663332584e+000	 4.6153264787e+000	-4.5316303166e-002
 1.3184331867e+000	 4.6292374491e+000	-3.1712385516e-002
 1.2705206073e+000	 4.6426160012e+000	-1.9954047985e-002
 1.2226037901e+000	 4.6554641627e+000	-9.2729895080e-003
 1.1746909167e+000	 4.6677841197e+000	 7.8453487157e-004
 1.1267900770e+000	 4.6795782131e+000	 1.0340648424e-002
 1.0789092652e+000	 4.6908489355e+000	 1.9474488536e-002
 1.0310563777e+000	 4.7015989270e+000	 2.8446316281e-002
 9.8323920925e-001	 4.7118309723e+000	 3.7522416156e-002
 9.3546545062e-001	 4.7215479964e+000	 4.6976234523e-002
 1.4220479247e+000	 4.6263724493e+000	-6.9087010985e-002
 1.3739034406e+000	 4.6408977383e+000	-5.3255901604e-002
 1.3257379781e+000	 4.6548857826e+000	-3.9966239265e-002
 1.2775599386e+000	 4.6683384586e+000	-2.7891156094e-002
 1.2293776378e+000	 4.6812578055e+000	-1.6403471667e-002
 1.1811993028e+000	 4.6936460213e+000	-5.5029674100e-003
 1.1330330679e+000	 4.7055054601e+000	 4.9870434621e-003
 1.0848869721e+000	 4.7168386280e+000	 1.5255055804e-002
 1.0367689552e+000	 4.7276481799e+000	 2.5502608320e-002
 9.8868685530e-001	 4.7379369159e+000	 3.5944930841e-002
 9.4064840571e-001	 4.7477077773e+000	 4.6811835447e-002
 1.4298833469e+000	 4.6518635601e+000	-7.5506213638e-002
 1.3814735888e+000	 4.6664688829e+000	-6.0197701913e-002
 1.3330427367e+000	 4.6805340007e+000	-4.7064341545e-002
 1.2845992382e+000	 4.6940608004e+000	-3.5328373609e-002
 1.2361514551e+000	 4.7070513322e+000	-2.3897176023e-002
 1.1877076595e+000	 4.7195078066e+000	-1.2675133815e-002
 1.1392760308e+000	 4.7314325903e+000	-1.5508717374e-003
 1.0908646521e+000	 4.7428282035e+000	 9.6042967914e-003
 1.0424815070e+000	 4.7536973156e+000	 2.0937435378e-002
 9.9413447684e-001	 4.7640427421e+000	 3.2614489860e-002
 9.4583133749e-001	 4.7738674405e+000	 4.4820979403e-002
 1.4377187201e+000	 4.6773545116e+000	-7.9719140582e-002
 1.3890436896e+000	 4.6920398676e+000	-6.5243223323e-002
 1.3403474496e+000	 4.7061820584e+000	-5.2923955379e-002
 1.2916384939e+000	 4.7197829813e+000	-4.1969675654e-002
 1.2429252300e+000	 4.7328446978e+000	-3.0902143168e-002
 1.1942159756e+000	 4.7453694302e+000	-1.9660145369e-002
 1.1455189547e+000	 4.7573595586e+000	-8.1882789571e-003
 1.0968422947e+000	 4.7688176166e+000	 3.5891488192e-003
 1.0481940231e+000	 4.7797462885e+000	 1.5769047150e-002
 9.9958206434e-001	 4.7901484051e+000	 2.8469939525e-002
 9.5101423687e-001	 4.8000269402e+000	 4.1832501156e-002
 1.4455540306e+000	 4.7028452592e+000	-8.1656695850e-002
 1.3966137299e+000	 4.7176106477e+000	-6.8315612651e-002
 1.3476521041e+000	 4.7318299110e+000	-5.6915973210e-002
 1.2986776933e+000	 4.7455049565e+000	-4.6880073166e-002
 1.2496989508e+000	 4.7586378570e+000	-3.6410920015e-002
 1.2007242396e+000	 4.7712308470e+000	-2.5408334123e-002
 1.1517618286e+000	 4.7832863194e+000	-1.3863504180e-002
 1.1028198895e+000	 4.7948068218e+000	-1.7468583915e-003
 1.0539064935e+000	 4.8057950530e+000	 1.0992754476e-002
 1.0050296083e+000	 4.8162538593e+000	 2.4428389705e-002
 9.5619709479e-001	 4.8261862307e+000	 3.8655435796e-002
 1.4533892647e+000	 4.7283357583e+000	-8.0973073850e-002
 1.4041836964e+000	 4.7431811786e+000	-6.8710747150e-002
 1.3549566873e+000	 4.7574775135e+000	-5.8229657209e-002
 1.3057168240e+000	 4.7712266809e+000	-4.9141597713e-002
 1.2564726055e+000	 4.7844307647e+000	-3.9435500822e-002
 1.2072324402e+000	 4.7970920116e+000	-2.8891201217e-002
 1.1580046417e+000	 4.8092128274e+000	-1.7537055168e-002
 1.1087974261e+000	 4.8207957736e+000	-5.3826772879e-003
 1.0596189083e+000	 4.8318435636e+000	 7.5818003404e-003
 1.0104770991e+000	 4.8423590590e+000	 2.1386103803e-002
 9.6137990218e-001	 4.8523452661e+000	 3.6079728776e-002
 1.4612244087e+000	 4.7538259642e+000	-7.7102170661e-002
 1.4117535758e+000	 4.7687514154e+000	-6.5728359411e-002
 1.3622611866e+000	 4.7831248211e+000	-5.6060378317e-002
 1.3127558737e+000	 4.7969481095e+000	-4.7852352617e-002
 1.2632461823e+000	 4.8102233759e+000	-3.9006364098e-002
 1.2137405659e+000	 4.8229528789e+000	-2.9100456495e-002
 1.1642473830e+000	 4.8351390374e+000	-1.8190680700e-002
 1.1147748939e+000	 4.8467844266e+000	-6.3188382443e-003
 1.0653312573e+000	 4.8578917746e+000	 6.4882107396e-003
 1.0159245272e+000	 4.8684639585e+000	 2.0218906333e-002
 9.6656264996e-001	 4.8785040006e+000	 3.4876929666e-002
 1.4690594489e+000	 4.7793158324e+000	-6.9479130228e-002
 1.4193233549e+000	 4.7943213134e+000	-5.8672124571e-002
 1.3695655890e+000	 4.8087717889e+000	-4.9609565188e-002
 1.3197948302e+000	 4.8226691973e+000	-4.2125582966e-002
 1.2700196694e+000	 4.8360156452e+000	-3.4171529616e-002
 1.2202486053e+000	 4.8488134034e+000	-2.5047078898e-002
 1.1704900415e+000	 4.8610649037e+000	-1.4826450701e-002
 1.1207522825e+000	 4.8727727352e+000	-3.5765657505e-003
 1.0710435306e+000	 4.8839396404e+000	 8.6436261324e-003
 1.0213718832e+000	 4.8945685121e+000	 2.1783521449e-002
 9.7174532908e-001	 4.9046623886e+000	 3.5800870180e-002
 9.1991653610e-001	 4.6430684052e+000	 2.9220680196e-002
 8.7299403196e-001	 4.6521191480e+000	 3.7328018367e-002
 8.2612899476e-001	 4.6606697367e+000	 5.0336598502e-002
 7.7932865067e-001	 4.6687234430e+000	 6.8115187832e-002
 7.3260011383e-001	 4.6762836616e+000	 9.0174790460e-002
 6.8595038414e-001	 4.6833539067e+000	 1.1611263745e-001
 6.3938634528e-001	 4.6899378081e+000	 1.4347910783e-001
 5.9291476285e-001	 4.6960391073e+000	 1.6332695098e-001
 5.4654228262e-001	 4.7016616537e+000	 1.7537771317e-001
 5.0027542892e-001	 4.7068094006e+000	 1.8027810234e-001
 4.5412060315e-001	 4.7114864015e+000	 1.7853037985e-001
 9.2509950674e-001	 4.6692282646e+000	 3.8406944993e-002
 8.7791263301e-001	 4.6783300008e+000	 4.7653071460e-002
 8.3078354999e-001	 4.6869287650e+000	 6.0791263086e-002
 7.8371952458e-001	 4.6950278473e+000	 7.7676300883e-002
 7.3672771099e-001	 4.7026306615e+000	 9.8114884639e-002
 6.8981514856e-001	 4.7097407416e+000	 1.2186664448e-001
 6.4298875977e-001	 4.7163617379e+000	 1.4709752447e-001
 5.9625534832e-001	 4.7224974129e+000	 1.6489789525e-001
 5.4962159742e-001	 4.7281516376e+000	 1.7453944868e-001
 5.0309406817e-001	 4.7333283879e+000	 1.7664815729e-001
 4.5667919805e-001	 4.7380317398e+000	 1.7170031687e-001
 9.3028248127e-001	 4.6953881436e+000	 4.4464815228e-002
 8.8283123775e-001	 4.7045408733e+000	 5.4433007808e-002
 8.3543810871e-001	 4.7131878131e+000	 6.7515233207e-002
 7.8811040178e-001	 4.7213322714e+000	 8.3618093185e-002
 7.4085531125e-001	 4.7289776812e+000	 1.0259846262e-001
 6.9367991589e-001	 4.7361275963e+000	 1.2426447549e-001
 6.4659117696e-001	 4.7427856875e+000	 1.4729961140e-001
 5.9959593629e-001	 4.7489557383e+000	 1.6302873673e-001
 5.5270091453e-001	 4.7546416415e+000	 1.7022519964e-001
 5.0591270954e-001	 4.7598473950e+000	 1.6949442553e-001
 4.5923779486e-001	 4.7645770980e+000	 1.6128801337e-001
 9.3546545062e-001	 4.7215479964e+000	 4.6976234523e-002
 8.8774983756e-001	 4.7307517196e+000	 5.7863234893e-002
 8.4009266278e-001	 4.7394468349e+000	 7.1050533949e-002
 7.9250127459e-001	 4.7476366691e+000	 8.6490945187e-002
 7.4498290738e-001	 4.7553246745e+000	 1.0408675510e-001
 6.9754467935e-001	 4.7625144247e+000	 1.2369066646e-001
 6.5019359054e-001	 4.7692096106e+000	 1.4440785527e-001
 6.0293652092e-001	 4.7754140372e+000	 1.5797653689e-001
 5.5578022856e-001	 4.7811316189e+000	 1.6263637708e-001
 5.0873134809e-001	 4.7863663757e+000	 1.5897246687e-001
 4.6179638912e-001	 4.7911224297e+000	 1.4741300784e-001
 9.4064840571e-001	 4.7477077773e+000	 4.6811835447e-002
 8.9266842386e-001	 4.7569624938e+000	 5.8690334056e-002
 8.4474720405e-001	 4.7657057845e+000	 7.2031949483e-002
 7.9689213533e-001	 4.7739409946e+000	 8.6830115536e-002
 7.4911049215e-001	 4.7816715954e+000	 1.0302776624e-001
 7.0140943218e-001	 4.7889011804e+000	 1.2051821961e-001
 6.5379599422e-001	 4.7956334612e+000	 1.3873655441e-001
 6.0627709636e-001	 4.8018722634e+000	 1.4999235405e-001
 5.5885953413e-001	 4.8076215234e+000	 1.5197020035e-001
 5.1154997889e-001	 4.8128852834e+000	 1.4523509084e-001
 4.6435497634e-001	 4.8176676884e+000	 1.3019316393e-001
 9.4583133749e-001	 4.7738674405e+000	 4.4820979403e-002
 8.9758698802e-001	 4.7831731501e+000	 5.7642023272e-002
 8.4940172438e-001	 4.7919646159e+000	 7.1077610711e-002
 8.0128297631e-001	 4.8002452017e+000	 8.5156223172e-002
 7.5323805836e-001	 4.8080183978e+000	 9.9856678645e-002
 7.0527416762e-001	 4.8152878175e+000	 1.1510893945e-001
 6.5739838170e-001	 4.8220571928e+000	 1.3059186601e-001
 6.0961765677e-001	 4.8283303706e+000	 1.3932127109e-001
 5.6193882583e-001	 4.8341113087e+000	 1.3841971101e-001
 5.1436859701e-001	 4.8394040719e+000	 1.2843236220e-001
 4.6691355205e-001	 4.8442128277e+000	 1.0974467310e-001
 9.5101423687e-001	 4.8000269402e+000	 4.1832501156e-002
 9.0250552144e-001	 4.8093836426e+000	 5.5427802587e-002
 8.5405621561e-001	 4.8182232832e+000	 6.8789549590e-002
 8.0567378985e-001	 4.8265492444e+000	 8.1975718510e-002
 7.5736559877e-001	 4.8343650355e+000	 9.4996249427e-002
 7.0913887891e-001	 4.8416742897e+000	 1.0781376170e-001
 6.6100074665e-001	 4.8484807593e+000	 1.2027184752e-001
 6.1295819631e-001	 4.8547883124e+000	 1.2620241863e-001
 5.6501809830e-001	 4.8606009285e+000	 1.2217378308e-001
 5.1718719751e-001	 4.8659226945e+000	 1.0871160365e-001
 4.6947211177e-001	 4.8707578010e+000	 8.6182054963e-002
 9.5619709479e-001	 4.8261862307e+000	 3.8655435796e-002
 9.0742401552e-001	 4.8355939254e+000	 5.2739584580e-002
 8.5871066962e-001	 4.8444817405e+000	 6.5754240814e-002
 8.1006456827e-001	 4.8528530766e+000	 7.7781344115e-002
 7.6149310617e-001	 4.8607114624e+000	 8.8857197593e-002
 7.1300355928e-001	 4.8680605507e+000	 9.8973075173e-002
 6.6460308279e-001	 4.8749041144e+000	 1.0806649250e-001
 6.1629870912e-001	 4.8812460426e+000	 1.1086899394e-001
 5.6809734613e-001	 4.8870903364e+000	 1.0341712998e-001
 5.2000577547e-001	 4.8924411051e+000	 8.6217395862e-002
 4.7203065102e-001	 4.8973025621e+000	 5.9618155654e-002
 9.6137990218e-001	 4.8523452661e+000	 3.6079728776e-002
 9.1234246164e-001	 4.8618039526e+000	 5.0252310383e-002
 8.6336507824e-001	 4.8707399418e+000	 6.2543131340e-002
 8.1445530387e-001	 4.8791566525e+000	 7.3052585250e-002
 7.6562057332e-001	 4.8870576325e+000	 8.1838583185e-002
 7.1686820198e-001	 4.8944465545e+000	 8.8917037070e-002
 6.6820538381e-001	 4.9013272119e+000	 9.4262255081e-002
 6.1963918937e-001	 4.9077035148e+000	 9.3548275485e-002
 5.7117656394e-001	 4.9135794860e+000	 8.2330308171e-002
 5.2282432595e-001	 4.9189592571e+000	 6.1091575049e-002
 4.7458916533e-001	 4.9238470643e+000	 3.0164143996e-002
 9.6656264996e-001	 4.8785040006e+000	 3.4876929666e-002
 9.1726085120e-001	 4.8880136785e+000	 4.8624551805e-002
 8.6801943334e-001	 4.8969978411e+000	 5.9713158184e-002
 8.1884598899e-001	 4.9054599258e+000	 6.8256110679e-002
 7.6974799300e-001	 4.9134034996e+000	 7.4328178401e-002
 7.2073280023e-001	 4.9208322549e+000	 7.7965881721e-002
 6.7180764341e-001	 4.9277500055e+000	 7.9167770969e-002
 6.2297963120e-001	 4.9341606827e+000	 7.4461633630e-002
 5.7425574634e-001	 4.9400683310e+000	 5.9089717640e-002
 5.2564284401e-001	 4.9454771042e+000	 3.3473227971e-002
 4.7714765022e-001	 4.9503912612e+000	-2.0704942015e-003
 9.7174532908e-001	 4.9046623886e+000	 3.5800870180e-002
 9.2217917559e-001	 4.9142230571e+000	 4.8499100042e-002
 8.7267372677e-001	 4.9232553924e+000	 5.7807254918e-002
 8.2323661592e-001	 4.9317628506e+000	 6.3846204058e-002
 7.7387535800e-001	 4.9397490176e+000	 6.6702831028e-002
 7.2459734727e-001	 4.9472176057e+000	 6.6430223196e-002
 6.7540985527e-001	 4.9541724491e+000	 6.3047819223e-002
 6.2632002876e-001	 4.9606175001e+000	 5.3824537356e-002
 5.7733488795e-001	 4.9665568250e+000	 3.3867599424e-002
 5.2846132473e-001	 4.9719945999e+000	 3.4986846681e-003
 4.7970610120e-001	 4.9769351065e+000	-3.6977963764e-002
 4.5412060315e-001	 4.7114864015e+000	 1.7853037985e-001
 4.0807720153e-001	 4.7156974029e+000	 1.7440927700e-001
 3.6215839011e-001	 4.7194459128e+000	 1.7189262233e-001
 3.1637028919e-001	 4.7227362646e+000	 1.7091306899e-001
 2.7071888863e-001	 4.7255728763e+000	 1.7138189251e-001
 2.2521004697e-001	 4.7279602469e+000	 1.7320136246e-001
 1.7984949071e-001	 4.7299029521e+000	 1.7627649735e-001
 1.3464281379e-001	 4.7314056407e+000	 1.8052627845e-001
 8.9595477031e-002	 4.7324730307e+000	 1.8589439611e-001
 4.4712807855e-002	 4.7331099057e+000	 1.9235959916e-001
 0.0000000000e+000	 4.7333211109e+000	 1.9994571456e-001
 4.5667919805e-001	 4.7380317398e+000	 1.7170031687e-001
 4.1037637985e-001	 4.7422664668e+000	 1.6450483289e-001
 3.6419885381e-001	 4.7460360964e+000	 1.5961165958e-001
 3.1815277473e-001	 4.7493449866e+000	 1.5699439689e-001
 2.7224416619e-001	 4.7521975803e+000	 1.5662513328e-001
 2.2647891975e-001	 4.7545984018e+000	 1.5848590635e-001
 1.8086279419e-001	 4.7565520525e+000	 1.6257951949e-001
 1.3540141494e-001	 4.7580632075e+000	 1.6893979744e-001
 9.0100273615e-002	 4.7591366114e+000	 1.7764136095e-001
 4.4964727633e-002	 4.7597770747e+000	 1.8880899779e-001
 0.0000000000e+000	 4.7599894698e+000	 2.0262670341e-001
 4.5923779486e-001	 4.7645770980e+000	 1.6128801337e-001
 4.1267555989e-001	 4.7688355505e+000	 1.5114595850e-001
 3.6623931904e-001	 4.7726263000e+000	 1.4437333808e-001
 3.1993526160e-001	 4.7759537286e+000	 1.4096632770e-001
 2.7376944490e-001	 4.7788223043e+000	 1.4094009309e-001
 2.2774779349e-001	 4.7812365766e+000	 1.4433932567e-001
 1.8187609843e-001	 4.7832011729e+000	 1.5124810545e-001
 1.3616001667e-001	 4.7847207943e+000	 1.6179918111e-001
 9.0605070578e-002	 4.7858002120e+000	 1.7618275479e-001
 4.5216647599e-002	 4.7864442636e+000	 1.9465485547e-001
 0.0000000000e+000	 4.7866578487e+000	 2.1754538060e-001
 4.6179638912e-001	 4.7911224297e+000	 1.4741300784e-001
 4.1497473763e-001	 4.7954046077e+000	 1.3442043373e-001
 3.6827978224e-001	 4.7992164769e+000	 1.2623264735e-001
 3.2171774669e-001	 4.8025624440e+000	 1.2285046460e-001
 2.7529472208e-001	 4.8054470016e+000	 1.2431483517e-001
 2.2901666596e-001	 4.8078747248e+000	 1.3071643788e-001
 1.8288940166e-001	 4.8098502666e+000	 1.4220457277e-001
 1.3691861764e-001	 4.8113783544e+000	 1.5899544742e-001
 9.1109867036e-002	 4.8124637861e+000	 1.8137995228e-001
 4.5468567315e-002	 4.8131114259e+000	 2.0973101586e-001
 0.0000000000e+000	 4.8133262010e+000	 2.4451062609e-001
 4.6435497634e-001	 4.8176676884e+000	 1.3019316393e-001
 4.1727390906e-001	 4.8219735919e+000	 1.1441520124e-001
 3.7032023982e-001	 4.8258065808e+000	 1.0524446205e-001
 3.2350022688e-001	 4.8291710862e+000	 1.0266889981e-001
 2.7681999506e-001	 4.8320716258e+000	 1.0673839448e-001
 2.3028553495e-001	 4.8345127998e+000	 1.1757339112e-001
 1.8390270211e-001	 4.8364992871e+000	 1.3537280287e-001
 1.3767721652e-001	 4.8380358413e+000	 1.6042128387e-001
 9.1614662108e-002	 4.8391272868e+000	 1.9309597421e-001
 4.5720486337e-002	 4.8397785148e+000	 2.3387281507e-001
 0.0000000000e+000	 4.8399944799e+000	 2.8333252741e-001
 4.6691355205e-001	 4.8442128277e+000	 1.0974467310e-001
 4.1957307013e-001	 4.8485424565e+000	 9.1216368356e-002
 3.7236068822e-001	 4.8523965650e+000	 8.1463542004e-002
 3.2528269905e-001	 4.8557796087e+000	 8.0444211894e-002
 2.7834526119e-001	 4.8586961301e+000	 8.8200771599e-002
 2.3155439822e-001	 4.8611507549e+000	 1.0486765426e-001
 1.8491599799e-001	 4.8631481876e+000	 1.3067822699e-001
 1.3843581199e-001	 4.8646932082e+000	 1.6597102922e-001
 9.2119454909e-002	 4.8657906675e+000	 2.1119546514e-001
 4.5972404228e-002	 4.8664454838e+000	 2.6691705568e-001
 0.0000000000e+000	 4.8666626388e+000	 3.3382235060e-001
 4.6947211177e-001	 4.8707578010e+000	 8.6182054963e-002
 4.2187221684e-001	 4.8751111550e+000	 6.4909207184e-002
 3.7440112388e-001	 4.8789863830e+000	 5.4944530914e-002
 3.2706516008e-001	 4.8823879649e+000	 5.6199462157e-002
 2.7987051778e-001	 4.8853204680e+000	 6.8692926040e-002
 2.3282325357e-001	 4.8877885435e+000	 9.2558006707e-002
 1.8592928754e-001	 4.8897969216e+000	 1.2804781211e-001
 1.3919440273e-001	 4.8913504085e+000	 1.7554065550e-001
 9.2624244557e-002	 4.8924538816e+000	 2.3554467170e-001
 4.6224320544e-002	 4.8931122861e+000	 3.0870198152e-001
 0.0000000000e+000	 4.8933306310e+000	 3.9579251208e-001
 4.7203065102e-001	 4.8973025621e+000	 5.9618155654e-002
 4.2417134516e-001	 4.9016796411e+000	 3.5578152984e-002
 3.7644154321e-001	 4.9055759883e+000	 2.5741953722e-002
 3.2884760685e-001	 4.9089961082e+000	 2.9958190060e-002
 2.8139576218e-001	 4.9119445930e+000	 4.8206769068e-002
 2.3409209877e-001	 4.9144261190e+000	 8.0604527993e-002
 1.8694256899e-001	 4.9164454424e+000	 1.2741004711e-001
 1.3995298739e-001	 4.9180073955e+000	 1.8902775055e-001
 9.3129030168e-002	 4.9191168823e+000	 2.6601142154e-001
 4.6476234846e-002	 4.9197788751e+000	 3.5906725338e-001
 0.0000000000e+000	 4.9199984100e+000	 4.6905655151e-001
 4.7458916533e-001	 4.9238470643e+000	 3.0164143996e-002
 4.2647045107e-001	 4.9282478681e+000	 3.3068009380e-003
 3.7848194265e-001	 4.9321653344e+000	-6.0897872400e-003
 3.3063003625e-001	 4.9356039921e+000	 1.7444078219e-003
 2.8292099170e-001	 4.9385684584e+000	 2.6735155977e-002
 2.3536093160e-001	 4.9410634348e+000	 6.8968587246e-002
 1.8795584057e-001	 4.9430937035e+000	 1.2869492899e-001
 1.4071156466e-001	 4.9446641227e+000	 2.0633150091e-001
 9.3633810859e-002	 4.9457796232e+000	 3.0246510293e-001
 4.6728146693e-002	 4.9464452040e+000	 4.1785392550e-001
 0.0000000000e+000	 4.9466659289e+000	 5.5342910568e-001
 4.7714765022e-001	 4.9503912612e+000	-2.0704942015e-003
 4.2876953053e-001	 4.9548157895e+000	-3.1822098683e-002
 3.8052231863e-001	 4.9587543747e+000	-4.0496417319e-002
 3.3241244516e-001	 4.9622115701e+000	-2.8417405843e-002
 2.8444620369e-001	 4.9651920176e+000	 4.2718778781e-003
 2.3662974984e-001	 4.9677004443e+000	 5.7612832444e-002
 1.8896910049e-001	 4.9697416580e+000	 1.3183394925e-001
 1.4147013321e-001	 4.9713205433e+000	 2.2735267508e-001
 9.4138585748e-002	 4.9724420574e+000	 3.4477664488e-001
 4.6980055644e-002	 4.9731112264e+000	 4.8490442284e-001
 0.0000000000e+000	 4.9733331411e+000	 6.4872588320e-001
 4.7970610120e-001	 4.9769351065e+000	-3.6977963764e-002
 4.3106857954e-001	 4.9813833590e+000	-6.9726646867e-002
 3.8256266757e-001	 4.9853430627e+000	-7.7423795770e-002
 3.3419483045e-001	 4.9888187954e+000	-6.0502312792e-002
 2.8597139548e-001	 4.9918152240e+000	-1.9188346984e-002
 2.3789855127e-001	 4.9943371009e+000	 4.6501179521e-002
 1.8998234699e-001	 4.9963892595e+000	 1.3676008038e-001
 1.4222869172e-001	 4.9979766107e+000	 2.5199360718e-001
 9.4643353951e-002	 4.9991041383e+000	 3.9281849797e-001
 4.7231961259e-002	 4.9997768954e+000	 5.6006251911e-001
 0.0000000000e+000	 5.0000000000e+000	 7.5476364015e-001
