x	y	stress_yy
 1.000000000000000e+000	 0.000000000000000e+000	 3.101452645184767e+001
 9.999553790721549e-001	 9.446392261750536e-003	 3.099994372279925e+001
 9.998208276644109e-001	 1.892867080636967e-002	 3.097299777264859e+001
 9.995953221430520e-001	 2.844573836262591e-002	 3.093369722613653e+001
 9.992778519071311e-001	 3.799646941872217e-002	 3.088204937859071e+001
 9.988674201817245e-001	 4.757971027342477e-002	 3.081806008934008e+001
 9.983630448185402e-001	 5.719427911104237e-002	 3.074173367215648e+001
 9.977637591031844e-001	 6.683896610081597e-002	 3.065307278261605e+001
 9.970686125683426e-001	 7.651253352126189e-002	 3.055207830230494e+001
 9.962766718121099e-001	 8.621371590998764e-002	 3.043874921982869e+001
 9.953870213206724e-001	 9.594122023947824e-002	 3.031308250862561e+001
 1.026666858896873e+000	 0.000000000000000e+000	 2.908600068450555e+001
 1.026621048068823e+000	 9.698297869740000e-003	 2.907970654556126e+001
 1.026482908597070e+000	 1.943343899728710e-002	 2.906211280559267e+001
 1.026251389550869e+000	 2.920429685057105e-002	 2.903316413483072e+001
 1.025925453379797e+000	 3.900971590386779e-002	 2.899280611284197e+001
 1.025504076728145e+000	 4.884851169029192e-002	 2.894098383247633e+001
 1.024986251256887e+000	 5.871947087877486e-002	 2.887764191409767e+001
 1.024370984472468e+000	 6.862135137610566e-002	 2.880272451716251e+001
 1.023657300561674e+000	 7.855288245458952e-002	 2.871617534879312e+001
 1.022844241231782e+000	 8.851276490585899e-002	 2.861793766902463e+001
 1.021930866555178e+000	 9.849967122134781e-002	 2.850795429244212e+001
 1.053334071134978e+000	 0.000000000000000e+000	 2.740914540167978e+001
 1.053287070390996e+000	 9.950206815530270e-003	 2.740776937682697e+001
 1.053145342807795e+000	 1.993821387648614e-002	 2.739632604306678e+001
 1.052907810157237e+000	 2.996286538957084e-002	 2.737470335012384e+001
 1.052573407939045e+000	 4.002297581473556e-002	 2.734279029754690e+001
 1.052141086216367e+000	 5.011732991903531e-002	 2.730047567717948e+001
 1.051609810459081e+000	 6.024468285560676e-002	 2.724764818880885e+001
 1.050978562394118e+000	 7.040376026835926e-002	 2.718419655373108e+001
 1.050246340862016e+000	 8.059325842294959e-002	 2.711000962563934e+001
 1.049412162678889e+000	 9.081184436458797e-002	 2.702497649827073e+001
 1.048475063502990e+000	 1.010581561031999e-001	 2.692898660928579e+001
 1.080001590045551e+000	 0.000000000000000e+000	 2.594978981987616e+001
 1.079953399371986e+000	 1.020211865827080e-002	 2.595058640784460e+001
 1.079808083636172e+000	 2.044299456059085e-002	 2.594266039246707e+001
 1.079564537312246e+000	 3.072144265210019e-002	 2.592584806280348e+001
 1.079221668949764e+000	 4.103624737807987e-002	 2.589998621664099e+001
 1.078778402030408e+000	 5.138616273917135e-002	 2.586491109569780e+001
 1.078233675832652e+000	 6.176991237235381e-002	 2.582045858198544e+001
 1.077586446303606e+000	 7.218618965828590e-002	 2.576646439275513e+001
 1.076835686937252e+000	 8.263365785559590e-002	 2.570276427322562e+001
 1.075980389658250e+000	 9.311095026268368e-002	 2.562919418631865e+001
 1.075019565710423e+000	 1.036166704075697e-001	 2.554559049866912e+001
 1.106669368959824e+000	 0.000000000000000e+000	 2.467669108750919e+001
 1.106619988345106e+000	 1.045403295711104e-002	 2.467750609808369e+001
 1.106471084421780e+000	 2.094778016622530e-002	 2.467100296390491e+001
 1.106221524365987e+000	 3.148002731063400e-002	 2.465697060833619e+001
 1.105870189776840e+000	 4.204952882065516e-002	 2.463519730005891e+001
 1.105415977554288e+000	 5.265500793021637e-002	 2.460546981658919e+001
 1.104857800785134e+000	 6.329515675983194e-002	 2.456757370222280e+001
 1.104194589636403e+000	 7.396863642659464e-002	 2.452129352528715e+001
 1.103425292255272e+000	 8.467407718178245e-002	 2.446641313371342e+001
 1.102548875674684e+000	 9.541007857665527e-002	 2.440271590797656e+001
 1.101564326723789e+000	 1.061752096569922e-001	 2.432998501049153e+001
 1.133337361209029e+000	 0.000000000000000e+000	 2.356119119816403e+001
 1.133286790643667e+000	 1.070594927120045e-002	 2.356043198080226e+001
 1.133134298504202e+000	 2.145256981001351e-002	 2.355377047910772e+001
 1.132878724668551e+000	 3.223861803764715e-002	 2.354095182618115e+001
 1.132518923785160e+000	 4.306281836921582e-002	 2.352171877373539e+001
 1.132053766172025e+000	 5.392386327168684e-002	 2.349581109930337e+001
 1.131482138724057e+000	 6.482041334885690e-002	 2.346296590813131e+001
 1.130802945827984e+000	 7.575109745399460e-002	 2.342291793510876e+001
 1.130015110283960e+000	 8.671451283076302e-002	 2.337539984558847e+001
 1.129117574233009e+000	 9.770922528301183e-002	 2.332014253398641e+001
 1.128109300089399e+000	 1.087337693740023e-001	 2.325687541910101e+001
 1.160005520124402e+000	 0.000000000000000e+000	 2.257692003602194e+001
 1.159953759600982e+000	 1.095786715968847e-002	 2.257353023355799e+001
 1.159797679223019e+000	 2.195736260857955e-002	 2.256562080628535e+001
 1.159536091570028e+000	 3.299721350561456e-002	 2.255289599357507e+001
 1.159167824339611e+000	 4.407611425051633e-002	 2.253505542101401e+001
 1.158691721267636e+000	 5.519272654309909e-002	 2.251179374643355e+001
 1.158106643056953e+000	 6.634567947024450e-002	 2.248280098954677e+001
 1.157411468313821e+000	 7.753356962119486e-002	 2.244776286231044e+001
 1.156605094491205e+000	 8.875496123179154e-002	 2.240636109872200e+001
 1.155686438838045e+000	 1.000083863582625e-001	 2.235827378280396e+001
 1.154654439353568e+000	 1.112923450811353e-001	 2.230317567358631e+001
 1.186673799037173e+000	 0.000000000000000e+000	 2.169953844564689e+001
 1.186620848550362e+000	 1.120978618172458e-002	 2.169297666161343e+001
 1.186461179917815e+000	 2.246215767854747e-002	 2.168320336931709e+001
 1.186193578420510e+000	 3.375581238701111e-002	 2.166988416879705e+001
 1.185816844805080e+000	 4.508941469131111e-002	 2.165267736322650e+001
 1.185329796225141e+000	 5.646159552396950e-002	 2.163123382011380e+001
 1.184731267191354e+000	 6.787095245481060e-002	 2.160519731385492e+001
 1.184020110529385e+000	 7.931604980890453e-002	 2.157420486960600e+001
 1.183195198344893e+000	 9.079541881412187e-002	 2.153788710705316e+001
 1.182255422994611e+000	 1.023075577789163e-001	 2.149586858271060e+001
 1.181199698062607e+000	 1.138509323009261e-001	 2.144776812944493e+001
 1.213342151278578e+000	 0.000000000000000e+000	 2.090651517204899e+001
 1.213288010825120e+000	 1.146170589645821e-002	 2.089673703411717e+001
 1.213124753928167e+000	 2.296695413654130e-002	 2.088494245390088e+001
 1.212851138570086e+000	 3.451441335431171e-002	 2.087076003798146e+001
 1.212465938546455e+000	 4.610271791835455e-002	 2.085380801348067e+001
 1.211967944428558e+000	 5.773046799381450e-002	 2.083369426499796e+001
 1.211355964534790e+000	 6.939622963337105e-002	 2.081001667658222e+001
 1.210628825910150e+000	 8.109853489783273e-002	 2.078236347546877e+001
 1.209785375312910e+000	 9.283588200700788e-002	 2.075031357603528e+001
 1.208824480207525e+000	 1.046067355214826e-001	 2.071343692249359e+001
 1.207745029762831e+000	 1.164095265559097e-001	 2.067129482891624e+001
 1.240010530179849e+000	 0.000000000000000e+000	 2.017693257511687e+001
 1.239955199758569e+000	 1.171362586303883e-002	 2.016437575496060e+001
 1.239788354593661e+000	 2.347175109918509e-002	 2.015084846109535e+001
 1.239508725368846e+000	 3.527301507999124e-002	 2.013594337505567e+001
 1.239115058928623e+000	 4.711602215840111e-002	 2.011923936289280e+001
 1.238606119261905e+000	 5.899934173215044e-002	 2.010030163713335e+001
 1.237980688494794e+000	 7.092150833674160e-002	 2.007868208596950e+001
 1.237237567891589e+000	 8.288102176868853e-002	 2.005391960445286e+001
 1.236375578863144e+000	 9.487634723970345e-002	 2.002554042602293e+001
 1.235393563981607e+000	 1.069059155624702e-001	 1.999305845277873e+001
 1.234290388000549e+000	 1.189681233686213e-001	 1.995597558300059e+001
 1.266678889072220e+000	 0.000000000000000e+000	 1.949131688029927e+001
 1.266622368684020e+000	 1.196554564061589e-002	 1.947688869490246e+001
 1.266451935253877e+000	 2.397654768310291e-002	 1.946235299184203e+001
 1.266166292166884e+000	 3.603161623652462e-002	 1.944726704757930e+001
 1.265764159316470e+000	 4.812932563820523e-002	 1.943117057334224e+001
 1.265244274109201e+000	 6.026821451849370e-002	 1.941358594613732e+001
 1.264605392478897e+000	 7.244678589573809e-002	 1.939401851422530e+001
 1.263846289909173e+000	 8.466350730218103e-002	 1.937195690456988e+001
 1.262965762463481e+000	 9.691681094146248e-002	 1.934687333046439e+001
 1.261962627821675e+000	 1.092050938783884e-001	 1.931822389763672e+001
 1.260835726322077e+000	 1.215267182615958e-001	 1.928544890724914e+001
 9.953870213206724e-001	 9.594122023947824e-002	 3.031308250862560e+001
 9.943989199946589e-001	 1.056922649420928e-001	 3.017480935788816e+001
 9.933113650226917e-001	 1.154669775827053e-001	 3.002354714860682e+001
 9.921235000424145e-001	 1.252640057452699e-001	 2.985919207099012e+001
 9.908344898374512e-001	 1.350819710464206e-001	 2.968165698077363e+001
 9.894435211587168e-001	 1.449194694473043e-001	 2.949087189851588e+001
 9.879498035443918e-001	 1.547750715930050e-001	 2.928678449190331e+001
 9.863525701375676e-001	 1.646473231798204e-001	 2.906936053980792e+001
 9.846510785005697e-001	 1.745347453506194e-001	 2.883858437689142e+001
 9.828446114249161e-001	 1.844358351184653e-001	 2.859445931761114e+001
 9.809324777358747e-001	 1.943490658186562e-001	 2.833700805854675e+001
 1.021930866555178e+000	 9.849967122134781e-002	 2.850795429244212e+001
 1.020916415669762e+000	 1.085107456576842e-001	 2.838648483622023e+001
 1.019799859022319e+000	 1.185461191814804e-001	 2.825370251950177e+001
 1.018580317413973e+000	 1.286044033119972e-001	 2.810948235839761e+001
 1.017256933355725e+000	 1.386841829087085e-001	 2.795371306851911e+001
 1.015828871911665e+000	 1.487840164914495e-001	 2.778629752372149e+001
 1.014295321540812e+000	 1.589024365888926e-001	 2.760715319961917e+001
 1.012655494936566e+000	 1.690379501156183e-001	 2.741621260075169e+001
 1.010908629862745e+000	 1.791890387780153e-001	 2.721342367034402e+001
 1.009053989985139e+000	 1.893541595092008e-001	 2.699875018167403e+001
 1.007090865697531e+000	 1.995317449331146e-001	 2.677217211013875e+001
 1.048475063502990e+000	 1.010581561031999e-001	 2.692898660928578e+001
 1.047434262709218e+000	 1.113292637187003e-001	 2.682267106203439e+001
 1.046288704002161e+000	 1.216253015794872e-001	 2.670659711263038e+001
 1.045037485346122e+000	 1.319448451396527e-001	 2.658061233514883e+001
 1.043679726979181e+000	 1.422864425010265e-001	 2.644457520748527e+001
 1.042214572278316e+000	 1.526486147416389e-001	 2.629835554024205e+001
 1.040641188623105e+000	 1.630298562732486e-001	 2.614183489186534e+001
 1.038958768256984e+000	 1.734286352282083e-001	 2.597490696902513e+001
 1.037166529144998e+000	 1.838433938759065e-001	 2.579747801130672e+001
 1.035263715826961e+000	 1.942725490689864e-001	 2.560946715936521e+001
 1.033249600264920e+000	 2.047144927194935e-001	 2.541080680578559e+001
 1.075019565710423e+000	 1.036166704075697e-001	 2.554559049866912e+001
 1.073952414705431e+000	 1.141478141926027e-001	 2.545283607382394e+001
 1.072777853605359e+000	 1.247045193880078e-001	 2.535176808639229e+001
 1.071494957537422e+000	 1.352853253822968e-001	 2.524220064249595e+001
 1.070102824466526e+000	 1.458887435192349e-001	 2.512395612880883e+001
 1.068600576082287e+000	 1.565132574346200e-001	 2.499686562186168e+001
 1.066987358684599e+000	 1.671573234228618e-001	 2.486076928474396e+001
 1.065262344066698e+000	 1.778193708336415e-001	 2.471551675028255e+001
 1.063424730394631e+000	 1.884978024988976e-001	 2.456096748986953e+001
 1.061473743082011e+000	 1.991909951903410e-001	 2.439699116720719e+001
 1.059408635658941e+000	 2.098973001076576e-001	 2.422346797634609e+001
 1.101564326723789e+000	 1.061752096569922e-001	 2.432998501049153e+001
 1.100470825250804e+000	 1.169663921468526e-001	 2.424926895848264e+001
 1.099267261475050e+000	 1.277837672183244e-001	 2.416158477581705e+001
 1.097952687686433e+000	 1.386258381939897e-001	 2.406670729114649e+001
 1.096526179576468e+000	 1.494910796591940e-001	 2.396441716691300e+001
 1.094986837147195e+000	 1.603779378071404e-001	 2.385450129896663e+001
 1.093333785618622e+000	 1.712848308145205e-001	 2.373675320433856e+001
 1.091566176333586e+000	 1.822101492479693e-001	 2.361097339631293e+001
 1.089683187658943e+000	 1.931522565015935e-001	 2.347696974604842e+001
 1.087684025881921e+000	 2.041094892657834e-001	 2.333455783011584e+001
 1.085567926100498e+000	 2.150801580274720e-001	 2.318356126344114e+001
 1.128109300089399e+000	 1.087337693740023e-001	 2.325687541910101e+001
 1.126989447937741e+000	 1.197849926489115e-001	 2.318675701179467e+001
 1.125756881254374e+000	 1.308630396817190e-001	 2.311092495980728e+001
 1.124410629491716e+000	 1.419663777287919e-001	 2.302910919941634e+001
 1.122949746067712e+000	 1.530934446167641e-001	 2.294104323649470e+001
 1.121373309296657e+000	 1.642426490959474e-001	 2.284646454598694e+001
 1.119680423318503e+000	 1.754123712250134e-001	 2.274511495985206e+001
 1.117870219025528e+000	 1.866009627872430e-001	 2.263674104265356e+001
 1.115941854985237e+000	 1.978067477385986e-001	 2.252109445410438e+001
 1.113894518358322e+000	 2.090280226878327e-001	 2.239793229800954e+001
 1.111727425810493e+000	 2.202630574088016e-001	 2.226701745719258e+001
 1.154654439353568e+000	 1.112923450811353e-001	 2.230317567358631e+001
 1.153508236358646e+000	 1.226036107662409e-001	 2.224230725411570e+001
 1.152246666586472e+000	 1.339423313894738e-001	 2.217689557821141e+001
 1.150868736651832e+000	 1.453069381407635e-001	 2.210662025106367e+001
 1.149373477698965e+000	 1.566958320878054e-001	 2.203116237380686e+001
 1.147759946354290e+000	 1.681073845377886e-001	 2.195020495207788e+001
 1.146027225677570e+000	 1.795399374311290e-001	 2.186343329284062e+001
 1.144174426110399e+000	 1.909918037675140e-001	 2.177053538866853e+001
 1.142200686420812e+000	 2.024612680645178e-001	 2.167120228882601e+001
 1.140105174642845e+000	 2.139465868490073e-001	 2.156512845664717e+001
 1.137887089009828e+000	 2.254459891815113e-001	 2.145201211287749e+001
 1.181199698062607e+000	 1.138509323009261e-001	 2.144776812944494e+001
 1.180027144105923e+000	 1.254222415663019e-001	 2.139490532766605e+001
 1.178736571114482e+000	 1.370216369528710e-001	 2.133859091024785e+001
 1.177326962865341e+000	 1.486475135839651e-001	 2.127844887332671e+001
 1.175797328228936e+000	 1.602982357681785e-001	 2.121410283573101e+001
 1.174146702143711e+000	 1.719721373694114e-001	 2.114517646554604e+001
 1.172374146589153e+000	 1.836675222096557e-001	 2.107129389416380e+001
 1.170478751556079e+000	 1.953826645048333e-001	 2.099208011699411e+001
 1.168459636012969e+000	 2.071158093339556e-001	 2.090716138018683e+001
 1.166315948867122e+000	 2.188651731418263e-001	 2.081616555289855e+001
 1.164046869919403e+000	 2.306289442754662e-001	 2.071872248483229e+001
 1.207745029762831e+000	 1.164095265559097e-001	 2.067129482891624e+001
 1.206546124771974e+000	 1.282408801165561e-001	 2.062530602729164e+001
 1.205226548481543e+000	 1.401009509831926e-001	 2.057688245385920e+001
 1.203785261830803e+000	 1.519880982124569e-001	 2.052558736568045e+001
 1.202221251416331e+000	 1.639006493537434e-001	 2.047098198136473e+001
 1.200533530488537e+000	 1.758369008275634e-001	 2.041262593428376e+001
 1.198721139946579e+000	 1.877951183373822e-001	 2.035007771183598e+001
 1.196783149330445e+000	 1.997735373152525e-001	 2.028289507989258e+001
 1.194718657809009e+000	 2.117703634015168e-001	 2.021063549175923e+001
 1.192526795162783e+000	 2.237837729588086e-001	 2.013285648120166e+001
 1.190206722760122e+000	 2.358119136205312e-001	 2.004911603930908e+001
 1.234290388000549e+000	 1.189681233686213e-001	 1.995597558300058e+001
 1.233065131949204e+000	 1.310595214844649e-001	 1.991585070493721e+001
 1.231716552330795e+000	 1.431802680917210e-001	 1.987423573607519e+001
 1.230243587246780e+000	 1.553286861802993e-001	 1.983062820188901e+001
 1.228645201019855e+000	 1.675030665403604e-001	 1.978452215390824e+001
 1.226920385212384e+000	 1.797016681489920e-001	 1.973540865796035e+001
 1.225068159643175e+000	 1.919227185910969e-001	 1.968277626629360e+001
 1.223087573401376e+000	 2.041644145148226e-001	 1.962611147263920e+001
 1.220977705856232e+000	 2.164249221218061e-001	 1.956489914950574e+001
 1.218737667661458e+000	 2.287023776924730e-001	 1.949862296724700e+001
 1.216366601752886e+000	 2.409948881465710e-001	 1.942676579470615e+001
 1.260835726322077e+000	 1.215267182615958e-001	 1.928544890724914e+001
 1.259584119230017e+000	 1.338781607374896e-001	 1.925030758929177e+001
 1.258206536305377e+000	 1.462595828897382e-001	 1.921455008739365e+001
 1.256701892811832e+000	 1.586692716415527e-001	 1.917760333212448e+001
 1.255069130798217e+000	 1.711054810238902e-001	 1.913888958563804e+001
 1.253307220138871e+000	 1.835664325704446e-001	 1.909782697306795e+001
 1.251415159572273e+000	 1.960503157475885e-001	 1.905382999481550e+001
 1.249391977736748e+000	 2.085552884195949e-001	 1.900631001868549e+001
 1.247236734201940e+000	 2.210794773494281e-001	 1.895467575109603e+001
 1.244948520494780e+000	 2.336209787353382e-001	 1.889833368687497e+001
 1.242526461118596e+000	 2.461778587834510e-001	 1.883668853745840e+001
 9.809324777358747e-001	 1.943490658186562e-001	 2.833700805854674e+001
 9.789137024229728e-001	 2.042743766435053e-001	 2.806714594922795e+001
 9.767879280981021e-001	 2.142087061355223e-001	 2.778585421561843e+001
 9.745545470450379e-001	 2.241504565049763e-001	 2.749316325228911e+001
 9.722129807570792e-001	 2.340980083161345e-001	 2.718912101153920e+001
 9.697626806991601e-001	 2.440497210832210e-001	 2.687379330945233e+001
 9.672031290579123e-001	 2.540039338948809e-001	 2.654726411091694e+001
 9.645338394785437e-001	 2.639589660669880e-001	 2.620963579318383e+001
 9.617543577873684e-001	 2.739131178235835e-001	 2.586102938761774e+001
 9.588642626988490e-001	 2.838646710056856e-001	 2.550158479938406e+001
 9.558631665059840e-001	 2.938118898076575e-001	 2.513146100489302e+001
 1.007090865697531e+000	 1.995317449331146e-001	 2.677217211013875e+001
 1.005018255988954e+000	 2.097217326205241e-001	 2.653453791922659e+001
 1.002835793940865e+000	 2.199209794745262e-001	 2.628676299416030e+001
 1.000542855631143e+000	 2.301278450974099e-001	 2.602884757145808e+001
 9.981388471261151e-001	 2.403406668682315e-001	 2.576080836158135e+001
 9.956232052629930e-001	 2.505577605546663e-001	 2.548267885095197e+001
 9.929953984199389e-001	 2.607774209541257e-001	 2.519450958311474e+001
 9.902549272725891e-001	 2.709979225639719e-001	 2.489636841875748e+001
 9.874013255358587e-001	 2.812175202806164e-001	 2.458834077439910e+001
 9.844341606898323e-001	 2.914344501272308e-001	 2.427052983965058e+001
 9.813530346885656e-001	 3.016469300097511e-001	 2.394305677305135e+001
 1.033249600264920e+000	 2.047144927194935e-001	 2.541080680578560e+001
 1.031123155447073e+000	 2.151691607766280e-001	 2.520233190346714e+001
 1.028884004924326e+000	 2.256333285029850e-001	 2.498494525112275e+001
 1.026531508568457e+000	 2.361053128922975e-001	 2.475861075369226e+001
 1.024065057018631e+000	 2.465834081378281e-001	 2.452330779230383e+001
 1.021484072484157e+000	 2.570658862601133e-001	 2.427903152861384e+001
 1.018788009534555e+000	 2.675509977647321e-001	 2.402579318827672e+001
 1.015976355875734e+000	 2.780369723299311e-001	 2.376362032339840e+001
 1.013048633111059e+000	 2.885220195238799e-001	 2.349255705394222e+001
 1.010004397486102e+000	 2.990043295512846e-001	 2.321266428816554e+001
 1.006843240615852e+000	 3.094820740290298e-001	 2.292401992227715e+001
 1.059408635658941e+000	 2.098973001076576e-001	 2.422346797634609e+001
 1.057228355112487e+000	 2.206166515784633e-001	 2.404126697551691e+001
 1.054932515462900e+000	 2.313457432239041e-001	 2.385132590128427e+001
 1.052520460375683e+000	 2.420828494286582e-001	 2.365356653030622e+001
 1.049991565062670e+000	 2.528262211996881e-001	 2.344792521083730e+001
 1.047345237105108e+000	 2.635740868098780e-001	 2.323435317491085e+001
 1.044580917263728e+000	 2.743246524724556e-001	 2.301281682938416e+001
 1.041698080274572e+000	 2.850761030460262e-001	 2.278329802584939e+001
 1.038696235629327e+000	 2.958266027699860e-001	 2.254579430954427e+001
 1.035574928338934e+000	 3.065742960300392e-001	 2.230031914752617e+001
 1.032333739679205e+000	 3.173173081534752e-001	 2.204690213650001e+001
 1.085567926100498e+000	 2.150801580274720e-001	 2.318356126344114e+001
 1.083333809300356e+000	 2.260641954926754e-001	 2.302492563762931e+001
 1.080981279971006e+000	 2.370582136402892e-001	 2.285966598884637e+001
 1.078509665571524e+000	 2.480604442455112e-001	 2.268765652802189e+001
 1.075918325886272e+000	 2.590690951285747e-001	 2.250878523447539e+001
 1.073206653868300e+000	 2.700823508142762e-001	 2.232295418060046e+001
 1.070374076469423e+000	 2.810983732230515e-001	 2.213007983483761e+001
 1.067420055455696e+000	 2.921153023934179e-001	 2.193009334309513e+001
 1.064344088207020e+000	 3.031312572355475e-001	 2.172294078893000e+001
 1.061145708499603e+000	 3.141443363156863e-001	 2.150858343295102e+001
 1.057824487269989e+000	 3.251526186710684e-001	 2.128699793205264e+001
 1.111727425810493e+000	 2.202630574088016e-001	 2.226701745719258e+001
 1.109439472325838e+000	 2.315117829859109e-001	 2.212940980334842e+001
 1.107030252863060e+000	 2.427707297551455e-001	 2.198623937422282e+001
 1.104499078674683e+000	 2.540380868818758e-001	 2.183732772374866e+001
 1.101845294117478e+000	 2.653120189992516e-001	 2.168250948174120e+001
 1.099068277516187e+000	 2.765906668836241e-001	 2.152163269486091e+001
 1.096167442013604e+000	 2.878721481622747e-001	 2.135455914492295e+001
 1.093142236405699e+000	 2.991545580532664e-001	 2.118116464487952e+001
 1.089992145960496e+000	 3.104359701371768e-001	 2.100133931298045e+001
 1.086716693219385e+000	 3.217144371604181e-001	 2.081498782578983e+001
 1.083315438779566e+000	 3.329879918697909e-001	 2.062202965090635e+001
 1.137887089009828e+000	 2.254459891815113e-001	 2.145201211287749e+001
 1.135545298504095e+000	 2.369594045248153e-001	 2.133306092521390e+001
 1.133079388553482e+000	 2.484832815714788e-001	 2.120955342261197e+001
 1.130488654203866e+000	 2.600157668767713e-001	 2.108125374782769e+001
 1.127772424384331e+000	 2.715549818864824e-001	 2.094793854810174e+001
 1.124930062791226e+000	 2.830990236282377e-001	 2.080939733526843e+001
 1.121960968758237e+000	 2.946459654358806e-001	 2.066543282183458e+001
 1.118864578111176e+000	 3.061938577067329e-001	 2.051586123353834e+001
 1.115640364006114e+000	 3.177407286914862e-001	 2.036051259910240e+001
 1.112287837749558e+000	 3.292845853164264e-001	 2.019923101809782e+001
 1.108806549599299e+000	 3.408234140376239e-001	 2.003187490803000e+001
 1.164046869919403e+000	 2.306289442754662e-001	 2.071872248483229e+001
 1.161651242150283e+000	 2.424070505760348e-001	 2.061621732694186e+001
 1.159128641456689e+000	 2.541958590922946e-001	 2.051010677626661e+001
 1.156478346677774e+000	 2.659934737692165e-001	 2.040009314176703e+001
 1.153699671314873e+000	 2.777979728650303e-001	 2.028589079812089e+001
 1.150791964435869e+000	 2.896074096584329e-001	 2.016722656690046e+001
 1.147754611565289e+000	 3.014198131896246e-001	 2.004384007184192e+001
 1.144587035558720e+000	 3.132331890349774e-001	 1.991548406891580e+001
 1.141288697460231e+000	 3.250455201150880e-001	 1.978192475214472e+001
 1.137859097341395e+000	 3.368547675359032e-001	 1.964294203634765e+001
 1.134297775120553e+000	 3.486588714625484e-001	 1.949832981821630e+001
 1.190206722760122e+000	 2.358119136205312e-001	 2.004911603930908e+001
 1.187757257579563e+000	 2.478547116062153e-001	 1.996100301913307e+001
 1.185177965987098e+000	 2.599084523205985e-001	 1.987017850809229e+001
 1.182468110615112e+000	 2.719711970982310e-001	 1.977627888797820e+001
 1.179626989537143e+000	 2.840409810096590e-001	 1.967895231280253e+001
 1.176653937192574e+000	 2.961158135845260e-001	 1.957785911198393e+001
 1.173548325296723e+000	 3.081936795692618e-001	 1.947267216517320e+001
 1.170309563734924e+000	 3.202725397191609e-001	 1.936307724964528e+001
 1.166937101439205e+000	 3.323503316245950e-001	 1.924877336146096e+001
 1.163430427246173e+000	 3.444249705710406e-001	 1.912947301187031e+001
 1.159789070734689e+000	 3.564943504325457e-001	 1.900490250069093e+001
 1.216366601752886e+000	 2.409948881465710e-001	 1.942676579470615e+001
 1.213863299107094e+000	 2.533023780820027e-001	 1.935114326129738e+001
 1.211227316559127e+000	 2.656210512593958e-001	 1.927364393475406e+001
 1.208457900534584e+000	 2.779489264028339e-001	 1.919383450615792e+001
 1.205554333679185e+000	 2.902839953951322e-001	 1.911129330436082e+001
 1.202515935803794e+000	 3.026242240168329e-001	 1.902561072109794e+001
 1.199342064814506e+000	 3.149675527205473e-001	 1.893638960463194e+001
 1.196032117626381e+000	 3.273118974404437e-001	 1.884324562309958e+001
 1.192585531059394e+000	 3.396551504366193e-001	 1.874580759904901e+001
 1.189001782715169e+000	 3.519951811740304e-001	 1.864371781696636e+001
 1.185280391833071e+000	 3.643298372355973e-001	 1.853663230589128e+001
 1.242526461118596e+000	 2.461778587834510e-001	 1.883668853745839e+001
 1.239969321048035e+000	 2.587500404700431e-001	 1.877180293043429e+001
 1.237276647587192e+000	 2.713336459116922e-001	 1.870581316233311e+001
 1.234447670954891e+000	 2.839266512220444e-001	 1.863821280305328e+001
 1.231481658369039e+000	 2.965270050962132e-001	 1.856850709978971e+001
 1.228377915011984e+000	 3.091326295656696e-001	 1.849621342292003e+001
 1.225135784980603e+000	 3.217414207892365e-001	 1.842086167657752e+001
 1.221754652219686e+000	 3.343512498799867e-001	 1.834199467535273e+001
 1.218233941437156e+000	 3.469599637677736e-001	 1.825916848893002e+001
 1.214573118999657e+000	 3.595653860970647e-001	 1.817195275682249e+001
 1.210771693807061e+000	 3.721653181596841e-001	 1.807993097571577e+001
 9.558631665059840e-001	 2.938118898076575e-001	 2.513146100489302e+001
 9.527507155138414e-001	 3.037530213952426e-001	 2.475106697748863e+001
 9.495265899749483e-001	 3.136862962449286e-001	 2.436085624581413e+001
 9.461905054388915e-001	 3.236099293720238e-001	 2.396109269425548e+001
 9.427422136050960e-001	 3.335221213151299e-001	 2.355207195850909e+001
 9.391815029145866e-001	 3.434210590039753e-001	 2.313412164054667e+001
 9.355081991183116e-001	 3.533049166519174e-001	 2.270760148281950e+001
 9.317221658209343e-001	 3.631718566724364e-001	 2.227290350138377e+001
 9.278233049990163e-001	 3.730200306188906e-001	 2.183045207771179e+001
 9.238115574925392e-001	 3.828475801467559e-001	 2.138070400903287e+001
 9.196869034687286e-001	 3.926526379975133e-001	 2.092414851712218e+001
 9.813530346885656e-001	 3.016469300097511e-001	 2.394305677305135e+001
 9.781575844051821e-001	 3.118531603513708e-001	 2.360659368230015e+001
 9.748474815655586e-001	 3.220513244408870e-001	 2.326184729696531e+001
 9.714224341338947e-001	 3.322395896935919e-001	 2.290902435311142e+001
 9.678821871882342e-001	 3.424161086620216e-001	 2.254835850327872e+001
 9.642265235280022e-001	 3.525790199269325e-001	 2.218011049918202e+001
 9.604552642574868e-001	 3.627264490136036e-001	 2.180456834135978e+001
 9.565682693441295e-001	 3.728565093327700e-001	 2.142204739587108e+001
 9.525654381505310e-001	 3.829673031454391e-001	 2.103289047821443e+001
 9.484467099390737e-001	 3.930569225507893e-001	 2.063746790470906e+001
 9.442120643481219e-001	 4.031234504962961e-001	 2.023617751163936e+001
 1.006843240615852e+000	 3.094820740290298e-001	 2.292401992227715e+001
 1.003564789941372e+000	 3.199534066371333e-001	 2.262745964701678e+001
 1.000168708661770e+000	 3.304164634760867e-001	 2.232384805778733e+001
 9.966546971557494e-001	 3.408693643605512e-001	 2.201333640763345e+001
 9.930224938798730e-001	 3.513102138563777e-001	 2.169609895915598e+001
 9.892718759918836e-001	 3.617371021947264e-001	 2.137233314165438e+001
 9.854026599493357e-001	 3.721481062121692e-001	 2.104225968158398e+001
 9.814147020823928e-001	 3.825412903160630e-001	 2.070612270683767e+001
 9.773078991396468e-001	 3.929147074744280e-001	 2.036418982542976e+001
 9.730821888058523e-001	 4.032664002295056e-001	 2.001675217922105e+001
 9.687375501904938e-001	 4.135944017341220e-001	 1.966412447337230e+001
 1.032333739679205e+000	 3.173173081534752e-001	 2.204690213650001e+001
 1.028972287659047e+000	 3.280537460765929e-001	 2.178646623870393e+001
 1.025490226950689e+000	 3.387816987110449e-001	 2.151996157834252e+001
 1.021887250347247e+000	 3.494992382703296e-001	 2.124748560157613e+001
 1.018163089683721e+000	 3.602044213330747e-001	 2.096915573833869e+001
 1.014317516476093e+000	 3.708952897803031e-001	 2.068510953920685e+001
 1.010350342535127e+000	 3.815698717593335e-001	 2.039550479064615e+001
 1.006261420553655e+000	 3.922261826735969e-001	 2.010051960955298e+001
 1.002050644666225e+000	 4.028622261975743e-001	 1.980035251808049e+001
 9.977179509799359e-001	 4.134759953160150e-001	 1.949522249979093e+001
 9.932633180753755e-001	 4.240654733865391e-001	 1.918536903821995e+001
 1.057824487269989e+000	 3.251526186710684e-001	 2.128699793205264e+001
 1.054380033094837e+000	 3.361541644938118e-001	 2.105913923808083e+001
 1.050811992119420e+000	 3.471470155062801e-001	 2.082599147903719e+001
 1.047120049551180e+000	 3.581291963203556e-001	 2.058760001130397e+001
 1.043303930603482e+000	 3.690987155269895e-001	 2.034402798857690e+001
 1.039363401150493e+000	 3.800535666566078e-001	 2.009535648229413e+001
 1.035298268356127e+000	 3.909917291668158e-001	 1.984168458423373e+001
 1.031108381275849e+000	 4.019111694566532e-001	 1.958312949261621e+001
 1.026793631430127e+000	 4.128098419065946e-001	 1.931982658312021e+001
 1.022353953348383e+000	 4.236856899434282e-001	 1.905192946627371e+001
 1.017789325082299e+000	 4.345366471290957e-001	 1.877961003272097e+001
 1.083315438779566e+000	 3.329879918697909e-001	 2.062202965090635e+001
 1.079787981785381e+000	 3.442546477128530e-001	 2.042341553058049e+001
 1.076133959855069e+000	 3.555123992223094e-001	 2.022013095798466e+001
 1.072353050610339e+000	 3.667592234080572e-001	 2.001217098769840e+001
 1.068444972642865e+000	 3.779930808729982e-001	 1.979954708707211e+001
 1.064409486184943e+000	 3.892119167965864e-001	 1.958228724256164e+001
 1.060246393753604e+000	 4.004136619463352e-001	 1.936043605077962e+001
 1.055955540766905e+000	 4.115962337165134e-001	 1.913405479603371e+001
 1.051536816131212e+000	 4.227575371932062e-001	 1.890322151619785e+001
 1.046990152798253e+000	 4.338954662448556e-001	 1.866803105882079e+001
 1.042315528290796e+000	 4.450079046373393e-001	 1.842859512941271e+001
 1.108806549599299e+000	 3.408234140376239e-001	 2.003187490803000e+001
 1.105196089267310e+000	 3.523551815577792e-001	 1.985937196509742e+001
 1.101456085844741e+000	 3.638778352196508e-001	 1.968269359437502e+001
 1.097586209367518e+000	 3.753893044308631e-001	 1.950178643732467e+001
 1.093586171805575e+000	 3.868875018059776e-001	 1.931661293207846e+001
 1.089455727749307e+000	 3.983703241731845e-001	 1.912715140649157e+001
 1.085194675068824e+000	 4.098356536096109e-001	 1.893339615724012e+001
 1.080802855544754e+000	 4.212813585044585e-001	 1.873535751718910e+001
 1.076280155469341e+000	 4.327052946491252e-001	 1.853306191334084e+001
 1.071626506216607e+000	 4.441053063534078e-001	 1.832655191774024e+001
 1.066841884780397e+000	 4.554792275868185e-001	 1.811588629375147e+001
 1.134297775120553e+000	 3.486588714625484e-001	 1.949832981821630e+001
 1.130604311077259e+000	 3.604557518526529e-001	 1.934898975081823e+001
 1.126778325775542e+000	 3.722433088588220e-001	 1.919587937670131e+001
 1.122819481665506e+000	 3.840194242862013e-001	 1.903889894353676e+001
 1.118727484095319e+000	 3.957819627608041e-001	 1.887796461804576e+001
 1.114502082013446e+000	 4.075287727593477e-001	 1.871300856499824e+001
 1.110143068643055e+000	 4.192576876683624e-001	 1.854397901238140e+001
 1.105650282127328e+000	 4.309665268717704e-001	 1.837084030544637e+001
 1.101023606144375e+000	 4.426530968660690e-001	 1.819357295244376e+001
 1.096262970490503e+000	 4.543151924021958e-001	 1.801217366493253e+001
 1.091368351630633e+000	 4.659505976530814e-001	 1.782665539559441e+001
 1.159789070734689e+000	 3.564943504325457e-001	 1.900490250069093e+001
 1.156012602751863e+000	 3.685563444215371e-001	 1.887594892758992e+001
 1.152100635334577e+000	 3.806088055003410e-001	 1.874357053948335e+001
 1.148052823347096e+000	 3.926495678714999e-001	 1.860762337037096e+001
 1.143868865515805e+000	 4.046764481723542e-001	 1.846798020735613e+001
 1.139548505147221e+000	 4.166872465280218e-001	 1.832453065317325e+001
 1.135091530817564e+000	 4.286797476343087e-001	 1.817718117381636e+001
 1.130497777032559e+000	 4.406517218697299e-001	 1.802585513449970e+001
 1.125767124856174e+000	 4.526009264357540e-001	 1.787049282730267e+001
 1.120899502507002e+000	 4.645251065243294e-001	 1.771105149394008e+001
 1.115894885921037e+000	 4.764219965116759e-001	 1.754750534715578e+001
 1.185280391833071e+000	 3.643298372355973e-001	 1.853663230589128e+001
 1.181420919827755e+000	 3.766569450884943e-001	 1.842544838496990e+001
 1.177422970208952e+000	 3.889743105047254e-001	 1.831115272353762e+001
 1.173286190255080e+000	 4.012797200841873e-001	 1.819355951331001e+001
 1.169010272070738e+000	 4.135709424755045e-001	 1.807250122087017e+001
 1.164594953320496e+000	 4.258457294521522e-001	 1.794782862959462e+001
 1.160040017933619e+000	 4.381018170191692e-001	 1.781941086442559e+001
 1.155345296778378e+000	 4.503369265496192e-001	 1.768713540328987e+001
 1.150510668304600e+000	 4.625487659498976e-001	 1.755090807910895e+001
 1.145536059153163e+000	 4.747350308529197e-001	 1.741065307645333e+001
 1.140421444731140e+000	 4.868934058381502e-001	 1.726631292696450e+001
 1.210771693807061e+000	 3.721653181596841e-001	 1.807993097571577e+001
 1.206829217841571e+000	 3.847575396775871e-001	 1.798404766684216e+001
 1.202745286085772e+000	 3.973398092324930e-001	 1.788535772986928e+001
 1.198519538232249e+000	 4.099098658216918e-001	 1.778363610777728e+001
 1.194151659763825e+000	 4.224654301051314e-001	 1.767867820649375e+001
 1.189641382703130e+000	 4.350042055046847e-001	 1.757029991030208e+001
 1.184988486332486e+000	 4.475238793346628e-001	 1.745833757665727e+001
 1.180192797882715e+000	 4.600221239627187e-001	 1.734264801483426e+001
 1.175254193189512e+000	 4.724965980002161e-001	 1.722310845300629e+001
 1.170172597316046e+000	 4.849449475210771e-001	 1.709961649848248e+001
 1.164947985140473e+000	 4.973648073080526e-001	 1.697209009592290e+001
 9.196869034687286e-001	 3.926526379975133e-001	 2.092414851712217e+001
 9.154500070382964e-001	 4.024318639757796e-001	 2.046241501390602e+001
 9.111003186645378e-001	 4.121848497096857e-001	 1.999682175737578e+001
 9.066379396471510e-001	 4.219097086716465e-001	 1.952762617905433e+001
 9.020630121438826e-001	 4.316045495771123e-001	 1.905509069101616e+001
 8.973757194803052e-001	 4.412674774614075e-001	 1.857948267957473e+001
 8.925762864264074e-001	 4.508965947721493e-001	 1.810107450810607e+001
 8.876649794392210e-001	 4.604900024760815e-001	 1.762014352959422e+001
 8.826421068707412e-001	 4.700458011791232e-001	 1.713697210938179e+001
 8.775080191404553e-001	 4.795620922583880e-001	 1.665184765849746e+001
 8.722631088718381e-001	 4.890369790048946e-001	 1.616506267781271e+001
 9.442120643481219e-001	 4.031234504962961e-001	 2.023617751163935e+001
 9.398621831981485e-001	 4.131634577139968e-001	 1.982997418998641e+001
 9.353965022980482e-001	 4.231765249420750e-001	 1.941960404360482e+001
 9.308151256488799e-001	 4.331607153452563e-001	 1.900536068715122e+001
 9.261181991993086e-001	 4.431140872044483e-001	 1.858754633369673e+001
 9.213059111636404e-001	 4.530346950222970e-001	 1.816647172132596e+001
 9.163784923057911e-001	 4.629205906447350e-001	 1.774245604379210e+001
 9.113362161883818e-001	 4.727698243973318e-001	 1.731582688604868e+001
 9.061793993862046e-001	 4.825804462352117e-001	 1.688692016537815e+001
 9.009084016633495e-001	 4.923505069052576e-001	 1.645608007873120e+001
 8.955236261133457e-001	 5.020780591192977e-001	 1.602365905676552e+001
 9.687375501904938e-001	 4.135944017341220e-001	 1.966412447337230e+001
 9.642746828240307e-001	 4.238951936465678e-001	 1.930679185223901e+001
 9.596930078607578e-001	 4.341683458149260e-001	 1.894511497131264e+001
 9.549926320031290e-001	 4.444118710955526e-001	 1.857940819355222e+001
 9.501737049907746e-001	 4.546237773341320e-001	 1.820999767693815e+001
 9.452364199267954e-001	 4.648020684999468e-001	 1.783722125033021e+001
 9.401810135691121e-001	 4.749447458365617e-001	 1.746142828958162e+001
 9.350077665860249e-001	 4.850498090276872e-001	 1.708297959497318e+001
 9.297170037752286e-001	 4.951152573769659e-001	 1.670224727093643e+001
 9.243090942455402e-001	 5.051390910003677e-001	 1.631961460891861e+001
 9.187844515606748e-001	 5.151193120298432e-001	 1.593547597411733e+001
 9.932633180753755e-001	 4.240654733865391e-001	 1.918536903821996e+001
 9.886874631931889e-001	 4.346270529926760e-001	 1.887097446264363e+001
 9.839897928328978e-001	 4.451602930922763e-001	 1.855216419352239e+001
 9.791704163983789e-001	 4.556631562327355e-001	 1.822925923010016e+001
 9.742294874202677e-001	 4.661335998239209e-001	 1.790259516248579e+001
 9.691672038905157e-001	 4.765695773011598e-001	 1.757252201141133e+001
 9.639838085611113e-001	 4.869690393050530e-001	 1.723940406571497e+001
 9.586795892061150e-001	 4.973299348768570e-001	 1.690361971887862e+001
 9.532548788462155e-001	 5.076502126681390e-001	 1.656556130584721e+001
 9.477100559350589e-001	 5.179278221633580e-001	 1.622563494123403e+001
 9.420455445066669e-001	 5.281607149139946e-001	 1.588426035987903e+001
 1.017789325082299e+000	 4.345366471290957e-001	 1.877961003272097e+001
 1.013100481582870e+000	 4.453590169715063e-001	 1.850288056239136e+001
 1.008286814694700e+000	 4.561523475381651e-001	 1.822174850837959e+001
 1.003348436523110e+000	 4.669145510670051e-001	 1.793652861764259e+001
 9.982855043897772e-001	 4.776435345315741e-001	 1.764755264039169e+001
 9.930982211755461e-001	 4.883372008327391e-001	 1.735516914669561e+001
 9.877868356265308e-001	 4.989934500076330e-001	 1.705974333954728e+001
 9.823516426226164e-001	 5.096101804545525e-001	 1.676165686601454e+001
 9.767929834075642e-001	 5.201852901724832e-001	 1.646130762798022e+001
 9.711112457799381e-001	 5.307166780138687e-001	 1.615910959384293e+001
 9.653068642441641e-001	 5.412022449492143e-001	 1.585549261239483e+001
 1.042315528290796e+000	 4.450079046373393e-001	 1.842859512941272e+001
 1.037513695270321e+000	 4.560910668022424e-001	 1.818485780621882e+001
 1.032584030926394e+000	 4.671444899166304e-001	 1.793679602958667e+001
 1.027526650065803e+000	 4.781660359085613e-001	 1.768470654434727e+001
 1.022341713801290e+000	 4.891535613148496e-001	 1.742890514191516e+001
 1.017029429902632e+000	 5.001049185014880e-001	 1.716972646498414e+001
 1.011590053110111e+000	 5.110179569017253e-001	 1.690752380870192e+001
 1.006023885409494e+000	 5.218905242704837e-001	 1.664266892026523e+001
 1.000331276267676e+000	 5.327204679537507e-001	 1.637555179874791e+001
 9.945126228282096e-001	 5.435056361715400e-001	 1.610658049682093e+001
 9.885683700660080e-001	 5.542438793129652e-001	 1.583618092584659e+001
 1.066841884780397e+000	 4.554792275868185e-001	 1.811588629375147e+001
 1.061927061532788e+000	 4.668231837040687e-001	 1.790101472536410e+001
 1.056881399008212e+000	 4.781367009917106e-001	 1.768194405743357e+001
 1.051705014714938e+000	 4.894175910676042e-001	 1.745894234960969e+001
 1.046398073556794e+000	 5.006636600315061e-001	 1.723229839410286e+001
 1.040960788192517e+000	 5.118727097142092e-001	 1.700232151800969e+001
 1.035393419356594e+000	 5.230425389447538e-001	 1.676934138342113e+001
 1.029696276140712e+000	 5.341709448343606e-001	 1.653370778761542e+001
 1.023869716234950e+000	 5.452557240756947e-001	 1.629579046548937e+001
 1.017914146127906e+000	 5.562946742560117e-001	 1.605597889620392e+001
 1.011830021265040e+000	 5.672855951827097e-001	 1.581468211581550e+001
 1.091368351630633e+000	 4.659505976530814e-001	 1.782665539559441e+001
 1.086340537647517e+000	 4.775553488961693e-001	 1.763702175927374e+001
 1.081178876420385e+000	 4.891289615274444e-001	 1.744334535219169e+001
 1.075883488158995e+000	 5.006691968543336e-001	 1.724585587176674e+001
 1.070454541558279e+000	 5.121738105393018e-001	 1.704480508581854e+001
 1.064892254165948e+000	 5.236405538777059e-001	 1.684046664032590e+001
 1.059196892710721e+000	 5.350671750941420e-001	 1.663313586757718e+001
 1.053368773390236e+000	 5.464514206558941e-001	 1.642312959742370e+001
 1.047408262117787e+000	 5.577910366020672e-001	 1.621078597417250e+001
 1.041315774727059e+000	 5.690837698869241e-001	 1.599646428144794e+001
 1.035091777134104e+000	 5.803273697359112e-001	 1.578054477711369e+001
 1.115894885921037e+000	 4.764219965116759e-001	 1.754750534715578e+001
 1.110754080891756e+000	 4.882875435977283e-001	 1.737993705573532e+001
 1.105476420643145e+000	 5.001212522878700e-001	 1.720849844278391e+001
 1.100062028086456e+000	 5.119208335789502e-001	 1.703337212148639e+001
 1.094511075707730e+000	 5.236839926959949e-001	 1.685476377202091e+001
 1.088823785943670e+000	 5.354084303987813e-001	 1.667290196078198e+001
 1.083000431517234e+000	 5.470918443073142e-001	 1.648803796393646e+001
 1.077041335732030e+000	 5.587319302447943e-001	 1.630044559848651e+001
 1.070946872724587e+000	 5.703263835966207e-001	 1.611042106380917e+001
 1.064717467673700e+000	 5.818729006839174e-001	 1.591828279639978e+001
 1.058353596966040e+000	 5.933691801500316e-001	 1.572437134026859e+001
 1.140421444731140e+000	 4.868934058381502e-001	 1.726631292696450e+001
 1.135167648542750e+000	 4.990197490279299e-001	 1.711805331304166e+001
 1.129773989156722e+000	 5.111135540370256e-001	 1.696609835466796e+001
 1.124240592185799e+000	 5.231724815516531e-001	 1.681057577155829e+001
 1.118567633907137e+000	 5.351941863593439e-001	 1.665163701046413e+001
 1.112755341646426e+000	 5.471763186842383e-001	 1.648945708008074e+001
 1.106803994120874e+000	 5.591165255416938e-001	 1.632423439558844e+001
 1.100713921740058e+000	 5.710124521107712e-001	 1.615619063652868e+001
 1.094485506863751e+000	 5.828617431231077e-001	 1.598557062147678e+001
 1.088119184015863e+000	 5.946620442666314e-001	 1.581264220268908e+001
 1.081615440053690e+000	 6.064110036025346e-001	 1.563769618357741e+001
 1.164947985140473e+000	 4.973648073080526e-001	 1.697209009592290e+001
 1.159581197877747e+000	 5.097519464059583e-001	 1.684076256516500e+001
 1.154071539441347e+000	 5.221058475389500e-001	 1.670590474967334e+001
 1.148419138145507e+000	 5.344241210826426e-001	 1.656758254463922e+001
 1.142624174058487e+000	 5.467043713871074e-001	 1.642588589841362e+001
 1.136686879394964e+000	 5.589441981408801e-001	 1.628092866545245e+001
 1.130607538866382e+000	 5.711411977547047e-001	 1.613284847559180e+001
 1.124386489988285e+000	 5.832929647635357e-001	 1.598180662395468e+001
 1.118024123343679e+000	 5.953970932452810e-001	 1.582798798550975e+001
 1.111520882801578e+000	 6.074511782547065e-001	 1.567160095797223e+001
 1.104877265689896e+000	 6.194528172708822e-001	 1.551287743635780e+001
 8.722631088718381e-001	 4.890369790048946e-001	 1.616506267781270e+001
 8.669069994773564e-001	 4.984699794031350e-001	 1.567596702990148e+001
 8.614409475685219e-001	 5.078577791162043e-001	 1.518451034892430e+001
 8.558654737743154e-001	 5.171984938406529e-001	 1.469169465671556e+001
 8.501811411206635e-001	 5.264902458615942e-001	 1.419855519323281e+001
 8.443885549780590e-001	 5.357311652289508e-001	 1.370615953330329e+001
 8.384883629704415e-001	 5.449193909360232e-001	 1.321560665406185e+001
 8.324812548450976e-001	 5.540530720989082e-001	 1.272802595379797e+001
 8.263679623034136e-001	 5.631303691352767e-001	 1.224457622293132e+001
 8.201492587923700e-001	 5.721494549410070e-001	 1.176644456782904e+001
 8.138259592567364e-001	 5.811085160631598e-001	 1.129484528818220e+001
 8.955236261133457e-001	 5.020780591192977e-001	 1.602365905676552e+001
 8.900246861062579e-001	 5.117626080080405e-001	 1.558957821956056e+001
 8.844128717634382e-001	 5.214007508515945e-001	 1.515411779416022e+001
 8.786887175973517e-001	 5.309905530979979e-001	 1.471799890618267e+001
 8.728528016480038e-001	 5.405300869595506e-001	 1.428196736408318e+001
 8.669057454291611e-001	 5.500174326204224e-001	 1.384679316593914e+001
 8.608482138348055e-001	 5.594506794466541e-001	 1.341326997861002e+001
 8.546809150055599e-001	 5.688279271970237e-001	 1.298221458936758e+001
 8.484046001549335e-001	 5.781472872332618e-001	 1.255446633000694e+001
 8.420200633552514e-001	 5.874068837280613e-001	 1.213088647336528e+001
 8.355281412832462e-001	 5.966048548693306e-001	 1.171235760209018e+001
 9.187844515606748e-001	 5.151193120298432e-001	 1.593547597411733e+001
 9.131426790481644e-001	 5.250554127421397e-001	 1.555005630408447e+001
 9.073851003396591e-001	 5.349439020332116e-001	 1.516374534471773e+001
 9.015122638313120e-001	 5.447827951019330e-001	 1.477703326937185e+001
 8.955247625774229e-001	 5.545701140871350e-001	 1.439042814575327e+001
 8.894232342352665e-001	 5.643038893065866e-001	 1.400445577294874e+001
 8.832083609691115e-001	 5.739821604984207e-001	 1.361965950960195e+001
 8.768808693131817e-001	 5.836029780634552e-001	 1.323660009280973e+001
 8.704415299933851e-001	 5.931644043068414e-001	 1.285585544714381e+001
 8.638911577076851e-001	 6.026645146774508e-001	 1.247802048304369e+001
 8.572306108650805e-001	 6.121013990034107e-001	 1.210370688366307e+001
 9.420455445066669e-001	 5.281607149139946e-001	 1.588426035987904e+001
 9.362609378459224e-001	 5.383483703426760e-001	 1.554175169786545e+001
 9.303575930951712e-001	 5.484872089601938e-001	 1.519843656946685e+001
 9.243360725344286e-001	 5.585751957156878e-001	 1.485462064696099e+001
 9.181969842324795e-001	 5.686103026739566e-001	 1.451062234477613e+001
 9.119409819903062e-001	 5.785905102858034e-001	 1.416677292963189e+001
 9.055687652426796e-001	 5.885138086608936e-001	 1.382341663792792e+001
 8.990810789176518e-001	 5.983781988415262e-001	 1.348091079952406e+001
 8.924787132537713e-001	 6.081816940757199e-001	 1.313962596681495e+001
 8.857625035748910e-001	 6.179223210879754e-001	 1.279994604776769e+001
 8.789333300225429e-001	 6.275981213460914e-001	 1.246226844135274e+001
 9.653068642441641e-001	 5.412022449492143e-001	 1.585549261239483e+001
 9.593794220423776e-001	 5.516414575468932e-001	 1.555069314457567e+001
 9.533303098279591e-001	 5.620306479316777e-001	 1.524484969477620e+001
 9.471601037649345e-001	 5.723677308024932e-001	 1.493812673957340e+001
 9.408694269367316e-001	 5.826506281496252e-001	 1.463069787957675e+001
 9.344589492882121e-001	 5.928772705564345e-001	 1.432274616790445e+001
 9.279293875248308e-001	 6.030455985036434e-001	 1.401446445956264e+001
 9.212815049686621e-001	 6.131535636745614e-001	 1.370605578053735e+001
 9.145161113710950e-001	 6.231991302596035e-001	 1.339773371509822e+001
 9.076340626820888e-001	 6.331802762584340e-001	 1.308972280950750e+001
 9.006362607759364e-001	 6.430949947780623e-001	 1.278225899001661e+001
 9.885683700660080e-001	 5.542438793129652e-001	 1.583618092584659e+001
 9.824980911803788e-001	 5.649346510920354e-001	 1.556438826615340e+001
 9.763032103360101e-001	 5.755741952468014e-001	 1.529106541541021e+001
 9.699843175810624e-001	 5.861603762255794e-001	 1.501627612170102e+001
 9.635420510137376e-001	 5.966910659437502e-001	 1.474009107804175e+001
 9.569770967229156e-001	 6.071641451168405e-001	 1.446258841649361e+001
 9.502901886848859e-001	 6.175775045962409e-001	 1.418385423460950e+001
 9.434821086159001e-001	 6.279290467058839e-001	 1.390398315278411e+001
 9.365536857803576e-001	 6.382166865781973e-001	 1.362307890070119e+001
 9.295057967545002e-001	 6.484383534876271e-001	 1.334125493069287e+001
 9.223393651455634e-001	 6.585919921800144e-001	 1.305863505545039e+001
 1.011830021265040e+000	 5.672855951827097e-001	 1.581468211581550e+001
 1.005616904802770e+000	 5.782279277153465e-001	 1.557164972602666e+001
 9.992762544173094e-001	 5.891178272047021e-001	 1.532641929491370e+001
 9.928086740410455e-001	 5.999531078481775e-001	 1.507899174492093e+001
 9.862148167870557e-001	 6.107315914859411e-001	 1.482937411438941e+001
 9.794953848883495e-001	 6.214511089653824e-001	 1.457758016643587e+001
 9.726511295921650e-001	 6.321095015082566e-001	 1.432363103958465e+001
 9.656828510090559e-001	 6.427046220788176e-001	 1.406755593857968e+001
 9.585913979165628e-001	 6.532343367512070e-001	 1.380939286335992e+001
 9.513776675173451e-001	 6.636965260743545e-001	 1.354918937373483e+001
 9.440426051517269e-001	 6.740890864326373e-001	 1.328786221096453e+001
 1.035091777134104e+000	 5.803273697359112e-001	 1.578054477711370e+001
 1.028735822452400e+000	 5.915212641540699e-001	 1.556244297974340e+001
 1.022249401869843e+000	 6.026615201045174e-001	 1.534135488976083e+001
 1.015633133203116e+000	 6.137459015335169e-001	 1.511725418708348e+001
 1.008887684580245e+000	 6.247721802058077e-001	 1.489012110482394e+001
 1.002013774378445e+000	 6.357381371004209e-001	 1.465994310366053e+001
 9.950121711159885e-001	 6.466415638092610e-001	 1.442671559558169e+001
 9.878836932978198e-001	 6.574802639366864e-001	 1.419044271538498e+001
 9.806292092147125e-001	 6.682520544983372e-001	 1.395117414801654e+001
 9.732496366958434e-001	 6.789547673174153e-001	 1.371108248353018e+001
 9.657459428147288e-001	 6.895862504166215e-001	 1.347147579304781e+001
 1.058353596966040e+000	 5.933691801500316e-001	 1.572437134026859e+001
 1.051854803672116e+000	 6.048146371454501e-001	 1.552775229392909e+001
 1.045222612491598e+000	 6.162052502453843e-001	 1.532729441099052e+001
 1.038457655125506e+000	 6.275387331448290e-001	 1.512297761154399e+001
 1.031560614716861e+000	 6.388128075329591e-001	 1.491478999321405e+001
 1.024532225787134e+000	 6.500252045203179e-001	 1.470272852313348e+001
 1.017373274125678e+000	 6.611736660688250e-001	 1.448679978532473e+001
 1.010084596631881e+000	 6.722559464228142e-001	 1.426745630648686e+001
 1.002667081109809e+000	 6.832698135392944e-001	 1.404732752184789e+001
 9.951216660152161e-001	 6.942130505156094e-001	 1.382691338290339e+001
 9.874493401548727e-001	 7.050834570126574e-001	 1.360630103545396e+001
 1.081615440053690e+000	 6.064110036025346e-001	 1.563769618357741e+001
 1.074973808004762e+000	 6.181080234267304e-001	 1.545946228533624e+001
 1.068195846080558e+000	 6.297489939264407e-001	 1.527652428505930e+001
 1.061282199866449e+000	 6.413315785453437e-001	 1.508889992266848e+001
 1.054233567520466e+000	 6.528534488970053e-001	 1.489661785145152e+001
 1.047050699708348e+000	 6.643122862234333e-001	 1.469971830094785e+001
 1.039734399490552e+000	 6.757057828565188e-001	 1.449932675325202e+001
 1.032285522160929e+000	 6.870316436805244e-001	 1.429781401390646e+001
 1.024704975036855e+000	 6.982875875937834e-001	 1.409538237760062e+001
 1.016993717200683e+000	 7.094713489677370e-001	 1.389217720376475e+001
 1.009152759192461e+000	 7.205806791014351e-001	 1.368836080919398e+001
 1.104877265689896e+000	 6.194528172708822e-001	 1.551287743635779e+001
 1.098092794993187e+000	 6.314013997351550e-001	 1.535025269449362e+001
 1.091169062434710e+000	 6.432927274468235e-001	 1.518209341987795e+001
 1.084106727484178e+000	 6.551244135982918e-001	 1.500848502712247e+001
 1.076906503314615e+000	 6.668940797275553e-001	 1.482952809028554e+001
 1.069569156736019e+000	 6.785993572081285e-001	 1.464707753250982e+001
 1.062095508079932e+000	 6.902378887419132e-001	 1.446293073389806e+001
 1.054486431034654e+000	 7.018073298531413e-001	 1.427729700402148e+001
 1.046742852430854e+000	 7.133053503815100e-001	 1.409040873484650e+001
 1.038865751977465e+000	 7.247296359725971e-001	 1.390252068983226e+001
 1.030856161947795e+000	 7.360778895636447e-001	 1.371390922304041e+001
 8.138259592567364e-001	 5.811085160631598e-001	 1.129484528818220e+001
 8.073989196223579e-001	 5.900057536711100e-001	 1.083074557772339e+001
 8.008690357874088e-001	 5.988393841156299e-001	 1.037435790479485e+001
 7.942372439580684e-001	 6.076076406512598e-001	 9.925773763059045e+000
 7.875045204774031e-001	 6.163087747742401e-001	 9.485071280946352e+000
 7.806718813845675e-001	 6.249410573556360e-001	 9.052315904875558e+000
 7.737403819358265e-001	 6.335027797617577e-001	 8.627561114647282e+000
 7.667111160878265e-001	 6.419922549603809e-001	 8.210849167738584e+000
 7.595852159436007e-001	 6.504078186112841e-001	 7.802211869041196e+000
 7.523638511618763e-001	 6.587478301396494e-001	 7.401671362421628e+000
 7.450482283302942e-001	 6.670106737908847e-001	 7.009242611069210e+000
 8.355281412832462e-001	 5.966048548693306e-001	 1.171235760209018e+001
 8.289297126895775e-001	 6.057393538572367e-001	 1.129877721337885e+001
 8.222256973632530e-001	 6.148085494782434e-001	 1.088956929199378e+001
 8.154170564761907e-001	 6.238106278733666e-001	 1.048491806949551e+001
 8.085047924075216e-001	 6.327437939117713e-001	 1.008500332759565e+001
 8.014899482910344e-001	 6.416062723541129e-001	 9.690000973788491e+000
 7.943736075234262e-001	 6.503963090028356e-001	 9.300083635639837e+000
 7.871568932337913e-001	 6.591121718378924e-001	 8.915421270400694e+000
 7.798409677148595e-001	 6.677521521363643e-001	 8.536201044250902e+000
 7.724270318165429e-001	 6.763145655744852e-001	 8.164127784418046e+000
 7.649163243024476e-001	 6.847977533105901e-001	 7.800271491370717e+000
 8.572306108650805e-001	 6.121013990034107e-001	 1.210370688366307e+001
 8.504607910413642e-001	 6.214731625150546e-001	 1.173209484867622e+001
 8.435826419166745e-001	 6.307779264339034e-001	 1.136212069513406e+001
 8.365971496289765e-001	 6.400138297868191e-001	 1.099404468079515e+001
 8.295053425937876e-001	 6.491790308152675e-001	 1.062813005811463e+001
 8.223082910398663e-001	 6.582717081688778e-001	 1.026464357158959e+001
 8.150071065046908e-001	 6.672900620856198e-001	 9.903862062609612e+000
 8.076029412901695e-001	 6.762323155570230e-001	 9.547619992470178e+000
 8.000969878791011e-001	 6.850967154768765e-001	 9.197353712224485e+000
 7.924904783129740e-001	 6.938815337718781e-001	 8.853264473458047e+000
 7.847846835317627e-001	 7.025850685127173e-001	 8.515549972740324e+000
 8.789333300225429e-001	 6.275981213460914e-001	 1.246226844135274e+001
 8.719921169979256e-001	 6.372071521100241e-001	 1.212533480238349e+001
 8.649398320725696e-001	 6.467474870358032e-001	 1.178782469658343e+001
 8.577774863507546e-001	 6.562172180355882e-001	 1.145005910035247e+001
 8.505061342846643e-001	 6.656144567226070e-001	 1.111236802731008e+001
 8.431268731983189e-001	 6.749373356349260e-001	 1.077625948375371e+001
 8.356408427702822e-001	 6.841840094455123e-001	 1.044384886066485e+001
 8.280492244755902e-001	 6.933526561569474e-001	 1.011545241725608e+001
 8.203532409874395e-001	 7.024414782792147e-001	 9.791368132040802e+000
 8.125541555392345e-001	 7.114487039889694e-001	 9.471895427170189e+000
 8.046532712476672e-001	 7.203725882687514e-001	 9.157334757098907e+000
 9.006362607759364e-001	 6.430949947780623e-001	 1.278225899001660e+001
 8.935236528794699e-001	 6.529412951076056e-001	 1.247385756196564e+001
 8.862972304558356e-001	 6.627172033371349e-001	 1.216310908212205e+001
 8.789580295758553e-001	 6.724207642636473e-001	 1.185093333212284e+001
 8.715071307286160e-001	 6.820500428716689e-001	 1.154004301210275e+001
 8.639456583336481e-001	 6.916031255872529e-001	 1.123105825050936e+001
 8.562747802108592e-001	 7.010781215179124e-001	 1.092434006079443e+001
 8.484957070086822e-001	 7.104731636768402e-001	 1.062025569481641e+001
 8.406096915909896e-001	 7.197864101897744e-001	 1.031917805027123e+001
 8.326180283833888e-001	 7.290160454828978e-001	 1.002148506776147e+001
 8.245220526795862e-001	 7.381602814501764e-001	 9.727559120258535e+000
 9.223393651455634e-001	 6.585919921800144e-001	 1.305863505545039e+001
 9.150553610062056e-001	 6.686755639732592e-001	 1.277372396610288e+001
 9.076547996913685e-001	 6.786870473910930e-001	 1.248730006045346e+001
 9.001387422386069e-001	 6.886244401149673e-001	 1.220081129464756e+001
 8.925082951741051e-001	 6.984857605003322e-001	 1.191465116440654e+001
 8.847646100131097e-001	 7.082690488608533e-001	 1.162922364608740e+001
 8.769088827170830e-001	 7.179723687382210e-001	 1.134494247910203e+001
 8.689423531080759e-001	 7.275938081558755e-001	 1.106223042610770e+001
 8.608663042408664e-001	 7.371314808549521e-001	 1.078151851406355e+001
 8.526820617335016e-001	 7.465835275108047e-001	 1.050324525936271e+001
 8.443909930569482e-001	 7.559481169284779e-001	 1.022785588035080e+001
 9.440426051517269e-001	 6.740890864326373e-001	 1.328786221096453e+001
 9.365872036983388e-001	 6.844099311724453e-001	 1.302626423256943e+001
 9.290125024040664e-001	 6.946569912508703e-001	 1.276322587794089e+001
 9.213195872733394e-001	 7.048282172335207e-001	 1.249916336672804e+001
 9.135095908695964e-001	 7.149215808464764e-001	 1.223450616393866e+001
 9.055836918039592e-001	 7.249350762907215e-001	 1.196969615201187e+001
 8.975431141796130e-001	 7.348667215418383e-001	 1.170518677251632e+001
 8.893891269924004e-001	 7.447145596332283e-001	 1.144144214090497e+001
 8.811230434881836e-001	 7.544766599211421e-001	 1.117893613791498e+001
 8.727462204776373e-001	 7.641511193298295e-001	 1.091815148134438e+001
 8.642600576091790e-001	 7.737360635751406e-001	 1.065957878205842e+001
 9.657459428147288e-001	 6.895862504166215e-001	 1.347147579304781e+001
 9.581191432760791e-001	 7.001443691706241e-001	 1.323090313785574e+001
 9.503703012188257e-001	 7.106270069696601e-001	 1.298816012466218e+001
 9.425005276143821e-001	 7.210320672632804e-001	 1.274368845405321e+001
 9.345109810635532e-001	 7.313574751479801e-001	 1.249794402788380e+001
 9.264028672734521e-001	 7.416011787118533e-001	 1.225139599569694e+001
 9.181774384891096e-001	 7.517611503641648e-001	 1.200452576735874e+001
 9.098359928802851e-001	 7.618353881480728e-001	 1.175782599580584e+001
 9.013798738840571e-001	 7.718219170347401e-001	 1.151179953398549e+001
 8.928104695038603e-001	 7.817187901971132e-001	 1.126695837023206e+001
 8.841292115657057e-001	 7.915240902616486e-001	 1.102382254646621e+001
 9.874493401548727e-001	 7.050834570126574e-001	 1.360630103545396e+001
 9.796511420596337e-001	 7.158788504332553e-001	 1.338412802147283e+001
 9.717281587605429e-001	 7.265970666006559e-001	 1.315926637960024e+001
 9.636815261960641e-001	 7.372359618482176e-001	 1.293217591182838e+001
 9.555124290044385e-001	 7.477934146427221e-001	 1.270333051348081e+001
 9.472220999888442e-001	 7.582673269592433e-001	 1.247321710274289e+001
 9.388118195362328e-001	 7.686556256406014e-001	 1.224233451466270e+001
 9.302829149903598e-001	 7.789562637395833e-001	 1.201119236398685e+001
 9.216367599796002e-001	 7.891672218421419e-001	 1.178030988139841e+001
 9.128747737002358e-001	 7.992865093697955e-001	 1.155021472791010e+001
 9.039984201559549e-001	 8.093121658594877e-001	 1.132144179232330e+001
 1.009152759192461e+000	 7.205806791014351e-001	 1.368836080919399e+001
 1.001183162369211e+000	 7.316133474258008e-001	 1.348262219362266e+001
 9.930860376541154e-001	 7.425671421970512e-001	 1.327384128485016e+001
 9.848625459527152e-001	 7.534398726323051e-001	 1.306248956538435e+001
 9.765138979407163e-001	 7.642293705685814e-001	 1.284905148830455e+001
 9.680413535173916e-001	 7.749334918678867e-001	 1.263402329761430e+001
 9.594462212116428e-001	 7.855501178065477e-001	 1.241791181288020e+001
 9.507298575412535e-001	 7.960771564469348e-001	 1.220123318298809e+001
 9.418936663259282e-001	 8.065125439897427e-001	 1.198451161407289e+001
 9.329390979548276e-001	 8.168542461050162e-001	 1.176827807688136e+001
 9.238676486093538e-001	 8.271002592401421e-001	 1.155306899899983e+001
 1.030856161947795e+000	 7.360778895636447e-001	 1.371390922304041e+001
 1.022715166525019e+000	 7.473478326137195e-001	 1.352323987797725e+001
 1.014443900524439e+000	 7.585372058120380e-001	 1.332929598302317e+001
 1.006043549818665e+000	 7.696437712595147e-001	 1.313255516922260e+001
 9.975153511208504e-001	 7.806653141634373e-001	 1.293350594655553e+001
 9.888605914263493e-001	 7.915996442727785e-001	 1.273264642183335e+001
 9.800806074060003e-001	 8.024445972974047e-001	 1.253048298215006e+001
 9.711767847515960e-001	 8.131980363093015e-001	 1.232752894919226e+001
 9.621505574741556e-001	 8.238578531239378e-001	 1.212430320995610e+001
 9.530034071557008e-001	 8.344219696599167e-001	 1.192132882963579e+001
 9.437368621553292e-001	 8.448883392750972e-001	 1.171913165263817e+001
 7.450482283302942e-001	 6.670106737908847e-001	 7.009242611069205e+000
 7.376407085647760e-001	 6.751935382033578e-001	 6.625213968656994e+000
 7.301414800067997e-001	 6.832961067697868e-001	 6.249791374850587e+000
 7.225518559652614e-001	 6.913168456532408e-001	 5.883279044347675e+000
 7.148731837902085e-001	 6.992542498395045e-001	 5.525968396316308e+000
 7.071068440770070e-001	 7.071068440770069e-001	 5.178137895921031e+000
 6.992542498395046e-001	 7.148731837902086e-001	 4.840052926288202e+000
 6.913168456532407e-001	 7.225518559652614e-001	 4.511965691936517e+000
 6.832961067697868e-001	 7.301414800067997e-001	 4.194115154585603e+000
 6.751935382033579e-001	 7.376407085647760e-001	 3.886727002139218e+000
 6.670106737908847e-001	 7.450482283302943e-001	 3.590013651511712e+000
 7.649163243024476e-001	 6.847977533105901e-001	 7.800271491370720e+000
 7.573112692520885e-001	 6.931988290128908e-001	 7.443733721931263e+000
 7.496120598240782e-001	 7.015174676312072e-001	 7.093724417008748e+000
 7.418200443491130e-001	 7.097520944260171e-001	 6.750625163135621e+000
 7.339366061068124e-001	 7.179011642491269e-001	 6.414806547597896e+000
 7.259631625086618e-001	 7.259631625086618e-001	 6.086627814250287e+000
 7.179011642491264e-001	 7.339366061068126e-001	 5.766436548459692e+000
 7.097520944260168e-001	 7.418200443491130e-001	 5.454568392759843e+000
 7.015174676312068e-001	 7.496120598240780e-001	 5.151346794690255e+000
 6.931988290128908e-001	 7.573112692520886e-001	 4.857082788169976e+000
 6.847977533105903e-001	 7.649163243024477e-001	 4.572074809627959e+000
 7.847846835317627e-001	 7.025850685127173e-001	 8.515549972740324e+000
 7.769820905793919e-001	 7.112043583964481e-001	 8.183316629489536e+000
 7.690828976316781e-001	 7.197390699298709e-001	 7.855742871698627e+000
 7.610884880415944e-001	 7.281875874703213e-001	 7.533275434733454e+000
 7.530002810188171e-001	 7.365483257350832e-001	 7.216351690371201e+000
 7.448197307914483e-001	 7.448197307914483e-001	 6.905399131387931e+000
 7.365483257350833e-001	 7.530002810188171e-001	 6.600834884209767e+000
 7.281875874703212e-001	 7.610884880415944e-001	 6.303065251757046e+000
 7.197390699298712e-001	 7.690828976316783e-001	 6.012485288502256e+000
 7.112043583964484e-001	 7.769820905793919e-001	 5.729478409636377e+000
 7.025850685127173e-001	 7.847846835317627e-001	 5.454416036106212e+000
 8.046532712476672e-001	 7.203725882687514e-001	 9.157334757098907e+000
 7.966531381217792e-001	 7.292100948435913e-001	 8.846704584683412e+000
 7.885539593546564e-001	 7.379608817771644e-001	 8.539066652388716e+000
 7.803571533219557e-001	 7.466232925231846e-001	 8.234921759456295e+000
 7.720641751638337e-001	 7.551957016639452e-001	 7.934762819429142e+000
 7.636765159254422e-001	 7.636765159254418e-001	 7.639074186423258e+000
 7.551957016639452e-001	 7.720641751638339e-001	 7.348331008629121e+000
 7.466232925231846e-001	 7.803571533219557e-001	 7.062998611716164e+000
 7.379608817771644e-001	 7.885539593546562e-001	 6.783531914699021e+000
 7.292100948435912e-001	 7.966531381217792e-001	 6.510374880702011e+000
 7.203725882687513e-001	 8.046532712476668e-001	 6.243960004912013e+000
 8.245220526795862e-001	 7.381602814501764e-001	 9.727559120258535e+000
 8.163243774543456e-001	 7.472160068438808e-001	 9.436265904642943e+000
 8.080252109180682e-001	 7.561828712844724e-001	 9.146492823030361e+000
 7.996260064694477e-001	 7.650591773216392e-001	 8.858784698382044e+000
 7.911282551794755e-001	 7.738432594022843e-001	 8.573679790699307e+000
 7.825334849107183e-001	 7.825334849107182e-001	 8.291708976388653e+000
 7.738432594022845e-001	 7.911282551794753e-001	 8.013394954243212e+000
 7.650591773216392e-001	 7.996260064694477e-001	 7.739251481251722e+000
 7.561828712844722e-001	 8.080252109180682e-001	 7.469782641334580e+000
 7.472160068438808e-001	 8.163243774543455e-001	 7.205482149977050e+000
 7.381602814501764e-001	 8.245220526795862e-001	 6.946832697583790e+000
 8.443909930569482e-001	 7.559481169284779e-001	 1.022785588035079e+001
 8.359957741521835e-001	 7.652220628868781e-001	 9.954023889046123e+000
 8.274966182469707e-001	 7.744050065631816e-001	 9.680429636435992e+000
 8.188950137633203e-001	 7.834952096027164e-001	 9.407652892487057e+000
 8.101924877033535e-001	 7.924909663166712e-001	 9.136268034263956e+000
 8.013906047473510e-001	 8.013906047473510e-001	 8.866843088358410e+000
 7.924909663166713e-001	 8.101924877033534e-001	 8.599938799522807e+000
 7.834952096027162e-001	 8.188950137633202e-001	 8.336107729261453e+000
 7.744050065631813e-001	 8.274966182469704e-001	 8.075893388020216e+000
 7.652220628868780e-001	 8.359957741521834e-001	 7.819829404485539e+000
 7.559481169284781e-001	 8.443909930569481e-001	 7.568438735348354e+000
 8.642600576091790e-001	 7.737360635751406e-001	 1.065957878205842e+001
 8.556672937903875e-001	 7.832282314621443e-001	 1.040168302143247e+001
 8.469681472664187e-001	 7.926272557246766e-001	 1.014292745540575e+001
 8.381641414828237e-001	 8.019313571034474e-001	 9.883918616577024e+000
 8.292568393730803e-001	 8.111387897736772e-001	 9.625258664436847e+000
 8.202478424354156e-001	 8.202478424354154e-001	 9.367544299440588e+000
 8.111387897736770e-001	 8.292568393730803e-001	 9.111365703057482e+000
 8.019313571034478e-001	 8.381641414828240e-001	 8.857305508098575e+000
 7.926272557246764e-001	 8.469681472664185e-001	 8.605937803514351e+000
 7.832282314621443e-001	 8.556672937903874e-001	 8.357827177719178e+000
 7.737360635751404e-001	 8.642600576091787e-001	 8.113527804339334e+000
 8.841292115657057e-001	 7.915240902616486e-001	 1.102382254646621e+001
 8.753389019440514e-001	 8.012344810592407e-001	 1.078065318445541e+001
 8.664397639014685e-001	 8.108495868803437e-001	 1.053570704746208e+001
 8.574333559072089e-001	 8.203675875608653e-001	 1.028961007647657e+001
 8.483212768262674e-001	 8.297866971398730e-001	 1.004298471135634e+001
 8.391051649749869e-001	 8.391051649749869e-001	 9.796448683770688e+000
 8.297866971398730e-001	 8.483212768262672e-001	 9.550613836057801e+000
 8.203675875608647e-001	 8.574333559072087e-001	 9.306084970857130e+000
 8.108495868803441e-001	 8.664397639014688e-001	 9.063458736271212e+000
 8.012344810592408e-001	 8.753389019440514e-001	 8.823322551172488e+000
 7.915240902616488e-001	 8.841292115657058e-001	 8.586253575105486e+000
 9.039984201559549e-001	 8.093121658594877e-001	 1.132144179232330e+001
 8.950105641882689e-001	 8.192407801677287e-001	 1.109207219508223e+001
 8.859114340771768e-001	 8.290719681415687e-001	 1.086018565767139e+001
 8.767026233157251e-001	 8.388038687119999e-001	 1.062642095089353e+001
 8.673857667005268e-001	 8.484346557818302e-001	 1.039141407112490e+001
 8.579625393661392e-001	 8.579625393661392e-001	 1.015579691803978e+001
 8.484346557818305e-001	 8.673857667005271e-001	 9.920195998325355e+000
 8.388038687120000e-001	 8.767026233157254e-001	 9.685231160826746e+000
 8.290719681415686e-001	 8.859114340771765e-001	 9.451514368456216e+000
 8.192407801677285e-001	 8.950105641882691e-001	 9.219648512058710e+000
 8.093121658594878e-001	 9.039984201559550e-001	 8.990226271255152e+000
 9.238676486093538e-001	 8.271002592401421e-001	 1.155306899899983e+001
 9.146822460981339e-001	 8.372470972771690e-001	 1.133682691300925e+001
 9.053831237185985e-001	 8.472943676197365e-001	 1.111750119436116e+001
 8.959719099876236e-001	 8.572401682938835e-001	 1.089573759303500e+001
 8.864502756334715e-001	 8.670826330661203e-001	 1.067217966874621e+001
 8.768199326089481e-001	 8.768199326089481e-001	 1.044746735806275e+001
 8.670826330661202e-001	 8.864502756334713e-001	 1.022223556770639e+001
 8.572401682938836e-001	 8.959719099876237e-001	 9.997112800078162e+000
 8.472943676197366e-001	 9.053831237185989e-001	 9.772719816942333e+000
 8.372470972771690e-001	 9.146822460981339e-001	 9.549668347061278e+000
 8.271002592401424e-001	 9.238676486093539e-001	 9.328559843396199e+000
 9.437368621553292e-001	 8.448883392750972e-001	 1.171913165263817e+001
 9.343539132487400e-001	 8.552534008771232e-001	 1.151557313280713e+001
 9.248547987507910e-001	 8.655167534262337e-001	 1.130853480606186e+001
 9.152411822021542e-001	 8.756764540435483e-001	 1.109866423706381e+001
 9.055147702627122e-001	 8.857305963593138e-001	 1.088660724479616e+001
 8.956773117034881e-001	 8.956773117034879e-001	 1.067300636240541e+001
 8.857305963593135e-001	 9.055147702627118e-001	 1.045849932351196e+001
 8.756764540435483e-001	 9.152411822021546e-001	 1.024371758165470e+001
 8.655167534262336e-001	 9.248547987507910e-001	 1.002928486943167e+001
 8.552534008771232e-001	 9.343539132487404e-001	 9.815815803756838e+000
 8.448883392750972e-001	 9.437368621553289e-001	 9.603914543469546e+000
 6.670106737908847e-001	 7.450482283302943e-001	 3.590013651511713e+000
 6.587478301396494e-001	 7.523638511618765e-001	 3.304799656077898e+000
 6.504078186112842e-001	 7.595852159436007e-001	 3.031623644507601e+000
 6.419922549603809e-001	 7.667111160878266e-001	 2.770046070134441e+000
 6.335027797617576e-001	 7.737403819358266e-001	 2.519591449052985e+000
 6.249410573556360e-001	 7.806718813845673e-001	 2.279750556834705e+000
 6.163087747742402e-001	 7.875045204774029e-001	 2.049982333297483e+000
 6.076076406512597e-001	 7.942372439580682e-001	 1.829715844568786e+000
 5.988393841156297e-001	 8.008690357874089e-001	 1.618352294216828e+000
 5.900057536711102e-001	 8.073989196223580e-001	 1.415267075134932e+000
 5.811085160631598e-001	 8.138259592567366e-001	 1.219811853829274e+000
 6.847977533105903e-001	 7.649163243024477e-001	 4.572074809627960e+000
 6.763145655744852e-001	 7.724270318165427e-001	 4.296446608669299e+000
 6.677521521363645e-001	 7.798409677148591e-001	 4.030082844910748e+000
 6.591121718378921e-001	 7.871568932337911e-001	 3.772985569918969e+000
 6.503963090028354e-001	 7.943736075234261e-001	 3.525257431975690e+000
 6.416062723541127e-001	 8.014899482910342e-001	 3.286627490344291e+000
 6.327437939117713e-001	 8.085047924075214e-001	 3.056790936384347e+000
 6.238106278733668e-001	 8.154170564761906e-001	 2.835415068143015e+000
 6.148085494782432e-001	 8.222256973632529e-001	 2.622141007530987e+000
 6.057393538572367e-001	 8.289297126895776e-001	 2.416585457980373e+000
 5.966048548693305e-001	 8.355281412832460e-001	 2.218342494189302e+000
 7.025850685127173e-001	 7.847846835317627e-001	 5.454416036106211e+000
 6.938815337718784e-001	 7.924904783129741e-001	 5.187028150188842e+000
 6.850967154768765e-001	 8.000969878791007e-001	 4.926879493468577e+000
 6.762323155570231e-001	 8.076029412901697e-001	 4.673941277096408e+000
 6.672900620856199e-001	 8.150071065046909e-001	 4.428156814066070e+000
 6.582717081688777e-001	 8.223082910398660e-001	 4.189728048878583e+000
 6.491790308152675e-001	 8.295053425937875e-001	 3.958914863013163e+000
 6.400138297868191e-001	 8.365971496289766e-001	 3.735585859138223e+000
 6.307779264339032e-001	 8.435826419166744e-001	 3.519583681205434e+000
 6.214731625150546e-001	 8.504607910413643e-001	 3.310727977308263e+000
 6.121013990034108e-001	 8.572306108650805e-001	 3.108816968894101e+000
 7.203725882687513e-001	 8.046532712476668e-001	 6.243960004912014e+000
 7.114487039889692e-001	 8.125541555392345e-001	 5.983690716318709e+000
 7.024414782792146e-001	 8.203532409874392e-001	 5.728865129273352e+000
 6.933526561569472e-001	 8.280492244755902e-001	 5.479611412755200e+000
 6.841840094455125e-001	 8.356408427702823e-001	 5.236032340314909e+000
 6.749373356349260e-001	 8.431268731983186e-001	 4.998205514964140e+000
 6.656144567226071e-001	 8.505061342846643e-001	 4.766188580361574e+000
 6.562172180355884e-001	 8.577774863507547e-001	 4.540452892230668e+000
 6.467474870358031e-001	 8.649398320725701e-001	 4.321293458869993e+000
 6.372071521100242e-001	 8.719921169979257e-001	 4.108696974907559e+000
 6.275981213460913e-001	 8.789333300225430e-001	 3.902630008092669e+000
 7.381602814501764e-001	 8.245220526795862e-001	 6.946832697583791e+000
 7.290160454828978e-001	 8.326180283833887e-001	 6.692968714886865e+000
 7.197864101897744e-001	 8.406096915909893e-001	 6.442966216456393e+000
 7.104731636768403e-001	 8.484957070086823e-001	 6.197079237405161e+000
 7.010781215179122e-001	 8.562747802108590e-001	 5.955538633248921e+000
 6.916031255872529e-001	 8.639456583336480e-001	 5.718552041699784e+000
 6.820500428716689e-001	 8.715071307286159e-001	 5.486303913389645e+000
 6.724207642636472e-001	 8.789580295758553e-001	 5.258955611927044e+000
 6.627172033371349e-001	 8.862972304558358e-001	 5.036713689097538e+000
 6.529412951076056e-001	 8.935236528794698e-001	 4.820299159721981e+000
 6.430949947780623e-001	 9.006362607759364e-001	 4.609954955021354e+000
 7.559481169284781e-001	 8.443909930569481e-001	 7.568438735348353e+000
 7.465835275108046e-001	 8.526820617335015e-001	 7.320635633289311e+000
 7.371314808549523e-001	 8.608663042408662e-001	 7.075310616833388e+000
 7.275938081558755e-001	 8.689423531080758e-001	 6.832814830243746e+000
 7.179723687382209e-001	 8.769088827170829e-001	 6.593478170131843e+000
 7.082690488608531e-001	 8.847646100131094e-001	 6.357609027613031e+000
 6.984857605003324e-001	 8.925082951741054e-001	 6.125494100995875e+000
 6.886244401149672e-001	 9.001387422386068e-001	 5.897398280048930e+000
 6.786870473910929e-001	 9.076547996913688e-001	 5.673564602566790e+000
 6.686755639732592e-001	 9.150553610062054e-001	 5.454214283629092e+000
 6.585919921800143e-001	 9.223393651455637e-001	 5.239834346325804e+000
 7.737360635751404e-001	 8.642600576091787e-001	 8.113527804339331e+000
 7.641511193298297e-001	 8.727462204776373e-001	 7.871774662695239e+000
 7.544766599211421e-001	 8.811230434881837e-001	 7.631302199878980e+000
 7.447145596332284e-001	 8.893891269924004e-001	 7.392532047442430e+000
 7.348667215418384e-001	 8.975431141796132e-001	 7.155866239326084e+000
 7.249350762907216e-001	 9.055836918039592e-001	 6.921686775130008e+000
 7.149215808464765e-001	 9.135095908695964e-001	 6.690355255986945e+000
 7.048282172335211e-001	 9.213195872733393e-001	 6.462212594661845e+000
 6.946569912508702e-001	 9.290125024040665e-001	 6.237578801155777e+000
 6.844099311724451e-001	 9.365872036983388e-001	 6.016752844736991e+000
 6.740890864326371e-001	 9.440426051517269e-001	 5.800012592956446e+000
 7.915240902616488e-001	 8.841292115657058e-001	 8.586253575105486e+000
 7.817187901971133e-001	 8.928104695038603e-001	 8.350841231814833e+000
 7.718219170347404e-001	 9.013798738840566e-001	 8.115686804865721e+000
 7.618353881480726e-001	 9.098359928802852e-001	 7.881257750619574e+000
 7.517611503641647e-001	 9.181774384891093e-001	 7.648003297050152e+000
 7.416011787118532e-001	 9.264028672734520e-001	 7.416353866320860e+000
 7.313574751479801e-001	 9.345109810635528e-001	 7.186720572516748e+000
 7.210320672632805e-001	 9.425005276143821e-001	 6.959494796681501e+000
 7.106270069696604e-001	 9.503703012188259e-001	 6.735047840937629e+000
 7.001443691706238e-001	 9.581191432760791e-001	 6.513730663084911e+000
 6.895862504166215e-001	 9.657459428147289e-001	 6.295873692675325e+000
 8.093121658594878e-001	 9.039984201559550e-001	 8.990226271255152e+000
 7.992865093697956e-001	 9.128747737002357e-001	 8.761718695000226e+000
 7.891672218421421e-001	 9.216367599796003e-001	 8.532610885659647e+000
 7.789562637395834e-001	 9.302829149903599e-001	 8.303393266331634e+000
 7.686556256406014e-001	 9.388118195362331e-001	 8.074539120451547e+000
 7.582673269592434e-001	 9.472220999888442e-001	 7.846503909425620e+000
 7.477934146427221e-001	 9.555124290044386e-001	 7.619724668474591e+000
 7.372359618482176e-001	 9.636815261960642e-001	 7.394619483316415e+000
 7.265970666006560e-001	 9.717281587605431e-001	 7.171587049916790e+000
 7.158788504332554e-001	 9.796511420596339e-001	 6.951006319125148e+000
 7.050834570126574e-001	 9.874493401548725e-001	 6.733236227582913e+000
 8.271002592401424e-001	 9.238676486093539e-001	 9.328559843396199e+000
 8.168542461050162e-001	 9.329390979548276e-001	 9.107768205301939e+000
 8.065125439897430e-001	 9.418936663259283e-001	 8.885673939777700e+000
 7.960771564469348e-001	 9.507298575412534e-001	 8.662769246156895e+000
 7.855501178065477e-001	 9.594462212116431e-001	 8.439529991991185e+000
 7.749334918678870e-001	 9.680413535173917e-001	 8.216414959151473e+000
 7.642293705685817e-001	 9.765138979407164e-001	 7.993865171715481e+000
 7.534398726323051e-001	 9.848625459527152e-001	 7.772303308707379e+000
 7.425671421970508e-001	 9.930860376541151e-001	 7.552133204330366e+000
 7.316133474258006e-001	 1.001183162369211e+000	 7.333739437885384e+000
 7.205806791014349e-001	 1.009152759192461e+000	 7.117487015107550e+000
 8.448883392750972e-001	 9.437368621553289e-001	 9.603914543469546e+000
 8.344219696599167e-001	 9.530034071557008e-001	 9.391873629508586e+000
 8.238578531239381e-001	 9.621505574741556e-001	 9.177975637771713e+000
 8.131980363093013e-001	 9.711767847515960e-001	 8.962694899965179e+000
 8.024445972974045e-001	 9.800806074060000e-001	 8.746489942141441e+000
 7.915996442727785e-001	 9.888605914263495e-001	 8.529802690424571e+000
 7.806653141634374e-001	 9.975153511208504e-001	 8.313057762634765e+000
 7.696437712595143e-001	 1.006043549818665e+000	 8.096661849285281e+000
 7.585372058120381e-001	 1.014443900524439e+000	 7.881003186966147e+000
 7.473478326137194e-001	 1.022715166525019e+000	 7.666451126649556e+000
 7.360778895636446e-001	 1.030856161947795e+000	 7.453355798953187e+000
 5.811085160631598e-001	 8.138259592567366e-001	 1.219811853829274e+000
 5.721494549410069e-001	 8.201492587923700e-001	 1.031709273399539e+000
 5.631303691352768e-001	 8.263679623034137e-001	 8.514195683350136e-001
 5.540530720989082e-001	 8.324812548450976e-001	 6.793709401374322e-001
 5.449193909360233e-001	 8.384883629704416e-001	 5.159738541019523e-001
 5.357311652289508e-001	 8.443885549780590e-001	 3.616210801851241e-001
 5.264902458615941e-001	 8.501811411206632e-001	 2.166877433737134e-001
 5.171984938406530e-001	 8.558654737743153e-001	 8.153138037281058e-002
 5.078577791162044e-001	 8.614409475685220e-001	-4.350800037473265e-002
 4.984699794031350e-001	 8.669069994773565e-001	-1.581078581022082e-001
 4.890369790048946e-001	 8.722631088718381e-001	-2.619630611029398e-001
 5.966048548693305e-001	 8.355281412832460e-001	 2.218342494189302e+000
 5.874068837280612e-001	 8.420200633552515e-001	 2.027424116931884e+000
 5.781472872332619e-001	 8.484046001549332e-001	 1.844249519118747e+000
 5.688279271970236e-001	 8.546809150055600e-001	 1.668994442705051e+000
 5.594506794466541e-001	 8.608482138348056e-001	 1.501817440056490e+000
 5.500174326204225e-001	 8.669057454291612e-001	 1.342860449935358e+000
 5.405300869595506e-001	 8.728528016480037e-001	 1.192249373439934e+000
 5.309905530979980e-001	 8.786887175973518e-001	 1.050094645179913e+000
 5.214007508515943e-001	 8.844128717634381e-001	 9.164917952409294e-001
 5.117626080080407e-001	 8.900246861062580e-001	 7.915219977862856e-001
 5.020780591192976e-001	 8.955236261133456e-001	 6.752526024713842e-001
 6.121013990034108e-001	 8.572306108650805e-001	 3.108816968894101e+000
 6.026645146774508e-001	 8.638911577076851e-001	 2.914058908915073e+000
 5.931644043068414e-001	 8.704415299933851e-001	 2.726804592574955e+000
 5.836029780634551e-001	 8.768808693131815e-001	 2.547037893999005e+000
 5.739821604984206e-001	 8.832083609691114e-001	 2.374726122837729e+000
 5.643038893065867e-001	 8.894232342352666e-001	 2.209821055704965e+000
 5.545701140871351e-001	 8.955247625774229e-001	 2.052259958192589e+000
 5.447827951019328e-001	 9.015122638313119e-001	 1.901966591298124e+000
 5.349439020332116e-001	 9.073851003396593e-001	 1.758852196444349e+000
 5.250554127421397e-001	 9.131426790481644e-001	 1.622816453653261e+000
 5.151193120298434e-001	 9.187844515606746e-001	 1.493748407845999e+000
 6.275981213460913e-001	 8.789333300225430e-001	 3.902630008092669e+000
 6.179223210879753e-001	 8.857625035748911e-001	 3.703415283143733e+000
 6.081816940757200e-001	 8.924787132537714e-001	 3.511314298908767e+000
 5.983781988415263e-001	 8.990810789176523e-001	 3.326174810024357e+000
 5.885138086608936e-001	 9.055687652426796e-001	 3.147828718820761e+000
 5.785905102858034e-001	 9.119409819903062e-001	 2.976093489194874e+000
 5.686103026739566e-001	 9.181969842324796e-001	 2.810773541728785e+000
 5.585751957156880e-001	 9.243360725344287e-001	 2.651661622508988e+000
 5.484872089601938e-001	 9.303575930951712e-001	 2.498540138530849e+000
 5.383483703426760e-001	 9.362609378459221e-001	 2.351182453035659e+000
 5.281607149139947e-001	 9.420455445066668e-001	 2.209354134633060e+000
 6.430949947780623e-001	 9.006362607759364e-001	 4.609954955021354e+000
 6.331802762584339e-001	 9.076340626820887e-001	 4.406046653899109e+000
 6.231991302596035e-001	 9.145161113710947e-001	 4.208731325148374e+000
 6.131535636745613e-001	 9.212815049686620e-001	 4.017771906337104e+000
 6.030455985036434e-001	 9.279293875248309e-001	 3.832916290848035e+000
 5.928772705564346e-001	 9.344589492882121e-001	 3.653899057546332e+000
 5.826506281496252e-001	 9.408694269367316e-001	 3.480443172275163e+000
 5.723677308024933e-001	 9.471601037649344e-001	 3.312261652310740e+000
 5.620306479316777e-001	 9.533303098279593e-001	 3.149059185415918e+000
 5.516414575468932e-001	 9.593794220423780e-001	 2.990533695690526e+000
 5.412022449492145e-001	 9.653068642441643e-001	 2.836377849015965e+000
 6.585919921800143e-001	 9.223393651455637e-001	 5.239834346325804e+000
 6.484383534876271e-001	 9.295057967545003e-001	 5.031353664497830e+000
 6.382166865781973e-001	 9.365536857803575e-001	 4.828832082532179e+000
 6.279290467058838e-001	 9.434821086159000e-001	 4.631994922186092e+000
 6.175775045962408e-001	 9.502901886848859e-001	 4.440553374402713e+000
 6.071641451168404e-001	 9.569770967229155e-001	 4.254206484293166e+000
 5.966910659437502e-001	 9.635420510137375e-001	 4.072643098313524e+000
 5.861603762255796e-001	 9.699843175810625e-001	 3.895543763475800e+000
 5.755741952468013e-001	 9.763032103360099e-001	 3.722582569030235e+000
 5.649346510920354e-001	 9.824980911803787e-001	 3.553428921709651e+000
 5.542438793129650e-001	 9.885683700660078e-001	 3.387749246328777e+000
 6.740890864326371e-001	 9.440426051517269e-001	 5.800012592956446e+000
 6.636965260743544e-001	 9.513776675173450e-001	 5.587664145134171e+000
 6.532343367512071e-001	 9.585913979165628e-001	 5.380301151799188e+000
 6.427046220788175e-001	 9.656828510090558e-001	 5.177897706795667e+000
 6.321095015082566e-001	 9.726511295921652e-001	 4.980171812818171e+000
 6.214511089653824e-001	 9.794953848883493e-001	 4.786830555927647e+000
 6.107315914859413e-001	 9.862148167870557e-001	 4.597572243572706e+000
 5.999531078481774e-001	 9.928086740410452e-001	 4.412088483384556e+000
 5.891178272047021e-001	 9.992762544173094e-001	 4.230066192002391e+000
 5.782279277153465e-001	 1.005616904802770e+000	 4.051189523942763e+000
 5.672855951827097e-001	 1.011830021265040e+000	 3.875141711335400e+000
 6.895862504166215e-001	 9.657459428147289e-001	 6.295873692675325e+000
 6.789547673174153e-001	 9.732496366958434e-001	 6.081629482804599e+000
 6.682520544983374e-001	 9.806292092147124e-001	 5.870791359127275e+000
 6.574802639366865e-001	 9.878836932978199e-001	 5.663497201311244e+000
 6.466415638092610e-001	 9.950121711159885e-001	 5.460149937647563e+000
 6.357381371004210e-001	 1.002013774378445e+000	 5.260515554420940e+000
 6.247721802058078e-001	 1.008887684580245e+000	 5.064341905974517e+000
 6.137459015335171e-001	 1.015633133203115e+000	 4.871371724393661e+000
 6.026615201045172e-001	 1.022249401869843e+000	 4.681344745390855e+000
 5.915212641540699e-001	 1.028735822452400e+000	 4.493999740240853e+000
 5.803273697359112e-001	 1.035091777134104e+000	 4.309076443640513e+000
 7.050834570126574e-001	 9.874493401548725e-001	 6.733236227582913e+000
 6.942130505156096e-001	 9.951216660152163e-001	 6.518278881269867e+000
 6.832698135392946e-001	 1.002667081109809e+000	 6.305817672871674e+000
 6.722559464228139e-001	 1.010084596631881e+000	 6.095698637204372e+000
 6.611736660688249e-001	 1.017373274125678e+000	 5.887879349672399e+000
 6.500252045203178e-001	 1.024532225787134e+000	 5.683005817082901e+000
 6.388128075329590e-001	 1.031560614716861e+000	 5.481050108247892e+000
 6.275387331448292e-001	 1.038457655125505e+000	 5.281842902809574e+000
 6.162052502453843e-001	 1.045222612491598e+000	 5.085213539520282e+000
 6.048146371454500e-001	 1.051854803672116e+000	 4.890992105791552e+000
 5.933691801500317e-001	 1.058353596966040e+000	 4.699011407561186e+000
 7.205806791014349e-001	 1.009152759192461e+000	 7.117487015107550e+000
 7.094713489677368e-001	 1.016993717200683e+000	 6.903197320315456e+000
 6.982875875937835e-001	 1.024704975036855e+000	 6.690453172379989e+000
 6.870316436805243e-001	 1.032285522160929e+000	 6.479226451501160e+000
 6.757057828565186e-001	 1.039734399490552e+000	 6.269462304041756e+000
 6.643122862234333e-001	 1.047050699708348e+000	 6.061105362696688e+000
 6.528534488970051e-001	 1.054233567520466e+000	 5.854844610629122e+000
 6.413315785453437e-001	 1.061282199866449e+000	 5.650991317973738e+000
 6.297489939264407e-001	 1.068195846080558e+000	 5.449498199378520e+000
 6.181080234267304e-001	 1.074973808004762e+000	 5.250320385073662e+000
 6.064110036025345e-001	 1.081615440053690e+000	 5.053417391445934e+000
 7.360778895636446e-001	 1.030856161947795e+000	 7.453355798953187e+000
 7.247296359725970e-001	 1.038865751977465e+000	 7.241333651645033e+000
 7.133053503815099e-001	 1.046742852430853e+000	 7.029879822471101e+000
 7.018073298531414e-001	 1.054486431034654e+000	 6.819126630448821e+000
 6.902378887419132e-001	 1.062095508079932e+000	 6.609178330040890e+000
 6.785993572081287e-001	 1.069569156736019e+000	 6.400111590445465e+000
 6.668940797275553e-001	 1.076906503314615e+000	 6.191976085903334e+000
 6.551244135982919e-001	 1.084106727484178e+000	 5.985402522720869e+000
 6.432927274468238e-001	 1.091169062434711e+000	 5.781114014006315e+000
 6.314013997351549e-001	 1.098092794993187e+000	 5.579221829470797e+000
 6.194528172708822e-001	 1.104877265689896e+000	 5.379843076912938e+000
 4.890369790048946e-001	 8.722631088718381e-001	-2.619630611029394e-001
 4.795620922583881e-001	 8.775080191404551e-001	-3.555871191323080e-001
 4.700458011791232e-001	 8.826421068707412e-001	-4.399546199906133e-001
 4.604900024760815e-001	 8.876649794392211e-001	-5.154272035085986e-001
 4.508965947721494e-001	 8.925762864264075e-001	-5.823742240027737e-001
 4.412674774614076e-001	 8.973757194803049e-001	-6.411717563172573e-001
 4.316045495771122e-001	 9.020630121438827e-001	-6.922016437430347e-001
 4.219097086716463e-001	 9.066379396471509e-001	-7.358505899033866e-001
 4.121848497096857e-001	 9.111003186645378e-001	-7.725092962981059e-001
 4.024318639757797e-001	 9.154500070382965e-001	-8.025716468095879e-001
 3.926526379975132e-001	 9.196869034687285e-001	-8.264339400927618e-001
 5.020780591192976e-001	 8.955236261133456e-001	 6.752526024713842e-001
 4.923505069052577e-001	 9.009084016633495e-001	 5.670968271319582e-001
 4.825804462352116e-001	 9.061793993862045e-001	 4.662617991105770e-001
 4.727698243973318e-001	 9.113362161883821e-001	 3.725414469612821e-001
 4.629205906447350e-001	 9.163784923057907e-001	 2.857242368448476e-001
 4.530346950222971e-001	 9.213059111636405e-001	 2.055939357441945e-001
 4.431140872044483e-001	 9.261181991993087e-001	 1.319303258747284e-001
 4.331607153452562e-001	 9.308151256488805e-001	 6.450986862932945e-002
 4.231765249420750e-001	 9.353965022980483e-001	 3.106316840989197e-003
 4.131634577139968e-001	 9.398621831981483e-001	-5.250872541600511e-002
 4.031234504962961e-001	 9.442120643481219e-001	-1.025652958364918e-001
 5.151193120298434e-001	 9.187844515606746e-001	 1.493748407845997e+000
 5.051390910003677e-001	 9.243090942455401e-001	 1.371042070392579e+000
 4.951152573769660e-001	 9.297170037752285e-001	 1.254085015095007e+000
 4.850498090276871e-001	 9.350077665860251e-001	 1.142802714288564e+000
 4.749447458365615e-001	 9.401810135691118e-001	 1.037117133095852e+000
 4.648020684999469e-001	 9.452364199267955e-001	 9.369473085480033e-001
 4.546237773341318e-001	 9.501737049907746e-001	 8.422098717828483e-001
 4.444118710955525e-001	 9.549926320031293e-001	 7.528195119911006e-001
 4.341683458149260e-001	 9.596930078607578e-001	 6.686893812862120e-001
 4.238951936465678e-001	 9.642746828240306e-001	 5.897314401692161e-001
 4.135944017341220e-001	 9.687375501904937e-001	 5.158567437473669e-001
 5.281607149139947e-001	 9.420455445066668e-001	 2.209354134633061e+000
 5.179278221633582e-001	 9.477100559350589e-001	 2.072472045055493e+000
 5.076502126681389e-001	 9.532548788462153e-001	 1.940095178036333e+000
 4.973299348768570e-001	 9.586795892061151e-001	 1.812258136667123e+000
 4.869690393050531e-001	 9.639838085611113e-001	 1.688993715997245e+000
 4.765695773011600e-001	 9.691672038905160e-001	 1.570333343667531e+000
 4.661335998239208e-001	 9.742294874202679e-001	 1.456307454163163e+000
 4.556631562327353e-001	 9.791704163983791e-001	 1.346945795594534e+000
 4.451602930922763e-001	 9.839897928328978e-001	 1.242277668491186e+000
 4.346270529926761e-001	 9.886874631931889e-001	 1.142332096662995e+000
 4.240654733865391e-001	 9.932633180753756e-001	 1.047137930732474e+000
 5.412022449492145e-001	 9.653068642441643e-001	 2.836377849015966e+000
 5.307166780138688e-001	 9.711112457799381e-001	 2.686062510293394e+000
 5.201852901724832e-001	 9.767929834075642e-001	 2.539302011281787e+000
 5.096101804545524e-001	 9.823516426226164e-001	 2.396219085678315e+000
 4.989934500076330e-001	 9.877868356265306e-001	 2.256936143286515e+000
 4.883372008327391e-001	 9.930982211755457e-001	 2.121575616995377e+000
 4.776435345315740e-001	 9.982855043897769e-001	 1.990260232418783e+000
 4.669145510670052e-001	 1.003348436523110e+000	 1.863113199249636e+000
 4.561523475381651e-001	 1.008286814694700e+000	 1.740258324045521e+000
 4.453590169715064e-001	 1.013100481582870e+000	 1.621820044812542e+000
 4.345366471290956e-001	 1.017789325082299e+000	 1.507923388385191e+000
 5.542438793129650e-001	 9.885683700660078e-001	 3.387749246328777e+000
 5.435056361715400e-001	 9.945126228282096e-001	 3.225089630041131e+000
 5.327204679537508e-001	 1.000331276267676e+000	 3.065297221102175e+000
 5.218905242704836e-001	 1.006023885409494e+000	 2.908563117129737e+000
 5.110179569017254e-001	 1.011590053110111e+000	 2.755079402331761e+000
 5.001049185014881e-001	 1.017029429902632e+000	 2.605039445134946e+000
 4.891535613148496e-001	 1.022341713801290e+000	 2.458638105843074e+000
 4.781660359085612e-001	 1.027526650065803e+000	 2.316071853433436e+000
 4.671444899166303e-001	 1.032584030926394e+000	 2.177538791362575e+000
 4.560910668022425e-001	 1.037513695270321e+000	 2.043238592996250e+000
 4.450079046373392e-001	 1.042315528290796e+000	 1.913372348003806e+000
 5.672855951827097e-001	 1.011830021265040e+000	 3.875141711335401e+000
 5.562946742560117e-001	 1.017914146127906e+000	 3.701556202841982e+000
 5.452557240756947e-001	 1.023869716234950e+000	 3.530384542902554e+000
 5.341709448343607e-001	 1.029696276140713e+000	 3.361867496905400e+000
 5.230425389447537e-001	 1.035393419356594e+000	 3.196247995623705e+000
 5.118727097142094e-001	 1.040960788192517e+000	 3.033771427500661e+000
 5.006636600315061e-001	 1.046398073556794e+000	 2.874685826476453e+000
 4.894175910676042e-001	 1.051705014714938e+000	 2.719241954433183e+000
 4.781367009917106e-001	 1.056881399008212e+000	 2.567693278205123e+000
 4.668231837040688e-001	 1.061927061532788e+000	 2.420295841957141e+000
 4.554792275868185e-001	 1.066841884780397e+000	 2.277308036563154e+000
 5.803273697359112e-001	 1.035091777134104e+000	 4.309076443640513e+000
 5.690837698869242e-001	 1.041315774727058e+000	 4.126299478177620e+000
 5.577910366020671e-001	 1.047408262117787e+000	 3.945690941249696e+000
 5.464514206558939e-001	 1.053368773390236e+000	 3.767523491570060e+000
 5.350671750941420e-001	 1.059196892710721e+000	 3.592073043167268e+000
 5.236405538777063e-001	 1.064892254165948e+000	 3.419619096247997e+000
 5.121738105393017e-001	 1.070454541558278e+000	 3.250444947067417e+000
 5.006691968543336e-001	 1.075883488158995e+000	 3.084837775756618e+000
 4.891289615274445e-001	 1.081178876420385e+000	 2.923088612058272e+000
 4.775553488961694e-001	 1.086340537647517e+000	 2.765492179900215e+000
 4.659505976530813e-001	 1.091368351630633e+000	 2.612346622688298e+000
 5.933691801500317e-001	 1.058353596966040e+000	 4.699011407561186e+000
 5.818729006839174e-001	 1.064717467673700e+000	 4.509083392126721e+000
 5.703263835966207e-001	 1.070946872724587e+000	 4.321261863009096e+000
 5.587319302447942e-001	 1.077041335732030e+000	 4.135834382769248e+000
 5.470918443073142e-001	 1.083000431517234e+000	 3.953092814224429e+000
 5.354084303987815e-001	 1.088823785943670e+000	 3.773333733934036e+000
 5.236839926959950e-001	 1.094511075707730e+000	 3.596858705901601e+000
 5.119208335789500e-001	 1.100062028086456e+000	 3.423974414227551e+000
 5.001212522878700e-001	 1.105476420643145e+000	 3.254992654593754e+000
 4.882875435977285e-001	 1.110754080891756e+000	 3.090230185579074e+000
 4.764219965116759e-001	 1.115894885921038e+000	 2.930008441895672e+000
 6.064110036025345e-001	 1.081615440053690e+000	 5.053417391445934e+000
 5.946620442666316e-001	 1.088119184015863e+000	 4.858677568209537e+000
 5.828617431231078e-001	 1.094485506863751e+000	 4.666142944468006e+000
 5.710124521107711e-001	 1.100713921740057e+000	 4.476099655764122e+000
 5.591165255416937e-001	 1.106803994120874e+000	 4.288839182970074e+000
 5.471763186842386e-001	 1.112755341646426e+000	 4.104658892755021e+000
 5.351941863593440e-001	 1.118567633907137e+000	 3.923862417004203e+000
 5.231724815516528e-001	 1.124240592185799e+000	 3.746759869617590e+000
 5.111135540370255e-001	 1.129773989156722e+000	 3.573667900425471e+000
 4.990197490279300e-001	 1.135167648542750e+000	 3.404909587235239e+000
 4.868934058381502e-001	 1.140421444731140e+000	 3.240814168269234e+000
 6.194528172708822e-001	 1.104877265689896e+000	 5.379843076912937e+000
 6.074511782547066e-001	 1.111520882801578e+000	 5.182925034508436e+000
 5.953970932452810e-001	 1.118024123343679e+000	 4.988450169280721e+000
 5.832929647635355e-001	 1.124386489988285e+000	 4.796687400073887e+000
 5.711411977547047e-001	 1.130607538866382e+000	 4.607912082803939e+000
 5.589441981408803e-001	 1.136686879394963e+000	 4.422406722769963e+000
 5.467043713871074e-001	 1.142624174058487e+000	 4.240461501944652e+000
 5.344241210826425e-001	 1.148419138145507e+000	 4.062374619277175e+000
 5.221058475389497e-001	 1.154071539441348e+000	 3.888452443527081e+000
 5.097519464059584e-001	 1.159581197877748e+000	 3.719009479608116e+000
 4.973648073080526e-001	 1.164947985140473e+000	 3.554368150834731e+000
 3.926526379975132e-001	 9.196869034687285e-001	-8.264339400927634e-001
 3.828475801467559e-001	 9.238115574925391e-001	-8.440794217529722e-001
 3.730200306188907e-001	 9.278233049990166e-001	-8.554758249452892e-001
 3.631718566724362e-001	 9.317221658209343e-001	-8.610168499007123e-001
 3.533049166519174e-001	 9.355081991183117e-001	-8.611087777048496e-001
 3.434210590039752e-001	 9.391815029145867e-001	-8.561697335962679e-001
 3.335221213151299e-001	 9.427422136050959e-001	-8.466289784850020e-001
 3.236099293720238e-001	 9.461905054388913e-001	-8.329262281308849e-001
 3.136862962449284e-001	 9.495265899749484e-001	-8.155109991849482e-001
 3.037530213952426e-001	 9.527507155138413e-001	-7.948419810992020e-001
 2.938118898076575e-001	 9.558631665059840e-001	-7.713864327320605e-001
 4.031234504962961e-001	 9.442120643481219e-001	-1.025652958364905e-001
 3.930569225507894e-001	 9.484467099390739e-001	-1.472184374819033e-001
 3.829673031454391e-001	 9.525654381505309e-001	-1.866413436206940e-001
 3.728565093327699e-001	 9.565682693441295e-001	-2.211207934231352e-001
 3.627264490136036e-001	 9.604552642574867e-001	-2.509528028207305e-001
 3.525790199269324e-001	 9.642265235280020e-001	-2.764421161868557e-001
 3.424161086620217e-001	 9.678821871882344e-001	-2.979017339997944e-001
 3.322395896935920e-001	 9.714224341338947e-001	-3.156524750863713e-001
 3.220513244408869e-001	 9.748474815655585e-001	-3.300225717866788e-001
 3.118531603513708e-001	 9.781575844051822e-001	-3.413472961622070e-001
 3.016469300097510e-001	 9.813530346885655e-001	-3.499686151659146e-001
 4.135944017341220e-001	 9.687375501904937e-001	 5.158567437473663e-001
 4.032664002295056e-001	 9.730821888058526e-001	 4.467935028209362e-001
 3.929147074744283e-001	 9.773078991396467e-001	 3.822239177913266e-001
 3.825412903160629e-001	 9.814147020823927e-001	 3.219523711827820e-001
 3.721481062121691e-001	 9.854026599493362e-001	 2.657768513618609e-001
 3.617371021947264e-001	 9.892718759918838e-001	 2.134892610754439e-001
 3.513102138563777e-001	 9.930224938798731e-001	 1.648756815990697e-001
 3.408693643605511e-001	 9.966546971557493e-001	 1.197165947175628e-001
 3.304164634760866e-001	 1.000168708661771e+000	 7.778706505152441e-002
 3.199534066371332e-001	 1.003564789941372e+000	 3.885688549564774e-002
 3.094820740290298e-001	 1.006843240615851e+000	 2.690688755924017e-003
 4.240654733865391e-001	 9.932633180753756e-001	 1.047137930732476e+000
 4.134759953160149e-001	 9.977179509799360e-001	 9.563473906274680e-001
 4.028622261975744e-001	 1.002050644666225e+000	 8.695441646807816e-001
 3.922261826735969e-001	 1.006261420553655e+000	 7.866093323243404e-001
 3.815698717593334e-001	 1.010350342535127e+000	 7.074199788776020e-001
 3.708952897803031e-001	 1.014317516476094e+000	 6.318493307139849e-001
 3.602044213330747e-001	 1.018163089683721e+000	 5.597668368304729e-001
 3.494992382703296e-001	 1.021887250347247e+000	 4.910381998644446e-001
 3.387816987110449e-001	 1.025490226950689e+000	 4.255253599269545e-001
 3.280537460765928e-001	 1.028972287659046e+000	 3.630864349114127e-001
 3.173173081534751e-001	 1.032333739679205e+000	 3.035756211888598e-001
 4.345366471290956e-001	 1.017789325082299e+000	 1.507923388385190e+000
 4.236856899434281e-001	 1.022353953348383e+000	 1.398172413970844e+000
 4.128098419065946e-001	 1.026793631430127e+000	 1.292085050633224e+000
 4.019111694566532e-001	 1.031108381275849e+000	 1.189605781086068e+000
 3.909917291668158e-001	 1.035298268356127e+000	 1.090677109229750e+000
 3.800535666566078e-001	 1.039363401150493e+000	 9.952395462870209e-001
 3.690987155269896e-001	 1.043303930603482e+000	 9.032315331888411e-001
 3.581291963203556e-001	 1.047120049551180e+000	 8.145893030773833e-001
 3.471470155062800e-001	 1.050811992119419e+000	 7.292466881655213e-001
 3.361541644938117e-001	 1.054380033094837e+000	 6.471348755265506e-001
 3.251526186710684e-001	 1.057824487269988e+000	 5.681821166662360e-001
 4.450079046373392e-001	 1.042315528290796e+000	 1.913372348003808e+000
 4.338954662448556e-001	 1.046990152798254e+000	 1.787512068275259e+000
 4.227575371932061e-001	 1.051536816131212e+000	 1.665130584850162e+000
 4.115962337165132e-001	 1.055955540766905e+000	 1.546223551522523e+000
 4.004136619463352e-001	 1.060246393753604e+000	 1.430786330979587e+000
 3.892119167965862e-001	 1.064409486184943e+000	 1.318813854294588e+000
 3.779930808729983e-001	 1.068444972642865e+000	 1.210300405408356e+000
 3.667592234080574e-001	 1.072353050610339e+000	 1.105239335302697e+000
 3.555123992223092e-001	 1.076133959855069e+000	 1.003622711000586e+000
 3.442546477128529e-001	 1.079787981785380e+000	 9.054409049069703e-001
 3.329879918697909e-001	 1.083315438779565e+000	 8.106821303259527e-001
 4.554792275868185e-001	 1.066841884780397e+000	 2.277308036563154e+000
 4.441053063534077e-001	 1.071626506216606e+000	 2.138275291390844e+000
 4.327052946491253e-001	 1.076280155469341e+000	 2.002635014011419e+000
 4.212813585044584e-001	 1.080802855544754e+000	 1.870422760532165e+000
 4.098356536096108e-001	 1.085194675068824e+000	 1.741675212977283e+000
 3.983703241731844e-001	 1.089455727749307e+000	 1.616429932667675e+000
 3.868875018059778e-001	 1.093586171805575e+000	 1.494725026047749e+000
 3.753893044308633e-001	 1.097586209367518e+000	 1.376598728525862e+000
 3.638778352196507e-001	 1.101456085844741e+000	 1.262088912392005e+000
 3.523551815577790e-001	 1.105196089267309e+000	 1.151232525305441e+000
 3.408234140376239e-001	 1.108806549599300e+000	 1.044064966221648e+000
 4.659505976530813e-001	 1.091368351630633e+000	 2.612346622688298e+000
 4.543151924021956e-001	 1.096262970490503e+000	 2.463166550204737e+000
 4.426530968660690e-001	 1.101023606144375e+000	 2.317353613721342e+000
 4.309665268717702e-001	 1.105650282127328e+000	 2.174972878453012e+000
 4.192576876683623e-001	 1.110143068643055e+000	 2.036091738909371e+000
 4.075287727593477e-001	 1.114502082013446e+000	 1.900779584909977e+000
 3.957819627608041e-001	 1.118727484095320e+000	 1.769107366048914e+000
 3.840194242862013e-001	 1.122819481665506e+000	 1.641147061073138e+000
 3.722433088588219e-001	 1.126778325775542e+000	 1.516971059208333e+000
 3.604557518526529e-001	 1.130604311077259e+000	 1.396651460961219e+000
 3.486588714625483e-001	 1.134297775120553e+000	 1.280259306354222e+000
 4.764219965116759e-001	 1.115894885921038e+000	 2.930008441895672e+000
 4.645251065243294e-001	 1.120899502507003e+000	 2.773798116122234e+000
 4.526009264357542e-001	 1.125767124856174e+000	 2.620955633231755e+000
 4.406517218697297e-001	 1.130497777032559e+000	 2.471565970770064e+000
 4.286797476343086e-001	 1.135091530817564e+000	 2.325717482801528e+000
 4.166872465280216e-001	 1.139548505147221e+000	 2.183501495597240e+000
 4.046764481723542e-001	 1.143868865515805e+000	 2.045011786128520e+000
 3.926495678715000e-001	 1.148052823347096e+000	 1.910343950774870e+000
 3.806088055003410e-001	 1.152100635334577e+000	 1.779594672305808e+000
 3.685563444215369e-001	 1.156012602751862e+000	 1.652860893763234e+000
 3.564943504325456e-001	 1.159789070734689e+000	 1.530238908361588e+000
 4.868934058381502e-001	 1.140421444731140e+000	 3.240814168269234e+000
 4.747350308529195e-001	 1.145536059153163e+000	 3.080787210123184e+000
 4.625487659498976e-001	 1.150510668304600e+000	 2.924122079444022e+000
 4.503369265496188e-001	 1.155345296778378e+000	 2.770914794194479e+000
 4.381018170191691e-001	 1.160040017933618e+000	 2.621265698175566e+000
 4.258457294521522e-001	 1.164594953320496e+000	 2.475279001767246e+000
 4.135709424755044e-001	 1.169010272070738e+000	 2.333062187987453e+000
 4.012797200841874e-001	 1.173286190255080e+000	 2.194725292278768e+000
 3.889743105047253e-001	 1.177422970208952e+000	 2.060380065175193e+000
 3.766569450884943e-001	 1.181420919827755e+000	 1.930139027648224e+000
 3.643298372355972e-001	 1.185280391833070e+000	 1.804114429496277e+000
 4.973648073080526e-001	 1.164947985140473e+000	 3.554368150834731e+000
 4.849449475210769e-001	 1.170172597316046e+000	 3.393840246911352e+000
 4.724965980002161e-001	 1.175254193189512e+000	 3.236630574105083e+000
 4.600221239627185e-001	 1.180192797882715e+000	 3.082837978748018e+000
 4.475238793346627e-001	 1.184988486332486e+000	 2.932566543704309e+000
 4.350042055046847e-001	 1.189641382703130e+000	 2.785925087931545e+000
 4.224654301051314e-001	 1.194151659763825e+000	 2.643026511821094e+000
 4.099098658216919e-001	 1.198519538232249e+000	 2.503986997796304e+000
 3.973398092324927e-001	 1.202745286085772e+000	 2.368925076488873e+000
 3.847575396775870e-001	 1.206829217841571e+000	 2.237960569557427e+000
 3.721653181596841e-001	 1.210771693807061e+000	 2.111213420852094e+000
 2.938118898076575e-001	 9.558631665059840e-001	-7.713864327320605e-001
 2.838646710056857e-001	 9.588642626988490e-001	-7.455274065876280e-001
 2.739131178235836e-001	 9.617543577873683e-001	-7.175765717874926e-001
 2.639589660669879e-001	 9.645338394785438e-001	-6.879005562332519e-001
 2.540039338948808e-001	 9.672031290579124e-001	-6.568663227794661e-001
 2.440497210832210e-001	 9.697626806991601e-001	-6.248409925418588e-001
 2.340980083161345e-001	 9.722129807570793e-001	-5.921916862271156e-001
 2.241504565049763e-001	 9.745545470450379e-001	-5.592853809610884e-001
 2.142087061355221e-001	 9.767879280981019e-001	-5.264887801065671e-001
 2.042743766435053e-001	 9.789137024229727e-001	-4.941681935877172e-001
 1.943490658186562e-001	 9.809324777358748e-001	-4.626894262926381e-001
 3.016469300097510e-001	 9.813530346885655e-001	-3.499686151659146e-001
 2.914344501272309e-001	 9.844341606898324e-001	-3.559522265033855e-001
 2.812175202806164e-001	 9.874013255358588e-001	-3.593282823542284e-001
 2.709979225639717e-001	 9.902549272725887e-001	-3.603914047778947e-001
 2.607774209541256e-001	 9.929953984199387e-001	-3.594376969422471e-001
 2.505577605546663e-001	 9.956232052629931e-001	-3.567647012092383e-001
 2.403406668682315e-001	 9.981388471261151e-001	-3.526713737698185e-001
 2.301278450974099e-001	 1.000542855631143e+000	-3.474580726830509e-001
 2.199209794745261e-001	 1.002835793940866e+000	-3.414265562016080e-001
 2.097217326205240e-001	 1.005018255988954e+000	-3.348799883149595e-001
 1.995317449331146e-001	 1.007090865697531e+000	-3.281229485151541e-001
 3.094820740290298e-001	 1.006843240615851e+000	 2.690688755924017e-003
 2.990043295512846e-001	 1.010004397486102e+000	-3.055386476798203e-002
 2.885220195238800e-001	 1.013048633111059e+000	-6.071823489345678e-002
 2.780369723299310e-001	 1.015976355875734e+000	-8.804203998947918e-002
 2.675509977647321e-001	 1.018788009534555e+000	-1.127672864922917e-001
 2.570658862601133e-001	 1.021484072484157e+000	-1.351384503447722e-001
 2.465834081378282e-001	 1.024065057018631e+000	-1.554025746385863e-001
 2.361053128922975e-001	 1.026531508568457e+000	-1.738093796348485e-001
 2.256333285029849e-001	 1.028884004924326e+000	-1.906113813761612e-001
 2.151691607766280e-001	 1.031123155447072e+000	-2.060640151716594e-001
 2.047144927194935e-001	 1.033249600264919e+000	-2.204257603324263e-001
 3.173173081534751e-001	 1.032333739679205e+000	 3.035756211888598e-001
 3.065742960300392e-001	 1.035574928338934e+000	 2.472981266914325e-001
 2.958266027699861e-001	 1.038696235629327e+000	 1.945264422680652e-001
 2.850761030460261e-001	 1.041698080274572e+000	 1.450604893041803e-001
 2.743246524724556e-001	 1.044580917263728e+000	 9.869713898786880e-002
 2.635740868098779e-001	 1.047345237105108e+000	 5.523001641943208e-002
 2.528262211996881e-001	 1.049991565062670e+000	 1.444928771917958e-002
 2.420828494286583e-001	 1.052520460375683e+000	-2.385856529128820e-002
 2.313457432239041e-001	 1.054932515462900e+000	-5.991097830751516e-002
 2.206166515784631e-001	 1.057228355112487e+000	-9.392954122115034e-002
 2.098973001076576e-001	 1.059408635658941e+000	-1.261402339334118e-001
 3.251526186710684e-001	 1.057824487269988e+000	 5.681821166662360e-001
 3.141443363156863e-001	 1.061145708499603e+000	 4.927818242155602e-001
 3.031312572355475e-001	 1.064344088207020e+000	 4.212620757825750e-001
 2.921153023934178e-001	 1.067420055455696e+000	 3.534482994231391e-001
 2.810983732230514e-001	 1.070374076469423e+000	 2.891624637042876e-001
 2.700823508142761e-001	 1.073206653868300e+000	 2.282227737395218e-001
 2.590690951285748e-001	 1.075918325886272e+000	 1.704433482580607e-001
 2.480604442455113e-001	 1.078509665571524e+000	 1.156338831124881e-001
 2.370582136402890e-001	 1.080981279971006e+000	 6.359930657248566e-002
 2.260641954926754e-001	 1.083333809300356e+000	 1.413943164870027e-002
 2.150801580274720e-001	 1.085567926100498e+000	-3.295138944355410e-002
 3.329879918697909e-001	 1.083315438779565e+000	 8.106821303259527e-001
 3.217144371604180e-001	 1.086716693219385e+000	 7.197836148593818e-001
 3.104359701371768e-001	 1.089992145960497e+000	 6.330855341143625e-001
 2.991545580532664e-001	 1.093142236405700e+000	 5.504261280134706e-001
 2.878721481622746e-001	 1.096167442013604e+000	 4.716400308785314e-001
 2.765906668836241e-001	 1.099068277516187e+000	 3.965578632318143e-001
 2.653120189992517e-001	 1.101845294117479e+000	 3.250058014681835e-001
 2.540380868818759e-001	 1.104499078674684e+000	 2.568051317276495e-001
 2.427707297551454e-001	 1.107030252863060e+000	 1.917717942247127e-001
 2.315117829859108e-001	 1.109439472325838e+000	 1.297159241796337e-001
 2.202630574088016e-001	 1.111727425810493e+000	 7.044139533564676e-002
 3.408234140376239e-001	 1.108806549599300e+000	 1.044064966221648e+000
 3.292845853164264e-001	 1.112287837749558e+000	 9.410365021647881e-001
 3.177407286914863e-001	 1.115640364006114e+000	 8.424694650796383e-001
 3.061938577067327e-001	 1.118864578111176e+000	 7.482034704694687e-001
 2.946459654358807e-001	 1.121960968758238e+000	 6.580746579522103e-001
 2.830990236282377e-001	 1.124930062791226e+000	 5.719151800998708e-001
 2.715549818864824e-001	 1.127772424384332e+000	 4.895526647553992e-001
 2.600157668767713e-001	 1.130488654203866e+000	 4.108096581773623e-001
 2.484832815714786e-001	 1.133079388553482e+000	 3.355030562893405e-001
 2.369594045248153e-001	 1.135545298504094e+000	 2.634435311774198e-001
 2.254459891815113e-001	 1.137887089009828e+000	 1.944349598044207e-001
 3.486588714625483e-001	 1.134297775120553e+000	 1.280259306354222e+000
 3.368547675359032e-001	 1.137859097341395e+000	 1.168239553604320e+000
 3.250455201150881e-001	 1.141288697460231e+000	 1.060879119499786e+000
 3.132331890349773e-001	 1.144587035558720e+000	 9.580087487339943e-001
 3.014198131896246e-001	 1.147754611565289e+000	 8.594561305966392e-001
 2.896074096584329e-001	 1.150791964435870e+000	 7.650452835189530e-001
 2.777979728650303e-001	 1.153699671314873e+000	 6.745959074242964e-001
 2.659934737692166e-001	 1.156478346677774e+000	 5.879227123750871e-001
 2.541958590922944e-001	 1.159128641456689e+000	 5.048347319236479e-001
 2.424070505760347e-001	 1.161651242150283e+000	 4.251346294300370e-001
 2.306289442754662e-001	 1.164046869919403e+000	 3.486180054121381e-001
 3.564943504325456e-001	 1.159789070734689e+000	 1.530238908361588e+000
 3.444249705710406e-001	 1.163430427246174e+000	 1.412161389802407e+000
 3.323503316245950e-001	 1.166937101439205e+000	 1.298873592706566e+000
 3.202725397191608e-001	 1.170309563734924e+000	 1.190188275569425e+000
 3.081936795692617e-001	 1.173548325296723e+000	 1.085915869957301e+000
 2.961158135845260e-001	 1.176653937192574e+000	 9.858637567678291e-001
 2.840409810096591e-001	 1.179626989537143e+000	 8.898355032980571e-001
 2.719711970982311e-001	 1.182468110615112e+000	 7.976300708772535e-001
 2.599084523205983e-001	 1.185177965987098e+000	 7.090410027334034e-001
 2.478547116062153e-001	 1.187757257579563e+000	 6.238556016043458e-001
 2.358119136205312e-001	 1.190206722760122e+000	 5.418541063824464e-001
 3.643298372355972e-001	 1.185280391833070e+000	 1.804114429496277e+000
 3.519951811740304e-001	 1.189001782715169e+000	 1.682730116992611e+000
 3.396551504366194e-001	 1.192585531059394e+000	 1.566193828745763e+000
 3.273118974404436e-001	 1.196032117626382e+000	 1.454292302303805e+000
 3.149675527205472e-001	 1.199342064814506e+000	 1.346811004271362e+000
 3.026242240168329e-001	 1.202515935803794e+000	 1.243533291576792e+000
 2.902839953951322e-001	 1.205554333679185e+000	 1.144239525166316e+000
 2.779489264028340e-001	 1.208457900534583e+000	 1.048706147289856e+000
 2.656210512593957e-001	 1.211227316559127e+000	 9.567047334497698e-001
 2.533023780820027e-001	 1.213863299107094e+000	 8.680010299134038e-001
 2.409948881465711e-001	 1.216366601752886e+000	 7.823539874459243e-001
 3.721653181596841e-001	 1.210771693807061e+000	 2.111213420852094e+000
 3.595653860970648e-001	 1.214573118999657e+000	 1.989111699952725e+000
 3.469599637677736e-001	 1.218233941437156e+000	 1.871839337434104e+000
 3.343512498799867e-001	 1.221754652219686e+000	 1.759150052929136e+000
 3.217414207892364e-001	 1.225135784980603e+000	 1.650797700445012e+000
 3.091326295656695e-001	 1.228377915011984e+000	 1.546535305141413e+000
 2.965270050962132e-001	 1.231481658369039e+000	 1.446114042708704e+000
 2.839266512220445e-001	 1.234447670954891e+000	 1.349282174073815e+000
 2.713336459116921e-001	 1.237276647587193e+000	 1.255783948062975e+000
 2.587500404700431e-001	 1.239969321048035e+000	 1.165358484469227e+000
 2.461778587834510e-001	 1.242526461118597e+000	 1.077738649701767e+000
 1.943490658186562e-001	 9.809324777358748e-001	-4.626894262926381e-001
 1.844358351184653e-001	 9.828446114249160e-001	-4.318315934767717e-001
 1.745347453506193e-001	 9.846510785005697e-001	-4.013231738110042e-001
 1.646473231798204e-001	 9.863525701375676e-001	-3.714676148435842e-001
 1.547750715930049e-001	 9.879498035443917e-001	-3.425685125352173e-001
 1.449194694473043e-001	 9.894435211587169e-001	-3.149295917015383e-001
 1.350819710464206e-001	 9.908344898374509e-001	-2.888546782177955e-001
 1.252640057452698e-001	 9.921235000424143e-001	-2.646476613010433e-001
 1.154669775827054e-001	 9.933113650226918e-001	-2.426124443423750e-001
 1.056922649420928e-001	 9.943989199946589e-001	-2.230528829423216e-001
 9.594122023947826e-002	 9.953870213206723e-001	-2.062727089747320e-001
 1.995317449331146e-001	 1.007090865697531e+000	-3.281229485151536e-001
 1.893541595092008e-001	 1.009053989985139e+000	-3.208498091846062e-001
 1.791890387780153e-001	 1.010908629862745e+000	-3.127293892053936e-001
 1.690379501156183e-001	 1.012655494936566e+000	-3.040330383956165e-001
 1.589024365888925e-001	 1.014295321540812e+000	-2.950334887893004e-001
 1.487840164914495e-001	 1.015828871911665e+000	-2.860049229622024e-001
 1.386841829087086e-001	 1.017256933355725e+000	-2.772230295075799e-001
 1.286044033119972e-001	 1.018580317413973e+000	-2.689650435877052e-001
 1.185461191814805e-001	 1.019799859022319e+000	-2.615097706932411e-001
 1.085107456576841e-001	 1.020916415669762e+000	-2.551375919524110e-001
 9.849967122134784e-002	 1.021930866555178e+000	-2.501304495467151e-001
 2.047144927194935e-001	 1.033249600264919e+000	-2.204257603324263e-001
 1.942725490689864e-001	 1.035263715826961e+000	-2.332962123915188e-001
 1.838433938759064e-001	 1.037166529144998e+000	-2.442722973204884e-001
 1.734286352282083e-001	 1.038958768256984e+000	-2.536062632548690e-001
 1.630298562732485e-001	 1.040641188623105e+000	-2.615527204199597e-001
 1.526486147416389e-001	 1.042214572278316e+000	-2.683687942384788e-001
 1.422864425010266e-001	 1.043679726979181e+000	-2.743142614209458e-001
 1.319448451396527e-001	 1.045037485346122e+000	-2.796516665290317e-001
 1.216253015794873e-001	 1.046288704002161e+000	-2.846464167469569e-001
 1.113292637187003e-001	 1.047434262709218e+000	-2.895668528425955e-001
 1.010581561032000e-001	 1.048475063502990e+000	-2.946842945627288e-001
 2.098973001076576e-001	 1.059408635658941e+000	-1.261402339334113e-001
 1.991909951903410e-001	 1.061473743082011e+000	-1.560382083478985e-001
 1.884978024988975e-001	 1.063424730394631e+000	-1.831368068303508e-001
 1.778193708336415e-001	 1.065262344066698e+000	-2.076807810059277e-001
 1.671573234228617e-001	 1.066987358684599e+000	-2.299179854976274e-001
 1.565132574346200e-001	 1.068600576082287e+000	-2.500996149664611e-001
 1.458887435192350e-001	 1.070102824466526e+000	-2.684804203501625e-001
 1.352853253822968e-001	 1.071494957537422e+000	-2.853189012924813e-001
 1.247045193880079e-001	 1.072777853605359e+000	-3.008774720427835e-001
 1.141478141926026e-001	 1.073952414705431e+000	-3.154225983946402e-001
 1.036166704075698e-001	 1.075019565710423e+000	-3.292249035388256e-001
 2.150801580274720e-001	 1.085567926100498e+000	-3.295138944355410e-002
 2.041094892657835e-001	 1.087684025881921e+000	-7.705447298836587e-002
 1.931522565015935e-001	 1.089683187658944e+000	-1.175883193937897e-001
 1.822101492479693e-001	 1.091566176333586e+000	-1.548004737637248e-001
 1.712848308145205e-001	 1.093333785618622e+000	-1.889420993912057e-001
 1.603779378071404e-001	 1.094986837147195e+000	-2.202683001850269e-001
 1.494910796591941e-001	 1.096526179576468e+000	-2.490384188265737e-001
 1.386258381939897e-001	 1.097952687686433e+000	-2.755163070844843e-001
 1.277837672183244e-001	 1.099267261475050e+000	-2.999705650421807e-001
 1.169663921468526e-001	 1.100470825250804e+000	-3.226747463359493e-001
 1.061752096569922e-001	 1.101564326723789e+000	-3.439075268505678e-001
 2.202630574088016e-001	 1.111727425810493e+000	 7.044139533564726e-002
 2.090280226878327e-001	 1.113894518358322e+000	 1.468992935010716e-002
 1.978067477385986e-001	 1.115941854985237e+000	-3.685120530733287e-002
 1.866009627872431e-001	 1.117870219025528e+000	-8.444138500719159e-002
 1.754123712250134e-001	 1.119680423318503e+000	-1.283439054487006e-001
 1.642426490959474e-001	 1.121373309296657e+000	-1.688263932909105e-001
 1.530934446167642e-001	 1.122949746067712e+000	-2.061611902972506e-001
 1.419663777287918e-001	 1.124410629491716e+000	-2.406257057776392e-001
 1.308630396817190e-001	 1.125756881254375e+000	-2.725027334920911e-001
 1.197849926489115e-001	 1.126989447937741e+000	-3.020807295694401e-001
 1.087337693740024e-001	 1.128109300089399e+000	-3.296540483990815e-001
 2.254459891815113e-001	 1.137887089009828e+000	 1.944349598044207e-001
 2.139465868490073e-001	 1.140105174642845e+000	 1.293511933755629e-001
 2.024612680645177e-001	 1.142200686420812e+000	 6.899595785363313e-002
 1.909918037675141e-001	 1.144174426110399e+000	 1.309020811872303e-002
 1.795399374311289e-001	 1.146027225677570e+000	-3.864911755982652e-002
 1.681073845377886e-001	 1.147759946354290e+000	-8.650960460921181e-002
 1.566958320878055e-001	 1.149373477698965e+000	-1.307838387236391e-001
 1.453069381407635e-001	 1.150868736651832e+000	-1.717698469764230e-001
 1.339423313894738e-001	 1.152246666586471e+000	-2.097714989640361e-001
 1.226036107662408e-001	 1.153508236358646e+000	-2.450988639181180e-001
 1.112923450811353e-001	 1.154654439353569e+000	-2.780685201836951e-001
 2.306289442754662e-001	 1.164046869919403e+000	 3.486180054121376e-001
 2.188651731418263e-001	 1.166315948867122e+000	 2.762998952465093e-001
 2.071158093339555e-001	 1.168459636012968e+000	 2.091110192098201e-001
 1.953826645048334e-001	 1.170478751556079e+000	 1.467459840683434e-001
 1.836675222096557e-001	 1.172374146589153e+000	 8.889547774304182e-002
 1.719721373694115e-001	 1.174146702143711e+000	 3.524565800392732e-002
 1.602982357681785e-001	 1.175797328228937e+000	-1.452242541523501e-002
 1.486475135839651e-001	 1.177326962865341e+000	-6.073336951980180e-002
 1.370216369528710e-001	 1.178736571114481e+000	-1.037179123012609e-001
 1.254222415663019e-001	 1.180027144105923e+000	-1.438133777669305e-001
 1.138509323009261e-001	 1.181199698062607e+000	-1.813640675111958e-001
 2.358119136205312e-001	 1.190206722760122e+000	 5.418541063824462e-001
 2.237837729588087e-001	 1.192526795162783e+000	 4.642018235586165e-001
 2.117703634015168e-001	 1.194718657809009e+000	 3.919669336333079e-001
 1.997735373152525e-001	 1.196783149330445e+000	 3.248121403786409e-001
 1.877951183373821e-001	 1.198721139946578e+000	 2.623965140294928e-001
 1.758369008275634e-001	 1.200533530488537e+000	 2.043747643899075e-001
 1.639006493537435e-001	 1.202221251416331e+000	 1.503965502035002e-001
 1.519880982124569e-001	 1.203785261830803e+000	 1.001058314723517e-001
 1.401009509831927e-001	 1.205226548481543e+000	 5.314027085567452e-002
 1.282408801165560e-001	 1.206546124771974e+000	 9.130689701101638e-003
 1.164095265559098e-001	 1.207745029762831e+000	-3.229941632990487e-002
 2.409948881465711e-001	 1.216366601752886e+000	 7.823539874459243e-001
 2.287023776924730e-001	 1.218737667661458e+000	 7.010883684695977e-001
 2.164249221218060e-001	 1.220977705856232e+000	 6.254202848033624e-001
 2.041644145148226e-001	 1.223087573401375e+000	 5.549760807579920e-001
 1.919227185910969e-001	 1.225068159643175e+000	 4.893789336964727e-001
 1.797016681489920e-001	 1.226920385212384e+000	 4.282479974843135e-001
 1.675030665403606e-001	 1.228645201019855e+000	 3.711975850484023e-001
 1.553286861802993e-001	 1.230243587246780e+000	 3.178363977644579e-001
 1.431802680917211e-001	 1.231716552330795e+000	 2.677668087672487e-001
 1.310595214844649e-001	 1.233065131949204e+000	 2.205842066274040e-001
 1.189681233686213e-001	 1.234290388000549e+000	 1.758764051689994e-001
 2.461778587834510e-001	 1.242526461118597e+000	 1.077738649701767e+000
 2.336209787353383e-001	 1.244948520494780e+000	 9.944180071884580e-001
 2.210794773494281e-001	 1.247236734201940e+000	 9.167711483697714e-001
 2.085552884195949e-001	 1.249391977736748e+000	 8.443846806930043e-001
 1.960503157475883e-001	 1.251415159572273e+000	 7.768426874599225e-001
 1.835664325704446e-001	 1.253307220138870e+000	 7.137257247467089e-001
 1.711054810238903e-001	 1.255069130798217e+000	 6.546098603414788e-001
 1.586692716415527e-001	 1.256701892811832e+000	 5.990657635773835e-001
 1.462595828897382e-001	 1.258206536305377e+000	 5.466578542337197e-001
 1.338781607374896e-001	 1.259584119230017e+000	 4.969435179478413e-001
 1.215267182615959e-001	 1.260835726322077e+000	 4.494723948251256e-001
 9.594122023947826e-002	 9.953870213206723e-001	-2.062727089747320e-001
 8.621371590998771e-002	 9.962766718121099e-001	-1.926517475628272e-001
 7.651253352126196e-002	 9.970686125683425e-001	-1.821815063133714e-001
 6.683896610081594e-002	 9.977637591031844e-001	-1.745710450911504e-001
 5.719427911104236e-002	 9.983630448185401e-001	-1.695233003318017e-001
 4.757971027342479e-002	 9.988674201817246e-001	-1.667360123529291e-001
 3.799646941872222e-002	 9.992778519071311e-001	-1.659026112491286e-001
 2.844573836262598e-002	 9.995953221430518e-001	-1.667130602584623e-001
 1.892867080636962e-002	 9.998208276644112e-001	-1.688546557412969e-001
 9.446392261750505e-003	 9.999553790721549e-001	-1.720127831659229e-001
 0.000000000000000e+000	 1.000000000000000e+000	-1.758716287359520e-001
 9.849967122134784e-002	 1.021930866555178e+000	-2.501304495467140e-001
 8.851276490585905e-002	 1.022844241231782e+000	-2.464069918550552e-001
 7.855288245458961e-002	 1.023657300561674e+000	-2.436065721869159e-001
 6.862135137610560e-002	 1.024370984472468e+000	-2.415889435826637e-001
 5.871947087877485e-002	 1.024986251256887e+000	-2.402111059528724e-001
 4.884851169029193e-002	 1.025504076728145e+000	-2.393279873042649e-001
 3.900971590386785e-002	 1.025925453379796e+000	-2.387930826364724e-001
 2.920429685057112e-002	 1.026251389550869e+000	-2.384590496888274e-001
 1.943343899728704e-002	 1.026482908597069e+000	-2.381782609804399e-001
 9.698297869739969e-003	 1.026621048068823e+000	-2.378033118521587e-001
 0.000000000000000e+000	 1.026666858896873e+000	-2.371862410451102e-001
 1.010581561032000e-001	 1.048475063502990e+000	-2.946842945627288e-001
 9.081184436458804e-002	 1.049412162678889e+000	-2.995922537838585e-001
 8.059325842294968e-002	 1.050246340862016e+000	-3.036938199117145e-001
 7.040376026835922e-002	 1.050978562394118e+000	-3.069790080075018e-001
 6.024468285560673e-002	 1.051609810459080e+000	-3.094378395261068e-001
 5.011732991903532e-002	 1.052141086216367e+000	-3.110608265640072e-001
 4.002297581473560e-002	 1.052573407939045e+000	-3.118394119465451e-001
 2.996286538957090e-002	 1.052907810157237e+000	-3.117663645406175e-001
 1.993821387648608e-002	 1.053145342807795e+000	-3.108361294676808e-001
 9.950206815530237e-003	 1.053287070390996e+000	-3.090451331701326e-001
 0.000000000000000e+000	 1.053334071134978e+000	-3.063911335035913e-001
 1.036166704075698e-001	 1.075019565710423e+000	-3.292249035388256e-001
 9.311095026268376e-002	 1.075980389658250e+000	-3.416577653659665e-001
 8.263365785559605e-002	 1.076835686937253e+000	-3.519744310054256e-001
 7.218618965828585e-002	 1.077586446303605e+000	-3.602760060082106e-001
 6.176991237235380e-002	 1.078233675832652e+000	-3.666657986710005e-001
 5.138616273917136e-002	 1.078778402030408e+000	-3.712496553592438e-001
 4.103624737807992e-002	 1.079221668949764e+000	-3.741362488498664e-001
 3.072144265210026e-002	 1.079564537312246e+000	-3.754373192086924e-001
 2.044299456059079e-002	 1.079808083636172e+000	-3.752678670339221e-001
 1.020211865827077e-002	 1.079953399371986e+000	-3.737462992016176e-001
 0.000000000000000e+000	 1.080001590045551e+000	-3.709938948081095e-001
 1.061752096569922e-001	 1.101564326723789e+000	-3.439075268505678e-001
 9.541007857665534e-002	 1.102548875674683e+000	-3.628990526205153e-001
 8.467407718178258e-002	 1.103425292255272e+000	-3.788124701605212e-001
 7.396863642659460e-002	 1.104194589636403e+000	-3.918418921869109e-001
 6.329515675983193e-002	 1.104857800785134e+000	-4.021853124147402e-001
 5.265500793021638e-002	 1.105415977554288e+000	-4.100448392308867e-001
 4.204952882065519e-002	 1.105870189776840e+000	-4.156268785070086e-001
 3.148002731063408e-002	 1.106221524365987e+000	-4.191422651176724e-001
 2.094778016622522e-002	 1.106471084421780e+000	-4.208063430792788e-001
 1.045403295711100e-002	 1.106619988345106e+000	-4.208389945654235e-001
 0.000000000000000e+000	 1.106669368959824e+000	-4.194642049765571e-001
 1.087337693740024e-001	 1.128109300089399e+000	-3.296540483990805e-001
 9.770922528301190e-002	 1.129117574233009e+000	-3.543609938224410e-001
 8.671451283076313e-002	 1.130015110283961e+000	-3.753101304027510e-001
 7.575109745399455e-002	 1.130802945827984e+000	-3.927714278555093e-001
 6.482041334885687e-002	 1.131482138724057e+000	-4.070199399716408e-001
 5.392386327168685e-002	 1.132053766172024e+000	-4.183359833955505e-001
 4.306281836921587e-002	 1.132518923785159e+000	-4.270052605262388e-001
 3.223861803764724e-002	 1.132878724668551e+000	-4.333189260755037e-001
 2.145256981001344e-002	 1.133134298504202e+000	-4.375735972121633e-001
 1.070594927120041e-002	 1.133286790643667e+000	-4.400713076051901e-001
 0.000000000000000e+000	 1.133337361209029e+000	-4.411191564362206e-001
 1.112923450811353e-001	 1.154654439353569e+000	-2.780685201836946e-001
 1.000083863582626e-001	 1.155686438838045e+000	-3.077550931381844e-001
 8.875496123179164e-002	 1.156605094491205e+000	-3.332260317969489e-001
 7.753356962119480e-002	 1.157411468313820e+000	-3.548108047916309e-001
 6.634567947024449e-002	 1.158106643056953e+000	-3.728447338346105e-001
 5.519272654309911e-002	 1.158691721267636e+000	-3.876691640809842e-001
 4.407611425051639e-002	 1.159167824339611e+000	-3.996315723731999e-001
 3.299721350561465e-002	 1.159536091570028e+000	-4.090856127903236e-001
 2.195736260857948e-002	 1.159797679223020e+000	-4.163910993760078e-001
 1.095786715968844e-002	 1.159953759600982e+000	-4.219139263486318e-001
 0.000000000000000e+000	 1.160005520124402e+000	-4.260257909814206e-001
 1.138509323009261e-001	 1.181199698062607e+000	-1.813640675111958e-001
 1.023075577789164e-001	 1.182255422994611e+000	-2.153878918593373e-001
 9.079541881412197e-002	 1.183195198344892e+000	-2.449045213705823e-001
 7.931604980890450e-002	 1.184020110529385e+000	-2.702872284727210e-001
 6.787095245481058e-002	 1.184731267191354e+000	-2.919155131866750e-001
 5.646159552396952e-002	 1.185329796225141e+000	-3.101753115018275e-001
 4.508941469131115e-002	 1.185816844805080e+000	-3.254591340779965e-001
 3.375581238701120e-002	 1.186193578420510e+000	-3.381661345066032e-001
 2.246215767854739e-002	 1.186461179917814e+000	-3.487021068730348e-001
 1.120978618172454e-002	 1.186620848550362e+000	-3.574794128569085e-001
 0.000000000000000e+000	 1.186673799037173e+000	-3.649167760672372e-001
 1.164095265559098e-001	 1.207745029762831e+000	-3.229941632990437e-002
 1.046067355214827e-001	 1.208824480207525e+000	-7.009880456614792e-002
 9.283588200700799e-002	 1.209785375312910e+000	-1.032142825686345e-001
 8.109853489783266e-002	 1.210628825910150e+000	-1.320477755336551e-001
 6.939622963337101e-002	 1.211355964534790e+000	-1.570074545737987e-001
 5.773046799381452e-002	 1.211967944428558e+000	-1.785080297017057e-001
 4.610271791835461e-002	 1.212465938546455e+000	-1.969709641743368e-001
 3.451441335431180e-002	 1.212851138570085e+000	-2.128246091545981e-001
 2.296695413654122e-002	 1.213124753928167e+000	-2.265042582309723e-001
 1.146170589645817e-002	 1.213288010825121e+000	-2.384521219021553e-001
 0.000000000000000e+000	 1.213342151278578e+000	-2.491172001509972e-001
 1.189681233686213e-001	 1.234290388000549e+000	 1.758764051689994e-001
 1.069059155624703e-001	 1.235393563981607e+000	 1.347940379583327e-001
 9.487634723970358e-002	 1.236375578863144e+000	 9.850514656558049e-002
 8.288102176868849e-002	 1.237237567891589e+000	 6.659387003273511e-002
 7.092150833674156e-002	 1.237980688494794e+000	 3.863840210215799e-002
 5.899934173215044e-002	 1.238606119261905e+000	 1.421056665560390e-002
 4.711602215840118e-002	 1.239115058928623e+000	-7.124517725073410e-003
 3.527301507999132e-002	 1.239508725368847e+000	-2.580868267245917e-002
 2.347175109918501e-002	 1.239788354593661e+000	-4.229086369001292e-002
 1.171362586303879e-002	 1.239955199758569e+000	-5.702716246370054e-002
 0.000000000000000e+000	 1.240010530179849e+000	-7.048081417504823e-002
 1.215267182615959e-001	 1.260835726322077e+000	 4.494723948251261e-001
 1.092050938783885e-001	 1.261962627821675e+000	 4.055411185210602e-001
 9.691681094146261e-002	 1.262965762463481e+000	 3.664901114910448e-001
 8.466350730218102e-002	 1.263846289909173e+000	 3.319039625111269e-001
 7.244678589573805e-002	 1.264605392478897e+000	 3.013618982228065e-001
 6.026821451849371e-002	 1.265244274109201e+000	 2.744371794554743e-001
 4.812932563820527e-002	 1.265764159316470e+000	 2.506965987800322e-001
 3.603161623652470e-002	 1.266166292166884e+000	 2.297000811408713e-001
 2.397654768310283e-002	 1.266451935253878e+000	 2.110003886495907e-001
 1.196554564061585e-002	 1.266622368684020e+000	 1.941429298836632e-001
 0.000000000000000e+000	 1.266678889072220e+000	 1.786656721163435e-001
 1.266678889072220e+000	 0.000000000000000e+000	 1.949131688029927e+001
 1.266622368684020e+000	 1.196554564061589e-002	 1.947688869490246e+001
 1.266451935253877e+000	 2.397654768310291e-002	 1.946235299184203e+001
 1.266166292166884e+000	 3.603161623652462e-002	 1.944726704757930e+001
 1.265764159316470e+000	 4.812932563820523e-002	 1.943117057334224e+001
 1.265244274109201e+000	 6.026821451849370e-002	 1.941358594613732e+001
 1.264605392478897e+000	 7.244678589573809e-002	 1.939401851422530e+001
 1.263846289909173e+000	 8.466350730218103e-002	 1.937195690456988e+001
 1.262965762463481e+000	 9.691681094146248e-002	 1.934687333046439e+001
 1.261962627821675e+000	 1.092050938783884e-001	 1.931822389763672e+001
 1.260835726322077e+000	 1.215267182615958e-001	 1.928544890724914e+001
 1.293343190136031e+000	 0.000000000000000e+000	 1.885562964000587e+001
 1.293285479961983e+000	 1.221742708636594e-002	 1.884112313299974e+001
 1.293111458812611e+000	 2.448126745774412e-002	 1.882715625213630e+001
 1.292819802778529e+000	 3.679010196516097e-002	 1.881324335345930e+001
 1.292409204806197e+000	 4.914247493488750e-002	 1.879887782847238e+001
 1.291878375723875e+000	 6.153689423456663e-002	 1.878353237782716e+001
 1.291226045277082e+000	 7.397183137018699e-002	 1.876665931048536e+001
 1.290450963172669e+000	 8.644572161462837e-002	 1.874769084421040e+001
 1.289551900130541e+000	 9.895696416848014e-002	 1.872603940540060e+001
 1.288527648942039e+000	 1.115039223538046e-001	 1.870109792638944e+001
 1.287377025533950e+000	 1.240849238414894e-001	 1.867224013847572e+001
 1.320007431208043e+000	 0.000000000000000e+000	 1.827998504829413e+001
 1.319948531250828e+000	 1.246930796544279e-002	 1.826757035026507e+001
 1.319770922390312e+000	 2.498598609687761e-002	 1.825615065991089e+001
 1.319473253422687e+000	 3.754858598735979e-002	 1.824518249835660e+001
 1.319054190347506e+000	 5.015562195217481e-002	 1.823409899522405e+001
 1.318512417414774e+000	 6.280557109632907e-002	 1.822231021604745e+001
 1.317846638181773e+000	 7.549687341352278e-002	 1.820920349961158e+001
 1.317055576578640e+000	 8.822793191734575e-002	 1.819414379502477e+001
 1.316137977981790e+000	 1.009971128054111e-001	 1.817647399621594e+001
 1.315092610294107e+000	 1.138027456571139e-001	 1.815551527167712e+001
 1.313918265030891e+000	 1.266431236656700e-001	 1.813056738743170e+001
 1.346671618954121e+000	 0.000000000000000e+000	 1.775337002736162e+001
 1.346611529216121e+000	 1.272118834083839e-002	 1.774476807046690e+001
 1.346430332651642e+000	 2.549070372671897e-002	 1.773748400037773e+001
 1.346126650762511e+000	 3.830706849278583e-002	 1.773091068443432e+001
 1.345699122601420e+000	 5.116876694340033e-002	 1.772441465644416e+001
 1.345146405840180e+000	 6.407424542099521e-002	 1.771733618495260e+001
 1.344467177847875e+000	 7.702191240704667e-002	 1.770898940764768e+001
 1.343660136777989e+000	 9.001013865592052e-002	 1.769866252396393e+001
 1.342724002663489e+000	 1.030372573623213e-001	 1.768561804538083e+001
 1.341657518518851e+000	 1.161015643630453e-001	 1.766909310250289e+001
 1.340459451447940e+000	 1.292013183737075e-001	 1.764829980759080e+001
 1.373335760040133e+000	 0.000000000000000e+000	 1.727043553775423e+001
 1.373274480523431e+000	 1.297306827554474e-002	 1.726592101875279e+001
 1.373089696261269e+000	 2.599542047348386e-002	 1.726300268105704e+001
 1.372780001461154e+000	 3.906554967110389e-002	 1.726100708790133e+001
 1.372344008228968e+000	 5.218191016189716e-002	 1.725923197181069e+001
 1.371780347658369e+000	 6.534291752577912e-002	 1.725694636092777e+001
 1.371087670930294e+000	 7.854694873205979e-002	 1.725339078216245e+001
 1.370264650421613e+000	 9.179234227594005e-002	 1.724777753253794e+001
 1.369309980821893e+000	 1.050773983492762e-001	 1.723929101811610e+001
 1.368222380257244e+000	 1.184003790463279e-001	 1.722708815941057e+001
 1.367000591420135e+000	 1.317595086051721e-001	 1.721029886171002e+001
 1.399999861131944e+000	 0.000000000000000e+000	 1.682849578927529e+001
 1.399937391838324e+000	 1.322494783255377e-002	 1.682768724796939e+001
 1.399749019883856e+000	 2.650013646338788e-002	 1.682876200429530e+001
 1.399433312181770e+000	 3.982402971197879e-002	 1.683096962812670e+001
 1.398988853891178e+000	 5.319505186099847e-002	 1.683352888901739e+001
 1.398414249527623e+000	 6.661158772789501e-002	 1.683562797773837e+001
 1.397708124083939e+000	 8.007198276986338e-002	 1.683642481613935e+001
 1.396869124160417e+000	 9.357454322299176e-002	 1.683504744599450e+001
 1.395895919103263e+000	 1.071175362763417e-001	 1.683059449602233e+001
 1.394787202150259e+000	 1.206991902816908e-001	 1.682213572572073e+001
 1.393541691582514e+000	 1.343176949996336e-001	 1.680871264409524e+001
 1.426663928895422e+000	 0.000000000000000e+000	 1.642521891953968e+001
 1.426600269826366e+000	 1.347682707485748e-002	 1.642727607687537e+001
 1.426408310184067e+000	 2.700485182264663e-002	 1.643156067074407e+001
 1.426086589587512e+000	 4.058250880507529e-002	 1.643723499373958e+001
 1.425633666249075e+000	 5.420819229403738e-002	 1.644342905218763e+001
 1.425048118106222e+000	 6.788025634455705e-002	 1.644924091963429e+001
 1.424328543963713e+000	 8.159701490175864e-002	 1.645373719108192e+001
 1.423473564645299e+000	 9.535674194266300e-002	 1.645595352789356e+001
 1.422481824153855e+000	 1.091576716535834e-001	 1.645489529228487e+001
 1.421351990838867e+000	 1.229979986438629e-001	 1.644953826968893e+001
 1.420082758570117e+000	 1.368758781966621e-001	 1.643882947662917e+001
 1.453327969996434e+000	 0.000000000000000e+000	 1.605871830838589e+001
 1.453263121153126e+000	 1.372870606544782e-002	 1.606236459338117e+001
 1.453067573826569e+000	 2.750956667747578e-002	 1.606868486265260e+001
 1.452739840341533e+000	 4.134098714005818e-002	 1.607674420498758e+001
 1.452278451963687e+000	 5.522133171434702e-002	 1.608557437734378e+001
 1.451681960052446e+000	 6.914892369297943e-002	 1.609417432673280e+001
 1.450948937224526e+000	 8.312204550904671e-002	 1.610151082630617e+001
 1.450077978527162e+000	 9.713893888054116e-002	 1.610651921480406e+001
 1.449067702619928e+000	 1.111978049910672e-001	 1.610810423793727e+001
 1.447916752964040e+000	 1.252968047075733e-001	 1.610514098954350e+001
 1.446623799017982e+000	 1.394340588358277e-001	 1.609647594961184e+001
 1.479991991100845e+000	 0.000000000000000e+000	 1.572751246590115e+001
 1.479925952484172e+000	 1.398058486731675e-002	 1.573105484102686e+001
 1.479726817476025e+000	 2.801428115409090e-002	 1.573786302846692e+001
 1.479393071106987e+000	 4.209946490659224e-002	 1.574689529868711e+001
 1.478923217696040e+000	 5.623447037526055e-002	 1.575707594229518e+001
 1.478315782024575e+000	 7.041759009037626e-002	 1.576729599657469e+001
 1.477569310521282e+000	 8.464707497302883e-002	 1.577641410082459e+001
 1.476682372456906e+000	 9.892113448221362e-002	 1.578325746888467e+001
 1.475653561147740e+000	 1.132379367988586e-001	 1.578662297699216e+001
 1.474481495166753e+000	 1.275956090475512e-001	 1.578527836427581e+001
 1.473164819561149e+000	 1.419922375567004e-001	 1.577796354234354e+001
 1.506655998874523e+000	 0.000000000000000e+000	 1.543048918131841e+001
 1.506588770485068e+000	 1.423246354345626e-002	 1.543183555377497e+001
 1.506386047797100e+000	 2.851899537870764e-002	 1.543722547248625e+001
 1.506046288547027e+000	 4.285794229434228e-002	 1.544550104392949e+001
 1.505567970107163e+000	 5.724760853011108e-002	 1.545547010161111e+001
 1.504949590680887e+000	 7.168625585396170e-002	 1.546590717341956e+001
 1.504189670508888e+000	 8.617210367500611e-002	 1.547555459366070e+001
 1.503286753085432e+000	 1.007033291932677e-001	 1.548312374735677e+001
 1.502239406383549e+000	 1.152780675870236e-001	 1.548729644444883e+001
 1.501046224087976e+000	 1.298944122385254e-001	 1.548672642059026e+001
 1.499705826834654e+000	 1.445504149988501e-001	 1.548004096024440e+001
 1.533319999983334e+000	 0.000000000000000e+000	 1.516687341404646e+001
 1.533251581821385e+000	 1.448434215685831e-002	 1.516354788537969e+001
 1.533045271454459e+000	 2.902370947754160e-002	 1.516526816457669e+001
 1.532699499324805e+000	 4.361641949297308e-002	 1.517075107606201e+001
 1.532212715858081e+000	 5.826074643223178e-002	 1.517867919053602e+001
 1.531583392679665e+000	 7.295492130094992e-002	 1.518770206933134e+001
 1.530810023842251e+000	 8.769713199627981e-002	 1.519643767073157e+001
 1.529891127063641e+000	 1.024855234592909e-001	 1.520347390501604e+001
 1.528825244973612e+000	 1.173181978656276e-001	 1.520737033528892e+001
 1.527610946368682e+000	 1.321932148552252e-001	 1.520666002006975e+001
 1.526246827473539e+000	 1.471085918018469e-001	 1.519985149251829e+001
 1.260835726322077e+000	 1.215267182615958e-001	 1.928544890724914e+001
 1.259584119230017e+000	 1.338781607374896e-001	 1.925030758929177e+001
 1.258206536305377e+000	 1.462595828897382e-001	 1.921455008739365e+001
 1.256701892811832e+000	 1.586692716415527e-001	 1.917760333212448e+001
 1.255069130798217e+000	 1.711054810238902e-001	 1.913888958563804e+001
 1.253307220138871e+000	 1.835664325704446e-001	 1.909782697306795e+001
 1.251415159572273e+000	 1.960503157475885e-001	 1.905382999481550e+001
 1.249391977736748e+000	 2.085552884195949e-001	 1.900631001868549e+001
 1.247236734201940e+000	 2.210794773494281e-001	 1.895467575109603e+001
 1.244948520494780e+000	 2.336209787353382e-001	 1.889833368687497e+001
 1.242526461118596e+000	 2.461778587834510e-001	 1.883668853745839e+001
 1.287377025533950e+000	 1.240849238414894e-001	 1.867224013847572e+001
 1.286099071410704e+000	 1.366963711093230e-001	 1.864149633883481e+001
 1.284692489592918e+000	 1.493384291424060e-001	 1.861088670290683e+001
 1.283156172509960e+000	 1.620093488027418e-001	 1.857976514104943e+001
 1.281489039940201e+000	 1.747073473676788e-001	 1.854748021541049e+001
 1.279690040073258e+000	 1.874306089332176e-001	 1.851337572475899e+001
 1.277758150570499e+000	 2.001772848530018e-001	 1.847679126596230e+001
 1.275692379622538e+000	 2.129454942133351e-001	 1.843706277091644e+001
 1.273491767002438e+000	 2.257333243445114e-001	 1.839352301804699e+001
 1.271155385113263e+000	 2.385388313687072e-001	 1.834550211783021e+001
 1.268682340028648e+000	 2.513600407846233e-001	 1.829232797213243e+001
 1.313918265030891e+000	 1.266431236656700e-001	 1.813056738743170e+001
 1.312613963935719e+000	 1.395145751404187e-001	 1.810398967957768e+001
 1.311178383290003e+000	 1.524172684678870e-001	 1.807813412013418e+001
 1.309610392688861e+000	 1.653494184489529e-001	 1.805228145518009e+001
 1.307908889640256e+000	 1.783092056074409e-001	 1.802570717985304e+001
 1.306072800649137e+000	 1.912947766017440e-001	 1.799768218895089e+001
 1.304101082299808e+000	 2.043042446728650e-001	 1.796747339824338e+001
 1.301992722335230e+000	 2.173356901292264e-001	 1.793434433508889e+001
 1.299746740731929e+000	 2.303871608685431e-001	 1.789755569731211e+001
 1.297362190769153e+000	 2.434566729370094e-001	 1.785636587967883e+001
 1.294838160090887e+000	 2.565422111259951e-001	 1.781003146770765e+001
 1.340459451447940e+000	 1.292013183737075e-001	 1.764829980759081e+001
 1.339128803433513e+000	 1.423327735353478e-001	 1.762595928652292e+001
 1.337664224017839e+000	 1.554961016359137e-001	 1.760478925589231e+001
 1.336064559961831e+000	 1.686894814152311e-001	 1.758398321389788e+001
 1.334328686503093e+000	 1.819110566436752e-001	 1.756272823437150e+001
 1.332455508461953e+000	 1.951589365421073e-001	 1.754021154589687e+001
 1.330443961345699e+000	 2.084311962389667e-001	 1.751565980769195e+001
 1.328293012449679e+000	 2.217258772648734e-001	 1.748827499246490e+001
 1.326001661953930e+000	 2.350409880850432e-001	 1.745724950546358e+001
 1.323568944013922e+000	 2.483745046697696e-001	 1.742177463496176e+001
 1.320993927844035e+000	 2.617243711031739e-001	 1.738104108304628e+001
 1.367000591420135e+000	 1.317595086051721e-001	 1.721029886171002e+001
 1.365643596532541e+000	 1.451509669986814e-001	 1.719204587971830e+001
 1.364150018397633e+000	 1.585749294162189e-001	 1.717545620925330e+001
 1.362518680942165e+000	 1.720295385366216e-001	 1.715964913018734e+001
 1.360748437133422e+000	 1.855129013768804e-001	 1.714373717123007e+001
 1.358838170107153e+000	 1.990230897203908e-001	 1.712682729632947e+001
 1.356786794293666e+000	 2.125581405830955e-001	 1.710802211698632e+001
 1.354593256540739e+000	 2.261160567178805e-001	 1.708642112401624e+001
 1.352256537231954e+000	 2.396948071575316e-001	 1.706112193185325e+001
 1.349775651399042e+000	 2.532923277965123e-001	 1.703122152807841e+001
 1.347149649826810e+000	 2.669065220117671e-001	 1.699581752048342e+001
 1.393541691582514e+000	 1.343176949996336e-001	 1.680871264409524e+001
 1.392158349861254e+000	 1.479691562349905e-001	 1.679386319665463e+001
 1.390635773050592e+000	 1.616537525785351e-001	 1.678113983374393e+001
 1.388972762243157e+000	 1.753695906481697e-001	 1.676958655089310e+001
 1.387168148135953e+000	 1.891147407075555e-001	 1.675824069335316e+001
 1.385220792180180e+000	 2.028872371026778e-001	 1.674613433115141e+001
 1.383129587729204e+000	 2.166850787370401e-001	 1.673229566491252e+001
 1.380893461183264e+000	 2.305062295858520e-001	 1.671575045504220e+001
 1.378511373129517e+000	 2.443486192495283e-001	 1.669552346635683e+001
 1.375982319475984e+000	 2.582101435467623e-001	 1.667063991976540e+001
 1.373305332577932e+000	 2.720886651473819e-001	 1.664012694217353e+001
 1.420082758570117e+000	 1.368758781966621e-001	 1.643882947662917e+001
 1.418673070048106e+000	 1.507873419488461e-001	 1.642672279852526e+001
 1.417121494597922e+000	 1.647325718925951e-001	 1.641719929202973e+001
 1.415426810478104e+000	 1.787096385849206e-001	 1.640922632116224e+001
 1.413587826115396e+000	 1.927165755361990e-001	 1.640176510257333e+001
 1.411603381276482e+000	 2.067513796550519e-001	 1.639377229479583e+001
 1.409472348237812e+000	 2.208120117325893e-001	 1.638420162328391e+001
 1.407193632952109e+000	 2.348963969663925e-001	 1.637200553277592e+001
 1.404766176210132e+000	 2.490024255245532e-001	 1.635613685792424e+001
 1.402188954796221e+000	 2.631279531500440e-001	 1.633555050258495e+001
 1.399460982636122e+000	 2.772708018056259e-001	 1.630920511765216e+001
 1.446623799017982e+000	 1.394340588358277e-001	 1.609647594961184e+001
 1.445187763721549e+000	 1.536055248448193e-001	 1.608646778485881e+001
 1.443607189660832e+000	 1.678113881281315e-001	 1.607951720398511e+001
 1.441880832260298e+000	 1.820496831819193e-001	 1.607451329303065e+001
 1.440007477676460e+000	 1.963184067633098e-001	 1.607033987066094e+001
 1.437985943991505e+000	 2.106155183435960e-001	 1.606587731846897e+001
 1.435815082404983e+000	 2.249389406015317e-001	 1.606000445234372e+001
 1.433493778422127e+000	 2.392865599571062e-001	 1.605160042525158e+001
 1.431020953037317e+000	 2.536562271461264e-001	 1.603954665109885e+001
 1.428395563911226e+000	 2.680457578358819e-001	 1.602272873870817e+001
 1.425616606540098e+000	 2.824529332821062e-001	 1.600003842435769e+001
 1.473164819561149e+000	 1.419922375567004e-001	 1.577796354234354e+001
 1.471702437510035e+000	 1.564237056274813e-001	 1.576941971376790e+001
 1.470092864860527e+000	 1.708902020548769e-001	 1.576444701092728e+001
 1.468334834203037e+000	 1.853897252742113e-001	 1.576185427666918e+001
 1.466427109423857e+000	 1.999202352893867e-001	 1.576044631918840e+001
 1.464368486920693e+000	 2.144796541343939e-001	 1.575902601166580e+001
 1.462157796816215e+000	 2.290658663756561e-001	 1.575639643860116e+001
 1.459793904168173e+000	 2.436767196555978e-001	 1.575136307786224e+001
 1.457275710174585e+000	 2.583100252777679e-001	 1.574273600669824e+001
 1.454602153372468e+000	 2.729635588338008e-001	 1.572933211923936e+001
 1.451772210828581e+000	 2.876350608724305e-001	 1.570997734233315e+001
 1.499705826834654e+000	 1.445504149988501e-001	 1.548004096024440e+001
 1.498217098042018e+000	 1.592418850014028e-001	 1.547233121505547e+001
 1.496578526818215e+000	 1.739690144425641e-001	 1.546876599396087e+001
 1.494788822919614e+000	 1.887297656968416e-001	 1.546807159196141e+001
 1.492846727962297e+000	 2.035220620149284e-001	 1.546897183096239e+001
 1.490751016659494e+000	 2.183437879935286e-001	 1.547019045858898e+001
 1.488500498057003e+000	 2.331927900867511e-001	 1.547045359976684e+001
 1.486094016765102e+000	 2.480668771594715e-001	 1.546849224862533e+001
 1.483530454185450e+000	 2.629638210829976e-001	 1.546304478739874e+001
 1.480808729731422e+000	 2.778813573733251e-001	 1.545285951817501e+001
 1.477927802040291e+000	 2.928171858722059e-001	 1.543669719257581e+001
 1.526246827473539e+000	 1.471085918018469e-001	 1.519985149251829e+001
 1.524731751945950e+000	 1.620600636711551e-001	 1.519234360306788e+001
 1.523064182155104e+000	 1.770478260609258e-001	 1.518963325803712e+001
 1.521242805023325e+000	 1.920698052848553e-001	 1.519036153856184e+001
 1.519266339896488e+000	 2.071238878404338e-001	 1.519316891954281e+001
 1.517133539803352e+000	 2.222079208870836e-001	 1.519669799915407e+001
 1.514843192712843e+000	 2.373197127666054e-001	 1.519959628773067e+001
 1.512394122787768e+000	 2.524570335663319e-001	 1.520051904198003e+001
 1.509785191633430e+000	 2.676176157253354e-001	 1.519813212945918e+001
 1.507015299539557e+000	 2.827991546839795e-001	 1.519111490732576e+001
 1.504083386713946e+000	 2.979993095770399e-001	 1.517816309849939e+001
 1.242526461118596e+000	 2.461778587834510e-001	 1.883668853745839e+001
 1.239969321048035e+000	 2.587500404700431e-001	 1.877180293043429e+001
 1.237276647587192e+000	 2.713336459116922e-001	 1.870581316233311e+001
 1.234447670954891e+000	 2.839266512220444e-001	 1.863821280305328e+001
 1.231481658369039e+000	 2.965270050962132e-001	 1.856850709978971e+001
 1.228377915011984e+000	 3.091326295656696e-001	 1.849621342292003e+001
 1.225135784980603e+000	 3.217414207892365e-001	 1.842086167657752e+001
 1.221754652219686e+000	 3.343512498799867e-001	 1.834199467535273e+001
 1.218233941437156e+000	 3.469599637677736e-001	 1.825916848893002e+001
 1.214573118999657e+000	 3.595653860970647e-001	 1.817195275682249e+001
 1.210771693807061e+000	 3.721653181596841e-001	 1.807993097571577e+001
 1.268682340028648e+000	 2.513600407846233e-001	 1.829232797213243e+001
 1.266071370725263e+000	 2.641968739471594e-001	 1.823633141344947e+001
 1.263322014977708e+000	 2.770453713412648e-001	 1.817991826704141e+001
 1.260433486800480e+000	 2.899034664766287e-001	 1.812251109740329e+001
 1.257405037986019e+000	 3.027690648672337e-001	 1.806354454320087e+001
 1.254235959090373e+000	 3.156400448021336e-001	 1.800246577744197e+001
 1.250925580403296e+000	 3.285142581531009e-001	 1.793873492730537e+001
 1.247473272901273e+000	 3.413895312189304e-001	 1.787182545536953e+001
 1.243878449182009e+000	 3.542636656061270e-001	 1.780122450440303e+001
 1.240140564378870e+000	 3.671344391456396e-001	 1.772643320828971e+001
 1.236259117053800e+000	 3.799996068452375e-001	 1.764696697206039e+001
 1.294838160090887e+000	 2.565422111259951e-001	 1.781003146770765e+001
 1.292173361675890e+000	 2.696436951690278e-001	 1.776117067166947e+001
 1.289367323769279e+000	 2.827570839196106e-001	 1.771247907614970e+001
 1.286419244181258e+000	 2.958802682835723e-001	 1.766331558085028e+001
 1.283328359278822e+000	 3.090111105938581e-001	 1.761305209000610e+001
 1.280093944991751e+000	 3.221474453972028e-001	 1.756107397512136e+001
 1.276715317802694e+000	 3.352870802784264e-001	 1.750678049070790e+001
 1.273191835719854e+000	 3.484277967221452e-001	 1.744958514510210e+001
 1.269522899230740e+000	 3.615673510116164e-001	 1.738891602892015e+001
 1.265707952235458e+000	 3.747034751643715e-001	 1.732421610418455e+001
 1.261746482958037e+000	 3.878338779042281e-001	 1.725494345761504e+001
 1.320993927844035e+000	 2.617243711031739e-001	 1.738104108304628e+001
 1.318275300425168e+000	 2.750905054974155e-001	 1.733796677514117e+001
 1.315412580472970e+000	 2.884687850747152e-001	 1.729555031621903e+001
 1.312404949593380e+000	 3.018570581371237e-001	 1.725309420546126e+001
 1.309251628727974e+000	 3.152531438366363e-001	 1.720991541699979e+001
 1.305951879180282e+000	 3.286548329777549e-001	 1.716534585247789e+001
 1.302505003625874e+000	 3.420598888584344e-001	 1.711873273825219e+001
 1.298910347104691e+000	 3.554660481492021e-001	 1.706943896968476e+001
 1.295167297994062e+000	 3.688710218101569e-001	 1.701684340553003e+001
 1.291275288960849e+000	 3.822724960455040e-001	 1.696034111596534e+001
 1.287233797891179e+000	 3.956681332952001e-001	 1.689934358834407e+001
 1.347149649826810e+000	 2.669065220117671e-001	 1.699581752048342e+001
 1.344377193498347e+000	 2.805373062940901e-001	 1.695810094954539e+001
 1.341457791599845e+000	 2.941804762345625e-001	 1.692134808634994e+001
 1.338390609533002e+000	 3.078338375315319e-001	 1.688478153426919e+001
 1.335174852813998e+000	 3.214951661561187e-001	 1.684764257833282e+001
 1.331809768120134e+000	 3.351622091706677e-001	 1.680921057431242e+001
 1.328294644319918e+000	 3.488326855863470e-001	 1.676891624261047e+001
 1.324628813485048e+000	 3.625042872596722e-001	 1.672611012821357e+001
 1.320811651882687e+000	 3.761746798276636e-001	 1.668013167944550e+001
 1.316842580946469e+000	 3.898415036812795e-001	 1.663033835822641e+001
 1.312721068224635e+000	 4.035023749766975e-001	 1.657610577601470e+001
 1.373305332577932e+000	 2.720886651473819e-001	 1.664012694217353e+001
 1.370479047420677e+000	 2.859840989208189e-001	 1.660746496591653e+001
 1.367502963660969e+000	 2.998921588271373e-001	 1.657622297968432e+001
 1.364376230496282e+000	 3.138106079610459e-001	 1.654556254686998e+001
 1.361098038017419e+000	 3.277371791128551e-001	 1.651466565976558e+001
 1.357667618275472e+000	 3.416695756028192e-001	 1.648273612707467e+001
 1.354084246331905e+000	 3.556054721553858e-001	 1.644900087738902e+001
 1.350347241290185e+000	 3.695425158131266e-001	 1.641271116758860e+001
 1.346455967307327e+000	 3.834783268900515e-001	 1.637314368525555e+001
 1.342409834583748e+000	 3.974104999639416e-001	 1.632960153441424e+001
 1.338208300329813e+000	 4.113366049072643e-001	 1.628141509422614e+001
 1.399460982636122e+000	 2.772708018056259e-001	 1.630920511765217e+001
 1.396580868717411e+000	 2.914308847393696e-001	 1.628086177520921e+001
 1.393548103167406e+000	 3.056038342804243e-001	 1.625437393341741e+001
 1.390361818979375e+000	 3.197873709199146e-001	 1.622884527521715e+001
 1.387021190818762e+000	 3.339791842673958e-001	 1.620340206476423e+001
 1.383525436110463e+000	 3.481769339010871e-001	 1.617719472384141e+001
 1.379873816108914e+000	 3.623782502587722e-001	 1.614939931603554e+001
 1.376065636949365e+000	 3.765807355691361e-001	 1.611921892610569e+001
 1.372100250678695e+000	 3.907819648232359e-001	 1.608588492209507e+001
 1.367977056264114e+000	 4.049794867857330e-001	 1.604865808796917e+001
 1.363695500578122e+000	 4.191708250454448e-001	 1.600682961489745e+001
 1.425616606540098e+000	 2.824529332821062e-001	 1.600003842435769e+001
 1.422682663913799e+000	 2.968776651115094e-001	 1.597550325205969e+001
 1.419593216630219e+000	 3.113155040224080e-001	 1.595324739901639e+001
 1.416347381478437e+000	 3.257641279023868e-001	 1.593231934095492e+001
 1.412944317698551e+000	 3.402211831802908e-001	 1.591179269192267e+001
 1.409383228089274e+000	 3.546842856923493e-001	 1.589076798802579e+001
 1.405663360098026e+000	 3.691510215897284e-001	 1.586837436971043e+001
 1.401784006891852e+000	 3.836189482872719e-001	 1.584377114831035e+001
 1.397744508407502e+000	 3.980855954531314e-001	 1.581614924270733e+001
 1.393544252378993e+000	 4.125484660388972e-001	 1.578473247218754e+001
 1.389182675340970e+000	 4.270050373497829e-001	 1.574877869193275e+001
 1.451772210828581e+000	 2.876350608724305e-001	 1.570997734233315e+001
 1.448784439535093e+000	 3.023244413990055e-001	 1.568894645404313e+001
 1.445638310560474e+000	 3.170271694810730e-001	 1.567061545129463e+001
 1.442332924489626e+000	 3.317408804027114e-001	 1.565397978206756e+001
 1.438867425137311e+000	 3.464631774120902e-001	 1.563806299554718e+001
 1.435241000676072e+000	 3.611916326034839e-001	 1.562191875372552e+001
 1.431452884746319e+000	 3.759237878414755e-001	 1.560463273128821e+001
 1.427502357546905e+000	 3.906571557271049e-001	 1.558532438762824e+001
 1.423388746904461e+000	 4.053892206056537e-001	 1.556314859494383e+001
 1.419111429319816e+000	 4.201174396156769e-001	 1.553729710662334e+001
 1.414669830989763e+000	 4.348392437788227e-001	 1.550699985049639e+001
 1.477927802040291e+000	 2.928171858722059e-001	 1.543669719257582e+001
 1.474886202106543e+000	 3.077712149636254e-001	 1.541905582667515e+001
 1.471683391469234e+000	 3.227388320844039e-001	 1.540453950798846e+001
 1.468318454509097e+000	 3.377176299151375e-001	 1.539209233257896e+001
 1.464790519615566e+000	 3.527051685233442e-001	 1.538068986861023e+001
 1.461098760335022e+000	 3.676989762613686e-001	 1.536934141858168e+001
 1.457242396500875e+000	 3.826965507072358e-001	 1.535709215854618e+001
 1.453220695343789e+000	 3.976953596482062e-001	 1.534302513607399e+001
 1.449032972580285e+000	 4.126928421067173e-001	 1.532626310883755e+001
 1.444678593478009e+000	 4.276864094083155e-001	 1.530597020594220e+001
 1.440156973895912e+000	 4.426734462911082e-001	 1.528135339452803e+001
 1.504083386713946e+000	 2.979993095770399e-001	 1.517816309849939e+001
 1.500987958153399e+000	 3.132179871671365e-001	 1.516396948442255e+001
 1.497728465867564e+000	 3.284504932603852e-001	 1.515333797246720e+001
 1.494303978033006e+000	 3.436943779339137e-001	 1.514516246688548e+001
 1.490713607613841e+000	 3.589471580746027e-001	 1.513837212636837e+001
 1.486956513530291e+000	 3.742063182928812e-001	 1.513193390205295e+001
 1.483031901808774e+000	 3.894693118802305e-001	 1.512485494014811e+001
 1.478939026711766e+000	 4.047335618101468e-001	 1.511618482865986e+001
 1.474677191845686e+000	 4.199964617822379e-001	 1.510501766779621e+001
 1.470245751245001e+000	 4.352553773090560e-001	 1.509049394389011e+001
 1.465644110430824e+000	 4.505076468451837e-001	 1.507180218710129e+001
 1.210771693807061e+000	 3.721653181596841e-001	 1.807993097571577e+001
 1.206829217841571e+000	 3.847575396775871e-001	 1.798404766684216e+001
 1.202745286085772e+000	 3.973398092324930e-001	 1.788535772986928e+001
 1.198519538232249e+000	 4.099098658216918e-001	 1.778363610777728e+001
 1.194151659763825e+000	 4.224654301051314e-001	 1.767867820649375e+001
 1.189641382703130e+000	 4.350042055046847e-001	 1.757029991030208e+001
 1.184988486332486e+000	 4.475238793346628e-001	 1.745833757665727e+001
 1.180192797882715e+000	 4.600221239627187e-001	 1.734264801483426e+001
 1.175254193189512e+000	 4.724965980002161e-001	 1.722310845300629e+001
 1.170172597316046e+000	 4.849449475210771e-001	 1.709961649848248e+001
 1.164947985140473e+000	 4.973648073080526e-001	 1.697209009592290e+001
 1.236259117053800e+000	 3.799996068452375e-001	 1.764696697206039e+001
 1.232233649757977e+000	 3.928569016887678e-001	 1.756386693627752e+001
 1.228063748948146e+000	 4.057040350748470e-001	 1.747830462598589e+001
 1.223749046732216e+000	 4.185386984054039e-001	 1.739001899496324e+001
 1.219289221972249e+000	 4.313585643590141e-001	 1.729877181469569e+001
 1.214684001049800e+000	 4.441612880133066e-001	 1.720434764812092e+001
 1.209933158600961e+000	 4.569445079992766e-001	 1.710655379887091e+001
 1.205036518219666e+000	 4.697058476866244e-001	 1.700522024115658e+001
 1.199993953127882e+000	 4.824429163991847e-001	 1.690019953564111e+001
 1.194805386811314e+000	 4.951533106594304e-001	 1.679136673680826e+001
 1.189470793619292e+000	 5.078346154609772e-001	 1.667861929744105e+001
 1.261746482958037e+000	 3.878338779042281e-001	 1.725494345761504e+001
 1.257638024518648e+000	 4.009562454770290e-001	 1.718228012407538e+001
 1.253382154848216e+000	 4.140682420983951e-001	 1.710755391495126e+001
 1.248978498470000e+000	 4.271675115750019e-001	 1.703047175062626e+001
 1.244426727625320e+000	 4.402516786041618e-001	 1.695076541943183e+001
 1.239726563054677e+000	 4.533183499193709e-001	 1.686819148558794e+001
 1.234877774747946e+000	 4.663651154684180e-001	 1.678253116894687e+001
 1.229880182662189e+000	 4.793895496231639e-001	 1.669359020252927e+001
 1.224733657405657e+000	 4.923892124200253e-001	 1.660119867408234e+001
 1.219438120886602e+000	 5.053616508301388e-001	 1.650521085807802e+001
 1.213993546925534e+000	 5.183044000580986e-001	 1.640550504470151e+001
 1.287233797891179e+000	 3.956681332952001e-001	 1.689934358834407e+001
 1.283042348474234e+000	 4.090555730671776e-001	 1.683520403172920e+001
 1.278700510115135e+000	 4.224324323941558e-001	 1.676943245694221e+001
 1.274207899752516e+000	 4.357963074876533e-001	 1.670170803855503e+001
 1.269564183006969e+000	 4.491447750638160e-001	 1.663173658585415e+001
 1.264769074977957e+000	 4.624753935121033e-001	 1.655925035927213e+001
 1.259822341009157e+000	 4.757857040971966e-001	 1.648400785508764e+001
 1.254723797420769e+000	 4.890732321932149e-001	 1.640579356536813e+001
 1.249473312207339e+000	 5.023354885492570e-001	 1.632441772040960e+001
 1.244070805699674e+000	 5.155699705852225e-001	 1.623971602114788e+001
 1.238516251189468e+000	 5.287741637167839e-001	 1.615154936917306e+001
 1.312721068224635e+000	 4.035023749766975e-001	 1.657610577601470e+001
 1.308446627975386e+000	 4.171548864840204e-001	 1.651897574381916e+001
 1.304018821078061e+000	 4.307966080531482e-001	 1.646065376194031e+001
 1.299437256886679e+000	 4.444250883005265e-001	 1.640079591069993e+001
 1.294701594401127e+000	 4.580378559612176e-001	 1.633908640844290e+001
 1.289811543079843e+000	 4.716324210807296e-001	 1.627523730905155e+001
 1.284766863620316e+000	 4.852062762407214e-001	 1.620898816430475e+001
 1.279567368705895e+000	 4.987568978176555e-001	 1.614010565918868e+001
 1.274212923717429e+000	 5.122817472733993e-001	 1.606838322858915e+001
 1.268703447408290e+000	 5.257782724767012e-001	 1.599364066405090e+001
 1.263038912541362e+000	 5.392439090544005e-001	 1.591572371947373e+001
 1.338208300329813e+000	 4.113366049072643e-001	 1.628141509422614e+001
 1.333850869372756e+000	 4.252541877523638e-001	 1.623030793375040e+001
 1.329337094066145e+000	 4.391607711663916e-001	 1.617827766372638e+001
 1.324666576179405e+000	 4.530538561707893e-001	 1.612511971703207e+001
 1.319838968091726e+000	 4.669309235196080e-001	 1.607050351518760e+001
 1.314853973620533e+000	 4.807894349144758e-001	 1.601412543613979e+001
 1.309711348817139e+000	 4.946268342541015e-001	 1.595571031500120e+001
 1.304410902728050e+000	 5.084405489173637e-001	 1.589501092576114e+001
 1.298952498120429e+000	 5.222279910789710e-001	 1.583180744364074e+001
 1.293336052170214e+000	 5.359865590565953e-001	 1.576590689815315e+001
 1.287561537111484e+000	 5.497136386883157e-001	 1.569714262714386e+001
 1.363695500578122e+000	 4.191708250454448e-001	 1.600682961489745e+001
 1.359255079016994e+000	 4.333534788970149e-001	 1.596228778962562e+001
 1.354655335408544e+000	 4.475249238249043e-001	 1.591709610072201e+001
 1.349895863937609e+000	 4.616826132556096e-001	 1.587086269195775e+001
 1.344976310362695e+000	 4.758239799622282e-001	 1.582323679898323e+001
 1.339896372860226e+000	 4.899464373025678e-001	 1.577390855855949e+001
 1.334655802835345e+000	 5.040473804924456e-001	 1.572260859541850e+001
 1.329254405697723e+000	 5.181241879132170e-001	 1.566917471663586e+001
 1.323692041600839e+000	 5.321742224524918e-001	 1.561356142649716e+001
 1.317968626143207e+000	 5.461948328769254e-001	 1.555557484129437e+001
 1.312084131030102e+000	 5.601833552358968e-001	 1.549503913059388e+001
 1.389182675340970e+000	 4.270050373497829e-001	 1.574877869193275e+001
 1.384659263258752e+000	 4.414527619427804e-001	 1.571032050506478e+001
 1.379973551434412e+000	 4.558890681197056e-001	 1.567156252860340e+001
 1.375125126468206e+000	 4.703113617121550e-001	 1.563207940896696e+001
 1.370113627497968e+000	 4.847170275123194e-001	 1.559148934557807e+001
 1.364938747059123e+000	 4.991034305342312e-001	 1.554945392310287e+001
 1.359600231910653e+000	 5.134679173108632e-001	 1.550567769861662e+001
 1.354097883825400e+000	 5.278078172260935e-001	 1.545990753638193e+001
 1.348431560343163e+000	 5.421204438804806e-001	 1.541193168432934e+001
 1.342601175485032e+000	 5.564030964897108e-001	 1.536157858784359e+001
 1.336606700427484e+000	 5.706530613145109e-001	 1.530871543807922e+001
 1.414669830989763e+000	 4.348392437788227e-001	 1.550699985049639e+001
 1.410063428448682e+000	 4.495520389144668e-001	 1.547440346790250e+001
 1.405291748472902e+000	 4.642532061418142e-001	 1.544182019281224e+001
 1.400354370078112e+000	 4.789401036975940e-001	 1.540879213969034e+001
 1.395250925781475e+000	 4.936100683931229e-001	 1.537490746395325e+001
 1.389981102477423e+000	 5.082604168986921e-001	 1.533980022065038e+001
 1.384544642278781e+000	 5.228884470644629e-001	 1.530314995357275e+001
 1.378941343321566e+000	 5.374914392768713e-001	 1.526468100628822e+001
 1.373171060531900e+000	 5.520666578494572e-001	 1.522416154814210e+001
 1.367233706353451e+000	 5.666113524469723e-001	 1.518140230993000e+001
 1.361129251433898e+000	 5.811227595415255e-001	 1.513625502573550e+001
 1.440156973895912e+000	 4.426734462911082e-001	 1.528135339452803e+001
 1.435467580937434e+000	 4.576513118368814e-001	 1.525463387147488e+001
 1.430609932853170e+000	 4.726173399822491e-001	 1.522818894866258e+001
 1.425583601074242e+000	 4.875688413690944e-001	 1.520152903896386e+001
 1.420388211497145e+000	 5.025031048278797e-001	 1.517421315079025e+001
 1.415023445375325e+000	 5.174173986851759e-001	 1.514584877814239e+001
 1.409489040175448e+000	 5.323089721083543e-001	 1.511609149462311e+001
 1.403784790396708e+000	 5.471750564864277e-001	 1.508464424159219e+001
 1.397910548351551e+000	 5.620128668459404e-001	 1.505125630233085e+001
 1.391866224906227e+000	 5.768196033007297e-001	 1.501572195591610e+001
 1.385651790179613e+000	 5.915924525343077e-001	 1.497787880647126e+001
 1.465644110430824e+000	 4.505076468451837e-001	 1.507180218710129e+001
 1.460871727075660e+000	 4.657505827348306e-001	 1.505119007444519e+001
 1.455928110904371e+000	 4.809814717320294e-001	 1.503104903211547e+001
 1.450812825763512e+000	 4.961975768838239e-001	 1.501085845487969e+001
 1.445525490928912e+000	 5.113961390398313e-001	 1.499014899524906e+001
 1.440065782013028e+000	 5.265743781829089e-001	 1.496850249140526e+001
 1.434433431836373e+000	 5.417294947976459e-001	 1.494555157048129e+001
 1.428628231261313e+000	 5.568586712756410e-001	 1.492097891591011e+001
 1.422650029986620e+000	 5.719590733564495e-001	 1.489451618940396e+001
 1.416498737301121e+000	 5.870278516030030e-001	 1.486594260013764e+001
 1.410174322794896e+000	 6.020621429102250e-001	 1.483508311586790e+001
 1.164947985140473e+000	 4.973648073080526e-001	 1.697209009592290e+001
 1.159581197877747e+000	 5.097519464059583e-001	 1.684076256516500e+001
 1.154071539441347e+000	 5.221058475389500e-001	 1.670590474967334e+001
 1.148419138145507e+000	 5.344241210826426e-001	 1.656758254463922e+001
 1.142624174058487e+000	 5.467043713871074e-001	 1.642588589841362e+001
 1.136686879394964e+000	 5.589441981408801e-001	 1.628092866545245e+001
 1.130607538866382e+000	 5.711411977547047e-001	 1.613284847559180e+001
 1.124386489988285e+000	 5.832929647635357e-001	 1.598180662395468e+001
 1.118024123343679e+000	 5.953970932452810e-001	 1.582798798550975e+001
 1.111520882801578e+000	 6.074511782547065e-001	 1.567160095797223e+001
 1.104877265689896e+000	 6.194528172708822e-001	 1.551287743635780e+001
 1.189470793619292e+000	 5.078346154609772e-001	 1.667861929744105e+001
 1.183991032474813e+000	 5.204825107846713e-001	 1.656222706088608e+001
 1.178365392638336e+000	 5.330964684657114e-001	 1.644247460204000e+001
 1.172594005125170e+000	 5.456740485767645e-001	 1.631936798290100e+001
 1.166677053794102e+000	 5.582128050381114e-001	 1.619293732726960e+001
 1.160614775748049e+000	 5.707102870103701e-001	 1.606323667766726e+001
 1.154407461691780e+000	 5.831640403073666e-001	 1.593034387647636e+001
 1.148055456245717e+000	 5.955716088276521e-001	 1.579436047631260e+001
 1.141559158214848e+000	 6.079305360031093e-001	 1.565541168431433e+001
 1.134919020811867e+000	 6.202383662630417e-001	 1.551364634464978e+001
 1.128135551833708e+000	 6.324926465120909e-001	 1.536923696310447e+001
 1.213993546925534e+000	 5.183044000580986e-001	 1.640550504470151e+001
 1.208400812153459e+000	 5.312130510209823e-001	 1.630235599796353e+001
 1.202659191177848e+000	 5.440870646650543e-001	 1.619603619748222e+001
 1.196768817715077e+000	 5.569239507601439e-001	 1.608650207395736e+001
 1.190729879414451e+000	 5.697212127968530e-001	 1.597373382315836e+001
 1.184542618267112e+000	 5.824763494079926e-001	 1.585773523690850e+001
 1.178207330971136e+000	 5.951868558105830e-001	 1.573853356719577e+001
 1.171724369251810e+000	 6.078502252668817e-001	 1.561617942927602e+001
 1.165094140136081e+000	 6.204639505628590e-001	 1.549074674925796e+001
 1.158317106180301e+000	 6.330255255024672e-001	 1.536233276121875e+001
 1.151393785650396e+000	 6.455324464160297e-001	 1.523105805839411e+001
 1.238516251189468e+000	 5.287741637167839e-001	 1.615154936917307e+001
 1.232810543015708e+000	 5.419435697974288e-001	 1.606017037404990e+001
 1.226952941132905e+000	 5.550776388845086e-001	 1.596581780111899e+001
 1.220943581958496e+000	 5.681738304451133e-001	 1.586840851826668e+001
 1.214782656932294e+000	 5.812295975402648e-001	 1.576788254977449e+001
 1.208470412933654e+000	 5.942423882750677e-001	 1.566420285029385e+001
 1.202007152653947e+000	 6.072096472698342e-001	 1.555735512193230e+001
 1.195393234923308e+000	 6.201288171506310e-001	 1.544734768132547e+001
 1.188629074990625e+000	 6.329973400576118e-001	 1.533421138313988e+001
 1.181715144755887e+000	 6.458126591694798e-001	 1.521799960594836e+001
 1.174651972953994e+000	 6.585722202423398e-001	 1.509878830584228e+001
 1.263038912541362e+000	 5.392439090544005e-001	 1.591572371947373e+001
 1.257220231163583e+000	 5.526740697965494e-001	 1.583484000697566e+001
 1.251246648576530e+000	 5.660681938716050e-001	 1.575117689296385e+001
 1.245118303898696e+000	 5.794236904440049e-001	 1.566462168016460e+001
 1.238835392360393e+000	 5.927379621452803e-001	 1.557508389903312e+001
 1.232398165729178e+000	 6.060084065529144e-001	 1.548249499232594e+001
 1.225806932689711e+000	 6.192324176906022e-001	 1.538680805391865e+001
 1.219062059176956e+000	 6.324073875483049e-001	 1.528799762991603e+001
 1.212163968661729e+000	 6.455307076204506e-001	 1.518605958961526e+001
 1.205113142387636e+000	 6.585997704605783e-001	 1.508101107331054e+001
 1.197910119558531e+000	 6.716119712506629e-001	 1.497308947583117e+001
 1.287561537111484e+000	 5.497136386883157e-001	 1.569714262714386e+001
 1.281629882699106e+000	 5.634045537008822e-001	 1.562565837072482e+001
 1.275540319581744e+000	 5.770587323738733e-001	 1.555157610219371e+001
 1.269292989578943e+000	 5.906735335691515e-001	 1.547476354604507e+001
 1.262888091711506e+000	 6.042463094888311e-001	 1.539510939633237e+001
 1.256325882635189e+000	 6.177744071828526e-001	 1.531252287797850e+001
 1.249606677027924e+000	 6.312551700783681e-001	 1.522693337468727e+001
 1.242730847929497e+000	 6.446859395293100e-001	 1.513829013285126e+001
 1.235698827032637e+000	 6.580640563844562e-001	 1.504656205030193e+001
 1.228511104924556e+000	 6.713868625722594e-001	 1.495189798414106e+001
 1.221168231278044e+000	 6.846517027006408e-001	 1.485619263406214e+001
 1.312084131030102e+000	 5.601833552358968e-001	 1.549503913059388e+001
 1.306039503724299e+000	 5.741350241929648e-001	 1.543201902120675e+001
 1.299833960221570e+000	 5.880492571388442e-001	 1.536656057206095e+001
 1.293467645042504e+000	 6.019233626328854e-001	 1.529852196363953e+001
 1.286940760998396e+000	 6.157546424478506e-001	 1.522778074735440e+001
 1.280253569633189e+000	 6.295403931062016e-001	 1.515423324811811e+001
 1.273406391618082e+000	 6.432779074386127e-001	 1.507779404717280e+001
 1.266399607097675e+000	 6.569644761630513e-001	 1.499839555610451e+001
 1.259233655986598e+000	 6.705973894827110e-001	 1.491608511931124e+001
 1.251909038215656e+000	 6.841739387010215e-001	 1.483249993415190e+001
 1.244426313926563e+000	 6.976914178519144e-001	 1.474823548530450e+001
 1.336606700427484e+000	 5.706530613145109e-001	 1.530871543807922e+001
 1.330449100341185e+000	 5.848654839553354e-001	 1.525339340753573e+001
 1.324127576569028e+000	 5.990397709140478e-001	 1.519573657159419e+001
 1.317642276332648e+000	 6.131731804475389e-001	 1.513562999774050e+001
 1.310993406233822e+000	 6.272629638992715e-001	 1.507294987966877e+001
 1.304181232704681e+000	 6.413063672642813e-001	 1.500758903711227e+001
 1.297206082409683e+000	 6.553006327768172e-001	 1.493945621772818e+001
 1.290068342598234e+000	 6.692430005189354e-001	 1.486851171729660e+001
 1.282768461406858e+000	 6.831307100482967e-001	 1.479608999960400e+001
 1.275306948109946e+000	 6.969610020433622e-001	 1.472284135218415e+001
 1.267684373318120e+000	 7.107311199641255e-001	 1.464873776472147e+001
 1.361129251433898e+000	 5.811227595415255e-001	 1.513625502573550e+001
 1.354858678651786e+000	 5.955959356705326e-001	 1.508864415759332e+001
 1.348421174697141e+000	 6.100302764470145e-001	 1.503850921848347e+001
 1.341816889492642e+000	 6.244229898254444e-001	 1.498579656423110e+001
 1.335046033430547e+000	 6.387712767200264e-001	 1.493047889141461e+001
 1.328108877831169e+000	 6.530723325984108e-001	 1.487255081121760e+001
 1.321005755352224e+000	 6.673233490984624e-001	 1.481197303437151e+001
 1.313737060347918e+000	 6.815215156663675e-001	 1.474972026914623e+001
 1.306303249176666e+000	 6.956640212142953e-001	 1.468656212509107e+001
 1.298704840456433e+000	 7.097480557957786e-001	 1.462240516063504e+001
 1.290942415266750e+000	 7.237708122969158e-001	 1.455720953532551e+001
 1.385651790179613e+000	 5.915924525343077e-001	 1.497787880647126e+001
 1.379268244758125e+000	 6.063263820210936e-001	 1.493753283354446e+001
 1.372714760678931e+000	 6.210207764852744e-001	 1.489452470565878e+001
 1.365991490565752e+000	 6.356727935789341e-001	 1.484881551334523e+001
 1.359098648601329e+000	 6.502795837870480e-001	 1.480039385457182e+001
 1.352036510994155e+000	 6.648382920499099e-001	 1.474927236975122e+001
 1.344805416395201e+000	 6.793460594090302e-001	 1.469614621638825e+001
 1.337405766263471e+000	 6.938000246747536e-001	 1.464205287055397e+001
 1.329838025179267e+000	 7.081973261137887e-001	 1.458694991728281e+001
 1.322102721104127e+000	 7.225351031547689e-001	 1.453067422735209e+001
 1.314200445586484e+000	 7.368104981099263e-001	 1.447315742174805e+001
 1.410174322794896e+000	 6.020621429102250e-001	 1.483508311586789e+001
 1.403677804762223e+000	 6.170568256895567e-001	 1.480161957477100e+001
 1.397008340587419e+000	 6.320112737763581e-001	 1.476529245594668e+001
 1.390166085595247e+000	 6.469225945203407e-001	 1.472608595882452e+001
 1.383151257758930e+000	 6.617878879772692e-001	 1.468401316650019e+001
 1.375964138175143e+000	 6.766042485600979e-001	 1.463946520493291e+001
 1.368605071488112e+000	 6.913687667140008e-001	 1.459354863257123e+001
 1.361074466261639e+000	 7.060785306134997e-001	 1.454626095073594e+001
 1.353372795297910e+000	 7.207306278798588e-001	 1.449756909225408e+001
 1.345500595902038e+000	 7.353221473168310e-001	 1.444749959509211e+001
 1.337458470091355e+000	 7.498501806627994e-001	 1.439613832294931e+001
 1.104877265689896e+000	 6.194528172708822e-001	 1.551287743635779e+001
 1.098092794993187e+000	 6.314013997351550e-001	 1.535025269449362e+001
 1.091169062434710e+000	 6.432927274468235e-001	 1.518209341987795e+001
 1.084106727484178e+000	 6.551244135982918e-001	 1.500848502712247e+001
 1.076906503314615e+000	 6.668940797275553e-001	 1.482952809028554e+001
 1.069569156736019e+000	 6.785993572081285e-001	 1.464707753250982e+001
 1.062095508079932e+000	 6.902378887419132e-001	 1.446293073389806e+001
 1.054486431034654e+000	 7.018073298531413e-001	 1.427729700402149e+001
 1.046742852430854e+000	 7.133053503815100e-001	 1.409040873484650e+001
 1.038865751977465e+000	 7.247296359725971e-001	 1.390252068983226e+001
 1.030856161947795e+000	 7.360778895636447e-001	 1.371390922304041e+001
 1.128135551833708e+000	 6.324926465120909e-001	 1.536923696310447e+001
 1.121208264223476e+000	 6.446927533389900e-001	 1.522038855461770e+001
 1.114138783211110e+000	 6.568344001685658e-001	 1.506532015089971e+001
 1.106927782148541e+000	 6.689151499495939e-001	 1.490424613998098e+001
 1.099575989221505e+000	 6.809325741521235e-001	 1.473947237187194e+001
 1.092084187381794e+000	 6.928842542887643e-001	 1.457233390742994e+001
 1.084453214229405e+000	 7.047677834389823e-001	 1.440311854832606e+001
 1.076683961844281e+000	 7.165807677744921e-001	 1.423214333212084e+001
 1.068777376567416e+000	 7.283208280838213e-001	 1.405975367752704e+001
 1.060734458731179e+000	 7.399856012941009e-001	 1.388632244203900e+001
 1.052556262338826e+000	 7.515727419881261e-001	 1.371224889478461e+001
 1.151393785650396e+000	 6.455324464160297e-001	 1.523105805839411e+001
 1.144323681448046e+000	 6.579840770396939e-001	 1.509496062422143e+001
 1.137108452309784e+000	 6.703760424240129e-001	 1.495229886697486e+001
 1.129748785469733e+000	 6.827058552742500e-001	 1.480552043215534e+001
 1.122245424126297e+000	 6.949710369926212e-001	 1.465569436749124e+001
 1.114599167373023e+000	 7.071691192309458e-001	 1.450315896403392e+001
 1.106810870078322e+000	 7.192976454463669e-001	 1.434828760412471e+001
 1.098881442713736e+000	 7.313541724581945e-001	 1.419148781301680e+001
 1.090811851130529e+000	 7.433362720038976e-001	 1.403320020562517e+001
 1.082603116284461e+000	 7.552415322922724e-001	 1.387389733114716e+001
 1.074256313908682e+000	 7.670675595517769e-001	 1.371408241881510e+001
 1.174651972953994e+000	 6.585722202423398e-001	 1.509878830584228e+001
 1.167439052445210e+000	 6.712753741597765e-001	 1.497469556401201e+001
 1.160078075472602e+000	 6.839176575982479e-001	 1.484596545404409e+001
 1.152569743152447e+000	 6.964965330196067e-001	 1.471352211941523e+001
 1.144914813695786e+000	 7.090094717583353e-001	 1.457772874625718e+001
 1.137114102337887e+000	 7.214539556055635e-001	 1.443898911238923e+001
 1.129168481215533e+000	 7.338274783962134e-001	 1.429774659307144e+001
 1.121078879191826e+000	 7.461275475972879e-001	 1.415448304525689e+001
 1.112846281628262e+000	 7.583516858952986e-001	 1.400971757280242e+001
 1.104471730103942e+000	 7.704974327808040e-001	 1.386400517568489e+001
 1.095956322081866e+000	 7.825623461280227e-001	 1.371793528685539e+001
 1.197910119558531e+000	 6.716119712506629e-001	 1.497308947583117e+001
 1.190554382993286e+000	 6.845666480217496e-001	 1.486221047465146e+001
 1.183047658441432e+000	 6.974592490763552e-001	 1.474699721523034e+001
 1.175390660901376e+000	 7.102871866330096e-001	 1.462781450985545e+001
 1.167584163596768e+000	 7.230478819585515e-001	 1.450507285520809e+001
 1.159628997904562e+000	 7.357387669835083e-001	 1.437922743761122e+001
 1.151526053229886e+000	 7.483572859206673e-001	 1.425077700096137e+001
 1.143276276827363e+000	 7.609008968848122e-001	 1.412026257935539e+001
 1.134880673568683e+000	 7.733670735115833e-001	 1.398826609707335e+001
 1.126340305656252e+000	 7.857533065733875e-001	 1.385540883923128e+001
 1.117656292282877e+000	 7.980571055902893e-001	 1.372234979707340e+001
 1.221168231278044e+000	 6.846517027006408e-001	 1.485619263406214e+001
 1.213669678870589e+000	 6.978579019481238e-001	 1.475784808087794e+001
 1.206017206958142e+000	 7.110008202434178e-001	 1.465496114376215e+001
 1.198211544421214e+000	 7.240778195618056e-001	 1.454792755961454e+001
 1.190253479496037e+000	 7.370862711025564e-001	 1.443719243350879e+001
 1.182143859701229e+000	 7.500235569356701e-001	 1.432324913427155e+001
 1.173883591710230e+000	 7.628870716518743e-001	 1.420663803935366e+001
 1.165473641169157e+000	 7.756742240138078e-001	 1.408794513109931e+001
 1.156915032459861e+000	 7.883824386063120e-001	 1.396780044723536e+001
 1.148208848408022e+000	 8.010091574837155e-001	 1.384687638912542e+001
 1.139356229936217e+000	 8.135518418120015e-001	 1.372588589205826e+001
 1.244426313926563e+000	 6.976914178519144e-001	 1.474823548530450e+001
 1.236784945855437e+000	 7.111491392614100e-001	 1.466115941773484e+001
 1.228986726764600e+000	 7.245423744845198e-001	 1.456939721716580e+001
 1.221032399416653e+000	 7.378684352533408e-001	 1.447336409442987e+001
 1.212922767060388e+000	 7.511246426996362e-001	 1.437352781033353e+001
 1.204658693356066e+000	 7.643083290329400e-001	 1.427040747557861e+001
 1.196241102245413e+000	 7.774168392219808e-001	 1.416457218703618e+001
 1.187670977766017e+000	 7.904475326773144e-001	 1.405663950253105e+001
 1.178949363809866e+000	 8.033977849330436e-001	 1.394727375707885e+001
 1.170077363825882e+000	 8.162649893254801e-001	 1.383718422431231e+001
 1.161056140466386e+000	 8.290465586665842e-001	 1.372712312762857e+001
 1.267684373318120e+000	 7.107311199641255e-001	 1.464873776472146e+001
 1.259900189726144e+000	 7.244403632841190e-001	 1.457167657045754e+001
 1.251956223602675e+000	 7.380839151847439e-001	 1.448982482937942e+001
 1.243853231592387e+000	 7.516590371549613e-001	 1.440360642972946e+001
 1.235592031956618e+000	 7.651630002590770e-001	 1.431350052431384e+001
 1.227173504497251e+000	 7.785930868462080e-001	 1.422004024865327e+001
 1.218598590424284e+000	 7.919465922631326e-001	 1.412381126290540e+001
 1.209868292166755e+000	 8.052208265683716e-001	 1.402545011972264e+001
 1.200983673126766e+000	 8.184131162453378e-001	 1.392564246106566e+001
 1.191945857376462e+000	 8.315208059123731e-001	 1.382512104785723e+001
 1.182756029297883e+000	 8.445412600274632e-001	 1.372466362723383e+001
 1.290942415266750e+000	 7.237708122969158e-001	 1.455720953532551e+001
 1.283015416261027e+000	 7.377315773387618e-001	 1.448891909190201e+001
 1.274925703214236e+000	 7.516254457291739e-001	 1.441574957042276e+001
 1.266674046653109e+000	 7.654496287140142e-001	 1.433812333901383e+001
 1.258261279851520e+000	 7.792013472901653e-001	 1.425652031140140e+001
 1.249688298752963e+000	 7.928778339463646e-001	 1.417147659713357e+001
 1.240956061835691e+000	 8.064763344074757e-001	 1.408358296325668e+001
 1.232065589920179e+000	 8.199941093800192e-001	 1.399348310956879e+001
 1.223017965918630e+000	 8.334284362967542e-001	 1.390187176050046e+001
 1.213814334526392e+000	 8.467766110580868e-001	 1.380949257761380e+001
 1.204455901855211e+000	 8.600359497680635e-001	 1.371713589766006e+001
 1.314200445586484e+000	 7.368104981099263e-001	 1.447315742174805e+001
 1.306130631238402e+000	 7.510227847478495e-001	 1.441240074134934e+001
 1.297895171341149e+000	 7.651669695028937e-001	 1.434667031059135e+001
 1.289494850303512e+000	 7.792402133778452e-001	 1.427637732740678e+001
 1.280930516411890e+000	 7.932396873021873e-001	 1.420199241553245e+001
 1.272203081751379e+000	 8.071625739043004e-001	 1.412404422067427e+001
 1.263313522068484e+000	 8.210060692871558e-001	 1.404311780598024e+001
 1.254262876575102e+000	 8.347673848052973e-001	 1.395985284885033e+001
 1.245052247693526e+000	 8.484437488408523e-001	 1.387494164211393e+001
 1.235682800742303e+000	 8.620324085763136e-001	 1.378912690362588e+001
 1.226155763562868e+000	 8.755306317618103e-001	 1.370319939936106e+001
 1.337458470091355e+000	 7.498501806627994e-001	 1.439613832294931e+001
 1.329245840436585e+000	 7.643139888338926e-001	 1.434163650559959e+001
 1.320864633725284e+000	 7.787084898909862e-001	 1.428208655214112e+001
 1.312315648248289e+000	 7.930307945938000e-001	 1.421783217326465e+001
 1.303599747304523e+000	 8.072780238044296e-001	 1.414932518283766e+001
 1.294717859120680e+000	 8.214473102909055e-001	 1.407707688793622e+001
 1.285670976711510e+000	 8.355358005343189e-001	 1.400165643216923e+001
 1.276460157680332e+000	 8.495406565372459e-001	 1.392368892811803e+001
 1.267086523959525e+000	 8.634590576311914e-001	 1.384385338185111e+001
 1.257551261490825e+000	 8.772882022807456e-001	 1.376288041357435e+001
 1.247855619845356e+000	 8.910253098821287e-001	 1.368154977959185e+001
 1.030856161947795e+000	 7.360778895636447e-001	 1.371390922304041e+001
 1.022715166525019e+000	 7.473478326137195e-001	 1.352323987797725e+001
 1.014443900524439e+000	 7.585372058120380e-001	 1.332929598302317e+001
 1.006043549818665e+000	 7.696437712595147e-001	 1.313255516922260e+001
 9.975153511208504e-001	 7.806653141634373e-001	 1.293350594655553e+001
 9.888605914263493e-001	 7.915996442727785e-001	 1.273264642183335e+001
 9.800806074060003e-001	 8.024445972974047e-001	 1.253048298215006e+001
 9.711767847515960e-001	 8.131980363093015e-001	 1.232752894919226e+001
 9.621505574741556e-001	 8.238578531239378e-001	 1.212430320995609e+001
 9.530034071557008e-001	 8.344219696599167e-001	 1.192132882963579e+001
 9.437368621553292e-001	 8.448883392750972e-001	 1.171913165263817e+001
 1.052556262338826e+000	 7.515727419881261e-001	 1.371224889478461e+001
 1.044243894396206e+000	 7.630799236604066e-001	 1.353605420667387e+001
 1.035798513607119e+000	 7.745048394403977e-001	 1.335629952728036e+001
 1.027221330807447e+000	 7.858452043199752e-001	 1.317347074903025e+001
 1.018513608743844e+000	 7.970987568837924e-001	 1.298806268270011e+001
 1.009676661503627e+000	 8.082632607748014e-001	 1.280057766681334e+001
 1.000711853895297e+000	 8.193365061433413e-001	 1.261152414326470e+001
 9.916206007802294e-001	 8.303163110778581e-001	 1.242141520497310e+001
 9.824043663561701e-001	 8.412005230153463e-001	 1.223076712162878e+001
 9.730646633932649e-001	 8.519870201296238e-001	 1.204009784984008e+001
 9.636030524234189e-001	 8.626737126955777e-001	 1.184992553419090e+001
 1.074256313908682e+000	 7.670675595517769e-001	 1.371408241881510e+001
 1.065772573831665e+000	 7.788119793124742e-001	 1.355201473577779e+001
 1.057153078645655e+000	 7.904724371441629e-001	 1.338593399709157e+001
 1.048399064149761e+000	 8.020466009297870e-001	 1.321634330178087e+001
 1.039511819124084e+000	 8.135321626314671e-001	 1.304375387999167e+001
 1.030492684747856e+000	 8.249268397862400e-001	 1.286868357568407e+001
 1.021343053967182e+000	 8.362283769850172e-001	 1.269165529365503e+001
 1.012064370812964e+000	 8.474345473328055e-001	 1.251319541723186e+001
 1.002658129669613e+000	 8.585431538882246e-001	 1.233383220327483e+001
 9.931258744953387e-001	 8.695520310804036e-001	 1.215409416139628e+001
 9.834691979947897e-001	 8.804590461013546e-001	 1.197450842453633e+001
 1.095956322081866e+000	 7.825623461280227e-001	 1.371793528685539e+001
 1.087301210213081e+000	 7.945440035026687e-001	 1.356942407285280e+001
 1.078507600978236e+000	 8.064400029149779e-001	 1.341632586166716e+001
 1.069576755139626e+000	 8.182479651390546e-001	 1.325916955480211e+001
 1.060509987510751e+000	 8.299655355145810e-001	 1.309849253307959e+001
 1.051308666362708e+000	 8.415903854727679e-001	 1.293483899439987e+001
 1.041974212779163e+000	 8.531202140451907e-001	 1.276875825136964e+001
 1.032508099960486e+000	 8.645527493535050e-001	 1.260080299572229e+001
 1.022911852477707e+000	 8.758857500780444e-001	 1.243152753679611e+001
 1.013187045477039e+000	 8.871170069033347e-001	 1.226148602164315e+001
 1.003335303835817e+000	 8.982443439385991e-001	 1.209123064461124e+001
 1.117656292282877e+000	 7.980571055902893e-001	 1.372234979707340e+001
 1.108829808922140e+000	 8.102760001637359e-001	 1.358661435904067e+001
 1.099862085943054e+000	 8.224075407444853e-001	 1.344564008319440e+001
 1.090754409071060e+000	 8.344493009978826e-001	 1.329998995686024e+001
 1.081508119153021e+000	 8.463988796412525e-001	 1.315023689670520e+001
 1.072124611551856e+000	 8.582539020000586e-001	 1.299696192329151e+001
 1.062605335488745e+000	 8.700120215466197e-001	 1.284075228846828e+001
 1.052951793333486e+000	 8.816709214193184e-001	 1.268219956315431e+001
 1.043165539843673e+000	 8.932283159202766e-001	 1.252189769345911e+001
 1.033248181353480e+000	 9.046819519894958e-001	 1.236044103344524e+001
 1.023201374912877e+000	 9.160296106534807e-001	 1.219842236315149e+001
 1.139356229936217e+000	 8.135518418120015e-001	 1.372588589205826e+001
 1.130358375340526e+000	 8.260079732284229e-001	 1.360194686096814e+001
 1.121216538878298e+000	 8.383750546243289e-001	 1.347207879735392e+001
 1.111932031238083e+000	 8.506506125563763e-001	 1.333688677826545e+001
 1.102506219300071e+000	 8.628321991195993e-001	 1.319698833237220e+001
 1.092940525518970e+000	 8.749173935337853e-001	 1.305301143297413e+001
 1.083236427253435e+000	 8.869038037120627e-001	 1.290559243424034e+001
 1.073395456042649e+000	 8.987890678096056e-001	 1.275537395890349e+001
 1.063419196830736e+000	 9.105708557503934e-001	 1.260300274609427e+001
 1.053309287139780e+000	 9.222468707299641e-001	 1.244912746841496e+001
 1.043067416192346e+000	 9.338148506921709e-001	 1.229439652772406e+001
 1.161056140466386e+000	 8.290465586665842e-001	 1.372712312762857e+001
 1.151886914849926e+000	 8.417399266294754e-001	 1.361381284546218e+001
 1.142570965122156e+000	 8.543425485461513e-001	 1.349388138971250e+001
 1.133109626934713e+000	 8.668519038646394e-001	 1.336798368140063e+001
 1.123504293201081e+000	 8.792654980577411e-001	 1.323679066189319e+001
 1.113756413467723e+000	 8.915808642396221e-001	 1.310098708595440e+001
 1.103867493230738e+000	 9.037955647642769e-001	 1.296126924581645e+001
 1.093839093198666e+000	 9.159071928037287e-001	 1.281834263521669e+001
 1.083672828502116e+000	 9.279133739038656e-001	 1.267291956287847e+001
 1.073370367851056e+000	 9.398117675158186e-001	 1.252571672539918e+001
 1.062933432640599e+000	 9.516000685008400e-001	 1.237745274994527e+001
 1.182756029297883e+000	 8.445412600274632e-001	 1.372466362723383e+001
 1.173415432832025e+000	 8.574718642996397e-001	 1.362063557231478e+001
 1.163925370012821e+000	 8.703100265015967e-001	 1.350932578870939e+001
 1.154287201454969e+000	 8.830531789727772e-001	 1.339144657281512e+001
 1.144502346105226e+000	 8.956987805637957e-001	 1.326773083427141e+001
 1.134572280601786e+000	 9.082443182832425e-001	 1.313892967054601e+001
 1.124498538578164e+000	 9.206873089260210e-001	 1.300580985770228e+001
 1.114282709912222e+000	 9.330253006810482e-001	 1.286915126706253e+001
 1.103926439921037e+000	 9.452558747161652e-001	 1.272974421809469e+001
 1.093431428502421e+000	 9.573766467381373e-001	 1.258838677841715e+001
 1.082799429224013e+000	 9.693852685256590e-001	 1.244588202232984e+001
 1.204455901855211e+000	 8.600359497680635e-001	 1.371713589766006e+001
 1.194943934668507e+000	 8.732037901716623e-001	 1.362087326410068e+001
 1.185279758888481e+000	 8.862774924823083e-001	 1.351673082181052e+001
 1.175464760092871e+000	 8.992544419308942e-001	 1.340548557526227e+001
 1.165500383261686e+000	 9.121320507458814e-001	 1.328794074028869e+001
 1.155388132124831e+000	 9.249077598303189e-001	 1.316492308159378e+001
 1.145129568453215e+000	 9.375790404200531e-001	 1.303728014894432e+001
 1.134726311294007e+000	 9.501433957209261e-001	 1.290587742256931e+001
 1.124180036150719e+000	 9.625983625227634e-001	 1.277159537900335e+001
 1.113492474108993e+000	 9.749415127879983e-001	 1.263532648926877e+001
 1.102665410908964e+000	 9.871704552127985e-001	 1.249797216189395e+001
 1.226155763562868e+000	 8.755306317618103e-001	 1.370319939936106e+001
 1.216472425741059e+000	 8.889357081782895e-001	 1.361302293202914e+001
 1.206634137087326e+000	 9.022449504799290e-001	 1.351445950314122e+001
 1.196642308142437e+000	 9.154556967890949e-001	 1.340835798095708e+001
 1.186498409919638e+000	 9.285653127121178e-001	 1.329560003263593e+001
 1.176203973240529e+000	 9.415711930465260e-001	 1.317709720595320e+001
 1.165760588013400e+000	 9.544707634691313e-001	 1.305378788948942e+001
 1.155169902454707e+000	 9.672614822027226e-001	 1.292663416267862e+001
 1.144433622254387e+000	 9.799408416591322e-001	 1.279661854791904e+001
 1.133553509685888e+000	 9.925063700564804e-001	 1.266474067771246e+001
 1.122531382661828e+000	 1.004955633008429e+000	 1.253201389049920e+001
 1.247855619845356e+000	 8.910253098821287e-001	 1.368154977959185e+001
 1.238000911431365e+000	 9.046676222522669e-001	 1.359562495365973e+001
 1.227988509947546e+000	 9.182124044861023e-001	 1.350092313924338e+001
 1.217819850897685e+000	 9.316569475974837e-001	 1.339837206664356e+001
 1.207496431328260e+000	 9.449985705706225e-001	 1.328893982921417e+001
 1.197019809152552e+000	 9.582346220975364e-001	 1.317363169044886e+001
 1.186391602416225e+000	 9.713624822960134e-001	 1.305348674657267e+001
 1.175613488505012e+000	 9.843795644057992e-001	 1.292957445693324e+001
 1.164687203295262e+000	 9.972833164607429e-001	 1.280299105542111e+001
 1.153614540248221e+000	 1.010071222934661e+000	 1.267485585702716e+001
 1.142397349448981e+000	 1.022740806358721e+000	 1.254630236353465e+001
 9.437368621553292e-001	 8.448883392750972e-001	 1.171913165263817e+001
 9.343539132487400e-001	 8.552534008771232e-001	 1.151557313280713e+001
 9.248547987507910e-001	 8.655167534262337e-001	 1.130853480606186e+001
 9.152411822021542e-001	 8.756764540435483e-001	 1.109866423706381e+001
 9.055147702627122e-001	 8.857305963593138e-001	 1.088660724479617e+001
 8.956773117034881e-001	 8.956773117034879e-001	 1.067300636240541e+001
 8.857305963593135e-001	 9.055147702627118e-001	 1.045849932351196e+001
 8.756764540435483e-001	 9.152411822021546e-001	 1.024371758165470e+001
 8.655167534262336e-001	 9.248547987507910e-001	 1.002928486943167e+001
 8.552534008771232e-001	 9.343539132487404e-001	 9.815815803756838e+000
 8.448883392750972e-001	 9.437368621553289e-001	 9.603914543469546e+000
 9.636030524234189e-001	 8.626737126955777e-001	 1.184992553419090e+001
 9.540225871798312e-001	 8.732569646578550e-001	 1.165810791976458e+001
 9.443235109940164e-001	 8.837363665345823e-001	 1.146253097363341e+001
 9.345075224251110e-001	 8.941099345481917e-001	 1.126383961724339e+001
 9.245763640591428e-001	 9.043757221987769e-001	 1.106267720222887e+001
 9.145318214797459e-001	 9.145318214797458e-001	 1.085968386527609e+001
 9.043757221987767e-001	 9.245763640591429e-001	 1.065549491006010e+001
 8.941099345481919e-001	 9.345075224251110e-001	 1.045073922357497e+001
 8.837363665345825e-001	 9.443235109940160e-001	 1.024603773407730e+001
 8.732569646578552e-001	 9.540225871798311e-001	 1.004200191772193e+001
 8.626737126955777e-001	 9.636030524234188e-001	 9.839232360778302e+000
 9.834691979947897e-001	 8.804590461013546e-001	 1.197450842453633e+001
 9.736912168585270e-001	 8.912604879328961e-001	 1.179299604030484e+001
 9.637921794347112e-001	 9.019559386510658e-001	 1.160750003363849e+001
 9.537738193008559e-001	 9.125433735797032e-001	 1.141865891115802e+001
 9.436379149690517e-001	 9.230208060888488e-001	 1.122710939619824e+001
 9.333862888354512e-001	 9.333862888354511e-001	 1.103348467991629e+001
 9.230208060888487e-001	 9.436379149690515e-001	 1.083841270061322e+001
 9.125433735797034e-001	 9.537738193008564e-001	 1.064251445927739e+001
 9.019559386510658e-001	 9.637921794347114e-001	 1.044640237926385e+001
 8.912604879328957e-001	 9.736912168585270e-001	 1.025067871787811e+001
 8.804590461013545e-001	 9.834691979947897e-001	 1.005593403744142e+001
 1.003335303835817e+000	 8.982443439385991e-001	 1.209123064461124e+001
 9.933598072018451e-001	 9.092639752029758e-001	 1.191878436271971e+001
 9.832608089399147e-001	 9.201754743304356e-001	 1.174217236717262e+001
 9.730400776458450e-001	 9.309767757463133e-001	 1.156202358451988e+001
 9.626994277577085e-001	 9.416658526906770e-001	 1.137896457061381e+001
 9.522407184841031e-001	 9.522407184841031e-001	 1.119361765790639e+001
 9.416658526906770e-001	 9.626994277577085e-001	 1.100659913258468e+001
 9.309767757463132e-001	 9.730400776458451e-001	 1.081851745028042e+001
 9.201754743304355e-001	 9.832608089399147e-001	 1.062997149900036e+001
 9.092639752029756e-001	 9.933598072018450e-001	 1.044154891777802e+001
 8.982443439385988e-001	 1.003335303835817e+000	 1.025382447934829e+001
 1.023201374912877e+000	 9.160296106534807e-001	 1.219842236315149e+001
 1.013028363126802e+000	 9.272674309688241e-001	 1.203397897789265e+001
 1.002729404376667e+000	 9.383949781274455e-001	 1.186521798219458e+001
 9.923063022765317e-001	 9.494101456562505e-001	 1.169275613806118e+001
 9.817609071903852e-001	 9.603108666654103e-001	 1.151720689044419e+001
 9.710951151391997e-001	 9.710951151391994e-001	 1.133917840939458e+001
 9.603108666654103e-001	 9.817609071903853e-001	 1.115927166410762e+001
 9.494101456562506e-001	 9.923063022765318e-001	 1.097807853837106e+001
 9.383949781274457e-001	 1.002729404376667e+000	 1.079617999683962e+001
 9.272674309688241e-001	 1.013028363126802e+000	 1.061414431141364e+001
 9.160296106534808e-001	 1.023201374912877e+000	 1.043252535679520e+001
 1.043067416192346e+000	 9.338148506921709e-001	 1.229439652772406e+001
 1.032696889550414e+000	 9.452708597311709e-001	 1.213704982362190e+001
 1.022197970612008e+000	 9.566144545968488e-001	 1.197525271195517e+001
 1.011572498009371e+000	 9.678434879177446e-001	 1.180960776420722e+001
 1.000822358032352e+000	 9.789558526741965e-001	 1.164071294423259e+001
 9.899494835142406e-001	 9.899494835142404e-001	 1.146915954264267e+001
 9.789558526741967e-001	 1.000822358032352e+000	 1.129553014551701e+001
 9.678434879177446e-001	 1.011572498009371e+000	 1.112039664777161e+001
 9.566144545968488e-001	 1.022197970612008e+000	 1.094431832143617e+001
 9.452708597311709e-001	 1.032696889550413e+000	 1.076783994894683e+001
 9.338148506921710e-001	 1.043067416192346e+000	 1.059149003135026e+001
 1.062933432640599e+000	 9.516000685008400e-001	 1.237745274994527e+001
 1.052365391389698e+000	 9.632742659907464e-001	 1.222643607099652e+001
 1.041666512512977e+000	 9.748339082933978e-001	 1.207084499525579e+001
 1.030838669660818e+000	 9.862768071390247e-001	 1.191126641690594e+001
 1.019883785048881e+000	 9.976008153781840e-001	 1.174828100227409e+001
 1.008803828322724e+000	 1.008803828322724e+000	 1.158246101253829e+001
 9.976008153781842e-001	 1.019883785048881e+000	 1.141436816350963e+001
 9.862768071390249e-001	 1.030838669660818e+000	 1.124455153369897e+001
 9.748339082933980e-001	 1.041666512512977e+000	 1.107354553180551e+001
 9.632742659907462e-001	 1.052365391389697e+000	 1.090186793461961e+001
 9.516000685008400e-001	 1.062933432640599e+000	 1.073001800611729e+001
 1.082799429224013e+000	 9.693852685256590e-001	 1.244588202232984e+001
 1.072033873561670e+000	 9.812776542482794e-001	 1.230055217494765e+001
 1.061135034946614e+000	 9.930533437718464e-001	 1.215052316380593e+001
 1.050104822047326e+000	 1.004710107928321e+000	 1.199636524154681e+001
 1.038945193005243e+000	 1.016245759438521e+000	 1.183864049761697e+001
 1.027658154278150e+000	 1.027658154278149e+000	 1.167790056407585e+001
 1.016245759438521e+000	 1.038945193005243e+000	 1.151468436148719e+001
 1.004710107928321e+000	 1.050104822047327e+000	 1.134951589704145e+001
 9.930533437718467e-001	 1.061135034946614e+000	 1.118290212699397e+001
 9.812776542482794e-001	 1.072033873561670e+000	 1.101533089536209e+001
 9.693852685256590e-001	 1.082799429224013e+000	 1.084726896060391e+001
 1.102665410908964e+000	 9.871704552127985e-001	 1.249797216189395e+001
 1.091702340983348e+000	 9.992810290045007e-001	 1.235779450521879e+001
 1.080603542779960e+000	 1.011272765586947e+000	 1.221278317273408e+001
 1.069370959985351e+000	 1.023143394893862e+000	 1.206349131956429e+001
 1.058006586666708e+000	 1.034890689516356e+000	 1.191046170179384e+001
 1.046512466094015e+000	 1.046512466094015e+000	 1.175421933161137e+001
 1.034890689516356e+000	 1.058006586666708e+000	 1.159529373909476e+001
 1.023143394893862e+000	 1.069370959985352e+000	 1.143416738204504e+001
 1.011272765586948e+000	 1.080603542779960e+000	 1.127132266987896e+001
 9.992810290045006e-001	 1.091702340983348e+000	 1.110721516163639e+001
 9.871704552127985e-001	 1.102665410908964e+000	 1.094227642258765e+001
 1.122531382661828e+000	 1.004955633008429e+000	 1.253201389049920e+001
 1.111370798571747e+000	 1.017284394760140e+000	 1.239654305748412e+001
 1.100072040880052e+000	 1.029492178293453e+000	 1.225609167815259e+001
 1.088637088291348e+000	 1.041576672643878e+000	 1.211118998801393e+001
 1.077067970798547e+000	 1.053535610272836e+000	 1.196236116395495e+001
 1.065366768483820e+000	 1.065366768483820e+000	 1.181011291315194e+001
 1.053535610272836e+000	 1.077067970798547e+000	 1.165493497070289e+001
 1.041576672643877e+000	 1.088637088291348e+000	 1.149729665810141e+001
 1.029492178293453e+000	 1.100072040880052e+000	 1.133764451674503e+001
 1.017284394760140e+000	 1.111370798571748e+000	 1.117640003054015e+001
 1.004955633008429e+000	 1.122531382661828e+000	 1.101396112196603e+001
 1.142397349448981e+000	 1.022740806358721e+000	 1.254630236353464e+001
 1.131039251243886e+000	 1.035287756015926e+000	 1.241519149805053e+001
 1.119540534113931e+000	 1.047711586446118e+000	 1.227891539949117e+001
 1.107903211781769e+000	 1.060009945786597e+000	 1.213799363460462e+001
 1.096129350166033e+000	 1.072180526369110e+000	 1.199293005713687e+001
 1.084221066161063e+000	 1.084221066161063e+000	 1.184421011830250e+001
 1.072180526369110e+000	 1.096129350166033e+000	 1.169229822725261e+001
 1.060009945786597e+000	 1.107903211781770e+000	 1.153763517692798e+001
 1.047711586446118e+000	 1.119540534113932e+000	 1.138063565066486e+001
 1.035287756015926e+000	 1.131039251243886e+000	 1.122168582479687e+001
 1.022740806358721e+000	 1.142397349448981e+000	 1.106114108227331e+001
 8.448883392750972e-001	 9.437368621553289e-001	 9.603914543469546e+000
 8.344219696599167e-001	 9.530034071557008e-001	 9.391873629508586e+000
 8.238578531239381e-001	 9.621505574741556e-001	 9.177975637771713e+000
 8.131980363093013e-001	 9.711767847515960e-001	 8.962694899965179e+000
 8.024445972974045e-001	 9.800806074060000e-001	 8.746489942141441e+000
 7.915996442727785e-001	 9.888605914263495e-001	 8.529802690424567e+000
 7.806653141634374e-001	 9.975153511208504e-001	 8.313057762634765e+000
 7.696437712595143e-001	 1.006043549818665e+000	 8.096661849285281e+000
 7.585372058120381e-001	 1.014443900524439e+000	 7.881003186966151e+000
 7.473478326137194e-001	 1.022715166525019e+000	 7.666451126649556e+000
 7.360778895636446e-001	 1.030856161947795e+000	 7.453355798953186e+000
 8.626737126955777e-001	 9.636030524234188e-001	 9.839232360778302e+000
 8.519870201296237e-001	 9.730646633932647e-001	 9.635953529529797e+000
 8.412005230153468e-001	 9.824043663561702e-001	 9.430368067252044e+000
 8.303163110778579e-001	 9.916206007802297e-001	 9.222932693361971e+000
 8.193365061433412e-001	 1.000711853895297e+000	 9.014088396263466e+000
 8.082632607748013e-001	 1.009676661503627e+000	 8.804259594332315e+000
 7.970987568837924e-001	 1.018513608743844e+000	 8.593853387968807e+000
 7.858452043199751e-001	 1.027221330807447e+000	 8.383258906637714e+000
 7.745048394403975e-001	 1.035798513607119e+000	 8.172846754323416e+000
 7.630799236604067e-001	 1.044243894396206e+000	 7.962968556311077e+000
 7.515727419881260e-001	 1.052556262338826e+000	 7.753956609663297e+000
 8.804590461013545e-001	 9.834691979947897e-001	 1.005593403744142e+001
 8.695520310804036e-001	 9.931258744953385e-001	 9.860337004037321e+000
 8.585431538882248e-001	 1.002658129669613e+000	 9.662040076575229e+000
 8.474345473328057e-001	 1.012064370812964e+000	 9.461500913432673e+000
 8.362283769850171e-001	 1.021343053967182e+000	 9.259160904860423e+000
 8.249268397862399e-001	 1.030492684747855e+000	 9.055444250875725e+000
 8.135321626314672e-001	 1.039511819124085e+000	 8.850757136940175e+000
 8.020466009297869e-001	 1.048399064149761e+000	 8.645487011904972e+000
 7.904724371441629e-001	 1.057153078645654e+000	 8.440001972174002e+000
 7.788119793124740e-001	 1.065772573831665e+000	 8.234650255472710e+000
 7.670675595517766e-001	 1.074256313908682e+000	 8.029759847024273e+000
 8.982443439385988e-001	 1.003335303835817e+000	 1.025382447934829e+001
 8.871170069033352e-001	 1.013187045477039e+000	 1.006492071363143e+001
 8.758857500780446e-001	 1.022911852477707e+000	 9.872965967198205e+000
 8.645527493535050e-001	 1.032508099960486e+000	 9.678436533131910e+000
 8.531202140451906e-001	 1.041974212779163e+000	 9.481791299176624e+000
 8.415903854727679e-001	 1.051308666362708e+000	 9.283470704188343e+000
 8.299655355145811e-001	 1.060509987510751e+000	 9.083895800626218e+000
 8.182479651390547e-001	 1.069576755139626e+000	 8.883467428246277e+000
 8.064400029149780e-001	 1.078507600978236e+000	 8.682565503584360e+000
 7.945440035026685e-001	 1.087301210213081e+000	 8.481548429201308e+000
 7.825623461280228e-001	 1.095956322081866e+000	 8.280752626021823e+000
 9.160296106534808e-001	 1.023201374912877e+000	 1.043252535679520e+001
 9.046819519894961e-001	 1.033248181353480e+000	 1.024940680717138e+001
 8.932283159202767e-001	 1.043165539843673e+000	 1.006291560327619e+001
 8.816709214193184e-001	 1.052951793333486e+000	 9.873563603813706e+000
 8.700120215466197e-001	 1.062605335488745e+000	 9.681843535170108e+000
 8.582539020000589e-001	 1.072124611551856e+000	 9.488227787943824e+000
 8.463988796412522e-001	 1.081508119153020e+000	 9.293167329295432e+000
 8.344493009978825e-001	 1.090754409071060e+000	 9.097090737085315e+000
 8.224075407444851e-001	 1.099862085943054e+000	 8.900403361137714e+000
 8.102760001637358e-001	 1.108829808922140e+000	 8.703486616301367e+000
 7.980571055902892e-001	 1.117656292282877e+000	 8.506697411271686e+000
 9.338148506921710e-001	 1.043067416192346e+000	 1.059149003135026e+001
 9.222468707299640e-001	 1.053309287139780e+000	 1.041331849059128e+001
 9.105708557503933e-001	 1.063419196830736e+000	 1.023147048529293e+001
 8.987890678096057e-001	 1.073395456042650e+000	 1.004650968952082e+001
 8.869038037120626e-001	 1.083236427253435e+000	 9.858978337455771e+000
 8.749173935337853e-001	 1.092940525518970e+000	 9.669395821264196e+000
 8.628321991195993e-001	 1.102506219300071e+000	 9.478257416085416e+000
 8.506506125563762e-001	 1.111932031238083e+000	 9.286033139035098e+000
 8.383750546243285e-001	 1.121216538878297e+000	 9.093166748439161e+000
 8.260079732284228e-001	 1.130358375340526e+000	 8.900074888779445e+000
 8.135518418120015e-001	 1.139356229936217e+000	 8.707146386060185e+000
 9.516000685008400e-001	 1.062933432640599e+000	 1.073001800611730e+001
 9.398117675158186e-001	 1.073370367851056e+000	 1.055601503137567e+001
 9.279133739038658e-001	 1.083672828502116e+000	 1.037803918583259e+001
 9.159071928037287e-001	 1.093839093198666e+000	 1.019672160495722e+001
 9.037955647642770e-001	 1.103867493230739e+000	 1.001266910434723e+001
 8.915808642396224e-001	 1.113756413467723e+000	 9.826462539821172e+000
 8.792654980577412e-001	 1.123504293201081e+000	 9.638655307430916e+000
 8.668519038646394e-001	 1.133109626934713e+000	 9.449771991360040e+000
 8.543425485461513e-001	 1.142570965122156e+000	 9.260307166923335e+000
 8.417399266294754e-001	 1.151886914849926e+000	 9.070724365082306e+000
 8.290465586665842e-001	 1.161056140466386e+000	 8.881455204041973e+000
 9.693852685256590e-001	 1.082799429224013e+000	 1.084726896060391e+001
 9.573766467381373e-001	 1.093431428502421e+000	 1.067670627116682e+001
 9.452558747161655e-001	 1.103926439921036e+000	 1.050187222940751e+001
 9.330253006810483e-001	 1.114282709912222e+000	 1.032348054656158e+001
 9.206873089260209e-001	 1.124498538578164e+000	 1.014221716888365e+001
 9.082443182832425e-001	 1.134572280601786e+000	 9.958738360341938e+000
 8.956987805637957e-001	 1.144502346105226e+000	 9.773668939536568e+000
 8.830531789727772e-001	 1.154287201454969e+000	 9.587600680010118e+000
 8.703100265015967e-001	 1.163925370012821e+000	 9.401090882301425e+000
 8.574718642996397e-001	 1.173415432832025e+000	 9.214661125215320e+000
 8.445412600274632e-001	 1.182756029297883e+000	 9.028796202851845e+000
 9.871704552127985e-001	 1.102665410908964e+000	 1.094227642258766e+001
 9.749415127879983e-001	 1.113492474108992e+000	 1.077446670854093e+001
 9.625983625227639e-001	 1.124180036150719e+000	 1.060207648645709e+001
 9.501433957209258e-001	 1.134726311294006e+000	 1.042591669322365e+001
 9.375790404200532e-001	 1.145129568453215e+000	 1.024676649706106e+001
 9.249077598303189e-001	 1.155388132124830e+000	 1.006537106258448e+001
 9.121320507458818e-001	 1.165500383261687e+000	 9.882439485883701e+000
 8.992544419308943e-001	 1.175464760092871e+000	 9.698642910138744e+000
 8.862774924823080e-001	 1.185279758888481e+000	 9.514612831394469e+000
 8.732037901716623e-001	 1.194943934668507e+000	 9.330939603159383e+000
 8.600359497680634e-001	 1.204455901855211e+000	 9.148171147473168e+000
 1.004955633008429e+000	 1.122531382661828e+000	 1.101396112196603e+001
 9.925063700564805e-001	 1.133553509685887e+000	 1.084824920521661e+001
 9.799408416591326e-001	 1.144433622254387e+000	 1.067762914171767e+001
 9.672614822027223e-001	 1.155169902454707e+000	 1.050302334235620e+001
 9.544707634691311e-001	 1.165760588013400e+000	 1.032531789299863e+001
 9.415711930465260e-001	 1.176203973240529e+000	 1.014535996095469e+001
 9.285653127121181e-001	 1.186498409919638e+000	 9.963955388738889e+000
 9.154556967890950e-001	 1.196642308142436e+000	 9.781866487145280e+000
 9.022449504799286e-001	 1.206634137087326e+000	 9.599810038678092e+000
 8.889357081782892e-001	 1.216472425741059e+000	 9.418455521333211e+000
 8.755306317618103e-001	 1.226155763562868e+000	 9.238423561608098e+000
 1.022740806358721e+000	 1.142397349448981e+000	 1.106114108227331e+001
 1.010071222934661e+000	 1.153614540248221e+000	 1.089689836156004e+001
 9.972833164607429e-001	 1.164687203295261e+000	 1.072739128879720e+001
 9.843795644057992e-001	 1.175613488505011e+000	 1.055367063790430e+001
 9.713624822960134e-001	 1.186391602416225e+000	 1.037674277107726e+001
 9.582346220975365e-001	 1.197019809152552e+000	 1.019756962790571e+001
 9.449985705706224e-001	 1.207496431328260e+000	 1.001706593748757e+001
 9.316569475974839e-001	 1.217819850897686e+000	 9.836096650269351e+000
 9.182124044861019e-001	 1.227988509947546e+000	 9.655474602225933e+000
 9.046676222522668e-001	 1.238000911431365e+000	 9.475958422850107e+000
 8.910253098821288e-001	 1.247855619845356e+000	 9.298250697200462e+000
 7.360778895636446e-001	 1.030856161947795e+000	 7.453355798953186e+000
 7.247296359725970e-001	 1.038865751977465e+000	 7.241333651645031e+000
 7.133053503815099e-001	 1.046742852430853e+000	 7.029879822471101e+000
 7.018073298531414e-001	 1.054486431034654e+000	 6.819126630448820e+000
 6.902378887419132e-001	 1.062095508079932e+000	 6.609178330040890e+000
 6.785993572081287e-001	 1.069569156736019e+000	 6.400111590445468e+000
 6.668940797275553e-001	 1.076906503314615e+000	 6.191976085903331e+000
 6.551244135982919e-001	 1.084106727484178e+000	 5.985402522720866e+000
 6.432927274468238e-001	 1.091169062434711e+000	 5.781114014006318e+000
 6.314013997351549e-001	 1.098092794993187e+000	 5.579221829470796e+000
 6.194528172708822e-001	 1.104877265689896e+000	 5.379843076912937e+000
 7.515727419881260e-001	 1.052556262338826e+000	 7.753956609663297e+000
 7.399856012941009e-001	 1.060734458731179e+000	 7.545212675496646e+000
 7.283208280838214e-001	 1.068777376567416e+000	 7.336137789618275e+000
 7.165807677744921e-001	 1.076683961844282e+000	 7.127026220776544e+000
 7.047677834389825e-001	 1.084453214229405e+000	 6.918142590427980e+000
 6.928842542887642e-001	 1.092084187381793e+000	 6.709722063742230e+000
 6.809325741521235e-001	 1.099575989221505e+000	 6.501970665319324e+000
 6.689151499495940e-001	 1.106927782148541e+000	 6.295065717680901e+000
 6.568344001685657e-001	 1.114138783211110e+000	 6.089594839502547e+000
 6.446927533389901e-001	 1.121208264223477e+000	 5.886620877841895e+000
 6.324926465120909e-001	 1.128135551833708e+000	 5.686437959644707e+000
 7.670675595517766e-001	 1.074256313908682e+000	 8.029759847024273e+000
 7.552415322922724e-001	 1.082603116284461e+000	 7.824522916355801e+000
 7.433362720038976e-001	 1.090811851130529e+000	 7.618223797665199e+000
 7.313541724581945e-001	 1.098881442713736e+000	 7.411289780222996e+000
 7.192976454463670e-001	 1.106810870078322e+000	 7.204116582119394e+000
 7.071691192309457e-001	 1.114599167373023e+000	 6.997068293643346e+000
 6.949710369926212e-001	 1.122245424126297e+000	 6.790477459870336e+000
 6.827058552742502e-001	 1.129748785469733e+000	 6.584645301024526e+000
 6.703760424240128e-001	 1.137108452309784e+000	 6.379842068473058e+000
 6.579840770396939e-001	 1.144323681448046e+000	 6.176646852775503e+000
 6.455324464160299e-001	 1.151393785650397e+000	 5.976341722071187e+000
 7.825623461280228e-001	 1.095956322081866e+000	 8.280752626021823e+000
 7.704974327808040e-001	 1.104471730103942e+000	 8.079171755872816e+000
 7.583516858952986e-001	 1.112846281628261e+000	 7.875958441616617e+000
 7.461275475972876e-001	 1.121078879191826e+000	 7.671645691963851e+000
 7.338274783962134e-001	 1.129168481215533e+000	 7.466732666921504e+000
 7.214539556055636e-001	 1.137114102337887e+000	 7.261684412047619e+000
 7.090094717583351e-001	 1.144914813695785e+000	 7.056931747284573e+000
 6.964965330196068e-001	 1.152569743152447e+000	 6.852871309383342e+000
 6.839176575982479e-001	 1.160078075472602e+000	 6.649865746136079e+000
 6.712753741597766e-001	 1.167439052445210e+000	 6.448244059853428e+000
 6.585722202423399e-001	 1.174651972953994e+000	 6.248594407216954e+000
 7.980571055902892e-001	 1.117656292282877e+000	 8.506697411271686e+000
 7.857533065733875e-001	 1.126340305656252e+000	 8.308847525064376e+000
 7.733670735115833e-001	 1.134880673568682e+000	 8.108949875842940e+000
 7.609008968848122e-001	 1.143276276827363e+000	 7.907617406698811e+000
 7.483572859206671e-001	 1.151526053229886e+000	 7.705426567716224e+000
 7.357387669835083e-001	 1.159628997904562e+000	 7.502916877515918e+000
 7.230478819585516e-001	 1.167584163596768e+000	 7.300590655698509e+000
 7.102871866330097e-001	 1.175390660901376e+000	 7.098912925591321e+000
 6.974592490763553e-001	 1.183047658441432e+000	 6.898311485819837e+000
 6.845666480217496e-001	 1.190554382993286e+000	 6.699177148350126e+000
 6.716119712506630e-001	 1.197910119558531e+000	 6.501864139791951e+000
 8.135518418120015e-001	 1.139356229936217e+000	 8.707146386060185e+000
 8.010091574837157e-001	 1.148208848408022e+000	 8.513032898913330e+000
 7.883824386063120e-001	 1.156915032459861e+000	 8.316606146545105e+000
 7.756742240138076e-001	 1.165473641169156e+000	 8.118534637635648e+000
 7.628870716518743e-001	 1.173883591710230e+000	 7.919447362991075e+000
 7.500235569356702e-001	 1.182143859701230e+000	 7.719933218761069e+000
 7.370862711025564e-001	 1.190253479496037e+000	 7.520540617903954e+000
 7.240778195618057e-001	 1.198211544421214e+000	 7.321777289649036e+000
 7.110008202434178e-001	 1.206017206958142e+000	 7.124110265726286e+000
 6.978579019481238e-001	 1.213669678870590e+000	 6.927966051163351e+000
 6.846517027006408e-001	 1.221168231278044e+000	 6.733730976496532e+000
 8.290465586665842e-001	 1.161056140466386e+000	 8.881455204041973e+000
 8.162649893254802e-001	 1.170077363825882e+000	 8.691017758009050e+000
 8.033977849330439e-001	 1.178949363809866e+000	 8.498147084891311e+000
 7.904475326773142e-001	 1.187670977766017e+000	 8.303544217703170e+000
 7.774168392219807e-001	 1.196241102245413e+000	 8.107867251759478e+000
 7.643083290329399e-001	 1.204658693356066e+000	 7.911730661967563e+000
 7.511246426996361e-001	 1.212922767060388e+000	 7.715704826820931e+000
 7.378684352533409e-001	 1.221032399416653e+000	 7.520315759148938e+000
 7.245423744845195e-001	 1.228986726764600e+000	 7.326045042594717e+000
 7.111491392614100e-001	 1.236784945855437e+000	 7.133329971721917e+000
 6.976914178519145e-001	 1.244426313926563e+000	 6.942563892594689e+000
 8.445412600274632e-001	 1.182756029297883e+000	 9.028796202851845e+000
 8.315208059123731e-001	 1.191945857376462e+000	 8.841911585644818e+000
 8.184131162453380e-001	 1.200983673126766e+000	 8.652615817212789e+000
 8.052208265683714e-001	 1.209868292166755e+000	 8.461620662334124e+000
 7.919465922631326e-001	 1.218598590424284e+000	 8.269591118316434e+000
 7.785930868462081e-001	 1.227173504497251e+000	 8.077144656813621e+000
 7.651630002590770e-001	 1.235592031956618e+000	 7.884850691985768e+000
 7.516590371549616e-001	 1.243853231592387e+000	 7.693230275324066e+000
 7.380839151847439e-001	 1.251956223602676e+000	 7.502756016276097e+000
 7.244403632841193e-001	 1.259900189726144e+000	 7.313852226623770e+000
 7.107311199641254e-001	 1.267684373318120e+000	 7.126895285402752e+000
 8.600359497680634e-001	 1.204455901855211e+000	 9.148171147473168e+000
 8.467766110580867e-001	 1.213814334526392e+000	 8.964655458936331e+000
 8.334284362967542e-001	 1.223017965918630e+000	 8.778889940527415e+000
 8.199941093800189e-001	 1.232065589920179e+000	 8.591576474919069e+000
 8.064763344074756e-001	 1.240956061835692e+000	 8.403365922038111e+000
 7.928778339463644e-001	 1.249688298752962e+000	 8.214857313931653e+000
 7.792013472901653e-001	 1.258261279851520e+000	 8.026597296884754e+000
 7.654496287140141e-001	 1.266674046653108e+000	 7.839079821353677e+000
 7.516254457291737e-001	 1.274925703214236e+000	 7.652746078974800e+000
 7.377315773387618e-001	 1.283015416261027e+000	 7.467984684612453e+000
 7.237708122969158e-001	 1.290942415266750e+000	 7.285132100129790e+000
 8.755306317618103e-001	 1.226155763562868e+000	 9.238423561608098e+000
 8.620324085763136e-001	 1.235682800742303e+000	 9.058033684240153e+000
 8.484437488408522e-001	 1.245052247693526e+000	 8.875692404832387e+000
 8.347673848052971e-001	 1.254262876575102e+000	 8.692072226788215e+000
 8.210060692871558e-001	 1.263313522068484e+000	 8.507789933874637e+000
 8.071625739043004e-001	 1.272203081751379e+000	 8.323405764748006e+000
 7.932396873021873e-001	 1.280930516411890e+000	 8.139422856993114e+000
 7.792402133778448e-001	 1.289494850303511e+000	 7.956286961457732e+000
 7.651669695028934e-001	 1.297895171341149e+000	 7.774386426238937e+000
 7.510227847478496e-001	 1.306130631238402e+000	 7.594052448259325e+000
 7.368104981099266e-001	 1.314200445586484e+000	 7.415559588966031e+000
 8.910253098821288e-001	 1.247855619845356e+000	 9.298250697200462e+000
 8.772882022807453e-001	 1.257551261490825e+000	 9.120685120167035e+000
 8.634590576311915e-001	 1.267086523959525e+000	 8.941602137852593e+000
 8.495406565372458e-001	 1.276460157680332e+000	 8.761626439154432e+000
 8.355358005343191e-001	 1.285670976711510e+000	 8.581321838178811e+000
 8.214473102909056e-001	 1.294717859120681e+000	 8.401190453129475e+000
 8.072780238044295e-001	 1.303599747304523e+000	 8.221672178408650e+000
 7.930307945938002e-001	 1.312315648248288e+000	 8.043144450916094e+000
 7.787084898909862e-001	 1.320864633725284e+000	 7.865922309975677e+000
 7.643139888338927e-001	 1.329245840436585e+000	 7.690258748769393e+000
 7.498501806627993e-001	 1.337458470091355e+000	 7.516102716103073e+000
 6.194528172708822e-001	 1.104877265689896e+000	 5.379843076912937e+000
 6.074511782547066e-001	 1.111520882801578e+000	 5.182925034508436e+000
 5.953970932452810e-001	 1.118024123343679e+000	 4.988450169280721e+000
 5.832929647635355e-001	 1.124386489988285e+000	 4.796687400073888e+000
 5.711411977547047e-001	 1.130607538866382e+000	 4.607912082803939e+000
 5.589441981408803e-001	 1.136686879394963e+000	 4.422406722769962e+000
 5.467043713871074e-001	 1.142624174058487e+000	 4.240461501944652e+000
 5.344241210826425e-001	 1.148419138145507e+000	 4.062374619277174e+000
 5.221058475389497e-001	 1.154071539441348e+000	 3.888452443527081e+000
 5.097519464059584e-001	 1.159581197877748e+000	 3.719009479608116e+000
 4.973648073080526e-001	 1.164947985140473e+000	 3.554368150834731e+000
 6.324926465120909e-001	 1.128135551833708e+000	 5.686437959644707e+000
 6.202383662630420e-001	 1.134919020811867e+000	 5.489008550909547e+000
 6.079305360031093e-001	 1.141559158214848e+000	 5.294210753274301e+000
 5.955716088276520e-001	 1.148055456245717e+000	 5.102292415429562e+000
 5.831640403073667e-001	 1.154407461691780e+000	 4.913509448483286e+000
 5.707102870103700e-001	 1.160614775748049e+000	 4.728126728808557e+000
 5.582128050381113e-001	 1.166677053794103e+000	 4.546418788623139e+000
 5.456740485767643e-001	 1.172594005125170e+000	 4.368670291904352e+000
 5.330964684657112e-001	 1.178365392638335e+000	 4.195176294930976e+000
 5.204825107846715e-001	 1.183991032474813e+000	 4.026242292400463e+000
 5.078346154609772e-001	 1.189470793619292e+000	 3.862184051676314e+000
 6.455324464160299e-001	 1.151393785650397e+000	 5.976341722071184e+000
 6.330255255024671e-001	 1.158317106180301e+000	 5.778905695992979e+000
 6.204639505628590e-001	 1.165094140136081e+000	 5.584081463052877e+000
 6.078502252668818e-001	 1.171724369251810e+000	 5.392102768711915e+000
 5.951868558105830e-001	 1.178207330971136e+000	 5.203214049785712e+000
 5.824763494079930e-001	 1.184542618267112e+000	 5.017671521777406e+000
 5.697212127968527e-001	 1.190729879414451e+000	 4.835744022837102e+000
 5.569239507601437e-001	 1.196768817715077e+000	 4.657713611546911e+000
 5.440870646650543e-001	 1.202659191177848e+000	 4.483875917642911e+000
 5.312130510209822e-001	 1.208400812153459e+000	 4.314540246657614e+000
 5.183044000580986e-001	 1.213993546925534e+000	 4.150029441290848e+000
 6.585722202423399e-001	 1.174651972953994e+000	 6.248594407216954e+000
 6.458126591694799e-001	 1.181715144755887e+000	 6.051675474439225e+000
 6.329973400576118e-001	 1.188629074990625e+000	 5.857162955591590e+000
 6.201288171506310e-001	 1.195393234923308e+000	 5.665282272526271e+000
 6.072096472698343e-001	 1.202007152653947e+000	 5.476273195882955e+000
 5.942423882750678e-001	 1.208470412933654e+000	 5.290391113557899e+000
 5.812295975402648e-001	 1.214782656932294e+000	 5.107908020579131e+000
 5.681738304451132e-001	 1.220943581958496e+000	 4.929113227202500e+000
 5.550776388845088e-001	 1.226952941132905e+000	 4.754313784201663e+000
 5.419435697974289e-001	 1.232810543015708e+000	 4.583834626439263e+000
 5.287741637167839e-001	 1.238516251189468e+000	 4.418018437863509e+000
 6.716119712506630e-001	 1.197910119558531e+000	 6.501864139791951e+000
 6.585997704605783e-001	 1.205113142387636e+000	 6.306129596308472e+000
 6.455307076204506e-001	 1.212163968661729e+000	 6.112331518984350e+000
 6.324073875483049e-001	 1.219062059176956e+000	 5.920790953139032e+000
 6.192324176906023e-001	 1.225806932689711e+000	 5.731748670785207e+000
 6.060084065529144e-001	 1.232398165729178e+000	 5.545465956650299e+000
 5.927379621452800e-001	 1.238835392360392e+000	 5.362225738966034e+000
 5.794236904440047e-001	 1.245118303898696e+000	 5.182333398501696e+000
 5.660681938716050e-001	 1.251246648576530e+000	 5.006117254715459e+000
 5.526740697965494e-001	 1.257220231163583e+000	 4.833928730278818e+000
 5.392439090544005e-001	 1.263038912541362e+000	 4.666142197542470e+000
 6.846517027006408e-001	 1.221168231278044e+000	 6.733730976496532e+000
 6.713868625722598e-001	 1.228511104924556e+000	 6.540728276074466e+000
 6.580640563844562e-001	 1.235698827032637e+000	 6.348223234593448e+000
 6.446859395293096e-001	 1.242730847929497e+000	 6.157369239020233e+000
 6.312551700783683e-001	 1.249606677027924e+000	 5.968501121957611e+000
 6.177744071828529e-001	 1.256325882635189e+000	 5.781891700111902e+000
 6.042463094888311e-001	 1.262888091711506e+000	 5.597841560261324e+000
 5.906735335691515e-001	 1.269292989578943e+000	 5.416679962049771e+000
 5.770587323738733e-001	 1.275540319581744e+000	 5.238765373193383e+000
 5.634045537008823e-001	 1.281629882699106e+000	 5.064485638585869e+000
 5.497136386883157e-001	 1.287561537111484e+000	 4.894257787383323e+000
 6.976914178519145e-001	 1.244426313926563e+000	 6.942563892594690e+000
 6.841739387010217e-001	 1.251909038215656e+000	 6.752915947963961e+000
 6.705973894827110e-001	 1.259233655986598e+000	 6.563158719963398e+000
 6.569644761630512e-001	 1.266399607097674e+000	 6.373522889594951e+000
 6.432779074386129e-001	 1.273406391618082e+000	 6.185175231812083e+000
 6.295403931062018e-001	 1.280253569633188e+000	 5.998464750560452e+000
 6.157546424478506e-001	 1.286940760998396e+000	 5.813715383299314e+000
 6.019233626328853e-001	 1.293467645042504e+000	 5.631287088288139e+000
 5.880492571388442e-001	 1.299833960221569e+000	 5.451576418947613e+000
 5.741350241929648e-001	 1.306039503724299e+000	 5.275016682764783e+000
 5.601833552358967e-001	 1.312084131030102e+000	 5.102077689424441e+000
 7.107311199641254e-001	 1.267684373318120e+000	 7.126895285402752e+000
 6.969610020433620e-001	 1.275306948109945e+000	 6.940901931980809e+000
 6.831307100482968e-001	 1.282768461406858e+000	 6.754497332224112e+000
 6.692430005189350e-001	 1.290068342598233e+000	 6.567483291753113e+000
 6.553006327768171e-001	 1.297206082409683e+000	 6.380185571300532e+000
 6.413063672642816e-001	 1.304181232704681e+000	 6.193768534633117e+000
 6.272629638992716e-001	 1.310993406233822e+000	 6.008609418413466e+000
 6.131731804475384e-001	 1.317642276332648e+000	 5.825104727159498e+000
 5.990397709140476e-001	 1.324127576569028e+000	 5.643696115915968e+000
 5.848654839553358e-001	 1.330449100341185e+000	 5.464870525763830e+000
 5.706530613145106e-001	 1.336606700427484e+000	 5.289239088515356e+000
 7.237708122969158e-001	 1.290942415266750e+000	 7.285132100129788e+000
 7.097480557957788e-001	 1.298704840456433e+000	 7.103063358562285e+000
 6.956640212142951e-001	 1.306303249176665e+000	 6.920284252108560e+000
 6.815215156663675e-001	 1.313737060347918e+000	 6.736583383472921e+000
 6.673233490984625e-001	 1.321005755352224e+000	 6.551701526603867e+000
 6.530723325984112e-001	 1.328108877831169e+000	 6.366160374215018e+000
 6.387712767200264e-001	 1.335046033430547e+000	 6.181069995277757e+000
 6.244229898254440e-001	 1.341816889492641e+000	 5.996883549059424e+000
 6.100302764470144e-001	 1.348421174697141e+000	 5.814497067018369e+000
 5.955959356705326e-001	 1.354858678651786e+000	 5.634928831666263e+000
 5.811227595415254e-001	 1.361129251433898e+000	 5.459214264635059e+000
 7.368104981099266e-001	 1.314200445586484e+000	 7.415559588966032e+000
 7.225351031547691e-001	 1.322102721104127e+000	 7.237660248036431e+000
 7.081973261137888e-001	 1.329838025179267e+000	 7.058776282604866e+000
 6.938000246747534e-001	 1.337405766263471e+000	 6.878544131373027e+000
 6.793460594090302e-001	 1.344805416395201e+000	 6.696214572612291e+000
 6.648382920499100e-001	 1.352036510994155e+000	 6.511948237457756e+000
 6.502795837870479e-001	 1.359098648601329e+000	 6.327151414610678e+000
 6.356727935789340e-001	 1.365991490565752e+000	 6.143394908819244e+000
 6.210207764852744e-001	 1.372714760678931e+000	 5.961758756276923e+000
 6.063263820210938e-001	 1.379268244758125e+000	 5.783348925183494e+000
 5.915924525343077e-001	 1.385651790179613e+000	 5.609287828690502e+000
 7.498501806627993e-001	 1.337458470091355e+000	 7.516102716103073e+000
 7.353221473168309e-001	 1.345500595902038e+000	 7.340949703925369e+000
 7.207306278798588e-001	 1.353372795297910e+000	 7.163571893425993e+000
 7.060785306134998e-001	 1.361074466261638e+000	 6.984383576911493e+000
 6.913687667140009e-001	 1.368605071488112e+000	 6.803746462631211e+000
 6.766042485600982e-001	 1.375964138175143e+000	 6.621969568726013e+000
 6.617878879772690e-001	 1.383151257758930e+000	 6.439405604926867e+000
 6.469225945203407e-001	 1.390166085595247e+000	 6.257820524127649e+000
 6.320112737763581e-001	 1.397008340587419e+000	 6.078715843472253e+000
 6.170568256895568e-001	 1.403677804762223e+000	 5.903295584948807e+000
 6.020621429102250e-001	 1.410174322794896e+000	 5.732778881977468e+000
 4.973648073080526e-001	 1.164947985140473e+000	 3.554368150834731e+000
 4.849449475210769e-001	 1.170172597316046e+000	 3.393840246911351e+000
 4.724965980002161e-001	 1.175254193189512e+000	 3.236630574105083e+000
 4.600221239627185e-001	 1.180192797882715e+000	 3.082837978748019e+000
 4.475238793346627e-001	 1.184988486332486e+000	 2.932566543704309e+000
 4.350042055046847e-001	 1.189641382703130e+000	 2.785925087931545e+000
 4.224654301051314e-001	 1.194151659763825e+000	 2.643026511821093e+000
 4.099098658216919e-001	 1.198519538232249e+000	 2.503986997796304e+000
 3.973398092324927e-001	 1.202745286085772e+000	 2.368925076488873e+000
 3.847575396775870e-001	 1.206829217841571e+000	 2.237960569557427e+000
 3.721653181596841e-001	 1.210771693807061e+000	 2.111213420852095e+000
 5.078346154609772e-001	 1.189470793619292e+000	 3.862184051676314e+000
 4.951533106594304e-001	 1.194805386811314e+000	 3.702197937853694e+000
 4.824429163991849e-001	 1.199993953127882e+000	 3.545377503156589e+000
 4.697058476866244e-001	 1.205036518219667e+000	 3.391824271039580e+000
 4.569445079992764e-001	 1.209933158600962e+000	 3.241646332888967e+000
 4.441612880133066e-001	 1.214684001049800e+000	 3.094957799770683e+000
 4.313585643590141e-001	 1.219289221972249e+000	 2.951878077818394e+000
 4.185386984054039e-001	 1.223749046732216e+000	 2.812530977930371e+000
 4.057040350748469e-001	 1.228063748948146e+000	 2.677043671400360e+000
 3.928569016887677e-001	 1.232233649757978e+000	 2.545545503954402e+000
 3.799996068452374e-001	 1.236259117053800e+000	 2.418166681394031e+000
 5.183044000580986e-001	 1.213993546925534e+000	 4.150029441290848e+000
 5.053616508301387e-001	 1.219438120886603e+000	 3.989413839992151e+000
 4.923892124200254e-001	 1.224733657405657e+000	 3.831660284895732e+000
 4.793895496231638e-001	 1.229880182662189e+000	 3.676880261137475e+000
 4.663651154684179e-001	 1.234877774747946e+000	 3.525194014926956e+000
 4.533183499193709e-001	 1.239726563054676e+000	 3.376729931290905e+000
 4.402516786041618e-001	 1.244426727625320e+000	 3.231623710162995e+000
 4.271675115750019e-001	 1.248978498470000e+000	 3.090017352855329e+000
 4.140682420983949e-001	 1.253382154848216e+000	 2.952057972033962e+000
 4.009562454770290e-001	 1.257638024518649e+000	 2.817896439277856e+000
 3.878338779042280e-001	 1.261746482958037e+000	 2.687685885129107e+000
 5.287741637167839e-001	 1.238516251189468e+000	 4.418018437863510e+000
 5.155699705852225e-001	 1.244070805699674e+000	 4.255798096470405e+000
 5.023354885492571e-001	 1.249473312207339e+000	 4.095997790830648e+000
 4.890732321932147e-001	 1.254723797420769e+000	 3.938745944046143e+000
 4.757857040971966e-001	 1.259822341009158e+000	 3.784182830644292e+000
 4.624753935121033e-001	 1.264769074977958e+000	 3.632459853764975e+000
 4.491447750638161e-001	 1.269564183006969e+000	 3.483738592020188e+000
 4.357963074876533e-001	 1.274207899752516e+000	 3.338189629617661e+000
 4.224324323941557e-001	 1.278700510115136e+000	 3.195991184567150e+000
 4.090555730671776e-001	 1.283042348474234e+000	 3.057327550870337e+000
 3.956681332952000e-001	 1.287233797891179e+000	 2.922387371532525e+000
 5.392439090544005e-001	 1.263038912541362e+000	 4.666142197542470e+000
 5.257782724767011e-001	 1.268703447408290e+000	 4.501540854350287e+000
 5.122817472733993e-001	 1.274212923717429e+000	 4.338789825325903e+000
 4.987568978176553e-001	 1.279567368705895e+000	 4.178041156069881e+000
 4.852062762407214e-001	 1.284766863620316e+000	 4.019462770764621e+000
 4.716324210807296e-001	 1.289811543079843e+000	 3.863237621815941e+000
 4.580378559612177e-001	 1.294701594401128e+000	 3.709562576876440e+000
 4.444250883005267e-001	 1.299437256886679e+000	 3.558647058597407e+000
 4.307966080531481e-001	 1.304018821078061e+000	 3.410711453835241e+000
 4.171548864840204e-001	 1.308446627975386e+000	 3.265985310261158e+000
 4.035023749766974e-001	 1.312721068224635e+000	 3.124705339377963e+000
 5.497136386883157e-001	 1.287561537111484e+000	 4.894257787383324e+000
 5.359865590565952e-001	 1.293336052170213e+000	 4.726702371625740e+000
 5.222279910789711e-001	 1.298952498120428e+000	 4.560308591591536e+000
 5.084405489173633e-001	 1.304410902728050e+000	 4.395258522054114e+000
 4.946268342541013e-001	 1.309711348817139e+000	 4.231755124026821e+000
 4.807894349144759e-001	 1.314853973620533e+000	 4.070021239359620e+000
 4.669309235196081e-001	 1.319838968091726e+000	 3.910298286560635e+000
 4.530538561707893e-001	 1.324666576179405e+000	 3.752844675150801e+000
 4.391607711663913e-001	 1.329337094066145e+000	 3.597933957412046e+000
 4.252541877523637e-001	 1.333850869372756e+000	 3.445860816272121e+000
 4.113366049072643e-001	 1.338208300329813e+000	 3.297576717788842e+000
 5.601833552358967e-001	 1.312084131030102e+000	 5.102077689424441e+000
 5.461948328769253e-001	 1.317968626143207e+000	 4.931203668167537e+000
 5.321742224524917e-001	 1.323692041600839e+000	 4.760690598138511e+000
 5.181241879132170e-001	 1.329254405697723e+000	 4.590756723621261e+000
 5.040473804924455e-001	 1.334655802835345e+000	 4.421677485336287e+000
 4.899464373025677e-001	 1.339896372860226e+000	 4.254429539578699e+000
 4.758239799622283e-001	 1.344976310362696e+000	 4.089750973852853e+000
 4.616826132556096e-001	 1.349895863937608e+000	 3.928117611712042e+000
 4.475249238249042e-001	 1.354655335408544e+000	 3.769979276031484e+000
 4.333534788970148e-001	 1.359255079016994e+000	 3.615757403592599e+000
 4.191708250454448e-001	 1.363695500578122e+000	 3.465843063884984e+000
 5.706530613145106e-001	 1.336606700427484e+000	 5.289239088515356e+000
 5.564030964897108e-001	 1.342601175485032e+000	 5.115609597883432e+000
 5.421204438804808e-001	 1.348431560343163e+000	 4.942462767971124e+000
 5.278078172260935e-001	 1.354097883825399e+000	 4.770366279525822e+000
 5.134679173108632e-001	 1.359600231910653e+000	 4.599873225454548e+000
 4.991034305342312e-001	 1.364938747059123e+000	 4.431517769272226e+000
 4.847170275123195e-001	 1.370113627497968e+000	 4.265811310931188e+000
 4.703113617121550e-001	 1.375125126468206e+000	 4.103239154818611e+000
 4.558890681197054e-001	 1.379973551434411e+000	 3.944257670446124e+000
 4.414527619427803e-001	 1.384659263258752e+000	 3.789291932378330e+000
 4.270050373497829e-001	 1.389182675340970e+000	 3.638733822281541e+000
 5.811227595415254e-001	 1.361129251433898e+000	 5.459214264635060e+000
 5.666113524469723e-001	 1.367233706353451e+000	 5.285790293822028e+000
 5.520666578494572e-001	 1.373171060531899e+000	 5.112850277474658e+000
 5.374914392768710e-001	 1.378941343321566e+000	 4.940984070968017e+000
 5.228884470644628e-001	 1.384544642278781e+000	 4.770764013980386e+000
 5.082604168986920e-001	 1.389981102477423e+000	 4.602740341286823e+000
 4.936100683931231e-001	 1.395250925781474e+000	 4.437437176913412e+000
 4.789401036975942e-001	 1.400354370078113e+000	 4.275349104407270e+000
 4.642532061418141e-001	 1.405291748472903e+000	 4.116938301179912e+000
 4.495520389144668e-001	 1.410063428448682e+000	 3.962632220411385e+000
 4.348392437788227e-001	 1.414669830989763e+000	 3.812821799888360e+000
 5.915924525343077e-001	 1.385651790179613e+000	 5.609287828690500e+000
 5.768196033007296e-001	 1.391866224906227e+000	 5.437788351878236e+000
 5.620128668459405e-001	 1.397910548351552e+000	 5.266779567715014e+000
 5.471750564864276e-001	 1.403784790396708e+000	 5.096875359365283e+000
 5.323089721083540e-001	 1.409489040175448e+000	 4.928668512266737e+000
 5.174173986851759e-001	 1.415023445375324e+000	 4.762725863489965e+000
 5.025031048278797e-001	 1.420388211497145e+000	 4.599584119380617e+000
 4.875688413690945e-001	 1.425583601074242e+000	 4.439746331933632e+000
 4.726173399822490e-001	 1.430609932853171e+000	 4.283679018964657e+000
 4.576513118368814e-001	 1.435467580937434e+000	 4.131809908133581e+000
 4.426734462911082e-001	 1.440156973895912e+000	 3.984526280262280e+000
 6.020621429102250e-001	 1.410174322794896e+000	 5.732778881977469e+000
 5.870278516030029e-001	 1.416498737301121e+000	 5.565139265081888e+000
 5.719590733564497e-001	 1.422650029986620e+000	 5.398021077416481e+000
 5.568586712756409e-001	 1.428628231261313e+000	 5.232064025662573e+000
 5.417294947976459e-001	 1.434433431836373e+000	 5.067882347720408e+000
 5.265743781829089e-001	 1.440065782013029e+000	 4.906059687485678e+000
 5.113961390398313e-001	 1.445525490928912e+000	 4.747144732572152e+000
 4.961975768838239e-001	 1.450812825763512e+000	 4.591647602826417e+000
 4.809814717320292e-001	 1.455928110904371e+000	 4.440036971451754e+000
 4.657505827348304e-001	 1.460871727075660e+000	 4.292737894951742e+000
 4.505076468451836e-001	 1.465644110430823e+000	 4.150130322951956e+000
 3.721653181596841e-001	 1.210771693807061e+000	 2.111213420852095e+000
 3.595653860970648e-001	 1.214573118999657e+000	 1.989111699952726e+000
 3.469599637677736e-001	 1.218233941437156e+000	 1.871839337434103e+000
 3.343512498799867e-001	 1.221754652219686e+000	 1.759150052929138e+000
 3.217414207892364e-001	 1.225135784980603e+000	 1.650797700445012e+000
 3.091326295656695e-001	 1.228377915011984e+000	 1.546535305141414e+000
 2.965270050962132e-001	 1.231481658369039e+000	 1.446114042708704e+000
 2.839266512220445e-001	 1.234447670954891e+000	 1.349282174073815e+000
 2.713336459116921e-001	 1.237276647587193e+000	 1.255783948062974e+000
 2.587500404700431e-001	 1.239969321048035e+000	 1.165358484469227e+000
 2.461778587834510e-001	 1.242526461118597e+000	 1.077738649701767e+000
 3.799996068452374e-001	 1.236259117053800e+000	 2.418166681394031e+000
 3.671344391456395e-001	 1.240140564378870e+000	 2.295368722497676e+000
 3.542636656061270e-001	 1.243878449182008e+000	 2.177343157435945e+000
 3.413895312189302e-001	 1.247473272901273e+000	 2.063816919256330e+000
 3.285142581531008e-001	 1.250925580403296e+000	 1.954518652298327e+000
 3.156400448021336e-001	 1.254235959090374e+000	 1.849177597518174e+000
 3.027690648672338e-001	 1.257405037986019e+000	 1.747522409716923e+000
 2.899034664766288e-001	 1.260433486800481e+000	 1.649279921143292e+000
 2.770453713412645e-001	 1.263322014977708e+000	 1.554173865841616e+000
 2.641968739471592e-001	 1.266071370725263e+000	 1.461923578915987e+000
 2.513600407846233e-001	 1.268682340028648e+000	 1.372242684585374e+000
 3.878338779042280e-001	 1.261746482958037e+000	 2.687685885129107e+000
 3.747034751643715e-001	 1.265707952235458e+000	 2.561953274047196e+000
 3.615673510116165e-001	 1.269522899230740e+000	 2.440933355364971e+000
 3.484277967221451e-001	 1.273191835719855e+000	 2.324344874771072e+000
 3.352870802784262e-001	 1.276715317802694e+000	 2.211909872932211e+000
 3.221474453972028e-001	 1.280093944991751e+000	 2.103352375407935e+000
 3.090111105938582e-001	 1.283328359278823e+000	 1.998397003444376e+000
 2.958802682835722e-001	 1.286419244181258e+000	 1.896767522071725e+000
 2.827570839196105e-001	 1.289367323769279e+000	 1.798185341822096e+000
 2.696436951690276e-001	 1.292173361675890e+000	 1.702367990165683e+000
 2.565422111259951e-001	 1.294838160090888e+000	 1.609027568434086e+000
 3.956681332952000e-001	 1.287233797891179e+000	 2.922387371532525e+000
 3.822724960455041e-001	 1.291275288960849e+000	 2.791784649412442e+000
 3.688710218101570e-001	 1.295167297994062e+000	 2.665822442351933e+000
 3.554660481492020e-001	 1.298910347104691e+000	 2.544229698425547e+000
 3.420598888584344e-001	 1.302505003625874e+000	 2.426740294222850e+000
 3.286548329777549e-001	 1.305951879180282e+000	 2.313091483201247e+000
 3.152531438366364e-001	 1.309251628727975e+000	 2.203022253447942e+000
 3.018570581371236e-001	 1.312404949593379e+000	 2.096271613453265e+000
 2.884687850747150e-001	 1.315412580472970e+000	 1.992576824382061e+000
 2.750905054974154e-001	 1.318275300425168e+000	 1.891671597084571e+000
 2.617243711031739e-001	 1.320993927844035e+000	 1.793284271723260e+000
 4.035023749766974e-001	 1.312721068224635e+000	 3.124705339377963e+000
 3.898415036812796e-001	 1.316842580946469e+000	 2.987584622493505e+000
 3.761746798276636e-001	 1.320811651882687e+000	 2.855009951281321e+000
 3.625042872596722e-001	 1.324628813485048e+000	 2.726738726094494e+000
 3.488326855863470e-001	 1.328294644319918e+000	 2.602535003575449e+000
 3.351622091706676e-001	 1.331809768120133e+000	 2.482167654932229e+000
 3.214951661561188e-001	 1.335174852813998e+000	 2.365536764937709e+000
 3.078338375315319e-001	 1.338390609533002e+000	 2.252996670195002e+000
 2.941804762345622e-001	 1.341457791599845e+000	 2.144330623580612e+000
 2.805373062940900e-001	 1.344377193498346e+000	 2.039222287747050e+000
 2.669065220117670e-001	 1.347149649826810e+000	 1.937335515573677e+000
 4.113366049072643e-001	 1.338208300329813e+000	 3.297576717788842e+000
 3.974104999639416e-001	 1.342409834583748e+000	 3.154344214251701e+000
 3.834783268900516e-001	 1.346455967307327e+000	 3.016658048378893e+000
 3.695425158131264e-001	 1.350347241290185e+000	 2.884305105065341e+000
 3.556054721553857e-001	 1.354084246331904e+000	 2.757048148655294e+000
 3.416695756028192e-001	 1.357667618275472e+000	 2.634626173738758e+000
 3.277371791128551e-001	 1.361098038017419e+000	 2.516754958078580e+000
 3.138106079610459e-001	 1.364376230496281e+000	 2.403127792907045e+000
 2.998921588271372e-001	 1.367502963660970e+000	 2.293416365241464e+000
 2.859840989208189e-001	 1.370479047420677e+000	 2.187271766548152e+000
 2.720886651473818e-001	 1.373305332577932e+000	 2.084325602021486e+000
 4.191708250454448e-001	 1.363695500578122e+000	 3.465843063884984e+000
 4.049794867857331e-001	 1.367977056264114e+000	 3.321125488900171e+000
 3.907819648232359e-001	 1.372100250678695e+000	 3.182104397876099e+000
 3.765807355691360e-001	 1.376065636949365e+000	 3.048542670233921e+000
 3.623782502587722e-001	 1.379873816108914e+000	 2.920176702943574e+000
 3.481769339010870e-001	 1.383525436110463e+000	 2.796717106066376e+000
 3.339791842673958e-001	 1.387021190818762e+000	 2.677849628834283e+000
 3.197873709199146e-001	 1.390361818979375e+000	 2.563236287089375e+000
 3.056038342804242e-001	 1.393548103167406e+000	 2.452516662265247e+000
 2.914308847393696e-001	 1.396580868717411e+000	 2.345309341755091e+000
 2.772708018056258e-001	 1.399460982636122e+000	 2.241213470468090e+000
 4.270050373497829e-001	 1.389182675340970e+000	 3.638733822281541e+000
 4.125484660388972e-001	 1.393544252378993e+000	 3.493465224887360e+000
 3.980855954531315e-001	 1.397744508407502e+000	 3.353965970396117e+000
 3.836189482872718e-001	 1.401784006891852e+000	 3.219976420799109e+000
 3.691510215897282e-001	 1.405663360098026e+000	 3.091207445773146e+000
 3.546842856923493e-001	 1.409383228089274e+000	 2.967341511787337e+000
 3.402211831802909e-001	 1.412944317698551e+000	 2.848034034342792e+000
 3.257641279023869e-001	 1.416347381478438e+000	 2.732914959220695e+000
 3.113155040224079e-001	 1.419593216630219e+000	 2.621590537916915e+000
 2.968776651115092e-001	 1.422682663913800e+000	 2.513645262080839e+000
 2.824529332821062e-001	 1.425616606540098e+000	 2.408643921757349e+000
 4.348392437788227e-001	 1.414669830989763e+000	 3.812821799888360e+000
 4.201174396156771e-001	 1.419111429319816e+000	 3.668346581315705e+000
 4.053892206056536e-001	 1.423388746904461e+000	 3.529633365622562e+000
 3.906571557271050e-001	 1.427502357546906e+000	 3.396400100234049e+000
 3.759237878414754e-001	 1.431452884746319e+000	 3.268331512335916e+000
 3.611916326034839e-001	 1.435241000676072e+000	 3.145080646674326e+000
 3.464631774120903e-001	 1.438867425137311e+000	 3.026270703611619e+000
 3.317408804027114e-001	 1.442332924489626e+000	 2.911497137794473e+000
 3.170271694810728e-001	 1.445638310560474e+000	 2.800329977019502e+000
 3.023244413990053e-001	 1.448784439535093e+000	 2.692316320505323e+000
 2.876350608724304e-001	 1.451772210828581e+000	 2.586982975779721e+000
 4.426734462911082e-001	 1.440156973895912e+000	 3.984526280262280e+000
 4.276864094083155e-001	 1.444678593478009e+000	 3.842582750032274e+000
 4.126928421067176e-001	 1.449032972580286e+000	 3.706312162055837e+000
 3.976953596482061e-001	 1.453220695343790e+000	 3.575408754130531e+000
 3.826965507072357e-001	 1.457242396500876e+000	 3.449529020508557e+000
 3.676989762613686e-001	 1.461098760335022e+000	 3.328293760150430e+000
 3.527051685233442e-001	 1.464790519615566e+000	 3.211290467252176e+000
 3.377176299151375e-001	 1.468318454509096e+000	 3.098076018253949e+000
 3.227388320844036e-001	 1.471683391469234e+000	 2.988179608695155e+000
 3.077712149636253e-001	 1.474886202106543e+000	 2.881105892879079e+000
 2.928171858722058e-001	 1.477927802040290e+000	 2.776338279332813e+000
 4.505076468451836e-001	 1.465644110430823e+000	 4.150130322951956e+000
 4.352553773090560e-001	 1.470245751245001e+000	 4.012834213189698e+000
 4.199964617822380e-001	 1.474677191845686e+000	 3.881040182005248e+000
 4.047335618101466e-001	 1.478939026711766e+000	 3.754416048549347e+000
 3.894693118802304e-001	 1.483031901808773e+000	 3.632586485005867e+000
 3.742063182928812e-001	 1.486956513530291e+000	 3.515135644031806e+000
 3.589471580746028e-001	 1.490713607613841e+000	 3.401610175764702e+000
 3.436943779339139e-001	 1.494303978033006e+000	 3.291522581785735e+000
 3.284504932603850e-001	 1.497728465867564e+000	 3.184354852499940e+000
 3.132179871671365e-001	 1.500987958153400e+000	 3.079562333965139e+000
 2.979993095770399e-001	 1.504083386713946e+000	 2.976577770248917e+000
 2.461778587834510e-001	 1.242526461118597e+000	 1.077738649701766e+000
 2.336209787353383e-001	 1.244948520494780e+000	 9.944180071884580e-001
 2.210794773494281e-001	 1.247236734201940e+000	 9.167711483697703e-001
 2.085552884195949e-001	 1.249391977736748e+000	 8.443846806930043e-001
 1.960503157475883e-001	 1.251415159572273e+000	 7.768426874599236e-001
 1.835664325704446e-001	 1.253307220138870e+000	 7.137257247467089e-001
 1.711054810238903e-001	 1.255069130798217e+000	 6.546098603414788e-001
 1.586692716415527e-001	 1.256701892811832e+000	 5.990657635773835e-001
 1.462595828897382e-001	 1.258206536305377e+000	 5.466578542337197e-001
 1.338781607374896e-001	 1.259584119230017e+000	 4.969435179478406e-001
 1.215267182615959e-001	 1.260835726322077e+000	 4.494723948251244e-001
 2.513600407846233e-001	 1.268682340028648e+000	 1.372242684585374e+000
 2.385388313687072e-001	 1.271155385113263e+000	 1.286812722348454e+000
 2.257333243445114e-001	 1.273491767002438e+000	 1.207185827303876e+000
 2.129454942133351e-001	 1.275692379622538e+000	 1.132915419108461e+000
 2.001772848530018e-001	 1.277758150570499e+000	 1.063552823175735e+000
 1.874306089332176e-001	 1.279690040073258e+000	 9.986460963731081e-001
 1.747073473676788e-001	 1.281489039940201e+000	 9.377388984947035e-001
 1.620093488027417e-001	 1.283156172509960e+000	 8.803694196650431e-001
 1.493384291424061e-001	 1.284692489592919e+000	 8.260693730397396e-001
 1.366963711093230e-001	 1.286099071410704e+000	 7.743630613469807e-001
 1.240849238414895e-001	 1.287377025533950e+000	 7.247665249652693e-001
 2.565422111259951e-001	 1.294838160090888e+000	 1.609027568434085e+000
 2.434566729370095e-001	 1.297362190769154e+000	 1.520059302223313e+000
 2.303871608685430e-001	 1.299746740731929e+000	 1.437217292766047e+000
 2.173356901292265e-001	 1.301992722335230e+000	 1.360037608609673e+000
 2.043042446728649e-001	 1.304101082299809e+000	 1.288054071673612e+000
 1.912947766017440e-001	 1.306072800649137e+000	 1.220796879257369e+000
 1.783092056074410e-001	 1.307908889640256e+000	 1.157791277186321e+000
 1.653494184489528e-001	 1.309610392688861e+000	 1.098556295652297e+000
 1.524172684678871e-001	 1.311178383290003e+000	 1.042603558419209e+000
 1.395145751404186e-001	 1.312613963935719e+000	 9.894361751399621e-001
 1.266431236656700e-001	 1.313918265030891e+000	 9.385477255770456e-001
 2.617243711031739e-001	 1.320993927844035e+000	 1.793284271723261e+000
 2.483745046697697e-001	 1.323568944013921e+000	 1.699544999729973e+000
 2.350409880850431e-001	 1.326001661953930e+000	 1.612429929141552e+000
 2.217258772648734e-001	 1.328293012449679e+000	 1.531473796192928e+000
 2.084311962389666e-001	 1.330443961345699e+000	 1.456208380054174e+000
 1.951589365421072e-001	 1.332455508461953e+000	 1.386160885811921e+000
 1.819110566436752e-001	 1.334328686503093e+000	 1.320893249351408e+000
 1.686894814152311e-001	 1.336064559961831e+000	 1.260085607412794e+000
 1.554961016359138e-001	 1.337664224017839e+000	 1.203199993830050e+000
 1.423327735353477e-001	 1.339128803433513e+000	 1.149664140516584e+000
 1.292013183737076e-001	 1.340459451447940e+000	 1.098899726717429e+000
 2.669065220117670e-001	 1.347149649826810e+000	 1.937335515573678e+000
 2.532923277965124e-001	 1.349775651399042e+000	 1.840942122114162e+000
 2.396948071575314e-001	 1.352256537231954e+000	 1.752138549942384e+000
 2.261160567178805e-001	 1.354593256540739e+000	 1.670350774999384e+000
 2.125581405830954e-001	 1.356786794293665e+000	 1.594998070190494e+000
 1.990230897203908e-001	 1.358838170107152e+000	 1.525493942965383e+000
 1.855129013768806e-001	 1.360748437133422e+000	 1.461247024181824e+000
 1.720295385366216e-001	 1.362518680942165e+000	 1.401661891708273e+000
 1.585749294162189e-001	 1.364150018397633e+000	 1.346139813511256e+000
 1.451509669986813e-001	 1.365643596532541e+000	 1.294079396357946e+000
 1.317595086051721e-001	 1.367000591420134e+000	 1.244877127728016e+000
 2.720886651473818e-001	 1.373305332577932e+000	 2.084325602021486e+000
 2.582101435467623e-001	 1.375982319475984e+000	 1.987031490843006e+000
 2.443486192495282e-001	 1.378511373129517e+000	 1.897656838659572e+000
 2.305062295858520e-001	 1.380893461183264e+000	 1.815581262634332e+000
 2.166850787370401e-001	 1.383129587729205e+000	 1.740179591895462e+000
 2.028872371026779e-001	 1.385220792180180e+000	 1.670823210096449e+000
 1.891147407075556e-001	 1.387168148135953e+000	 1.606881334983677e+000
 1.753695906481697e-001	 1.388972762243157e+000	 1.547722215329443e+000
 1.616537525785352e-001	 1.390635773050592e+000	 1.492714227094512e+000
 1.479691562349904e-001	 1.392158349861254e+000	 1.441226852300387e+000
 1.343176949996336e-001	 1.393541691582514e+000	 1.392631525793634e+000
 2.772708018056258e-001	 1.399460982636122e+000	 2.241213470468090e+000
 2.631279531500440e-001	 1.402188954796221e+000	 2.142856089745550e+000
 2.490024255245531e-001	 1.404766176210133e+000	 2.052666660158490e+000
 2.348963969663925e-001	 1.407193632952109e+000	 1.969977146401113e+000
 2.208120117325892e-001	 1.409472348237812e+000	 1.894116462590273e+000
 2.067513796550518e-001	 1.411603381276482e+000	 1.824412284512563e+000
 1.927165755361991e-001	 1.413587826115396e+000	 1.760192783804769e+000
 1.787096385849205e-001	 1.415426810478104e+000	 1.700788260912201e+000
 1.647325718925951e-001	 1.417121494597922e+000	 1.645532655415098e+000
 1.507873419488461e-001	 1.418673070048106e+000	 1.593764914180937e+000
 1.368758781966621e-001	 1.420082758570117e+000	 1.544830199773827e+000
 2.824529332821062e-001	 1.425616606540098e+000	 2.408643921757350e+000
 2.680457578358820e-001	 1.428395563911225e+000	 2.309373560597739e+000
 2.536562271461264e-001	 1.431020953037317e+000	 2.218411869534488e+000
 2.392865599571062e-001	 1.433493778422127e+000	 2.135040211505694e+000
 2.249389406015317e-001	 1.435815082404983e+000	 2.058538469535902e+000
 2.106155183435960e-001	 1.437985943991505e+000	 1.988187400469048e+000
 1.963184067633099e-001	 1.440007477676460e+000	 1.923270894660598e+000
 1.820496831819193e-001	 1.441880832260298e+000	 1.863078114509494e+000
 1.678113881281316e-001	 1.443607189660832e+000	 1.806905486717074e+000
 1.536055248448193e-001	 1.445187763721549e+000	 1.754058525310694e+000
 1.394340588358278e-001	 1.446623799017982e+000	 1.703853464735778e+000
 2.876350608724304e-001	 1.451772210828581e+000	 2.586982975779721e+000
 2.729635588338008e-001	 1.454602153372468e+000	 2.487258713477639e+000
 2.583100252777679e-001	 1.457275710174585e+000	 2.395850888581788e+000
 2.436767196555977e-001	 1.459793904168173e+000	 2.311985590551045e+000
 2.290658663756560e-001	 1.462157796816215e+000	 2.234888840043967e+000
 2.144796541343938e-001	 1.464368486920693e+000	 2.163789563472746e+000
 1.999202352893869e-001	 1.466427109423858e+000	 2.097922456541235e+000
 1.853897252742113e-001	 1.468334834203037e+000	 2.036530705192445e+000
 1.708902020548770e-001	 1.470092864860527e+000	 1.978868534689130e+000
 1.564237056274812e-001	 1.471702437510035e+000	 1.924203560009948e+000
 1.419922375567005e-001	 1.473164819561149e+000	 1.871818913335033e+000
 2.928171858722058e-001	 1.477927802040290e+000	 2.776338279332812e+000
 2.778813573733250e-001	 1.480808729731422e+000	 2.676924291452149e+000
 2.629638210829975e-001	 1.483530454185451e+000	 2.585677789279272e+000
 2.480668771594715e-001	 1.486094016765102e+000	 2.501763123199866e+000
 2.331927900867510e-001	 1.488500498057003e+000	 2.424345830068499e+000
 2.183437879935285e-001	 1.490751016659494e+000	 2.352596315913257e+000
 2.035220620149286e-001	 1.492846727962296e+000	 2.285693409543385e+000
 1.887297656968415e-001	 1.494788822919614e+000	 2.222827750504894e+000
 1.739690144425642e-001	 1.496578526818215e+000	 2.163204977441550e+000
 1.592418850014027e-001	 1.498217098042018e+000	 2.106048685719815e+000
 1.445504149988502e-001	 1.499705826834654e+000	 2.050603126126009e+000
 2.979993095770399e-001	 1.504083386713946e+000	 2.976577770248917e+000
 2.827991546839796e-001	 1.507015299539558e+000	 2.878539897617924e+000
 2.676176157253354e-001	 1.509785191633430e+000	 2.788341455393756e+000
 2.524570335663319e-001	 1.512394122787768e+000	 2.705076719615462e+000
 2.373197127666052e-001	 1.514843192712843e+000	 2.627842252347028e+000
 2.222079208870836e-001	 1.517133539803352e+000	 2.555741388323953e+000
 2.071238878404339e-001	 1.519266339896488e+000	 2.487888573216625e+000
 1.920698052848553e-001	 1.521242805023325e+000	 2.423413511400995e+000
 1.770478260609259e-001	 1.523064182155104e+000	 2.361465084091625e+000
 1.620600636711550e-001	 1.524731751945949e+000	 2.301215001863950e+000
 1.471085918018470e-001	 1.526246827473539e+000	 2.241861158936345e+000
 1.215267182615959e-001	 1.260835726322077e+000	 4.494723948251249e-001
 1.092050938783885e-001	 1.261962627821675e+000	 4.055411185210590e-001
 9.691681094146261e-002	 1.262965762463481e+000	 3.664901114910448e-001
 8.466350730218102e-002	 1.263846289909173e+000	 3.319039625111280e-001
 7.244678589573805e-002	 1.264605392478897e+000	 3.013618982228065e-001
 6.026821451849371e-002	 1.265244274109201e+000	 2.744371794554755e-001
 4.812932563820527e-002	 1.265764159316470e+000	 2.506965987800310e-001
 3.603161623652470e-002	 1.266166292166884e+000	 2.297000811408713e-001
 2.397654768310283e-002	 1.266451935253878e+000	 2.110003886495907e-001
 1.196554564061585e-002	 1.266622368684020e+000	 1.941429298836632e-001
 0.000000000000000e+000	 1.266678889072220e+000	 1.786656721163435e-001
 1.240849238414895e-001	 1.287377025533950e+000	 7.247665249652693e-001
 1.115039223538047e-001	 1.288527648942039e+000	 6.787820597529797e-001
 9.895696416848027e-002	 1.289551900130541e+000	 6.379792861955778e-001
 8.644572161462832e-002	 1.290450963172669e+000	 6.019433460390864e-001
 7.397183137018699e-002	 1.291226045277082e+000	 5.702542684411301e-001
 6.153689423456665e-002	 1.291878375723875e+000	 5.424861758433189e-001
 4.914247493488754e-002	 1.292409204806197e+000	 5.182066046895357e-001
 3.679010196516106e-002	 1.292819802778529e+000	 4.969759433140485e-001
 2.448126745774404e-002	 1.293111458812611e+000	 4.783469884497249e-001
 1.221742708636590e-002	 1.293285479961983e+000	 4.618646209699865e-001
 0.000000000000000e+000	 1.293343190136031e+000	 4.470655994598430e-001
 1.266431236656700e-001	 1.313918265030891e+000	 9.385477255770456e-001
 1.138027456571140e-001	 1.315092610294107e+000	 8.916997371694819e-001
 1.009971128054113e-001	 1.316137977981790e+000	 8.507291471735223e-001
 8.822793191734571e-002	 1.317055576578640e+000	 8.152087756585995e-001
 7.549687341352278e-002	 1.317846638181773e+000	 7.847056550060749e-001
 6.280557109632910e-002	 1.318512417414775e+000	 7.587800683804741e-001
 5.015562195217487e-002	 1.319054190347506e+000	 7.369847180717017e-001
 3.754858598735988e-002	 1.319473253422687e+000	 7.188640264810627e-001
 2.498598609687752e-002	 1.319770922390312e+000	 7.039535715432858e-001
 1.246930796544274e-002	 1.319948531250828e+000	 6.917796574237647e-001
 0.000000000000000e+000	 1.320007431208043e+000	 6.818590197342156e-001
 1.292013183737076e-001	 1.340459451447940e+000	 1.098899726717428e+000
 1.161015643630454e-001	 1.341657518518851e+000	 1.052914512789426e+000
 1.030372573623214e-001	 1.342724002663488e+000	 1.013792861839138e+000
 9.001013865592045e-002	 1.343660136777989e+000	 9.810464538558773e-001
 7.702191240704664e-002	 1.344467177847875e+000	 9.541888488899951e-001
 6.407424542099523e-002	 1.345146405840180e+000	 9.327347125923502e-001
 5.116876694340037e-002	 1.345699122601420e+000	 9.161989295651204e-001
 3.830706849278592e-002	 1.346126650762511e+000	 9.040956045852012e-001
 2.549070372671889e-002	 1.346430332651642e+000	 8.959369530078807e-001
 1.272118834083836e-002	 1.346611529216121e+000	 8.912320828605697e-001
 0.000000000000000e+000	 1.346671618954121e+000	 8.894856712964474e-001
 1.317595086051721e-001	 1.367000591420134e+000	 1.244877127728016e+000
 1.184003790463280e-001	 1.368222380257244e+000	 1.200851730244449e+000
 1.050773983492763e-001	 1.369309980821893e+000	 1.164385595099933e+000
 9.179234227593996e-002	 1.370264650421613e+000	 1.134953746982476e+000
 7.854694873205979e-002	 1.371087670930294e+000	 1.112038707553872e+000
 6.534291752577912e-002	 1.371780347658369e+000	 1.095129834567971e+000
 5.218191016189722e-002	 1.372344008228968e+000	 1.083722516320764e+000
 3.906554967110398e-002	 1.372780001461154e+000	 1.077317221100197e+000
 2.599542047348377e-002	 1.373089696261269e+000	 1.075418402777685e+000
 1.297306827554469e-002	 1.373274480523431e+000	 1.077533265112044e+000
 0.000000000000000e+000	 1.373335760040133e+000	 1.083170387303077e+000
 1.343176949996336e-001	 1.393541691582514e+000	 1.392631525793633e+000
 1.206991902816909e-001	 1.394787202150259e+000	 1.349565467162114e+000
 1.071175362763418e-001	 1.395895919103263e+000	 1.314705288234529e+000
 9.357454322299168e-002	 1.396869124160417e+000	 1.287472299116280e+000
 8.007198276986338e-002	 1.397708124083939e+000	 1.267301145628424e+000
 6.661158772789504e-002	 1.398414249527623e+000	 1.253639330697753e+000
 5.319505186099852e-002	 1.398988853891178e+000	 1.245946554300518e+000
 3.982402971197888e-002	 1.399433312181770e+000	 1.243693871073102e+000
 2.650013646338779e-002	 1.399749019883856e+000	 1.246362666442050e+000
 1.322494783255373e-002	 1.399937391838324e+000	 1.253443453802254e+000
 0.000000000000000e+000	 1.399999861131944e+000	 1.264434495105951e+000
 1.368758781966621e-001	 1.420082758570117e+000	 1.544830199773827e+000
 1.229979986438630e-001	 1.421351990838867e+000	 1.501680325796702e+000
 1.091576716535836e-001	 1.422481824153855e+000	 1.467271653891872e+000
 9.535674194266292e-002	 1.423473564645299e+000	 1.440954613546715e+000
 8.159701490175862e-002	 1.424328543963714e+000	 1.422099104753264e+000
 6.788025634455708e-002	 1.425048118106222e+000	 1.410094273796984e+000
 5.420819229403744e-002	 1.425633666249075e+000	 1.404348066197306e+000
 4.058250880507539e-002	 1.426086589587512e+000	 1.404286555191010e+000
 2.700485182264656e-002	 1.426408310184067e+000	 1.409353046179620e+000
 1.347682707485744e-002	 1.426600269826366e+000	 1.419006959525805e+000
 0.000000000000000e+000	 1.426663928895422e+000	 1.432722493835902e+000
 1.394340588358278e-001	 1.446623799017982e+000	 1.703853464735778e+000
 1.252968047075734e-001	 1.447916752964040e+000	 1.659542038536755e+000
 1.111978049910673e-001	 1.449067702619928e+000	 1.624335836298807e+000
 9.713893888054107e-002	 1.450077978527162e+000	 1.597496978189971e+000
 8.312204550904669e-002	 1.450948937224526e+000	 1.578313560459861e+000
 6.914892369297943e-002	 1.451681960052446e+000	 1.566099761613178e+000
 5.522133171434710e-002	 1.452278451963687e+000	 1.560195679368895e+000
 4.134098714005827e-002	 1.452739840341533e+000	 1.559966895890855e+000
 2.750956667747569e-002	 1.453067573826568e+000	 1.564803771133470e+000
 1.372870606544777e-002	 1.453263121153126e+000	 1.574120466428640e+000
 0.000000000000000e+000	 1.453327969996434e+000	 1.587353700171271e+000
 1.419922375567005e-001	 1.473164819561149e+000	 1.871818913335032e+000
 1.275956090475513e-001	 1.474481495166753e+000	 1.825241397820497e+000
 1.132379367988588e-001	 1.475653561147740e+000	 1.787903803559742e+000
 9.892113448221356e-002	 1.476682372456906e+000	 1.758962096663713e+000
 8.464707497302880e-002	 1.477569310521282e+000	 1.737605171060675e+000
 7.041759009037629e-002	 1.478315782024575e+000	 1.723055365328099e+000
 5.623447037526061e-002	 1.478923217696040e+000	 1.714568658621085e+000
 4.209946490659234e-002	 1.479393071106987e+000	 1.711434542082101e+000
 2.801428115409081e-002	 1.479726817476025e+000	 1.712975564838376e+000
 1.398058486731671e-002	 1.479925952484172e+000	 1.718546556332717e+000
 0.000000000000000e+000	 1.479991991100845e+000	 1.727533526505472e+000
 1.445504149988502e-001	 1.499705826834654e+000	 2.050603126126008e+000
 1.298944122385256e-001	 1.501046224087976e+000	 2.000635675330137e+000
 1.152780675870237e-001	 1.502239406383549e+000	 1.959757276345980e+000
 1.007033291932677e-001	 1.503286753085432e+000	 1.926999329017760e+000
 8.617210367500609e-002	 1.504189670508888e+000	 1.901433634997559e+000
 7.168625585396170e-002	 1.504949590680887e+000	 1.882173410229290e+000
 5.724760853011116e-002	 1.505567970107163e+000	 1.868373919141549e+000
 4.285794229434238e-002	 1.506046288547026e+000	 1.859232725620403e+000
 2.851899537870754e-002	 1.506386047797100e+000	 1.853989558961749e+000
 1.423246354345621e-002	 1.506588770485069e+000	 1.851925796036006e+000
 0.000000000000000e+000	 1.506655998874523e+000	 1.852363560776346e+000
 1.471085918018470e-001	 1.526246827473539e+000	 2.241861158936342e+000
 1.321932148552253e-001	 1.527610946368682e+000	 2.187367836124784e+000
 1.173181978656277e-001	 1.528825244973612e+000	 2.141472492900723e+000
 1.024855234592909e-001	 1.529891127063641e+000	 2.103062833129001e+000
 8.769713199627979e-002	 1.530810023842251e+000	 2.071075035630859e+000
 7.295492130094994e-002	 1.531583392679665e+000	 2.044495352474824e+000
 5.826074643223184e-002	 1.532212715858080e+000	 2.022361265491857e+000
 4.361641949297316e-002	 1.532699499324805e+000	 2.003762194549048e+000
 2.902370947754151e-002	 1.533045271454459e+000	 1.987839754689330e+000
 1.448434215685826e-002	 1.533251581821384e+000	 1.973787562715508e+000
 0.000000000000000e+000	 1.533319999983334e+000	 1.960850593848546e+000
 1.533319999983334e+000	 0.000000000000000e+000	 1.516687341404646e+001
 1.533251581821385e+000	 1.448434215685831e-002	 1.516354788537969e+001
 1.533045271454459e+000	 2.902370947754160e-002	 1.516526816457669e+001
 1.532699499324805e+000	 4.361641949297308e-002	 1.517075107606201e+001
 1.532212715858081e+000	 5.826074643223178e-002	 1.517867919053602e+001
 1.531583392679665e+000	 7.295492130094992e-002	 1.518770206933134e+001
 1.530810023842251e+000	 8.769713199627981e-002	 1.519643767073158e+001
 1.529891127063641e+000	 1.024855234592909e-001	 1.520347390501603e+001
 1.528825244973612e+000	 1.173181978656276e-001	 1.520737033528892e+001
 1.527610946368682e+000	 1.321932148552252e-001	 1.520666002006975e+001
 1.526246827473539e+000	 1.471085918018469e-001	 1.519985149251829e+001
 1.559987999982150e+000	 0.000000000000000e+000	 1.493332247366808e+001
 1.559918391869258e+000	 1.473625854557675e-002	 1.492388429057144e+001
 1.559708493285285e+000	 2.952849927044130e-002	 1.492059808727315e+001
 1.559356707374226e+000	 4.437501044347395e-002	 1.492205464678429e+001
 1.558861457611046e+000	 5.927403627859133e-002	 1.492681040573009e+001
 1.558221189039145e+000	 7.422377701450698e-002	 1.493338898947136e+001
 1.557434369519299e+000	 8.922238903169809e-002	 1.494028292800050e+001
 1.556499490988984e+000	 1.042679850074528e-001	 1.494595553857939e+001
 1.555415070730929e+000	 1.193586341098443e-001	 1.494884297156393e+001
 1.554179652649703e+000	 1.344923622314419e-001	 1.494735641463792e+001
 1.552791808555088e+000	 1.496671522635357e-001	 1.493988444942930e+001
 1.586655999981867e+000	 0.000000000000000e+000	 1.472269521457102e+001
 1.586585201918022e+000	 1.498817493449890e-002	 1.470722717160020e+001
 1.586371715116970e+000	 3.003328906368751e-002	 1.469896599499556e+001
 1.586013915424462e+000	 4.513360139441185e-002	 1.469638345792610e+001
 1.585510199364770e+000	 6.028732612543465e-002	 1.469791637565566e+001
 1.584858985399321e+000	 7.549263272855974e-002	 1.470196842364514e+001
 1.584058715196978e+000	 9.074764606759800e-002	 1.470691215690274e+001
 1.583107854914894e+000	 1.060504465560655e-001	 1.471109121581966e+001
 1.582004896488756e+000	 1.213990703544733e-001	 1.471282271432906e+001
 1.580748358931190e+000	 1.367915096080340e-001	 1.471039980485563e+001
 1.579336789637071e+000	 1.522257127255743e-001	 1.470209441311573e+001
 1.613323999982383e+000	 0.000000000000000e+000	 1.452914317430717e+001
 1.613252011967577e+000	 1.524009132357382e-002	 1.450805633352541e+001
 1.613034936949426e+000	 3.053807885719378e-002	 1.449516724984760e+001
 1.612671123475432e+000	 4.589219234567800e-002	 1.448883502050326e+001
 1.612158941119188e+000	 6.130061597264207e-002	 1.448738263627083e+001
 1.611496781760144e+000	 7.676148844298673e-002	 1.448909907631719e+001
 1.610683060875255e+000	 9.227290310386339e-002	 1.449224162657266e+001
 1.609716218841355e+000	 1.078329081050230e-001	 1.449503840621266e+001
 1.608594722247091e+000	 1.234395065994216e-001	 1.449569109748436e+001
 1.607317065213149e+000	 1.390906569849222e-001	 1.449237787258332e+001
 1.605881770719505e+000	 1.547842731878955e-001	 1.448325650971186e+001
 1.639991999983600e+000	 0.000000000000000e+000	 1.434744141288668e+001
 1.639918822017828e+000	 1.549200771275063e-002	 1.432143963039852e+001
 1.639698158782560e+000	 3.104286865087362e-002	 1.430455157046758e+001
 1.639328331527060e+000	 4.665078329716376e-002	 1.429502930735900e+001
 1.638807682874235e+000	 6.231390582009395e-002	 1.429108710300987e+001
 1.638134578121566e+000	 7.803034415766653e-002	 1.429090377391123e+001
 1.637307406554097e+000	 9.379816014037826e-002	 1.429262530579026e+001
 1.636324582768350e+000	 1.096153696542197e-001	 1.429436770005390e+001
 1.635184548005932e+000	 1.254799428445966e-001	 1.429422004664042e+001
 1.633885771495591e+000	 1.413898043620276e-001	 1.429024781621273e+001
 1.632426751802406e+000	 1.573428336504320e-001	 1.428049636287535e+001
 1.666659999985417e+000	 0.000000000000000e+000	 1.417293862829115e+001
 1.666585632068675e+000	 1.574392410197842e-002	 1.414298532499107e+001
 1.666361380616284e+000	 3.154765844464056e-002	 1.412297754157191e+001
 1.665985539579266e+000	 4.740937424876035e-002	 1.411106531477315e+001
 1.665456424629847e+000	 6.332719566767057e-002	 1.410535858336917e+001
 1.664772374483535e+000	 7.929919987247770e-002	 1.410392982396543e+001
 1.663931752233472e+000	 9.532341717702640e-002	 1.410481696100101e+001
 1.662932946695863e+000	 1.113978312035495e-001	 1.410602653436965e+001
 1.661774373765276e+000	 1.275203790899053e-001	 1.410553711871376e+001
 1.660454477778524e+000	 1.436889517392707e-001	 1.410130298654511e+001
 1.658971732885789e+000	 1.599013941131163e-001	 1.409125800539849e+001
 1.693327999987733e+000	 0.000000000000000e+000	 1.400151198573155e+001
 1.693252442120022e+000	 1.599584049120630e-002	 1.396879895072291e+001
 1.693024602450508e+000	 3.205244823840814e-002	 1.394677142407433e+001
 1.692642747631973e+000	 4.816796520035906e-002	 1.393348173319392e+001
 1.692105166385958e+000	 6.434048551525225e-002	 1.392693921758432e+001
 1.691410170846005e+000	 8.056805558729877e-002	 1.392511313200962e+001
 1.690556097913347e+000	 9.684867421369173e-002	 1.392593585259125e+001
 1.689541310623874e+000	 1.131802927529067e-001	 1.392730636875292e+001
 1.688364199525119e+000	 1.295608153352550e-001	 1.392709405447789e+001
 1.687023184061957e+000	 1.459880991165722e-001	 1.392314271023767e+001
 1.685516713969673e+000	 1.624599545758813e-001	 1.391327486479400e+001
 1.719995999990450e+000	 0.000000000000000e+000	 1.382952614905441e+001
 1.719919252171772e+000	 1.624775688038337e-002	 1.379544418715607e+001
 1.719687824285143e+000	 3.255723803208991e-002	 1.377268979902805e+001
 1.719299955685101e+000	 4.892655615185122e-002	 1.375922128111766e+001
 1.718753908142506e+000	 6.535377536271933e-002	 1.375295042106976e+001
 1.718047967208927e+000	 8.183691130200831e-002	 1.375174566832859e+001
 1.717180443593690e+000	 9.837393125025810e-002	 1.375343563889133e+001
 1.716149674552369e+000	 1.149627543021854e-001	 1.375581293669468e+001
 1.714954025285460e+000	 1.316012515805530e-001	 1.375663828450521e+001
 1.713591890345899e+000	 1.482872464938531e-001	 1.375364495486081e+001
 1.712061695054074e+000	 1.650185150386594e-001	 1.374454348922714e+001
 1.746663999993467e+000	 0.000000000000000e+000	 1.365379606518978e+001
 1.746586062223828e+000	 1.649967326945873e-002	 1.361990732010017e+001
 1.746351046120097e+000	 3.306202782559937e-002	 1.359788563564751e+001
 1.745957163738572e+000	 4.968514710312810e-002	 1.358559831061580e+001
 1.745402649899424e+000	 6.636706520995209e-002	 1.358086195436924e+001
 1.744685763572250e+000	 8.310576701648488e-002	 1.358144592658924e+001
 1.743804789274466e+000	 9.989918828660942e-002	 1.358507614507715e+001
 1.742758038481331e+000	 1.167452158512797e-001	 1.358943924371403e+001
 1.741543851046296e+000	 1.336416878257062e-001	 1.359218707285454e+001
 1.740160596630359e+000	 1.505863938710342e-001	 1.359094153186805e+001
 1.738606676139007e+000	 1.675770755013836e-001	 1.358329972091784e+001
 1.773331999996684e+000	 0.000000000000000e+000	 1.347155310656298e+001
 1.773252872276091e+000	 1.675158965838147e-002	 1.343956490898307e+001
 1.773014267955283e+000	 3.356681761885008e-002	 1.341987742296234e+001
 1.772614371792308e+000	 5.044373805408099e-002	 1.341026934010670e+001
 1.772051391656649e+000	 6.738035505683089e-002	 1.340846379138744e+001
 1.771323559935927e+000	 8.437462273060700e-002	 1.341213205938307e+001
 1.770429134955646e+000	 1.014244453226296e-001	 1.341889769538713e+001
 1.769366402410742e+000	 1.185276774000839e-001	 1.342634102313601e+001
 1.768133676807624e+000	 1.356821240706220e-001	 1.343200402083121e+001
 1.766729302915345e+000	 1.528855412480361e-001	 1.343339557031474e+001
 1.765151657224491e+000	 1.701356359639863e-001	 1.342799705936958e+001
 1.800000000000000e+000	 0.000000000000000e+000	 1.328041422321962e+001
 1.799919682328466e+000	 1.700350604710072e-002	 1.325215432886522e+001
 1.799677489790610e+000	 3.407160741175556e-002	 1.323652104737793e+001
 1.799271579846229e+000	 5.120232900460112e-002	 1.323120621079128e+001
 1.798700133414114e+000	 6.839364490323605e-002	 1.323384049569710e+001
 1.797961356299907e+000	 8.564347844425327e-002	 1.324199741306375e+001
 1.797053480637195e+000	 1.029497023582024e-001	 1.325319774281550e+001
 1.795974766340585e+000	 1.203101389484920e-001	 1.326491439463619e+001
 1.794723502569440e+000	 1.377225603152076e-001	 1.327457768606007e+001
 1.793298009200867e+000	 1.551846886247796e-001	 1.327958102582878e+001
 1.791696638310540e+000	 1.726941964264003e-001	 1.327728698732133e+001
 1.526246827473539e+000	 1.471085918018469e-001	 1.519985149251829e+001
 1.524731751945950e+000	 1.620600636711551e-001	 1.519234360306788e+001
 1.523064182155104e+000	 1.770478260609258e-001	 1.518963325803712e+001
 1.521242805023325e+000	 1.920698052848553e-001	 1.519036153856184e+001
 1.519266339896488e+000	 2.071238878404338e-001	 1.519316891954281e+001
 1.517133539803352e+000	 2.222079208870836e-001	 1.519669799915407e+001
 1.514843192712843e+000	 2.373197127666054e-001	 1.519959628773067e+001
 1.512394122787768e+000	 2.524570335663319e-001	 1.520051904198003e+001
 1.509785191633430e+000	 2.676176157253354e-001	 1.519813212945918e+001
 1.507015299539557e+000	 2.827991546839795e-001	 1.519111490732576e+001
 1.504083386713946e+000	 2.979993095770399e-001	 1.517816309849939e+001
 1.552791808555088e+000	 1.496671522635357e-001	 1.493988444942930e+001
 1.551250382341223e+000	 1.648786649929308e-001	 1.493209035689873e+001
 1.549553809634328e+000	 1.801270994193072e-001	 1.492975810339606e+001
 1.547700754519251e+000	 1.954103457901381e-001	 1.493144603178864e+001
 1.545689914068317e+000	 2.107262538441939e-001	 1.493571389402352e+001
 1.543520019622557e+000	 2.260726332979972e-001	 1.494112593232624e+001
 1.541189838070859e+000	 2.414472543753199e-001	 1.494625402696930e+001
 1.538698173125491e+000	 2.568478483801319e-001	 1.494968089480204e+001
 1.536043866592424e+000	 2.722721083133523e-001	 1.495000332161018e+001
 1.533225799634873e+000	 2.877176895336973e-001	 1.494583541031192e+001
 1.530242894028381e+000	 3.031822104628573e-001	 1.493581182601612e+001
 1.579336789637071e+000	 1.522257127255743e-001	 1.470209441311573e+001
 1.577769012736920e+000	 1.676972663150494e-001	 1.469380251586589e+001
 1.576043437113978e+000	 1.832063727780419e-001	 1.469156624668578e+001
 1.574158704015620e+000	 1.987508862957980e-001	 1.469386843514408e+001
 1.572113488240613e+000	 2.143286198483647e-001	 1.469919533260792e+001
 1.569906499442260e+000	 2.299373457093609e-001	 1.470604005611431e+001
 1.567536483429407e+000	 2.455747959845261e-001	 1.471290610660989e+001
 1.565002223463775e+000	 2.612386631944633e-001	 1.471831094388110e+001
 1.562302541552006e+000	 2.769266009019343e-001	 1.472078959923235e+001
 1.559436299730789e+000	 2.926362243840045e-001	 1.471889830577905e+001
 1.556402401343417e+000	 3.083651113492743e-001	 1.471121812511695e+001
 1.605881770719505e+000	 1.547842731878955e-001	 1.448325650971186e+001
 1.604287643133057e+000	 1.705158676374521e-001	 1.447443318872072e+001
 1.602533064594071e+000	 1.862856461370759e-001	 1.447218848438983e+001
 1.600616653512444e+000	 2.020914268017832e-001	 1.447493594208988e+001
 1.598537062413384e+000	 2.179309858528943e-001	 1.448109452499165e+001
 1.596292979262458e+000	 2.338020581211211e-001	 1.448909243432888e+001
 1.593883128788470e+000	 2.497023375941674e-001	 1.449737101255717e+001
 1.591306273802593e+000	 2.656294780092663e-001	 1.450438870972637e+001
 1.588561216512131e+000	 2.815810934910187e-001	 1.450862509197328e+001
 1.585646799827250e+000	 2.975547592348355e-001	 1.450858486970711e+001
 1.582561908658987e+000	 3.135480122362240e-001	 1.450280192181915e+001
 1.632426751802406e+000	 1.573428336504320e-001	 1.428049636287536e+001
 1.630806273529654e+000	 1.733344689600800e-001	 1.427126816749301e+001
 1.629022692074626e+000	 1.893649194963554e-001	 1.426907103635497e+001
 1.627074603009735e+000	 2.054319673080419e-001	 1.427225447379352e+001
 1.624960636586632e+000	 2.215333518577308e-001	 1.427917536654331e+001
 1.622679459083146e+000	 2.376667705332243e-001	 1.428820219694130e+001
 1.620229774148032e+000	 2.538298792041876e-001	 1.429771934839646e+001
 1.617610324141914e+000	 2.700202928244812e-001	 1.430613148130435e+001
 1.614819891472758e+000	 2.862355860805423e-001	 1.431186795600695e+001
 1.611857299924204e+000	 3.024732940861247e-001	 1.431338727791029e+001
 1.608721415975027e+000	 3.187309131236401e-001	 1.430918153848454e+001
 1.658971732885789e+000	 1.599013941131163e-001	 1.409125800539849e+001
 1.657324903926732e+000	 1.761530702828741e-001	 1.408189504336044e+001
 1.655512319555662e+000	 1.924441928558264e-001	 1.407994584328140e+001
 1.653532552507511e+000	 2.087725078145225e-001	 1.408370013156415e+001
 1.651384210760366e+000	 2.251357178628224e-001	 1.409145693495446e+001
 1.649065938904318e+000	 2.415314829456167e-001	 1.410152920613833e+001
 1.646576419508075e+000	 2.579574208145299e-001	 1.411224855195759e+001
 1.643914374481710e+000	 2.744111076400478e-001	 1.412197004012347e+001
 1.641078566433845e+000	 2.908900786704421e-001	 1.412907705855841e+001
 1.638067800021593e+000	 3.073918289378069e-001	 1.413198619983795e+001
 1.634880923291471e+000	 3.239138140114559e-001	 1.412915214166237e+001
 1.685516713969673e+000	 1.624599545758813e-001	 1.391327486479399e+001
 1.683843534324310e+000	 1.789716716057755e-001	 1.390417528996907e+001
 1.682001947037197e+000	 1.955234662154352e-001	 1.390280372750677e+001
 1.679990502005782e+000	 2.121130483211732e-001	 1.390739341108627e+001
 1.677807784934589e+000	 2.287380838681173e-001	 1.391618873014061e+001
 1.675452418725971e+000	 2.453961953582446e-001	 1.392745029032563e+001
 1.672923064868585e+000	 2.620849624251379e-001	 1.393946008806075e+001
 1.670218424821950e+000	 2.788019224559066e-001	 1.395052677256322e+001
 1.667337241395350e+000	 2.955445712606550e-001	 1.395899096685763e+001
 1.664278300119365e+000	 3.123103637898162e-001	 1.396323061740240e+001
 1.661040430608252e+000	 3.290967148996047e-001	 1.396166634026120e+001
 1.712061695054074e+000	 1.650185150386594e-001	 1.374454348922713e+001
 1.710362164722407e+000	 1.817902729287253e-001	 1.373621899213747e+001
 1.708491574519249e+000	 1.986027395751275e-001	 1.373587010632283e+001
 1.706448451504562e+000	 2.154535888279422e-001	 1.374167587870362e+001
 1.704231359109308e+000	 2.323404498735635e-001	 1.375182828834151e+001
 1.701838898548098e+000	 2.492609077710546e-001	 1.376453776737085e+001
 1.699269710229544e+000	 2.662125040359551e-001	 1.377803884869580e+001
 1.696522475162606e+000	 2.831927372719976e-001	 1.379059591124313e+001
 1.693595916357230e+000	 3.001990638511179e-001	 1.380050899141415e+001
 1.690488800217466e+000	 3.172288986420876e-001	 1.380611962734281e+001
 1.687199937925307e+000	 3.342796157880200e-001	 1.380581670066602e+001
 1.738606676139007e+000	 1.675770755013836e-001	 1.358329972091785e+001
 1.736880795121043e+000	 1.846088742516645e-001	 1.357636193721695e+001
 1.734981202001836e+000	 2.016820129348496e-001	 1.357758298501915e+001
 1.732906401003865e+000	 2.187941293347777e-001	 1.358508904661900e+001
 1.730654933284528e+000	 2.359428158791092e-001	 1.359702091667574e+001
 1.728225378370697e+000	 2.531256201839929e-001	 1.361154001242177e+001
 1.725616355590934e+000	 2.703400456469253e-001	 1.362683452471199e+001
 1.722826525503650e+000	 2.875835520882610e-001	 1.364112567788703e+001
 1.719854591319444e+000	 3.048535564417678e-001	 1.365267406405310e+001
 1.716699300315840e+000	 3.221474334945551e-001	 1.365978601513056e+001
 1.713359445242568e+000	 3.394625166766351e-001	 1.366081997392285e+001
 1.765151657224491e+000	 1.701356359639863e-001	 1.342799705936958e+001
 1.763399425520238e+000	 1.874274755745342e-001	 1.342314482039371e+001
 1.761470829484977e+000	 2.047612862945475e-001	 1.342657298967026e+001
 1.759364350503703e+000	 2.221346698416280e-001	 1.343635521553287e+001
 1.757078507460254e+000	 2.395451818847026e-001	 1.345058132493133e+001
 1.754611858193762e+000	 2.569903325970059e-001	 1.346736385506814e+001
 1.751963000952741e+000	 2.744675872579916e-001	 1.348484474147859e+001
 1.749130575845050e+000	 2.919743669046370e-001	 1.350120212751321e+001
 1.746113266281949e+000	 3.095080490325418e-001	 1.351465725756782e+001
 1.742909800414432e+000	 3.270659683471534e-001	 1.352348141392629e+001
 1.739518952559972e+000	 3.446454175653835e-001	 1.352600285476136e+001
 1.791696638310540e+000	 1.726941964264003e-001	 1.327728698732133e+001
 1.789918055920011e+000	 1.902460768972756e-001	 1.327529434469781e+001
 1.787960456968690e+000	 2.078405596541674e-001	 1.328164522812548e+001
 1.785822300004091e+000	 2.254752103484413e-001	 1.329436008067790e+001
 1.783502081636491e+000	 2.431475478902916e-001	 1.331147695783009e+001
 1.780998338017287e+000	 2.608550450100400e-001	 1.333105861612629e+001
 1.778309646314947e+000	 2.785951288690977e-001	 1.335119977557544e+001
 1.775434626186778e+000	 2.963651817210658e-001	 1.337003451750563e+001
 1.772371941244703e+000	 3.141625416233767e-001	 1.338574377673707e+001
 1.769120300513190e+000	 3.319845031998169e-001	 1.339656288420248e+001
 1.765678459877450e+000	 3.498283184541985e-001	 1.340078911358772e+001
 1.504083386713946e+000	 2.979993095770399e-001	 1.517816309849939e+001
 1.500987958153399e+000	 3.132179871671365e-001	 1.516396948442255e+001
 1.497728465867564e+000	 3.284504932603852e-001	 1.515333797246720e+001
 1.494303978033006e+000	 3.436943779339137e-001	 1.514516246688548e+001
 1.490713607613841e+000	 3.589471580746027e-001	 1.513837212636837e+001
 1.486956513530291e+000	 3.742063182928812e-001	 1.513193390205295e+001
 1.483031901808774e+000	 3.894693118802305e-001	 1.512485494014811e+001
 1.478939026711766e+000	 4.047335618101468e-001	 1.511618482865986e+001
 1.474677191845686e+000	 4.199964617822379e-001	 1.510501766779621e+001
 1.470245751245001e+000	 4.352553773090560e-001	 1.509049394389011e+001
 1.465644110430824e+000	 4.505076468451837e-001	 1.507180218710129e+001
 1.530242894028381e+000	 3.031822104628573e-001	 1.493581182601612e+001
 1.527093628768171e+000	 3.186655762418404e-001	 1.492479305011074e+001
 1.523777446333049e+000	 3.341630110338180e-001	 1.491775508414181e+001
 1.520293398692991e+000	 3.496720223060635e-001	 1.491354501818015e+001
 1.516640583384481e+000	 3.651900837583482e-001	 1.491104938692066e+001
 1.512818144699393e+000	 3.807146362526285e-001	 1.490919700606382e+001
 1.508825274855080e+000	 3.962430887872052e-001	 1.490696165978769e+001
 1.504661215143897e+000	 4.117728195150920e-001	 1.490336461629222e+001
 1.500325257060339e+000	 4.273011768062745e-001	 1.489747694848609e+001
 1.495816743404018e+000	 4.428254803534433e-001	 1.488842163714952e+001
 1.491135069356658e+000	 4.583430223207199e-001	 1.487537543435446e+001
 1.556402401343417e+000	 3.083651113492743e-001	 1.471121812511695e+001
 1.553199299383525e+000	 3.241131653171373e-001	 1.470275826000734e+001
 1.549826426799085e+000	 3.398755288078223e-001	 1.469864639738539e+001
 1.546282819353484e+000	 3.556496666787523e-001	 1.469768820805805e+001
 1.542567559155575e+000	 3.714330094425919e-001	 1.469873340227743e+001
 1.538679775868886e+000	 3.872229542128295e-001	 1.470067888481300e+001
 1.534618647901714e+000	 4.030168656945872e-001	 1.470247174632071e+001
 1.530383403576289e+000	 4.188120772204010e-001	 1.470311206527065e+001
 1.525973322275190e+000	 4.346058918306374e-001	 1.470165549476861e+001
 1.521387735563173e+000	 4.503955833981296e-001	 1.469721560887776e+001
 1.516626028282580e+000	 4.661783977965402e-001	 1.468896598351863e+001
 1.582561908658987e+000	 3.135480122362240e-001	 1.450280192181915e+001
 1.579304969999390e+000	 3.295607543929612e-001	 1.449642068025922e+001
 1.575875407265591e+000	 3.455880465823346e-001	 1.449470567272896e+001
 1.572272240014396e+000	 3.616273110519195e-001	 1.449642569783961e+001
 1.568494534927030e+000	 3.776759351272775e-001	 1.450039860061598e+001
 1.564541407038679e+000	 3.937312721734312e-001	 1.450549476963627e+001
 1.560412020948581e+000	 4.097906426023273e-001	 1.451064045439880e+001
 1.556105592008850e+000	 4.258513349260275e-001	 1.451482087421733e+001
 1.551621387490148e+000	 4.419106068552816e-001	 1.451708309000643e+001
 1.546958727722380e+000	 4.579656864430683e-001	 1.451653861059286e+001
 1.542116987208505e+000	 4.740137732725954e-001	 1.451236570568918e+001
 1.608721415975027e+000	 3.187309131236401e-001	 1.430918153848454e+001
 1.605410640615688e+000	 3.350083434692462e-001	 1.430452197701775e+001
 1.601924387732486e+000	 3.513005643572913e-001	 1.430480026233951e+001
 1.598261660675640e+000	 3.676049554255052e-001	 1.430875201868304e+001
 1.594421510698755e+000	 3.839188608123485e-001	 1.431516734439974e+001
 1.590403038208676e+000	 4.002395901343809e-001	 1.432289467773465e+001
 1.586205393995587e+000	 4.165644195103766e-001	 1.433084446546768e+001
 1.581827780441484e+000	 4.328905926319244e-001	 1.433799260250820e+001
 1.577269452705119e+000	 4.492153218801608e-001	 1.434338361057054e+001
 1.572529719881547e+000	 4.655357894882130e-001	 1.434613352433875e+001
 1.567607946134350e+000	 4.818491487488354e-001	 1.434543245405487e+001
 1.634880923291471e+000	 3.239138140114559e-001	 1.412915214166237e+001
 1.631516311232345e+000	 3.404559325459265e-001	 1.412596919294817e+001
 1.627973368199684e+000	 3.570130821326286e-001	 1.412795122002069e+001
 1.624251081337129e+000	 3.735825997994487e-001	 1.413380351671582e+001
 1.620348486470660e+000	 3.901617864977486e-001	 1.414229170908749e+001
 1.616264669378785e+000	 4.067479080956263e-001	 1.415224601971090e+001
 1.611998767042638e+000	 4.233381964186860e-001	 1.416256531618639e+001
 1.607549968874099e+000	 4.399298503380456e-001	 1.417222090844198e+001
 1.602917517920016e+000	 4.565200369052302e-001	 1.418026005945295e+001
 1.598100712040590e+000	 4.731058925335174e-001	 1.418580917428002e+001
 1.593098905060033e+000	 4.896845242252110e-001	 1.418807663288179e+001
 1.661040430608252e+000	 3.290967148996047e-001	 1.396166634026120e+001
 1.657621981849287e+000	 3.459035216229360e-001	 1.395981610116166e+001
 1.654022348667107e+000	 3.627255999082827e-001	 1.396331541457400e+001
 1.650240501998774e+000	 3.795602441736897e-001	 1.397084122652128e+001
 1.646275462242652e+000	 3.964047121834209e-001	 1.398113711446080e+001
 1.642126300548912e+000	 4.132562260571145e-001	 1.399301798347323e+001
 1.637792140089639e+000	 4.301119733272061e-001	 1.400537452666582e+001
 1.633272157306602e+000	 4.469691080443441e-001	 1.401717741060648e+001
 1.628565583134742e+000	 4.638247519304442e-001	 1.402748114660190e+001
 1.623671704199419e+000	 4.806759955789353e-001	 1.403542760891640e+001
 1.618589863985467e+000	 4.975198997016720e-001	 1.404024916161309e+001
 1.687199937925307e+000	 3.342796157880200e-001	 1.380581670066602e+001
 1.683727652466438e+000	 3.513511107002090e-001	 1.380524641109857e+001
 1.680071329134671e+000	 3.684381176841904e-001	 1.381016942908788e+001
 1.676229922660488e+000	 3.855378885481679e-001	 1.381923546368659e+001
 1.672202438014640e+000	 4.026476378693090e-001	 1.383116760749587e+001
 1.667987931718963e+000	 4.197645440187934e-001	 1.384476750170751e+001
 1.663585513136496e+000	 4.368857502358879e-001	 1.385892024403650e+001
 1.658994345738899e+000	 4.540083657507736e-001	 1.387259899626705e+001
 1.654213648349210e+000	 4.711294669557572e-001	 1.388486924810344e+001
 1.649242696357944e+000	 4.882460986244200e-001	 1.389489269430054e+001
 1.644080822910571e+000	 5.053552751781691e-001	 1.390193068266257e+001
 1.713359445242568e+000	 3.394625166766351e-001	 1.366081997392285e+001
 1.709833323083724e+000	 3.567986997776795e-001	 1.366155862843090e+001
 1.706120309602293e+000	 3.741506354602879e-001	 1.366789505527749e+001
 1.702219343322184e+000	 3.915155329228228e-001	 1.367845195268287e+001
 1.698129413786532e+000	 4.088905635553564e-001	 1.369193262026624e+001
 1.693849562888844e+000	 4.262728619806097e-001	 1.370712663366898e+001
 1.689378886183114e+000	 4.436595271446825e-001	 1.372291523938854e+001
 1.684716534170896e+000	 4.610476234572876e-001	 1.373827642212029e+001
 1.679861713563326e+000	 4.784341819811238e-001	 1.375228959683968e+001
 1.674813688516081e+000	 4.958162016699257e-001	 1.376413987813906e+001
 1.669571781835260e+000	 5.131906506546526e-001	 1.377312187997528e+001
 1.739518952559972e+000	 3.446454175653835e-001	 1.352600285476136e+001
 1.735938993701071e+000	 3.622462888552817e-001	 1.352815239486503e+001
 1.732169290069892e+000	 3.798631532365110e-001	 1.353596621496504e+001
 1.728208763983774e+000	 3.974931772975942e-001	 1.354803932845145e+001
 1.724056389558237e+000	 4.151334892415066e-001	 1.356305504759737e+001
 1.719711194058461e+000	 4.327811799425113e-001	 1.357979121240566e+001
 1.715172259229400e+000	 4.504333040535404e-001	 1.359712611561237e+001
 1.710438722602501e+000	 4.680868811638395e-001	 1.361404407136378e+001
 1.705509778777000e+000	 4.857388970064985e-001	 1.362964057498247e+001
 1.700384680673739e+000	 5.033863047154056e-001	 1.364312700151464e+001
 1.695062740759450e+000	 5.210260261310729e-001	 1.365383479142098e+001
 1.765678459877450e+000	 3.498283184541985e-001	 1.340078911358772e+001
 1.762044664318403e+000	 3.676938779329496e-001	 1.340451615436341e+001
 1.758218270537386e+000	 3.855756710127969e-001	 1.341393716068895e+001
 1.754198184645169e+000	 4.034708216724215e-001	 1.342761786922777e+001
 1.749983365329663e+000	 4.213764149277031e-001	 1.344422050760076e+001
 1.745572825227723e+000	 4.392894979044454e-001	 1.346251062617401e+001
 1.740965632275259e+000	 4.572070809624127e-001	 1.348136360055499e+001
 1.736160911033618e+000	 4.751261388703825e-001	 1.349977074715666e+001
 1.731157843990140e+000	 4.930436120318356e-001	 1.351684499404815e+001
 1.725955672830830e+000	 5.109564077608136e-001	 1.353182604957664e+001
 1.720553699683057e+000	 5.288614016073797e-001	 1.354408501194578e+001
 1.465644110430824e+000	 4.505076468451837e-001	 1.507180218710129e+001
 1.460871727075660e+000	 4.657505827348306e-001	 1.505119007444519e+001
 1.455928110904371e+000	 4.809814717320294e-001	 1.503104903211547e+001
 1.450812825763512e+000	 4.961975768838239e-001	 1.501085845487969e+001
 1.445525490928912e+000	 5.113961390398313e-001	 1.499014899524906e+001
 1.440065782013028e+000	 5.265743781829089e-001	 1.496850249140526e+001
 1.434433431836373e+000	 5.417294947976459e-001	 1.494555157048129e+001
 1.428628231261313e+000	 5.568586712756410e-001	 1.492097891591011e+001
 1.422650029986620e+000	 5.719590733564495e-001	 1.489451618940396e+001
 1.416498737301121e+000	 5.870278516030030e-001	 1.486594260013764e+001
 1.410174322794896e+000	 6.020621429102250e-001	 1.483508311586790e+001
 1.491135069356658e+000	 4.583430223207199e-001	 1.487537543435446e+001
 1.486279683158418e+000	 4.738510683077294e-001	 1.486056193226674e+001
 1.481250086007147e+000	 4.893468578788444e-001	 1.484633641154376e+001
 1.476045834163695e+000	 5.048276064791276e-001	 1.483215511750291e+001
 1.470666540282229e+000	 5.202905069701495e-001	 1.481752868891440e+001
 1.465111874333372e+000	 5.357327309837993e-001	 1.480202212471176e+001
 1.459381564490777e+000	 5.511514303145783e-001	 1.478525439441549e+001
 1.453475397979445e+000	 5.665437383493174e-001	 1.476689767935868e+001
 1.447393221884075e+000	 5.819067715331873e-001	 1.474667623382993e+001
 1.441134943915833e+000	 5.972376308707768e-001	 1.472436485744913e+001
 1.434700533135920e+000	 6.125334034609495e-001	 1.469978697246486e+001
 1.516626028282580e+000	 4.661783977965402e-001	 1.468896598351863e+001
 1.511687639241224e+000	 4.819515538809139e-001	 1.467906215653676e+001
 1.506572061109939e+000	 4.977122440259598e-001	 1.466978261885493e+001
 1.501278842563869e+000	 5.134576360747547e-001	 1.466057505883102e+001
 1.495807589635517e+000	 5.291848749008191e-001	 1.465094551889714e+001
 1.490157966653669e+000	 5.448910837850698e-001	 1.464045839668325e+001
 1.484329697145122e+000	 5.605733658319159e-001	 1.462873605431556e+001
 1.478322564697501e+000	 5.762288054234166e-001	 1.461545802118427e+001
 1.472136413781435e+000	 5.918544697103531e-001	 1.460035977769100e+001
 1.465771150530427e+000	 6.074474101389680e-001	 1.458323110989899e+001
 1.459226743476797e+000	 6.230046640120598e-001	 1.456391402761263e+001
 1.542116987208505e+000	 4.740137732725954e-001	 1.451236570568918e+001
 1.537095595323997e+000	 4.900520394543282e-001	 1.450661305362462e+001
 1.531894036212673e+000	 5.060776301733111e-001	 1.450144677993555e+001
 1.526511850963969e+000	 5.220876656706314e-001	 1.449631976996702e+001
 1.520948638988720e+000	 5.380792428317555e-001	 1.449074807235962e+001
 1.515204058973875e+000	 5.540494365866256e-001	 1.448431093242024e+001
 1.509277829799371e+000	 5.699953013495547e-001	 1.447665039406653e+001
 1.503169731415458e+000	 5.859138724978268e-001	 1.446747045365855e+001
 1.496879605678688e+000	 6.018021678878297e-001	 1.445653575145292e+001
 1.490407357144906e+000	 6.176571894074572e-001	 1.444366978905971e+001
 1.483752953817541e+000	 6.334759245634387e-001	 1.442875266413611e+001
 1.567607946134350e+000	 4.818491487488354e-001	 1.434543245405487e+001
 1.562503551406660e+000	 4.981525250279171e-001	 1.434318820663491e+001
 1.557216011315279e+000	 5.144430163208340e-001	 1.434142367440630e+001
 1.551744859363929e+000	 5.307176952666832e-001	 1.433960988289856e+001
 1.546089688341783e+000	 5.469736107628745e-001	 1.433728670543703e+001
 1.540250151293942e+000	 5.632077893883718e-001	 1.433406292887928e+001
 1.534225962453488e+000	 5.794172368673900e-001	 1.432961584408579e+001
 1.528016898133288e+000	 5.955989395724354e-001	 1.432369034225294e+001
 1.521622797575823e+000	 6.117498660655001e-001	 1.431609750088522e+001
 1.515043563759269e+000	 6.278669686761254e-001	 1.430671264607738e+001
 1.508279164158169e+000	 6.439471851149696e-001	 1.429547288090525e+001
 1.593098905060033e+000	 4.896845242252110e-001	 1.418807663288179e+001
 1.587911507489136e+000	 5.062530106016241e-001	 1.418879980862368e+001
 1.582537986417684e+000	 5.228084024684645e-001	 1.418983186672621e+001
 1.576977867763687e+000	 5.393477248628366e-001	 1.419067412908821e+001
 1.571230737694647e+000	 5.558679786940914e-001	 1.419090335483796e+001
 1.565296243613825e+000	 5.723661421902139e-001	 1.419017184092437e+001
 1.559174095107435e+000	 5.888391723853176e-001	 1.418820699917700e+001
 1.552864064850969e+000	 6.052840066471303e-001	 1.418481038855917e+001
 1.546365989472827e+000	 6.216975642432467e-001	 1.417985618423057e+001
 1.539679770373518e+000	 6.380767479448533e-001	 1.417328906820108e+001
 1.532805374498695e+000	 6.544184456665354e-001	 1.416512152978065e+001
 1.618589863985467e+000	 4.975198997016720e-001	 1.404024916161309e+001
 1.613319463571345e+000	 5.143534961753936e-001	 1.404348731336756e+001
 1.607859961519817e+000	 5.311737886161386e-001	 1.404680307263498e+001
 1.602210876163177e+000	 5.479777544590171e-001	 1.404973944686162e+001
 1.596371787047260e+000	 5.647623466253220e-001	 1.405192240771283e+001
 1.590342335933476e+000	 5.815244949920563e-001	 1.405306103146716e+001
 1.584122227761178e+000	 5.982611079032335e-001	 1.405294706299335e+001
 1.577711231568475e+000	 6.149690737218001e-001	 1.405145387939210e+001
 1.571109181369688e+000	 6.316452624209524e-001	 1.404853483254156e+001
 1.564315976987654e+000	 6.482865272135218e-001	 1.404422095324168e+001
 1.557331584839137e+000	 6.648897062180198e-001	 1.403861800339757e+001
 1.644080822910571e+000	 5.053552751781691e-001	 1.390193068266257e+001
 1.638727419653209e+000	 5.224539817491696e-001	 1.390730726068207e+001
 1.633181936621605e+000	 5.395391747637919e-001	 1.391247262685092e+001
 1.627443884562336e+000	 5.566077840551512e-001	 1.391702211290346e+001
 1.621512836399563e+000	 5.736567145564816e-001	 1.392064251492476e+001
 1.615388428252850e+000	 5.906828477938049e-001	 1.392311228105205e+001
 1.609070360414681e+000	 6.076830434210331e-001	 1.392430106504478e+001
 1.602558398285783e+000	 6.246541407963322e-001	 1.392416861890867e+001
 1.595852373266393e+000	 6.415929605984999e-001	 1.392276300119799e+001
 1.588952183601679e+000	 6.584963064820117e-001	 1.392021808139390e+001
 1.581857795179509e+000	 6.753609667693055e-001	 1.391690232511950e+001
 1.669571781835260e+000	 5.131906506546526e-001	 1.377312187997528e+001
 1.664135375734650e+000	 5.305544673228969e-001	 1.378032415075135e+001
 1.658503911722976e+000	 5.479045609113603e-001	 1.378697093432100e+001
 1.652676892961098e+000	 5.652378136511652e-001	 1.379271978840164e+001
 1.646653885751501e+000	 5.825510824874859e-001	 1.379732924688865e+001
 1.640434520571898e+000	 5.998412005953645e-001	 1.380065906502392e+001
 1.634018493067907e+000	 6.171049789386121e-001	 1.380266976767444e+001
 1.627405565002866e+000	 6.343392078706147e-001	 1.380342147073496e+001
 1.620595565162932e+000	 6.515406587757719e-001	 1.380307194941148e+001
 1.613588390215593e+000	 6.687060857502039e-001	 1.380188280876595e+001
 1.606384005519828e+000	 6.858322273202755e-001	 1.380085049338572e+001
 1.695062740759450e+000	 5.210260261310729e-001	 1.365383479142098e+001
 1.689543331815590e+000	 5.386549528965192e-001	 1.366260225703586e+001
 1.683825886823860e+000	 5.562699470587799e-001	 1.367041580147896e+001
 1.677909901359400e+000	 5.738678432469843e-001	 1.367700438354923e+001
 1.671794935103017e+000	 5.914454504182500e-001	 1.368220850327486e+001
 1.665480612890576e+000	 6.089995533966403e-001	 1.368598051746841e+001
 1.658966625720819e+000	 6.265269144558662e-001	 1.368838419036323e+001
 1.652252731719701e+000	 6.440242749445355e-001	 1.368959344587810e+001
 1.645338757059289e+000	 6.614883569526509e-001	 1.368989029212687e+001
 1.638224596829399e+000	 6.789158650179793e-001	 1.368997332231477e+001
 1.630910215860108e+000	 6.963034878708130e-001	 1.369091459829731e+001
 1.720553699683057e+000	 5.288614016073797e-001	 1.354408501194578e+001
 1.714951287895950e+000	 5.467554384699808e-001	 1.355419828041365e+001
 1.709147861924183e+000	 5.646353332059860e-001	 1.356290555624121e+001
 1.703142909757176e+000	 5.824978728425351e-001	 1.357001565552713e+001
 1.696935984454057e+000	 6.003398183486900e-001	 1.357546059838870e+001
 1.690526705208835e+000	 6.181579061975373e-001	 1.357929601069302e+001
 1.683914758373382e+000	 6.359488499726911e-001	 1.358170068733296e+001
 1.677099898436262e+000	 6.537093420179821e-001	 1.358297527981152e+001
 1.670081948955454e+000	 6.714360551290194e-001	 1.358359341583372e+001
 1.662860803443095e+000	 6.891256442852184e-001	 1.358494770941570e+001
 1.655436426200365e+000	 7.067747484208016e-001	 1.358746365691557e+001
 1.410174322794896e+000	 6.020621429102250e-001	 1.483508311586789e+001
 1.403677804762223e+000	 6.170568256895567e-001	 1.480161957477100e+001
 1.397008340587419e+000	 6.320112737763581e-001	 1.476529245594668e+001
 1.390166085595247e+000	 6.469225945203407e-001	 1.472608595882452e+001
 1.383151257758930e+000	 6.617878879772692e-001	 1.468401316650019e+001
 1.375964138175143e+000	 6.766042485600979e-001	 1.463946520493291e+001
 1.368605071488112e+000	 6.913687667140008e-001	 1.459354863257123e+001
 1.361074466261639e+000	 7.060785306134997e-001	 1.454626095073594e+001
 1.353372795297910e+000	 7.207306278798588e-001	 1.449756909225408e+001
 1.345500595902038e+000	 7.353221473168310e-001	 1.444749959509211e+001
 1.337458470091355e+000	 7.498501806627994e-001	 1.439613832294931e+001
 1.434700533135920e+000	 6.125334034609495e-001	 1.469978697246486e+001
 1.428091025549134e+000	 6.277888786388084e-001	 1.467250428636652e+001
 1.421305563884740e+000	 6.430034193492565e-001	 1.464215825102251e+001
 1.414344306168952e+000	 6.581740826320957e-001	 1.460876386136279e+001
 1.407207474166046e+000	 6.732979181063205e-001	 1.457250477896224e+001
 1.399895353861613e+000	 6.883719696499761e-001	 1.453444391053884e+001
 1.392408295894034e+000	 7.033932771043159e-001	 1.449468052494669e+001
 1.384746715932977e+000	 7.183588780004508e-001	 1.445313090670618e+001
 1.376911095003749e+000	 7.332658093066115e-001	 1.440977245378592e+001
 1.368901979756440e+000	 7.481111091940828e-001	 1.436464344806078e+001
 1.360719982678853e+000	 7.628918188198210e-001	 1.431784268959817e+001
 1.459226743476797e+000	 6.230046640120598e-001	 1.456391402761263e+001
 1.452504246335858e+000	 6.385209315883906e-001	 1.454186037671361e+001
 1.445602787181828e+000	 6.539955649224104e-001	 1.451661332731135e+001
 1.438522526742372e+000	 6.694255707440153e-001	 1.448824705160995e+001
 1.431263690572821e+000	 6.848079482354361e-001	 1.445764839081869e+001
 1.423826569547684e+000	 7.001396907398114e-001	 1.442511997296292e+001
 1.416211520299499e+000	 7.154177874944814e-001	 1.439052987819745e+001
 1.408418965603801e+000	 7.306392253871504e-001	 1.435380885915507e+001
 1.400449394709020e+000	 7.458009907330195e-001	 1.431495015998253e+001
 1.392303363610223e+000	 7.609000710709124e-001	 1.427400919518289e+001
 1.383981495265687e+000	 7.759334569763623e-001	 1.423110308879388e+001
 1.483752953817541e+000	 6.334759245634387e-001	 1.442875266413611e+001
 1.476917467122426e+000	 6.492529845381935e-001	 1.441113408711744e+001
 1.469900010478731e+000	 6.649877104957208e-001	 1.439025771536323e+001
 1.462700747315572e+000	 6.806770588560147e-001	 1.436668935060781e+001
 1.455319906979338e+000	 6.963179783645463e-001	 1.434104716020314e+001
 1.447757785233454e+000	 7.119074118295533e-001	 1.431316105209768e+001
 1.440014744704620e+000	 7.274422978844636e-001	 1.428291750346766e+001
 1.432091215274239e+000	 7.429195727735806e-001	 1.425026715309222e+001
 1.423987694413863e+000	 7.583361721590806e-001	 1.421522452374821e+001
 1.415704747463540e+000	 7.736890329473285e-001	 1.417786760065233e+001
 1.407243007852023e+000	 7.889750951324396e-001	 1.413833726672537e+001
 1.508279164158169e+000	 6.439471851149696e-001	 1.429547288090525e+001
 1.501330687908871e+000	 6.599850374881072e-001	 1.428163114530298e+001
 1.494197233775495e+000	 6.759798560690888e-001	 1.426472245428646e+001
 1.486878967888615e+000	 6.919285469680097e-001	 1.424557525718607e+001
 1.479376123385674e+000	 7.078280084935836e-001	 1.422408199615158e+001
 1.471689000919019e+000	 7.236751329191492e-001	 1.420008709189845e+001
 1.463817969109509e+000	 7.394668082742285e-001	 1.417350087153008e+001
 1.455763464944417e+000	 7.551999201597240e-001	 1.414429933390033e+001
 1.447525994118421e+000	 7.708713535847911e-001	 1.411252376659856e+001
 1.439106131316547e+000	 7.864779948233394e-001	 1.407828021519993e+001
 1.430504520438026e+000	 8.020167332880692e-001	 1.404173880581422e+001
 1.532805374498695e+000	 6.544184456665354e-001	 1.416512152978065e+001
 1.525743908695221e+000	 6.707170904380223e-001	 1.415454851907394e+001
 1.518494457072168e+000	 6.869720016424157e-001	 1.414147991925651e+001
 1.511057188461564e+000	 7.031800350799156e-001	 1.412603042087004e+001
 1.503432339791911e+000	 7.193380386224789e-001	 1.410800443133567e+001
 1.495620216604477e+000	 7.354428540085495e-001	 1.408727409530497e+001
 1.487621193514281e+000	 7.514913186637426e-001	 1.406377910283129e+001
 1.479435714614465e+000	 7.674802675455639e-001	 1.403752634459834e+001
 1.471064293822835e+000	 7.834065350101486e-001	 1.400858941471681e+001
 1.462507515169399e+000	 7.992669566989542e-001	 1.397710796199539e+001
 1.453766033023863e+000	 8.150583714432672e-001	 1.394328689098955e+001
 1.557331584839137e+000	 6.648897062180198e-001	 1.403861800339757e+001
 1.550157129481510e+000	 6.814491433878283e-001	 1.403121142256450e+001
 1.542791680368797e+000	 6.979641472156025e-001	 1.402143666114930e+001
 1.535235409034484e+000	 7.144315231916468e-001	 1.400906728568527e+001
 1.527488556198130e+000	 7.308480687511643e-001	 1.399393919855835e+001
 1.519551432289924e+000	 7.472105750977020e-001	 1.397595781803146e+001
 1.511424417919046e+000	 7.635158290529712e-001	 1.395509777184300e+001
 1.503107964284511e+000	 7.797606149310816e-001	 1.393140243353200e+001
 1.494602593527249e+000	 7.959417164351500e-001	 1.390498330226911e+001
 1.485908899022250e+000	 8.120559185741813e-001	 1.387601922737663e+001
 1.477027545609700e+000	 8.281000095980499e-001	 1.384475547912275e+001
 1.581857795179509e+000	 6.753609667693055e-001	 1.391690232511950e+001
 1.574570350267766e+000	 6.921811963374154e-001	 1.391243159176504e+001
 1.567088903665430e+000	 7.089562927885509e-001	 1.390539257370747e+001
 1.559413629607439e+000	 7.256830113031196e-001	 1.389558665894849e+001
 1.551544772604411e+000	 7.423580988795705e-001	 1.388288682872589e+001
 1.543482647975456e+000	 7.589782961865553e-001	 1.386723739003307e+001
 1.535227642323919e+000	 7.755403394418812e-001	 1.384865354587616e+001
 1.526780213954683e+000	 7.920409623162604e-001	 1.382722080392336e+001
 1.518140893231805e+000	 8.084768978597926e-001	 1.380309422460758e+001
 1.509310282875257e+000	 8.248448804490292e-001	 1.377649751015258e+001
 1.500289058195703e+000	 8.411416477524337e-001	 1.374772193640197e+001
 1.606384005519828e+000	 6.858322273202755e-001	 1.380085049338572e+001
 1.598983571054024e+000	 7.029132492866742e-001	 1.379882042971694e+001
 1.591386126962114e+000	 7.199484383611617e-001	 1.379404934177525e+001
 1.583591850180492e+000	 7.369344994142486e-001	 1.378637938352024e+001
 1.575600989010834e+000	 7.538681290076297e-001	 1.377572626800390e+001
 1.567413863661173e+000	 7.707460172750590e-001	 1.376207887238171e+001
 1.559030866729012e+000	 7.875648498304381e-001	 1.374549867605275e+001
 1.550452463625108e+000	 8.043213097010831e-001	 1.372611903287084e+001
 1.541679192936645e+000	 8.210120792840731e-001	 1.370414427878253e+001
 1.532711666728574e+000	 8.376338423235071e-001	 1.367984867666053e+001
 1.523550570782039e+000	 8.541832859064347e-001	 1.365357520051422e+001
 1.630910215860108e+000	 6.963034878708130e-001	 1.369091459829731e+001
 1.623396791840312e+000	 7.136453022354944e-001	 1.369090303362801e+001
 1.615683350258895e+000	 7.309405839333361e-001	 1.368801133230885e+001
 1.607770070753706e+000	 7.481859875249498e-001	 1.368212810263051e+001
 1.599657205417480e+000	 7.653781591352731e-001	 1.367321751214023e+001
 1.591345079347169e+000	 7.825137383631613e-001	 1.366131875635276e+001
 1.582834091134438e+000	 7.995893602186086e-001	 1.364654535600139e+001
 1.574124713295916e+000	 8.166016570855321e-001	 1.362908428407251e+001
 1.565217492641910e+000	 8.335472607079891e-001	 1.360919492428354e+001
 1.556113050582356e+000	 8.504228041976230e-001	 1.358720786308238e+001
 1.546812083368873e+000	 8.672249240600691e-001	 1.356352351766092e+001
 1.655436426200365e+000	 7.067747484208016e-001	 1.358746365691557e+001
 1.647810012626662e+000	 7.243773551837668e-001	 1.358911842745001e+001
 1.639980573555821e+000	 7.419327295049750e-001	 1.358778663633386e+001
 1.631948291327146e+000	 7.594374756351380e-001	 1.358340910767872e+001
 1.623713421824428e+000	 7.768881892624319e-001	 1.357600425617714e+001
 1.615276295033542e+000	 7.942814594508109e-001	 1.356566741071853e+001
 1.606637315540310e+000	 8.116138706063586e-001	 1.355256996199722e+001
 1.597796962967233e+000	 8.288820044695902e-001	 1.353695833566831e+001
 1.588755792347744e+000	 8.460824421315375e-001	 1.351915279302685e+001
 1.579514434436757e+000	 8.632117660713861e-001	 1.349954606160559e+001
 1.570073595956371e+000	 8.802665622133532e-001	 1.347860179850354e+001
 1.337458470091355e+000	 7.498501806627994e-001	 1.439613832294931e+001
 1.329245840436585e+000	 7.643139888338926e-001	 1.434163650559959e+001
 1.320864633725284e+000	 7.787084898909862e-001	 1.428208655214112e+001
 1.312315648248289e+000	 7.930307945938000e-001	 1.421783217326465e+001
 1.303599747304523e+000	 8.072780238044296e-001	 1.414932518283766e+001
 1.294717859120680e+000	 8.214473102909055e-001	 1.407707688793622e+001
 1.285670976711510e+000	 8.355358005343189e-001	 1.400165643216923e+001
 1.276460157680332e+000	 8.495406565372459e-001	 1.392368892811803e+001
 1.267086523959525e+000	 8.634590576311914e-001	 1.384385338185111e+001
 1.257551261490825e+000	 8.772882022807456e-001	 1.376288041357435e+001
 1.247855619845356e+000	 8.910253098821287e-001	 1.368154977959185e+001
 1.360719982678853e+000	 7.628918188198210e-001	 1.431784268959817e+001
 1.352364516298867e+000	 7.776071862455712e-001	 1.426764429324403e+001
 1.343837540915352e+000	 7.922520411454747e-001	 1.421255070426865e+001
 1.335139868703277e+000	 8.068234440286460e-001	 1.415307539914892e+001
 1.326272377976344e+000	 8.213184656822814e-001	 1.408958621301961e+001
 1.317236013105266e+000	 8.357341890065823e-001	 1.402219539394057e+001
 1.308031784375627e+000	 8.500677108533143e-001	 1.395143526072691e+001
 1.298660767784928e+000	 8.643161438656809e-001	 1.387790880293021e+001
 1.289124104778561e+000	 8.784766183172065e-001	 1.380227402580537e+001
 1.279423001924546e+000	 8.925462839472684e-001	 1.372524159381161e+001
 1.269558730526954e+000	 9.065223117909245e-001	 1.364757226273380e+001
 1.383981495265687e+000	 7.759334569763623e-001	 1.423110308879388e+001
 1.375483192160448e+000	 7.909003836567357e-001	 1.418457833264763e+001
 1.366810448104691e+000	 8.057955923994367e-001	 1.413298118247819e+001
 1.357964089157520e+000	 8.206160934629746e-001	 1.407680337507749e+001
 1.348945008647412e+000	 8.353589075596424e-001	 1.401660066297261e+001
 1.339754167089103e+000	 8.500210677218110e-001	 1.395299145261302e+001
 1.330392592039014e+000	 8.645996211719169e-001	 1.388661231574053e+001
 1.320861377888823e+000	 8.790916311937900e-001	 1.381751168666626e+001
 1.311161685596942e+000	 8.934941790029705e-001	 1.374611914407004e+001
 1.301294742357671e+000	 9.078043656136207e-001	 1.367312071279800e+001
 1.291261841208033e+000	 9.220193136996339e-001	 1.359925347675197e+001
 1.407243007852023e+000	 7.889750951324396e-001	 1.413833726672537e+001
 1.398601868021504e+000	 8.041935810674046e-001	 1.409504877097602e+001
 1.389783355293484e+000	 8.193391436528905e-001	 1.404658327000745e+001
 1.380788309611204e+000	 8.344087428967986e-001	 1.399340787496043e+001
 1.371617639317917e+000	 8.493993494365167e-001	 1.393605381408826e+001
 1.362272321072382e+000	 8.643079464365847e-001	 1.387511503634378e+001
 1.352753399701855e+000	 8.791315314901063e-001	 1.381124667612196e+001
 1.343061987992202e+000	 8.938671185215376e-001	 1.374516338278456e+001
 1.333199266414842e+000	 9.085117396884321e-001	 1.367763745987003e+001
 1.323166482790366e+000	 9.230624472797356e-001	 1.360887988660651e+001
 1.312964951888744e+000	 9.375163156081748e-001	 1.353906310314298e+001
 1.430504520438026e+000	 8.020167332880692e-001	 1.404173880581422e+001
 1.421720543882209e+000	 8.174867784775972e-001	 1.400137748850540e+001
 1.412756262481913e+000	 8.328826949058533e-001	 1.395580118992985e+001
 1.403612530064516e+000	 8.482013923301294e-001	 1.390544994235853e+001
 1.394290269988049e+000	 8.634397913129078e-001	 1.385082778527233e+001
 1.384790475055292e+000	 8.785948251508937e-001	 1.379250134033276e+001
 1.375114207364341e+000	 8.936634418078613e-001	 1.373109824800683e+001
 1.365262598095244e+000	 9.086426058488873e-001	 1.366730546958859e+001
 1.355236847232435e+000	 9.235293003735394e-001	 1.360186745873792e+001
 1.345038223222794e+000	 9.383205289455460e-001	 1.353558420702759e+001
 1.334668062569236e+000	 9.530133175164640e-001	 1.346930916835010e+001
 1.453766033023863e+000	 8.150583714432672e-001	 1.394328689098955e+001
 1.444839219742738e+000	 8.307799758873320e-001	 1.390565852001991e+001
 1.435729169670161e+000	 8.464262461583425e-001	 1.386283834098743e+001
 1.426436750517643e+000	 8.619940417629792e-001	 1.381523726317476e+001
 1.416962900657996e+000	 8.774802331888187e-001	 1.376332988547531e+001
 1.407308629038023e+000	 8.928817038647322e-001	 1.370765304847114e+001
 1.397475015026657e+000	 9.081953521251606e-001	 1.364880424918188e+001
 1.387463208198132e+000	 9.234180931758037e-001	 1.358743992232283e+001
 1.377274428049897e+000	 9.385468610582417e-001	 1.352427359228410e+001
 1.366909963655117e+000	 9.535786106109838e-001	 1.346007390040764e+001
 1.356371173249661e+000	 9.685103194244188e-001	 1.339566251249508e+001
 1.477027545609700e+000	 8.281000095980499e-001	 1.384475547912274e+001
 1.467957895603269e+000	 8.440731732966296e-001	 1.380976828128786e+001
 1.458702076858409e+000	 8.599697974103761e-001	 1.376966854746020e+001
 1.449260970970773e+000	 8.757866911953606e-001	 1.372483640673481e+001
 1.439635531327949e+000	 8.915206750642536e-001	 1.367571515568728e+001
 1.429826783020763e+000	 9.071685825780912e-001	 1.362280979306020e+001
 1.419835822688992e+000	 9.227272624419833e-001	 1.356668541865174e+001
 1.409663818301048e+000	 9.381935805022509e-001	 1.350796550032110e+001
 1.399312008867401e+000	 9.535644217424867e-001	 1.344733001339314e+001
 1.388781704087501e+000	 9.688366922759821e-001	 1.338551345710142e+001
 1.378074283930169e+000	 9.840073213319565e-001	 1.332330275305990e+001
 1.500289058195703e+000	 8.411416477524337e-001	 1.374772193640197e+001
 1.491076571463974e+000	 8.573663707055079e-001	 1.371537517470894e+001
 1.481674984046840e+000	 8.735133486619712e-001	 1.367804660239451e+001
 1.472085191424092e+000	 8.895793406272855e-001	 1.363608427721066e+001
 1.462308161998095e+000	 9.055611169392154e-001	 1.358989870050811e+001
 1.452344937003705e+000	 9.214554612909641e-001	 1.353996133984451e+001
 1.442196630351531e+000	 9.372591727583078e-001	 1.348680301783840e+001
 1.431864428404175e+000	 9.529690678281924e-001	 1.343101217124110e+001
 1.421349589685121e+000	 9.685819824262231e-001	 1.337323298455494e+001
 1.410653444520108e+000	 9.840947739404731e-001	 1.331416340287771e+001
 1.399777394610910e+000	 9.995043232389941e-001	 1.325455302899389e+001
 1.523550570782039e+000	 8.541832859064347e-001	 1.365357520051423e+001
 1.514195247325030e+000	 8.706595681139866e-001	 1.362394864048797e+001
 1.504647891235637e+000	 8.870568999131455e-001	 1.358951817971609e+001
 1.494909411877786e+000	 9.033719900587659e-001	 1.355059885978642e+001
 1.484980792668627e+000	 9.196015588137076e-001	 1.350756724267140e+001
 1.474863090987035e+000	 9.357423400033417e-001	 1.346085992641822e+001
 1.464557438014463e+000	 9.517910830741139e-001	 1.341097192964019e+001
 1.454065038507694e+000	 9.677445551535929e-001	 1.335845494881661e+001
 1.443387170503232e+000	 9.835995431093992e-001	 1.330391549275413e+001
 1.432525184953105e+000	 9.993528556043897e-001	 1.324801289890290e+001
 1.421480505292034e+000	 1.015001325145448e+000	 1.319145119574929e+001
 1.546812083368873e+000	 8.672249240600691e-001	 1.356352351766093e+001
 1.537313923186612e+000	 8.839527655220844e-001	 1.353676771170642e+001
 1.527620798424980e+000	 9.006004511639167e-001	 1.350542918166793e+001
 1.517733632332044e+000	 9.171646394898141e-001	 1.346978933581083e+001
 1.507653423339732e+000	 9.336420006877344e-001	 1.343018998232371e+001
 1.497381244970944e+000	 9.500292187152168e-001	 1.338703184313153e+001
 1.486918245677973e+000	 9.663229933893792e-001	 1.334077293957726e+001
 1.476265648611787e+000	 9.825200424784158e-001	 1.329192685399108e+001
 1.465424751321909e+000	 9.986171037919641e-001	 1.324106087149990e+001
 1.454396925386652e+000	 1.014610937267665e+000	 1.318878778005830e+001
 1.443183615973692e+000	 1.030498327051237e+000	 1.313578959355400e+001
 1.570073595956371e+000	 8.802665622133532e-001	 1.347860179850354e+001
 1.560432599048893e+000	 8.972459629298201e-001	 1.345492912474558e+001
 1.550593705615053e+000	 9.141440024143019e-001	 1.342693458013808e+001
 1.540557852787052e+000	 9.309572889204422e-001	 1.339486563238203e+001
 1.530326054011600e+000	 9.476824425612989e-001	 1.335902883316611e+001
 1.519899398955622e+000	 9.643160974265818e-001	 1.331978833505960e+001
 1.509279053342250e+000	 9.808549037040831e-001	 1.327756428385244e+001
 1.498466258716638e+000	 9.972955298026260e-001	 1.323283109034947e+001
 1.487462332141325e+000	 1.013634664473865e+000	 1.318610912288217e+001
 1.476268665820915e+000	 1.029869018930230e+000	 1.313798956679494e+001
 1.464886726656035e+000	 1.045995328956277e+000	 1.308909058132520e+001
 1.247855619845356e+000	 8.910253098821287e-001	 1.368154977959185e+001
 1.238000911431365e+000	 9.046676222522669e-001	 1.359562495365973e+001
 1.227988509947546e+000	 9.182124044861023e-001	 1.350092313924338e+001
 1.217819850897685e+000	 9.316569475974837e-001	 1.339837206664356e+001
 1.207496431328260e+000	 9.449985705706225e-001	 1.328893982921417e+001
 1.197019809152552e+000	 9.582346220975364e-001	 1.317363169044886e+001
 1.186391602416225e+000	 9.713624822960134e-001	 1.305348674657267e+001
 1.175613488505012e+000	 9.843795644057992e-001	 1.292957445693324e+001
 1.164687203295262e+000	 9.972833164607429e-001	 1.280299105542111e+001
 1.153614540248221e+000	 1.010071222934661e+000	 1.267485585702716e+001
 1.142397349448981e+000	 1.022740806358721e+000	 1.254630236353465e+001
 1.269558730526954e+000	 9.065223117909245e-001	 1.364757226273380e+001
 1.259532625819865e+000	 9.204018956938826e-001	 1.356504820329013e+001
 1.249346085393796e+000	 9.341822531847158e-001	 1.347356023339995e+001
 1.239000569719292e+000	 9.478606281616913e-001	 1.337410570188790e+001
 1.228497601879959e+000	 9.614342929799052e-001	 1.326772957040359e+001
 1.217838766884827e+000	 9.749005502189513e-001	 1.315552095172741e+001
 1.207025710921144e+000	 9.882567344307593e-001	 1.303860948022913e+001
 1.196060140548291e+000	 1.001500213865284e+000	 1.291816152768472e+001
 1.184943821833555e+000	 1.014628392171736e+000	 1.279537090554730e+001
 1.173678579430655e+000	 1.027638710073067e+000	 1.267147682223556e+001
 1.162266295601971e+000	 1.040528647011485e+000	 1.254772589252331e+001
 1.291261841208033e+000	 9.220193136996339e-001	 1.359925347675197e+001
 1.281064340207938e+000	 9.361361691354978e-001	 1.352041580839527e+001
 1.270703660839725e+000	 9.501521018834158e-001	 1.343265725846319e+001
 1.260181288540694e+000	 9.640643087260686e-001	 1.333702037949331e+001
 1.249498772431579e+000	 9.778700153894413e-001	 1.323460103833233e+001
 1.238657724617147e+000	 9.915664783407002e-001	 1.312654471537960e+001
 1.227659819426233e+000	 1.005150986565916e+000	 1.301404261453794e+001
 1.216506792591863e+000	 1.018620863325253e+000	 1.289832238092646e+001
 1.205200440372255e+000	 1.031973467883280e+000	 1.278066529366540e+001
 1.193742618613598e+000	 1.045206197212085e+000	 1.266236889253869e+001
 1.182135241755561e+000	 1.058316487664915e+000	 1.254476510788852e+001
 1.312964951888744e+000	 9.375163156081748e-001	 1.353906310314298e+001
 1.302596054595719e+000	 9.518704425770157e-001	 1.346427114478772e+001
 1.292061236285450e+000	 9.661219505820893e-001	 1.338076996640391e+001
 1.281362007361988e+000	 9.802679892904931e-001	 1.328962433820035e+001
 1.270499942983189e+000	 9.943057377990964e-001	 1.319195657424308e+001
 1.259476682349561e+000	 1.008232406462639e+000	 1.308894262094992e+001
 1.248293927931517e+000	 1.022045238701332e+000	 1.298180282370960e+001
 1.236953444635726e+000	 1.035741512785547e+000	 1.287181864690892e+001
 1.225457058911339e+000	 1.049318543595212e+000	 1.276029569882741e+001
 1.213806657797006e+000	 1.062773684351549e+000	 1.264858139349332e+001
 1.202004187909683e+000	 1.076104328318845e+000	 1.253805440199235e+001
 1.334668062569236e+000	 9.530133175164640e-001	 1.346930916835010e+001
 1.324127768983342e+000	 9.676047160183382e-001	 1.339897540266967e+001
 1.313418811731085e+000	 9.820917992806265e-001	 1.332026709005807e+001
 1.302542726183266e+000	 9.964716698548412e-001	 1.323423748976832e+001
 1.291501113534862e+000	 1.010741460208737e+000	 1.314200658793098e+001
 1.280295640082116e+000	 1.024898334584625e+000	 1.304476852382869e+001
 1.268928036437022e+000	 1.038939490836855e+000	 1.294375078145098e+001
 1.257400096679885e+000	 1.052862162246009e+000	 1.284023474243322e+001
 1.245713677450784e+000	 1.066663619307370e+000	 1.273554448330699e+001
 1.233870696980833e+000	 1.080341171491293e+000	 1.263104187139674e+001
 1.221873134064270e+000	 1.093892168973107e+000	 1.252812150477571e+001
 1.356371173249661e+000	 9.685103194244188e-001	 1.339566251249508e+001
 1.345659483370942e+000	 9.833389894593682e-001	 1.332777882429176e+001
 1.334776387176746e+000	 9.980616479789166e-001	 1.325337318353835e+001
 1.323723445004623e+000	 1.012675350418991e+000	 1.317301340900336e+001
 1.312502284086669e+000	 1.027177182618228e+000	 1.308682072965575e+001
 1.301114597814863e+000	 1.041564262706513e+000	 1.299593843567174e+001
 1.289562144942771e+000	 1.055833742972335e+000	 1.290158469619649e+001
 1.277846748724337e+000	 1.069982811706480e+000	 1.280502608389512e+001
 1.265970295990567e+000	 1.084008695019590e+000	 1.270757264049435e+001
 1.253934736165034e+000	 1.097908658631153e+000	 1.261057275239904e+001
 1.241742080219257e+000	 1.111680009627535e+000	 1.251540785738974e+001
 1.378074283930169e+000	 9.840073213319565e-001	 1.332330275305991e+001
 1.367191197758651e+000	 9.990732629000086e-001	 1.325768214443818e+001
 1.356133962622546e+000	 1.014031496676848e+000	 1.318583791354202e+001
 1.344904163826153e+000	 1.028879030982817e+000	 1.310896862021393e+001
 1.333503454638683e+000	 1.043612905027437e+000	 1.302831769784069e+001
 1.321933555547848e+000	 1.058230190828161e+000	 1.294422373704793e+001
 1.310196253448787e+000	 1.072727995107619e+000	 1.285688772868026e+001
 1.298293400769084e+000	 1.087103461166803e+000	 1.276753705162786e+001
 1.286226914530664e+000	 1.101353770731710e+000	 1.267744248159081e+001
 1.273998775349563e+000	 1.115476145770962e+000	 1.258791256907653e+001
 1.261611026374577e+000	 1.129467850281964e+000	 1.250028814290209e+001
 1.399777394610910e+000	 9.995043232389941e-001	 1.325455302899389e+001
 1.388722912146604e+000	 1.014807536340161e+000	 1.319159899276159e+001
 1.377491538068603e+000	 1.030001345374311e+000	 1.312271163221056e+001
 1.366084882647951e+000	 1.045082711546199e+000	 1.304901072021752e+001
 1.354504625190976e+000	 1.060048627436228e+000	 1.297168396473489e+001
 1.342752513281120e+000	 1.074896118949426e+000	 1.289197746987690e+001
 1.330830361955098e+000	 1.089622247242557e+000	 1.281114578564554e+001
 1.318740052814126e+000	 1.104224110626819e+000	 1.272902373290287e+001
 1.306483533071053e+000	 1.118698846443568e+000	 1.264613927726472e+001
 1.294062814534374e+000	 1.133043632910556e+000	 1.256373627840998e+001
 1.281479972530163e+000	 1.147255690936225e+000	 1.248308906555992e+001
 1.421480505292034e+000	 1.015001325145448e+000	 1.319145119574929e+001
 1.410254626534935e+000	 1.030541809779729e+000	 1.313161883035314e+001
 1.398849113515031e+000	 1.045971194071194e+000	 1.306605631338909e+001
 1.387265601470111e+000	 1.061286392109012e+000	 1.299581272282928e+001
 1.375505795743618e+000	 1.076484349844469e+000	 1.292199414801037e+001
 1.363571471014727e+000	 1.091562047070162e+000	 1.284576100055276e+001
 1.351464470461725e+000	 1.106516499376995e+000	 1.276832522279795e+001
 1.339186704859462e+000	 1.121344760086371e+000	 1.269094740088351e+001
 1.326740151611712e+000	 1.136043922155000e+000	 1.261459196595499e+001
 1.314126853719423e+000	 1.150611120049767e+000	 1.253867476827121e+001
 1.301348918685950e+000	 1.165043531590152e+000	 1.246410745891673e+001
 1.443183615973692e+000	 1.030498327051237e+000	 1.313578959355400e+001
 1.431786340923777e+000	 1.046276083218615e+000	 1.307954177978450e+001
 1.420206688961944e+000	 1.061941042767387e+000	 1.301766704348596e+001
 1.408446320292726e+000	 1.077490072671134e+000	 1.295112010900868e+001
 1.396506966296683e+000	 1.092920072252026e+000	 1.288090718669075e+001
 1.384390428748719e+000	 1.108227975190228e+000	 1.280808337963248e+001
 1.372098578968695e+000	 1.123410751510783e+000	 1.273374999916565e+001
 1.359633356905095e+000	 1.138465409545300e+000	 1.265905179596408e+001
 1.346996770152616e+000	 1.153388997865844e+000	 1.258517411401648e+001
 1.334190892904664e+000	 1.168178607188432e+000	 1.251333997493780e+001
 1.321217864841871e+000	 1.182831372243579e+000	 1.244362779346781e+001
 1.464886726656035e+000	 1.045995328956277e+000	 1.308909058132520e+001
 1.453318055313266e+000	 1.062010356656721e+000	 1.303691883686342e+001
 1.441564264409459e+000	 1.077910891462778e+000	 1.297908019082181e+001
 1.429627039115891e+000	 1.093693753232441e+000	 1.291641904191473e+001
 1.417508136850242e+000	 1.109355794658762e+000	 1.284982440029008e+001
 1.405209386483143e+000	 1.124893903309479e+000	 1.278022741993863e+001
 1.392732687476031e+000	 1.140305003643770e+000	 1.270859885358426e+001
 1.380080008951025e+000	 1.155586059003449e+000	 1.263594643676115e+001
 1.367253388693743e+000	 1.170734073575938e+000	 1.256331220802889e+001
 1.354254932090050e+000	 1.185746094326383e+000	 1.249176977250579e+001
 1.341086810997859e+000	 1.200619212896339e+000	 1.242242151611260e+001
 1.142397349448981e+000	 1.022740806358721e+000	 1.254630236353464e+001
 1.131039251243886e+000	 1.035287756015926e+000	 1.241519149805053e+001
 1.119540534113931e+000	 1.047711586446118e+000	 1.227891539949117e+001
 1.107903211781769e+000	 1.060009945786597e+000	 1.213799363460462e+001
 1.096129350166033e+000	 1.072180526369110e+000	 1.199293005713686e+001
 1.084221066161063e+000	 1.084221066161063e+000	 1.184421011830250e+001
 1.072180526369110e+000	 1.096129350166033e+000	 1.169229822725261e+001
 1.060009945786597e+000	 1.107903211781770e+000	 1.153763517692798e+001
 1.047711586446118e+000	 1.119540534113932e+000	 1.138063565066486e+001
 1.035287756015926e+000	 1.131039251243886e+000	 1.122168582479687e+001
 1.022740806358721e+000	 1.142397349448981e+000	 1.106114108227331e+001
 1.162266295601971e+000	 1.040528647011485e+000	 1.254772589252331e+001
 1.150710653660098e+000	 1.053293817296594e+000	 1.242157721835524e+001
 1.139011947103368e+000	 1.065933727024969e+000	 1.228996635682857e+001
 1.127172224677734e+000	 1.078445983429568e+000	 1.215342009954421e+001
 1.115193588232937e+000	 1.090828238706443e+000	 1.201244714614850e+001
 1.103078191481013e+000	 1.103078191481013e+000	 1.186753521820230e+001
 1.090828238706443e+000	 1.115193588232937e+000	 1.171914822524375e+001
 1.078445983429568e+000	 1.127172224677734e+000	 1.156772349977510e+001
 1.065933727024968e+000	 1.139011947103368e+000	 1.141366911790563e+001
 1.053293817296594e+000	 1.150710653660097e+000	 1.125736132227467e+001
 1.040528647011485e+000	 1.162266295601972e+000	 1.109914206365733e+001
 1.182135241755561e+000	 1.058316487664915e+000	 1.254476510788852e+001
 1.170382056076979e+000	 1.071299878577974e+000	 1.242480920343047e+001
 1.158483360093529e+000	 1.084155867604568e+000	 1.229891561156534e+001
 1.146441237574461e+000	 1.096882021073315e+000	 1.216766362867316e+001
 1.134257826300627e+000	 1.109475951044568e+000	 1.203161314987564e+001
 1.121935316801759e+000	 1.121935316801759e+000	 1.189130148519249e+001
 1.109475951044568e+000	 1.134257826300627e+000	 1.174724022768429e+001
 1.096882021073315e+000	 1.146441237574461e+000	 1.159991219194181e+001
 1.084155867604569e+000	 1.158483360093529e+000	 1.144976844131676e+001
 1.071299878577974e+000	 1.170382056076979e+000	 1.129722542220375e+001
 1.058316487664915e+000	 1.182135241755561e+000	 1.114266222347122e+001
 1.202004187909683e+000	 1.076104328318845e+000	 1.253805440199235e+001
 1.190053458494446e+000	 1.089305939859901e+000	 1.242509753026401e+001
 1.177954773084311e+000	 1.102378008184755e+000	 1.230558643082851e+001
 1.165710250471834e+000	 1.115318058717681e+000	 1.218019622146019e+001
 1.153322064368974e+000	 1.128123663383335e+000	 1.204958235402626e+001
 1.140792442123159e+000	 1.140792442123158e+000	 1.191437703286122e+001
 1.128123663383335e+000	 1.153322064368973e+000	 1.177518568248984e+001
 1.115318058717681e+000	 1.165710250471834e+000	 1.163258348497910e+001
 1.102378008184754e+000	 1.177954773084312e+000	 1.148711200727877e+001
 1.089305939859901e+000	 1.190053458494445e+000	 1.133927593885200e+001
 1.076104328318845e+000	 1.202004187909682e+000	 1.118953995970769e+001
 1.221873134064270e+000	 1.093892168973107e+000	 1.252812150477571e+001
 1.209724860912411e+000	 1.107312001142208e+000	 1.242256631711543e+001
 1.197426186075614e+000	 1.120600148765364e+000	 1.230973416387143e+001
 1.184979263369735e+000	 1.133754096362508e+000	 1.219043749131450e+001
 1.172386302437845e+000	 1.146771375722591e+000	 1.206546983808529e+001
 1.159649567445070e+000	 1.159649567445070e+000	 1.193560175656856e+001
 1.146771375722591e+000	 1.172386302437845e+000	 1.180157677851410e+001
 1.133754096362507e+000	 1.184979263369735e+000	 1.166410744739991e+001
 1.120600148765364e+000	 1.197426186075614e+000	 1.152387144016232e+001
 1.107312001142208e+000	 1.209724860912411e+000	 1.138150780090205e+001
 1.093892168973107e+000	 1.221873134064270e+000	 1.123761330900765e+001
 1.241742080219257e+000	 1.111680009627535e+000	 1.251540785738973e+001
 1.229396263330790e+000	 1.125318062424730e+000	 1.241727219400699e+001
 1.216897599067334e+000	 1.138822289346235e+000	 1.231106299219878e+001
 1.204248276268045e+000	 1.152190134007636e+000	 1.219776986667548e+001
 1.191450540507110e+000	 1.165419088062188e+000	 1.207836528710750e+001
 1.178506692767354e+000	 1.178506692767353e+000	 1.195379990395426e+001
 1.165419088062188e+000	 1.191450540507110e+000	 1.182499791093383e+001
 1.152190134007636e+000	 1.204248276268046e+000	 1.169285246913864e+001
 1.138822289346235e+000	 1.216897599067333e+000	 1.155822121799651e+001
 1.125318062424730e+000	 1.229396263330790e+000	 1.142192189830697e+001
 1.111680009627535e+000	 1.241742080219257e+000	 1.128472811245043e+001
 1.261611026374577e+000	 1.129467850281964e+000	 1.250028814290209e+001
 1.249067665749498e+000	 1.143324123707302e+000	 1.240922210826423e+001
 1.236369012059369e+000	 1.157044429927205e+000	 1.230924217421645e+001
 1.223517289166649e+000	 1.170626171652911e+000	 1.220155342869404e+001
 1.210514778576640e+000	 1.184066800401973e+000	 1.208734656587150e+001
 1.197363818089865e+000	 1.197363818089865e+000	 1.196779251840568e+001
 1.184066800401974e+000	 1.210514778576640e+000	 1.184403711616072e+001
 1.170626171652911e+000	 1.223517289166650e+000	 1.171719579923002e+001
 1.157044429927205e+000	 1.236369012059368e+000	 1.158834841333896e+001
 1.143324123707303e+000	 1.249067665749498e+000	 1.145853411580101e+001
 1.129467850281964e+000	 1.261611026374577e+000	 1.132874642010969e+001
 1.281479972530163e+000	 1.147255690936225e+000	 1.248308906555992e+001
 1.268739068168448e+000	 1.161330184989758e+000	 1.239839053727224e+001
 1.255840425051615e+000	 1.175266570508109e+000	 1.230392183926296e+001
 1.242786302065429e+000	 1.189062209298173e+000	 1.220114042494409e+001
 1.229579016646303e+000	 1.202714512741798e+000	 1.209149308118386e+001
 1.216220943412465e+000	 1.216220943412465e+000	 1.197640976926981e+001
 1.202714512741798e+000	 1.229579016646304e+000	 1.185729747958519e+001
 1.189062209298173e+000	 1.242786302065429e+000	 1.173553413092806e+001
 1.175266570508110e+000	 1.255840425051614e+000	 1.161246254575692e+001
 1.161330184989758e+000	 1.268739068168449e+000	 1.148938453280422e+001
 1.147255690936225e+000	 1.281479972530163e+000	 1.136755510845889e+001
 1.301348918685950e+000	 1.165043531590152e+000	 1.246410745891673e+001
 1.288410470587557e+000	 1.179336246271932e+000	 1.238473617179758e+001
 1.275311838043971e+000	 1.193488711088788e+000	 1.229474837917932e+001
 1.262055314964265e+000	 1.207498246943265e+000	 1.219588949378461e+001
 1.248643254715969e+000	 1.221362225081510e+000	 1.208989895497039e+001
 1.235078068735010e+000	 1.235078068735010e+000	 1.197850318091072e+001
 1.221362225081510e+000	 1.248643254715969e+000	 1.186340851905175e+001
 1.207498246943265e+000	 1.262055314964265e+000	 1.174629422919139e+001
 1.193488711088788e+000	 1.275311838043970e+000	 1.162880553398711e+001
 1.179336246271932e+000	 1.288410470587557e+000	 1.151254677193445e+001
 1.165043531590152e+000	 1.301348918685950e+000	 1.139907468787500e+001
 1.321217864841871e+000	 1.182831372243579e+000	 1.244362779346780e+001
 1.308081873006736e+000	 1.197342307553658e+000	 1.236821812560422e+001
 1.294783251036333e+000	 1.211710851669076e+000	 1.228137947977877e+001
 1.281324327863042e+000	 1.225934284588030e+000	 1.218517962982778e+001
 1.267707492785507e+000	 1.240009937420960e+000	 1.208168602806924e+001
 1.253935194057360e+000	 1.253935194057359e+000	 1.197295777125596e+001
 1.240009937420960e+000	 1.267707492785507e+000	 1.186103754661630e+001
 1.225934284588030e+000	 1.281324327863042e+000	 1.174794359607118e+001
 1.211710851669076e+000	 1.294783251036333e+000	 1.163566173727773e+001
 1.197342307553658e+000	 1.308081873006736e+000	 1.152613748047900e+001
 1.182831372243579e+000	 1.321217864841870e+000	 1.142126828022467e+001
 1.341086810997859e+000	 1.200619212896339e+000	 1.242242151611260e+001
 1.327753275425903e+000	 1.215348368834772e+000	 1.234881172048652e+001
 1.314254664028600e+000	 1.229932992248813e+000	 1.226349882955767e+001
 1.300593340761640e+000	 1.244370322232309e+000	 1.216842391735727e+001
 1.286771730854787e+000	 1.258657649759996e+000	 1.206601671227792e+001
 1.272792319379371e+000	 1.272792319379371e+000	 1.195870410921455e+001
 1.258657649759996e+000	 1.286771730854787e+000	 1.184890101083338e+001
 1.244370322232309e+000	 1.300593340761641e+000	 1.173900117006612e+001
 1.229932992248813e+000	 1.314254664028600e+000	 1.163136807665838e+001
 1.215348368834772e+000	 1.327753275425902e+000	 1.152832593103260e+001
 1.200619212896339e+000	 1.341086810997858e+000	 1.143031701074020e+001
 1.022740806358721e+000	 1.142397349448981e+000	 1.106114108227331e+001
 1.010071222934661e+000	 1.153614540248221e+000	 1.089689836156004e+001
 9.972833164607429e-001	 1.164687203295261e+000	 1.072739128879720e+001
 9.843795644057992e-001	 1.175613488505011e+000	 1.055367063790430e+001
 9.713624822960134e-001	 1.186391602416225e+000	 1.037674277107726e+001
 9.582346220975365e-001	 1.197019809152552e+000	 1.019756962790571e+001
 9.449985705706224e-001	 1.207496431328260e+000	 1.001706593748757e+001
 9.316569475974839e-001	 1.217819850897686e+000	 9.836096650269353e+000
 9.182124044861019e-001	 1.227988509947546e+000	 9.655474602225931e+000
 9.046676222522668e-001	 1.238000911431365e+000	 9.475958422850107e+000
 8.910253098821288e-001	 1.247855619845356e+000	 9.298250697200464e+000
 1.040528647011485e+000	 1.162266295601972e+000	 1.109914206365733e+001
 1.027638710073067e+000	 1.173678579430655e+000	 1.093688263600254e+001
 1.014628392171736e+000	 1.184943821833555e+000	 1.076908781364985e+001
 1.001500213865284e+000	 1.196060140548291e+000	 1.059692075359283e+001
 9.882567344307596e-001	 1.207025710921144e+000	 1.042148984231745e+001
 9.749005502189513e-001	 1.217838766884827e+000	 1.024386095505732e+001
 9.614342929799058e-001	 1.228497601879960e+000	 1.006504400257236e+001
 9.478606281616914e-001	 1.239000569719292e+000	 9.885992550718379e+000
 9.341822531847158e-001	 1.249346085393796e+000	 9.707601151211060e+000
 9.204018956938826e-001	 1.259532625819865e+000	 9.530702940670272e+000
 9.065223117909241e-001	 1.269558730526953e+000	 9.356067519623492e+000
 1.058316487664915e+000	 1.182135241755561e+000	 1.114266222347122e+001
 1.045206197212085e+000	 1.193742618613598e+000	 1.098394882860062e+001
 1.031973467883280e+000	 1.205200440372255e+000	 1.081961714913144e+001
 1.018620863325253e+000	 1.216506792591863e+000	 1.065090265244096e+001
 1.005150986565916e+000	 1.227659819426233e+000	 1.047899076414888e+001
 9.915664783407000e-001	 1.238657724617147e+000	 1.030500386052871e+001
 9.778700153894413e-001	 1.249498772431579e+000	 1.013001133035008e+001
 9.640643087260685e-001	 1.260181288540694e+000	 9.955017493639684e+000
 9.501521018834153e-001	 1.270703660839725e+000	 9.780960818218278e+000
 9.361361691354979e-001	 1.281064340207938e+000	 9.608711256892605e+000
 9.220193136996340e-001	 1.291261841208033e+000	 9.439067890609698e+000
 1.076104328318845e+000	 1.202004187909682e+000	 1.118953995970769e+001
 1.062773684351549e+000	 1.213806657797006e+000	 1.103578378573586e+001
 1.049318543595212e+000	 1.225457058911340e+000	 1.087652113533579e+001
 1.035741512785547e+000	 1.236953444635727e+000	 1.071302709090440e+001
 1.022045238701332e+000	 1.248293927931518e+000	 1.054651861209514e+001
 1.008232406462639e+000	 1.259476682349561e+000	 1.037815264836470e+001
 9.943057377990965e-001	 1.270499942983189e+000	 1.020901400888324e+001
 9.802679892904931e-001	 1.281362007361988e+000	 1.004012398689662e+001
 9.661219505820892e-001	 1.292061236285451e+000	 9.872429307248734e+000
 9.518704425770156e-001	 1.302596054595719e+000	 9.706801159499070e+000
 9.375163156081747e-001	 1.312964951888744e+000	 9.544032649112920e+000
 1.093892168973107e+000	 1.221873134064270e+000	 1.123761330900766e+001
 1.080341171491293e+000	 1.233870696980833e+000	 1.109007890763345e+001
 1.066663619307370e+000	 1.245713677450784e+000	 1.093734801325059e+001
 1.052862162246009e+000	 1.257400096679885e+000	 1.078070204286589e+001
 1.038939490836855e+000	 1.268928036437022e+000	 1.062135844508356e+001
 1.024898334584625e+000	 1.280295640082117e+000	 1.046046638247747e+001
 1.010741460208737e+000	 1.291501113534862e+000	 1.029910269923774e+001
 9.964716698548413e-001	 1.302542726183266e+000	 1.013827054245375e+001
 9.820917992806263e-001	 1.313418811731085e+000	 9.978886953252172e+000
 9.676047160183381e-001	 1.324127768983342e+000	 9.821792808340261e+000
 9.530133175164638e-001	 1.334668062569236e+000	 9.667691254208155e+000
 1.111680009627535e+000	 1.241742080219257e+000	 1.128472811245043e+001
 1.097908658631153e+000	 1.253934736165034e+000	 1.114453462395329e+001
 1.084008695019590e+000	 1.265970295990567e+000	 1.099965613210316e+001
 1.069982811706480e+000	 1.277846748724338e+000	 1.085134913408137e+001
 1.055833742972335e+000	 1.289562144942771e+000	 1.070080015509643e+001
 1.041564262706513e+000	 1.301114597814863e+000	 1.054912119866291e+001
 1.027177182618228e+000	 1.312502284086669e+000	 1.039734550244987e+001
 1.012675350418990e+000	 1.323723445004623e+000	 1.024642362203703e+001
 9.980616479789162e-001	 1.334776387176746e+000	 1.009716007570012e+001
 9.833389894593683e-001	 1.345659483370942e+000	 9.946236154330368e+000
 9.685103194244189e-001	 1.356371173249662e+000	 9.792355820656965e+000
 1.129467850281964e+000	 1.261611026374577e+000	 1.132874642010969e+001
 1.115476145770963e+000	 1.273998775349563e+000	 1.119686819847636e+001
 1.101353770731711e+000	 1.286226914530664e+000	 1.106102114788731e+001
 1.087103461166803e+000	 1.298293400769084e+000	 1.092240752803451e+001
 1.072727995107619e+000	 1.310196253448788e+000	 1.078215345600410e+001
 1.058230190828162e+000	 1.321933555547848e+000	 1.064130415705529e+001
 1.043612905027437e+000	 1.333503454638683e+000	 1.050081831883553e+001
 1.028879030982817e+000	 1.344904163826153e+000	 1.035764067615350e+001
 1.014031496676848e+000	 1.356133962622547e+000	 1.020932359445324e+001
 9.990732629000086e-001	 1.367191197758652e+000	 1.005722294334246e+001
 9.840073213319562e-001	 1.378074283930169e+000	 9.902629526389699e+000
 1.147255690936225e+000	 1.281479972530163e+000	 1.136755510845889e+001
 1.133043632910556e+000	 1.294062814534374e+000	 1.124482178938948e+001
 1.118698846443568e+000	 1.306483533071053e+000	 1.111904351986055e+001
 1.104224110626819e+000	 1.318740052814126e+000	 1.099134086068976e+001
 1.089622247242556e+000	 1.330830361955098e+000	 1.086275188405544e+001
 1.074896118949426e+000	 1.342752513281120e+000	 1.073154915370906e+001
 1.060048627436229e+000	 1.354504625190975e+000	 1.059327298404765e+001
 1.045082711546199e+000	 1.366084882647951e+000	 1.044912456637539e+001
 1.030001345374311e+000	 1.377491538068603e+000	 1.030043356355858e+001
 1.014807536340161e+000	 1.388722912146604e+000	 1.014847106051730e+001
 9.995043232389940e-001	 1.399777394610910e+000	 9.994449001006379e+000
 1.165043531590152e+000	 1.301348918685950e+000	 1.139907468787500e+001
 1.150611120049767e+000	 1.314126853719422e+000	 1.128617073784843e+001
 1.136043922155001e+000	 1.326740151611712e+000	 1.117135627316257e+001
 1.121344760086371e+000	 1.339186704859463e+000	 1.105459127867833e+001
 1.106516499376995e+000	 1.351464470461725e+000	 1.092998797771172e+001
 1.091562047070163e+000	 1.363571471014728e+000	 1.079762150817810e+001
 1.076484349844469e+000	 1.375505795743618e+000	 1.065882868382193e+001
 1.061286392109012e+000	 1.387265601470110e+000	 1.051489111382053e+001
 1.045971194071194e+000	 1.398849113515031e+000	 1.036703244714361e+001
 1.030541809779729e+000	 1.410254626534935e+000	 1.021641575273584e+001
 1.015001325145448e+000	 1.421480505292034e+000	 1.006414103992785e+001
 1.182831372243579e+000	 1.321217864841870e+000	 1.142126828022468e+001
 1.168178607188432e+000	 1.334190892904663e+000	 1.131870787723151e+001
 1.153388997865845e+000	 1.346996770152616e+000	 1.120993129129151e+001
 1.138465409545300e+000	 1.359633356905095e+000	 1.109184808979040e+001
 1.123410751510783e+000	 1.372098578968695e+000	 1.096577489660196e+001
 1.108227975190228e+000	 1.384390428748719e+000	 1.083297663278222e+001
 1.092920072252026e+000	 1.396506966296683e+000	 1.069466368125453e+001
 1.077490072671134e+000	 1.408446320292725e+000	 1.055198918024178e+001
 1.061941042767387e+000	 1.420206688961944e+000	 1.040604644984583e+001
 1.046276083218615e+000	 1.431786340923777e+000	 1.025786655578972e+001
 1.030498327051237e+000	 1.443183615973693e+000	 1.010841601397864e+001
 1.200619212896339e+000	 1.341086810997858e+000	 1.143031701074020e+001
 1.185746094326383e+000	 1.354254932090050e+000	 1.132710030305476e+001
 1.170734073575938e+000	 1.367253388693743e+000	 1.121479336076206e+001
 1.155586059003449e+000	 1.380080008951025e+000	 1.109461851473114e+001
 1.140305003643770e+000	 1.392732687476032e+000	 1.096774684059010e+001
 1.124893903309479e+000	 1.405209386483143e+000	 1.083529542596116e+001
 1.109355794658762e+000	 1.417508136850241e+000	 1.069832476493771e+001
 1.093693753232441e+000	 1.429627039115892e+000	 1.055783628371234e+001
 1.077910891462778e+000	 1.441564264409459e+000	 1.041477000084620e+001
 1.062010356656721e+000	 1.453318055313266e+000	 1.027000232528216e+001
 1.045995328956277e+000	 1.464886726656035e+000	 1.012434399484659e+001
 8.910253098821288e-001	 1.247855619845356e+000	 9.298250697200464e+000
 8.772882022807453e-001	 1.257551261490825e+000	 9.120685120167035e+000
 8.634590576311915e-001	 1.267086523959525e+000	 8.941602137852593e+000
 8.495406565372458e-001	 1.276460157680332e+000	 8.761626439154432e+000
 8.355358005343191e-001	 1.285670976711510e+000	 8.581321838178811e+000
 8.214473102909056e-001	 1.294717859120681e+000	 8.401190453129480e+000
 8.072780238044295e-001	 1.303599747304523e+000	 8.221672178408650e+000
 7.930307945938002e-001	 1.312315648248288e+000	 8.043144450916092e+000
 7.787084898909862e-001	 1.320864633725284e+000	 7.865922309975676e+000
 7.643139888338927e-001	 1.329245840436585e+000	 7.690258748769393e+000
 7.498501806627993e-001	 1.337458470091355e+000	 7.516102716103074e+000
 9.065223117909241e-001	 1.269558730526953e+000	 9.356067519623492e+000
 8.925462839472682e-001	 1.279423001924546e+000	 9.182067506747295e+000
 8.784766183172065e-001	 1.289124104778561e+000	 9.007001741609852e+000
 8.643161438656806e-001	 1.298660767784928e+000	 8.831431232796771e+000
 8.500677108533142e-001	 1.308031784375627e+000	 8.655850616087568e+000
 8.357341890065820e-001	 1.317236013105266e+000	 8.480687356894137e+000
 8.213184656822814e-001	 1.326272377976344e+000	 8.306301270971984e+000
 8.068234440286461e-001	 1.335139868703277e+000	 8.132920753315339e+000
 7.922520411454743e-001	 1.343837540915351e+000	 7.958998109886391e+000
 7.776071862455714e-001	 1.352364516298867e+000	 7.784389932682354e+000
 7.628918188198212e-001	 1.360719982678853e+000	 7.609877006391952e+000
 9.220193136996340e-001	 1.291261841208033e+000	 9.439067890609698e+000
 9.078043656136207e-001	 1.301294742357671e+000	 9.270442640080542e+000
 8.934941790029707e-001	 1.311161685596942e+000	 9.101109221588033e+000
 8.790916311937900e-001	 1.320861377888824e+000	 8.931551550705155e+000
 8.645996211719170e-001	 1.330392592039014e+000	 8.762181441788158e+000
 8.500210677218111e-001	 1.339754167089103e+000	 8.592430178747453e+000
 8.353589075596423e-001	 1.348945008647412e+000	 8.420186904590779e+000
 8.206160934629750e-001	 1.357964089157520e+000	 8.246160714579624e+000
 8.057955923994367e-001	 1.366810448104691e+000	 8.071196126641009e+000
 7.909003836567353e-001	 1.375483192160448e+000	 7.896079937510640e+000
 7.759334569763624e-001	 1.383981495265687e+000	 7.721540034948097e+000
 9.375163156081747e-001	 1.312964951888744e+000	 9.544032649112920e+000
 9.230624472797354e-001	 1.323166482790366e+000	 9.382569457955487e+000
 9.085117396884321e-001	 1.333199266414842e+000	 9.220669922210631e+000
 8.938671185215374e-001	 1.343061987992202e+000	 9.056411367399644e+000
 8.791315314901061e-001	 1.352753399701856e+000	 8.888163597502754e+000
 8.643079464365844e-001	 1.362272321072382e+000	 8.716887397789238e+000
 8.493993494365169e-001	 1.371617639317917e+000	 8.543487866279829e+000
 8.344087428967989e-001	 1.380788309611204e+000	 8.368812529183314e+000
 8.193391436528904e-001	 1.389783355293484e+000	 8.193649859086062e+000
 8.041935810674046e-001	 1.398601868021504e+000	 8.018727944636169e+000
 7.889750951324397e-001	 1.407243007852023e+000	 7.844713314493641e+000
 9.530133175164638e-001	 1.334668062569236e+000	 9.667691254208155e+000
 9.383205289455460e-001	 1.345038223222794e+000	 9.511568315161000e+000
 9.235293003735396e-001	 1.355236847232435e+000	 9.350045272662809e+000
 9.086426058488871e-001	 1.365262598095244e+000	 9.184138117080270e+000
 8.936634418078615e-001	 1.375114207364341e+000	 9.014808024188580e+000
 8.785948251508936e-001	 1.384790475055292e+000	 8.842959451088550e+000
 8.634397913129078e-001	 1.394290269988049e+000	 8.669438376127982e+000
 8.482013923301294e-001	 1.403612530064517e+000	 8.495030686418890e+000
 8.328826949058532e-001	 1.412756262481913e+000	 8.320460716244256e+000
 8.174867784775971e-001	 1.421720543882209e+000	 8.146389939356784e+000
 8.020167332880693e-001	 1.430504520438026e+000	 7.973415817876516e+000
 9.685103194244189e-001	 1.356371173249662e+000	 9.792355820656965e+000
 9.535786106109838e-001	 1.366909963655117e+000	 9.634700377507768e+000
 9.385468610582419e-001	 1.377274428049897e+000	 9.472243691890096e+000
 9.234180931758037e-001	 1.387463208198132e+000	 9.305942215857622e+000
 9.081953521251606e-001	 1.397475015026658e+000	 9.136695131081059e+000
 8.928817038647322e-001	 1.407308629038023e+000	 8.965342473616753e+000
 8.774802331888189e-001	 1.416962900657996e+000	 8.792663404755436e+000
 8.619940417629793e-001	 1.426436750517643e+000	 8.619374631372915e+000
 8.464262461583425e-001	 1.435729169670161e+000	 8.446128978928737e+000
 8.307799758873323e-001	 1.444839219742739e+000	 8.273514119983584e+000
 8.150583714432672e-001	 1.453766033023863e+000	 8.102051460836545e+000
 9.840073213319562e-001	 1.378074283930169e+000	 9.902629526389699e+000
 9.688366922759821e-001	 1.388781704087501e+000	 9.744759057387592e+000
 9.535644217424868e-001	 1.399312008867400e+000	 9.582614771780552e+000
 9.381935805022507e-001	 1.409663818301048e+000	 9.417086198350006e+000
 9.227272624419833e-001	 1.419835822688992e+000	 9.249003248984849e+000
 9.071685825780912e-001	 1.429826783020764e+000	 9.079134388410200e+000
 8.915206750642536e-001	 1.439635531327948e+000	 8.908184951450021e+000
 8.757866911953608e-001	 1.449260970970773e+000	 8.736795611016010e+000
 8.599697974103759e-001	 1.458702076858409e+000	 8.565540999763448e+000
 8.440731732966296e-001	 1.467957895603269e+000	 8.394928488102956e+000
 8.281000095980499e-001	 1.477027545609700e+000	 8.225397121014511e+000
 9.995043232389940e-001	 1.399777394610910e+000	 9.994449001006379e+000
 9.840947739404727e-001	 1.410653444520108e+000	 9.837586708717979e+000
 9.685819824262233e-001	 1.421349589685121e+000	 9.676908061444129e+000
 9.529690678281922e-001	 1.431864428404175e+000	 9.513228931403241e+000
 9.372591727583082e-001	 1.442196630351531e+000	 9.347303337280755e+000
 9.214554612909641e-001	 1.452344937003705e+000	 9.179821674845716e+000
 9.055611169392154e-001	 1.462308161998095e+000	 9.011409095918555e+000
 8.895793406272856e-001	 1.472085191424091e+000	 8.842624038588776e+000
 8.735133486619712e-001	 1.481674984046840e+000	 8.673956911357292e+000
 8.573663707055079e-001	 1.491076571463974e+000	 8.505828933657485e+000
 8.411416477524336e-001	 1.500289058195703e+000	 8.338591134997509e+000
 1.015001325145448e+000	 1.421480505292034e+000	 1.006414103992785e+001
 9.993528556043898e-001	 1.432525184953105e+000	 9.909414817663926e+000
 9.835995431093997e-001	 1.443387170503232e+000	 9.751259358975835e+000
 9.677445551535926e-001	 1.454065038507694e+000	 9.590412370085094e+000
 9.517910830741139e-001	 1.464557438014463e+000	 9.427545971164323e+000
 9.357423400033419e-001	 1.474863090987035e+000	 9.263266610307513e+000
 9.196015588137076e-001	 1.484980792668627e+000	 9.098113519374037e+000
 9.033719900587662e-001	 1.494909411877786e+000	 8.932557320884591e+000
 8.870568999131454e-001	 1.504647891235637e+000	 8.766998788316332e+000
 8.706595681139866e-001	 1.514195247325030e+000	 8.601767761956568e+000
 8.541832859064348e-001	 1.523550570782039e+000	 8.437122222304829e+000
 1.030498327051237e+000	 1.443183615973693e+000	 1.010841601397864e+001
 1.014610937267665e+000	 1.454396925386652e+000	 9.956849323813866e+000
 9.986171037919640e-001	 1.465424751321909e+000	 9.802177681331076e+000
 9.825200424784156e-001	 1.476265648611788e+000	 9.645048738940501e+000
 9.663229933893792e-001	 1.486918245677973e+000	 9.486048754143837e+000
 9.500292187152167e-001	 1.497381244970944e+000	 9.325694935405837e+000
 9.336420006877344e-001	 1.507653423339732e+000	 9.164435445545552e+000
 9.171646394898144e-001	 1.517733632332045e+000	 9.002648099693692e+000
 9.006004511639166e-001	 1.527620798424980e+000	 8.840639215312988e+000
 8.839527655220841e-001	 1.537313923186611e+000	 8.678642616088046e+000
 8.672249240600692e-001	 1.546812083368872e+000	 8.516818791363942e+000
 1.045995328956277e+000	 1.464886726656035e+000	 1.012434399484659e+001
 1.029869018930230e+000	 1.476268665820915e+000	 9.976863977212695e+000
 1.013634664473865e+000	 1.487462332141325e+000	 9.826531333906436e+000
 9.972955298026258e-001	 1.498466258716639e+000	 9.673908094398124e+000
 9.808549037040830e-001	 1.509279053342249e+000	 9.519484111687609e+000
 9.643160974265818e-001	 1.519899398955622e+000	 9.363683898814120e+000
 9.476824425612986e-001	 1.530326054011600e+000	 9.206859958055558e+000
 9.309572889204426e-001	 1.540557852787053e+000	 9.049292864450255e+000
 9.141440024143019e-001	 1.550593705615053e+000	 8.891190219094804e+000
 8.972459629298201e-001	 1.560432599048893e+000	 8.732685753720068e+000
 8.802665622133532e-001	 1.570073595956371e+000	 8.573838587857010e+000
 7.498501806627993e-001	 1.337458470091355e+000	 7.516102716103073e+000
 7.353221473168309e-001	 1.345500595902038e+000	 7.340949703925368e+000
 7.207306278798588e-001	 1.353372795297910e+000	 7.163571893425993e+000
 7.060785306134998e-001	 1.361074466261638e+000	 6.984383576911494e+000
 6.913687667140009e-001	 1.368605071488112e+000	 6.803746462631209e+000
 6.766042485600982e-001	 1.375964138175143e+000	 6.621969568726014e+000
 6.617878879772690e-001	 1.383151257758930e+000	 6.439405604926867e+000
 6.469225945203407e-001	 1.390166085595247e+000	 6.257820524127650e+000
 6.320112737763581e-001	 1.397008340587419e+000	 6.078715843472253e+000
 6.170568256895568e-001	 1.403677804762223e+000	 5.903295584948807e+000
 6.020621429102250e-001	 1.410174322794896e+000	 5.732778881977468e+000
 7.628918188198212e-001	 1.360719982678853e+000	 7.609877006391952e+000
 7.481111091940829e-001	 1.368901979756440e+000	 7.434752287846243e+000
 7.332658093066115e-001	 1.376911095003749e+000	 7.258098945859383e+000
 7.183588780004508e-001	 1.384746715932977e+000	 7.080378526764670e+000
 7.033932771043161e-001	 1.392408295894034e+000	 6.901998548722899e+000
 6.883719696499764e-001	 1.399895353861612e+000	 6.723312209822500e+000
 6.732979181063208e-001	 1.407207474166046e+000	 6.544618243208156e+000
 6.581740826320958e-001	 1.414344306168952e+000	 6.366461294884057e+000
 6.430034193492565e-001	 1.421305563884740e+000	 6.190904641028248e+000
 6.277888786388084e-001	 1.428091025549134e+000	 6.019399488285797e+000
 6.125334034609495e-001	 1.434700533135920e+000	 5.853263888289312e+000
 7.759334569763624e-001	 1.383981495265687e+000	 7.721540034948098e+000
 7.609000710709125e-001	 1.392303363610223e+000	 7.546901760217478e+000
 7.458009907330193e-001	 1.400449394709020e+000	 7.371345828994488e+000
 7.306392253871503e-001	 1.408418965603801e+000	 7.195375356917485e+000
 7.154177874944816e-001	 1.416211520299499e+000	 7.019437883850668e+000
 7.001396907398116e-001	 1.423826569547684e+000	 6.843924901426856e+000
 6.848079482354358e-001	 1.431263690572821e+000	 6.669171532393996e+000
 6.694255707440150e-001	 1.438522526742372e+000	 6.495456362506572e+000
 6.539955649224103e-001	 1.445602787181828e+000	 6.323699260544042e+000
 6.385209315883906e-001	 1.452504246335858e+000	 6.156095174564966e+000
 6.230046640120596e-001	 1.459226743476797e+000	 5.994082274391579e+000
 7.889750951324397e-001	 1.407243007852023e+000	 7.844713314493641e+000
 7.736890329473286e-001	 1.415704747463540e+000	 7.670993782329160e+000
 7.583361721590805e-001	 1.423987694413863e+000	 7.496880063972959e+000
 7.429195727735806e-001	 1.432091215274239e+000	 7.322911800708792e+000
 7.274422978844638e-001	 1.440014744704620e+000	 7.149571413381032e+000
 7.119074118295534e-001	 1.447757785233454e+000	 6.977283454023308e+000
 6.963179783645463e-001	 1.455319906979338e+000	 6.806414113826810e+000
 6.806770588560146e-001	 1.462700747315572e+000	 6.637270888673824e+000
 6.649877104957208e-001	 1.469900010478731e+000	 6.470113108087541e+000
 6.492529845381936e-001	 1.476917467122426e+000	 6.306487619034906e+000
 6.334759245634387e-001	 1.483752953817541e+000	 6.148440266200167e+000
 8.020167332880693e-001	 1.430504520438026e+000	 7.973415817876517e+000
 7.864779948233396e-001	 1.439106131316547e+000	 7.801013484503694e+000
 7.708713535847912e-001	 1.447525994118420e+000	 7.628650761729002e+000
 7.551999201597239e-001	 1.455763464944417e+000	 7.456899386714966e+000
 7.394668082742286e-001	 1.463817969109509e+000	 7.286272141147235e+000
 7.236751329191496e-001	 1.471689000919019e+000	 7.117222030995867e+000
 7.078280084935832e-001	 1.479376123385674e+000	 6.950141626876105e+000
 6.919285469680097e-001	 1.486878967888615e+000	 6.785362566709477e+000
 6.759798560690888e-001	 1.494197233775495e+000	 6.623155222058020e+000
 6.599850374881072e-001	 1.501330687908871e+000	 6.463904387012873e+000
 6.439471851149695e-001	 1.508279164158169e+000	 6.309739092719507e+000
 8.150583714432672e-001	 1.453766033023863e+000	 8.102051460836545e+000
 7.992669566989544e-001	 1.462507515169399e+000	 7.931323407805583e+000
 7.834065350101485e-001	 1.471064293822835e+000	 7.760977003605073e+000
 7.674802675455636e-001	 1.479435714614465e+000	 7.591612239891733e+000
 7.514913186637425e-001	 1.487621193514281e+000	 7.423768334423694e+000
 7.354428540085497e-001	 1.495620216604477e+000	 7.257922742456746e+000
 7.193380386224788e-001	 1.503432339791911e+000	 7.094490332680156e+000
 7.031800350799152e-001	 1.511057188461564e+000	 6.933822729864112e+000
 6.869720016424156e-001	 1.518494457072168e+000	 6.776207826074492e+000
 6.707170904380223e-001	 1.525743908695221e+000	 6.621869461983257e+000
 6.544184456665354e-001	 1.532805374498695e+000	 6.471599065422330e+000
 8.281000095980499e-001	 1.477027545609700e+000	 8.225397121014511e+000
 8.120559185741816e-001	 1.485908899022251e+000	 8.056651962173039e+000
 7.959417164351506e-001	 1.494602593527250e+000	 7.888536720493771e+000
 7.797606149310815e-001	 1.503107964284512e+000	 7.721676365064076e+000
 7.635158290529713e-001	 1.511424417919046e+000	 7.556633196579401e+000
 7.472105750977021e-001	 1.519551432289924e+000	 7.393905693381499e+000
 7.308480687511642e-001	 1.527488556198130e+000	 7.233927525611712e+000
 7.144315231916465e-001	 1.535235409034484e+000	 7.077066740119085e+000
 6.979641472156025e-001	 1.542791680368797e+000	 6.923625118460683e+000
 6.814491433878283e-001	 1.550157129481510e+000	 6.773837710016460e+000
 6.648897062180196e-001	 1.557331584839138e+000	 6.627884057370657e+000
 8.411416477524336e-001	 1.500289058195703e+000	 8.338591134997508e+000
 8.248448804490295e-001	 1.509310282875257e+000	 8.172082344917083e+000
 8.084768978597926e-001	 1.518140893231805e+000	 8.006356016393298e+000
 7.920409623162603e-001	 1.526780213954683e+000	 7.842059360407641e+000
 7.755403394418811e-001	 1.535227642323919e+000	 7.679774956646018e+000
 7.589782961865559e-001	 1.543482647975457e+000	 7.520019436740368e+000
 7.423580988795706e-001	 1.551544772604411e+000	 7.363242338789000e+000
 7.256830113031192e-001	 1.559413629607439e+000	 7.209825136258503e+000
 7.089562927885509e-001	 1.567088903665430e+000	 7.060080444086275e+000
 6.921811963374156e-001	 1.574570350267766e+000	 6.914251404505060e+000
 6.753609667693055e-001	 1.581857795179509e+000	 6.772511254792834e+000
 8.541832859064348e-001	 1.523550570782039e+000	 8.437122222304831e+000
 8.376338423235072e-001	 1.532711666728574e+000	 8.273041870379457e+000
 8.210120792840733e-001	 1.541679192936644e+000	 8.109798888874233e+000
 8.043213097010831e-001	 1.550452463625108e+000	 7.948060514961137e+000
 7.875648498304384e-001	 1.559030866729012e+000	 7.788427331237205e+000
 7.707460172750591e-001	 1.567413863661173e+000	 7.631431788335062e+000
 7.538681290076296e-001	 1.575600989010834e+000	 7.477536901512830e+000
 7.369344994142486e-001	 1.583591850180492e+000	 7.327135124784413e+000
 7.199484383611615e-001	 1.591386126962113e+000	 7.180547405892603e+000
 7.029132492866742e-001	 1.598983571054023e+000	 7.038022425149373e+000
 6.858322273202755e-001	 1.606384005519828e+000	 6.899736020870616e+000
 8.672249240600692e-001	 1.546812083368872e+000	 8.516818791363939e+000
 8.504228041976235e-001	 1.556113050582356e+000	 8.355291667462300e+000
 8.335472607079892e-001	 1.565217492641910e+000	 8.194557304669573e+000
 8.166016570855321e-001	 1.574124713295916e+000	 8.035301249737284e+000
 7.995893602186089e-001	 1.582834091134438e+000	 7.878140319617694e+000
 7.825137383631615e-001	 1.591345079347169e+000	 7.723620965261349e+000
 7.653781591352729e-001	 1.599657205417480e+000	 7.572217811579016e+000
 7.481859875249496e-001	 1.607770070753707e+000	 7.424332377580250e+000
 7.309405839333361e-001	 1.615683350258895e+000	 7.280291980474696e+000
 7.136453022354947e-001	 1.623396791840312e+000	 7.140348827270826e+000
 6.963034878708130e-001	 1.630910215860108e+000	 7.004679297134771e+000
 8.802665622133532e-001	 1.570073595956371e+000	 8.573838587857004e+000
 8.632117660713863e-001	 1.579514434436757e+000	 8.414916706871939e+000
 8.460824421315376e-001	 1.588755792347744e+000	 8.256641593553447e+000
 8.288820044695899e-001	 1.597796962967234e+000	 8.099715866794391e+000
 8.116138706063589e-001	 1.606637315540310e+000	 7.944771297366603e+000
 7.942814594508111e-001	 1.615276295033541e+000	 7.792367014428583e+000
 7.768881892624316e-001	 1.623713421824429e+000	 7.642987889806046e+000
 7.594374756351380e-001	 1.631948291327146e+000	 7.497043104505705e+000
 7.419327295049752e-001	 1.639980573555821e+000	 7.354864901732744e+000
 7.243773551837668e-001	 1.647810012626662e+000	 7.216707530462504e+000
 7.067747484208015e-001	 1.655436426200365e+000	 7.082746383376850e+000
 6.020621429102250e-001	 1.410174322794896e+000	 5.732778881977468e+000
 5.870278516030029e-001	 1.416498737301121e+000	 5.565139265081889e+000
 5.719590733564497e-001	 1.422650029986620e+000	 5.398021077416480e+000
 5.568586712756409e-001	 1.428628231261313e+000	 5.232064025662574e+000
 5.417294947976459e-001	 1.434433431836373e+000	 5.067882347720407e+000
 5.265743781829089e-001	 1.440065782013029e+000	 4.906059687485678e+000
 5.113961390398313e-001	 1.445525490928912e+000	 4.747144732572152e+000
 4.961975768838239e-001	 1.450812825763512e+000	 4.591647602826416e+000
 4.809814717320292e-001	 1.455928110904371e+000	 4.440036971451754e+000
 4.657505827348304e-001	 1.460871727075660e+000	 4.292737894951741e+000
 4.505076468451836e-001	 1.465644110430823e+000	 4.150130322951956e+000
 6.125334034609495e-001	 1.434700533135920e+000	 5.853263888289313e+000
 5.972376308707766e-001	 1.441134943915833e+000	 5.690214772944741e+000
 5.819067715331873e-001	 1.447393221884075e+000	 5.527606330097000e+000
 5.665437383493174e-001	 1.453475397979446e+000	 5.366123013622845e+000
 5.511514303145781e-001	 1.459381564490778e+000	 5.206418485162500e+000
 5.357327309837993e-001	 1.465111874333371e+000	 5.049110173101040e+000
 5.202905069701495e-001	 1.470666540282229e+000	 4.894774700380304e+000
 5.048276064791278e-001	 1.476045834163695e+000	 4.743944166098866e+000
 4.893468578788444e-001	 1.481250086007147e+000	 4.597103259121351e+000
 4.738510683077294e-001	 1.486279683158419e+000	 4.454687175659658e+000
 4.583430223207198e-001	 1.491135069356658e+000	 4.317080307036686e+000
 6.230046640120596e-001	 1.459226743476797e+000	 5.994082274391579e+000
 6.074474101389679e-001	 1.465771150530428e+000	 5.835109386167090e+000
 5.918544697103533e-001	 1.472136413781435e+000	 5.676256679188123e+000
 5.762288054234166e-001	 1.478322564697501e+000	 5.518288337082668e+000
 5.605733658319158e-001	 1.484329697145122e+000	 5.361931309031613e+000
 5.448910837850698e-001	 1.490157966653669e+000	 5.207869484777001e+000
 5.291848749008191e-001	 1.495807589635517e+000	 5.056738857032104e+000
 5.134576360747548e-001	 1.501278842563868e+000	 4.909123653094012e+000
 4.977122440259597e-001	 1.506572061109939e+000	 4.765553409946088e+000
 4.819515538809139e-001	 1.511687639241224e+000	 4.626500960156797e+000
 4.661783977965402e-001	 1.516626028282580e+000	 4.492381289474223e+000
 6.334759245634387e-001	 1.483752953817541e+000	 6.148440266200167e+000
 6.176571894074571e-001	 1.490407357144906e+000	 5.993151185913961e+000
 6.018021678878300e-001	 1.496879605678688e+000	 5.837451958912828e+000
 5.859138724978267e-001	 1.503169731415457e+000	 5.682219995383549e+000
 5.699953013495547e-001	 1.509277829799371e+000	 5.528287755123417e+000
 5.540494365866255e-001	 1.515204058973874e+000	 5.376436472454505e+000
 5.380792428317556e-001	 1.520948638988721e+000	 5.227391000699193e+000
 5.220876656706315e-001	 1.526511850963969e+000	 5.081815754558962e+000
 5.060776301733108e-001	 1.531894036212673e+000	 4.940311720374147e+000
 4.900520394543282e-001	 1.537095595323997e+000	 4.803414496469574e+000
 4.740137732725954e-001	 1.542116987208505e+000	 4.671593318662470e+000
 6.439471851149695e-001	 1.508279164158169e+000	 6.309739092719507e+000
 6.278669686761252e-001	 1.515043563759268e+000	 6.157836440289114e+000
 6.117498660655004e-001	 1.521622797575824e+000	 6.004813626400296e+000
 5.955989395724353e-001	 1.528016898133288e+000	 5.851693458111242e+000
 5.794172368673897e-001	 1.534225962453487e+000	 5.699444637605660e+000
 5.632077893883719e-001	 1.540250151293942e+000	 5.548974972852253e+000
 5.469736107628745e-001	 1.546089688341782e+000	 5.401125854519442e+000
 5.307176952666834e-001	 1.551744859363929e+000	 5.256667973696825e+000
 5.144430163208340e-001	 1.557216011315279e+000	 5.116298245674678e+000
 4.981525250279170e-001	 1.562503551406660e+000	 4.980637896398620e+000
 4.818491487488355e-001	 1.567607946134351e+000	 4.850231660295421e+000
 6.544184456665354e-001	 1.532805374498695e+000	 6.471599065422331e+000
 6.380767479448531e-001	 1.539679770373518e+000	 6.322851974609189e+000
 6.216975642432467e-001	 1.546365989472827e+000	 6.172125582042937e+000
 6.052840066471301e-001	 1.552864064850969e+000	 6.020619087767783e+000
 5.888391723853175e-001	 1.559174095107435e+000	 5.869466819000620e+000
 5.723661421902138e-001	 1.565296243613825e+000	 5.719730864243922e+000
 5.558679786940914e-001	 1.571230737694648e+000	 5.572395135880369e+000
 5.393477248628367e-001	 1.576977867763687e+000	 5.428360831641714e+000
 5.228084024684643e-001	 1.582537986417684e+000	 5.288443255021935e+000
 5.062530106016239e-001	 1.587911507489136e+000	 5.153369945133022e+000
 4.896845242252109e-001	 1.593098905060032e+000	 5.023780057714997e+000
 6.648897062180196e-001	 1.557331584839138e+000	 6.627884057370659e+000
 6.482865272135217e-001	 1.564315976987654e+000	 6.482097926457075e+000
 6.316452624209525e-001	 1.571109181369688e+000	 6.333355350443425e+000
 6.149690737218001e-001	 1.577711231568476e+000	 6.183061890469634e+000
 5.982611079032335e-001	 1.584122227761179e+000	 6.032545668107675e+000
 5.815244949920564e-001	 1.590342335933476e+000	 5.883049362422304e+000
 5.647623466253220e-001	 1.596371787047260e+000	 5.735723814320756e+000
 5.479777544590173e-001	 1.602210876163178e+000	 5.591623204016987e+000
 5.311737886161385e-001	 1.607859961519817e+000	 5.451701756009028e+000
 5.143534961753934e-001	 1.613319463571345e+000	 5.316811915365395e+000
 4.975198997016720e-001	 1.618589863985467e+000	 5.187703929399143e+000
 6.753609667693055e-001	 1.581857795179509e+000	 6.772511254792835e+000
 6.584963064820117e-001	 1.588952183601679e+000	 6.629710843792693e+000
 6.415929605985001e-001	 1.595852373266394e+000	 6.482675582848078e+000
 6.246541407963321e-001	 1.602558398285783e+000	 6.333261559096927e+000
 6.076830434210330e-001	 1.609070360414681e+000	 6.183017774638188e+000
 5.906828477938049e-001	 1.615388428252850e+000	 6.033392531693183e+000
 5.736567145564815e-001	 1.621512836399564e+000	 5.885726537593942e+000
 5.566077840551514e-001	 1.627443884562336e+000	 5.741247774362273e+000
 5.395391747637919e-001	 1.633181936621605e+000	 5.601068081066245e+000
 5.224539817491696e-001	 1.638727419653209e+000	 5.466181385427493e+000
 5.053552751781693e-001	 1.644080822910571e+000	 5.337463510413306e+000
 6.858322273202755e-001	 1.606384005519828e+000	 6.899736020870618e+000
 6.687060857502040e-001	 1.613588390215593e+000	 6.760074046158269e+000
 6.515406587757721e-001	 1.620595565162931e+000	 6.614485846743005e+000
 6.343392078706145e-001	 1.627405565002866e+000	 6.465652777666851e+000
 6.171049789386121e-001	 1.634018493067907e+000	 6.315383893149386e+000
 5.998412005953645e-001	 1.640434520571898e+000	 6.165356987935274e+000
 5.825510824874860e-001	 1.646653885751501e+000	 6.017124207937140e+000
 5.652378136511652e-001	 1.652676892961099e+000	 5.872106591950505e+000
 5.479045609113603e-001	 1.658503911722977e+000	 5.731590529175645e+000
 5.305544673228969e-001	 1.664135375734651e+000	 5.596726061021309e+000
 5.131906506546526e-001	 1.669571781835260e+000	 5.468526943820266e+000
 6.963034878708130e-001	 1.630910215860108e+000	 7.004679297134768e+000
 6.789158650179793e-001	 1.638224596829399e+000	 6.867513813098662e+000
 6.614883569526509e-001	 1.645338757059289e+000	 6.723434672418906e+000
 6.440242749445354e-001	 1.652252731719701e+000	 6.574885759463319e+000
 6.265269144558660e-001	 1.658966625720819e+000	 6.424328092165032e+000
 6.089995533966401e-001	 1.665480612890576e+000	 6.273691773529754e+000
 5.914454504182501e-001	 1.671794935103017e+000	 6.124760692749532e+000
 5.738678432469846e-001	 1.677909901359400e+000	 5.979166723019653e+000
 5.562699470587798e-001	 1.683825886823860e+000	 5.838386057072527e+000
 5.386549528965191e-001	 1.689543331815590e+000	 5.703737600177507e+000
 5.210260261310727e-001	 1.695062740759449e+000	 5.576383327320664e+000
 7.067747484208015e-001	 1.655436426200365e+000	 7.082746383376850e+000
 6.891256442852183e-001	 1.662860803443095e+000	 6.947112950525672e+000
 6.714360551290197e-001	 1.670081948955455e+000	 6.804373273647832e+000
 6.537093420179819e-001	 1.677099898436262e+000	 6.655846994711810e+000
 6.359488499726910e-001	 1.683914758373383e+000	 6.504737087229990e+000
 6.181579061975374e-001	 1.690526705208835e+000	 6.353316386356129e+000
 6.003398183486900e-001	 1.696935984454057e+000	 6.203619655759189e+000
 5.824978728425352e-001	 1.703142909757176e+000	 6.057505985746343e+000
 5.646353332059857e-001	 1.709147861924183e+000	 5.916655014812979e+000
 5.467554384699808e-001	 1.714951287895949e+000	 5.782565441114048e+000
 5.288614016073797e-001	 1.720553699683057e+000	 5.656555719775529e+000
 4.505076468451836e-001	 1.465644110430823e+000	 4.150130322951956e+000
 4.352553773090560e-001	 1.470245751245001e+000	 4.012834213189698e+000
 4.199964617822380e-001	 1.474677191845686e+000	 3.881040182005248e+000
 4.047335618101466e-001	 1.478939026711766e+000	 3.754416048549348e+000
 3.894693118802304e-001	 1.483031901808773e+000	 3.632586485005866e+000
 3.742063182928812e-001	 1.486956513530291e+000	 3.515135644031806e+000
 3.589471580746028e-001	 1.490713607613841e+000	 3.401610175764702e+000
 3.436943779339139e-001	 1.494303978033006e+000	 3.291522581785736e+000
 3.284504932603850e-001	 1.497728465867564e+000	 3.184354852499940e+000
 3.132179871671365e-001	 1.500987958153400e+000	 3.079562333965139e+000
 2.979993095770399e-001	 1.504083386713946e+000	 2.976577770248917e+000
 4.583430223207198e-001	 1.491135069356658e+000	 4.317080307036686e+000
 4.428254803534434e-001	 1.495816743404018e+000	 4.184729154889432e+000
 4.273011768062746e-001	 1.500325257060339e+000	 4.057643191703257e+000
 4.117728195150919e-001	 1.504661215143897e+000	 3.935473901161378e+000
 3.962430887872050e-001	 1.508825274855079e+000	 3.817823256100332e+000
 3.807146362526286e-001	 1.512818144699393e+000	 3.704246977074025e+000
 3.651900837583481e-001	 1.516640583384481e+000	 3.594258234004331e+000
 3.496720223060635e-001	 1.520293398692991e+000	 3.487331730792911e+000
 3.341630110338178e-001	 1.523777446333049e+000	 3.382908111747321e+000
 3.186655762418404e-001	 1.527093628768171e+000	 3.280398628210703e+000
 3.031822104628572e-001	 1.530242894028381e+000	 3.179190003858379e+000
 4.661783977965402e-001	 1.516626028282580e+000	 4.492381289474223e+000
 4.503955833981298e-001	 1.521387735563174e+000	 4.363445941474623e+000
 4.346058918306376e-001	 1.525973322275190e+000	 4.239500119470423e+000
 4.188120772204008e-001	 1.530383403576289e+000	 4.120200879413952e+000
 4.030168656945870e-001	 1.534618647901714e+000	 4.005148356277970e+000
 3.872229542128294e-001	 1.538679775868886e+000	 3.893889689947459e+000
 3.714330094425919e-001	 1.542567559155575e+000	 3.785923454881001e+000
 3.556496666787524e-001	 1.546282819353483e+000	 3.680704525185755e+000
 3.398755288078220e-001	 1.549826426799085e+000	 3.577649305624419e+000
 3.241131653171372e-001	 1.553199299383525e+000	 3.476141258563934e+000
 3.083651113492741e-001	 1.556402401343417e+000	 3.375536656974110e+000
 4.740137732725954e-001	 1.542116987208505e+000	 4.671593318662470e+000
 4.579656864430685e-001	 1.546958727722380e+000	 4.544885710570997e+000
 4.419106068552816e-001	 1.551621387490147e+000	 4.422871812106822e+000
 4.258513349260272e-001	 1.556105592008849e+000	 4.305233319549123e+000
 4.097906426023272e-001	 1.560412020948581e+000	 4.191586444492340e+000
 3.937312721734311e-001	 1.564541407038679e+000	 4.081486552573392e+000
 3.776759351272775e-001	 1.568494534927030e+000	 3.974433374247754e+000
 3.616273110519196e-001	 1.572272240014395e+000	 3.869876710256320e+000
 3.455880465823344e-001	 1.575875407265591e+000	 3.767222553176020e+000
 3.295607543929611e-001	 1.579304969999389e+000	 3.665839545890133e+000
 3.135480122362239e-001	 1.582561908658987e+000	 3.565065697930808e+000
 4.818491487488355e-001	 1.567607946134351e+000	 4.850231660295421e+000
 4.655357894882131e-001	 1.572529719881547e+000	 4.724886170475321e+000
 4.492153218801609e-001	 1.577269452705120e+000	 4.603937781817556e+000
 4.328905926319242e-001	 1.581827780441484e+000	 4.487109121043170e+000
 4.165644195103765e-001	 1.586205393995588e+000	 4.374047497311984e+000
 4.002395901343810e-001	 1.590403038208677e+000	 4.264330308889670e+000
 3.839188608123486e-001	 1.594421510698755e+000	 4.157471098202450e+000
 3.676049554255053e-001	 1.598261660675640e+000	 4.052926168084260e+000
 3.513005643572911e-001	 1.601924387732485e+000	 3.950101670630950e+000
 3.350083434692461e-001	 1.605410640615688e+000	 3.848361079468416e+000
 3.187309131236400e-001	 1.608721415975027e+000	 3.747032956367550e+000
 4.896845242252109e-001	 1.593098905060032e+000	 5.023780057714997e+000
 4.731058925335175e-001	 1.598100712040590e+000	 4.899234424868107e+000
 4.565200369052304e-001	 1.602917517920015e+000	 4.778808726167993e+000
 4.399298503380454e-001	 1.607549968874099e+000	 4.662280083423014e+000
 4.233381964186858e-001	 1.611998767042638e+000	 4.549339074747526e+000
 4.067479080956263e-001	 1.616264669378785e+000	 4.439595974182359e+000
 3.901617864977485e-001	 1.620348486470660e+000	 4.332587724591024e+000
 3.735825997994487e-001	 1.624251081337129e+000	 4.227785545897180e+000
 3.570130821326285e-001	 1.627973368199685e+000	 4.124603079189853e+000
 3.404559325459264e-001	 1.631516311232345e+000	 4.022404966542613e+000
 3.239138140114558e-001	 1.634880923291471e+000	 3.920515766541278e+000
 4.975198997016720e-001	 1.618589863985467e+000	 5.187703929399143e+000
 4.806759955789353e-001	 1.623671704199418e+000	 5.063679663206071e+000
 4.638247519304444e-001	 1.628565583134742e+000	 4.943538836510555e+000
 4.469691080443440e-001	 1.633272157306602e+000	 4.827123949411229e+000
 4.301119733272060e-001	 1.637792140089639e+000	 4.714178206149002e+000
 4.132562260571145e-001	 1.642126300548911e+000	 4.604352662927678e+000
 3.964047121834209e-001	 1.646275462242652e+000	 4.497214202966997e+000
 3.795602441736897e-001	 1.650240501998774e+000	 4.392254229147161e+000
 3.627255999082826e-001	 1.654022348667107e+000	 4.288897962897885e+000
 3.459035216229358e-001	 1.657621981849287e+000	 4.186514237228407e+000
 3.290967148996046e-001	 1.661040430608253e+000	 4.084425671958324e+000
 5.053552751781693e-001	 1.644080822910571e+000	 5.337463510413306e+000
 4.882460986244200e-001	 1.649242696357944e+000	 5.213945731377114e+000
 4.711294669557573e-001	 1.654213648349210e+000	 5.094137917841885e+000
 4.540083657507736e-001	 1.658994345738900e+000	 4.977956186273887e+000
 4.368857502358878e-001	 1.663585513136496e+000	 4.865202937408998e+000
 4.197645440187933e-001	 1.667987931718962e+000	 4.755574998097656e+000
 4.026476378693090e-001	 1.672202438014639e+000	 4.648672693952853e+000
 3.855378885481678e-001	 1.676229922660488e+000	 4.544009730419909e+000
 3.684381176841902e-001	 1.680071329134671e+000	 4.441023757990561e+000
 3.513511107002089e-001	 1.683727652466438e+000	 4.339087496447652e+000
 3.342796157880199e-001	 1.687199937925307e+000	 4.237520293200186e+000
 5.131906506546526e-001	 1.669571781835260e+000	 5.468526943820266e+000
 4.958162016699257e-001	 1.674813688516081e+000	 5.345743595417185e+000
 4.784341819811238e-001	 1.679861713563327e+000	 5.226583340247301e+000
 4.610476234572875e-001	 1.684716534170897e+000	 5.111041533351718e+000
 4.436595271446824e-001	 1.689378886183114e+000	 4.998983575669628e+000
 4.262728619806095e-001	 1.693849562888843e+000	 4.890154146661892e+000
 4.088905635553564e-001	 1.698129413786532e+000	 4.784187481504211e+000
 3.915155329228229e-001	 1.702219343322185e+000	 4.680618556611261e+000
 3.741506354602876e-001	 1.706120309602293e+000	 4.578895045161836e+000
 3.567986997776794e-001	 1.709833323083725e+000	 4.478389903363357e+000
 3.394625166766352e-001	 1.713359445242568e+000	 4.378414448377491e+000
 5.210260261310727e-001	 1.695062740759449e+000	 5.576383327320664e+000
 5.033863047154056e-001	 1.700384680673738e+000	 5.454783709551129e+000
 4.857388970064985e-001	 1.705509778777000e+000	 5.336831839663390e+000
 4.680868811638395e-001	 1.710438722602501e+000	 5.222605340391358e+000
 4.504333040535402e-001	 1.715172259229400e+000	 5.112033663377612e+000
 4.327811799425113e-001	 1.719711194058462e+000	 5.004908520635596e+000
 4.151334892415067e-001	 1.724056389558237e+000	 4.900895485142897e+000
 3.974931772975942e-001	 1.728208763983774e+000	 4.799546609291811e+000
 3.798631532365108e-001	 1.732169290069892e+000	 4.700313907606995e+000
 3.622462888552815e-001	 1.735938993701071e+000	 4.602563549107553e+000
 3.446454175653834e-001	 1.739518952559972e+000	 4.505590604884960e+000
 5.288614016073797e-001	 1.720553699683057e+000	 5.656555719775529e+000
 5.109564077608135e-001	 1.725955672830829e+000	 5.536788298485029e+000
 4.930436120318358e-001	 1.731157843990140e+000	 5.420831183589494e+000
 4.751261388703822e-001	 1.736160911033619e+000	 5.308844718372415e+000
 4.572070809624126e-001	 1.740965632275259e+000	 5.200820709759181e+000
 4.392894979044454e-001	 1.745572825227723e+000	 5.096594178359774e+000
 4.213764149277031e-001	 1.749983365329664e+000	 4.995856413644248e+000
 4.034708216724216e-001	 1.754198184645169e+000	 4.898169166671853e+000
 3.855756710127967e-001	 1.758218270537386e+000	 4.802979810244084e+000
 3.676938779329494e-001	 1.762044664318403e+000	 4.709637295203805e+000
 3.498283184541985e-001	 1.765678459877450e+000	 4.617408731808617e+000
 2.979993095770399e-001	 1.504083386713946e+000	 2.976577770248917e+000
 2.827991546839796e-001	 1.507015299539558e+000	 2.878539897617924e+000
 2.676176157253354e-001	 1.509785191633430e+000	 2.788341455393756e+000
 2.524570335663319e-001	 1.512394122787768e+000	 2.705076719615463e+000
 2.373197127666052e-001	 1.514843192712843e+000	 2.627842252347029e+000
 2.222079208870836e-001	 1.517133539803352e+000	 2.555741388323954e+000
 2.071238878404339e-001	 1.519266339896488e+000	 2.487888573216625e+000
 1.920698052848553e-001	 1.521242805023325e+000	 2.423413511400997e+000
 1.770478260609259e-001	 1.523064182155104e+000	 2.361465084091626e+000
 1.620600636711550e-001	 1.524731751945949e+000	 2.301215001863951e+000
 1.471085918018470e-001	 1.526246827473539e+000	 2.241861158936345e+000
 3.031822104628572e-001	 1.530242894028381e+000	 3.179190003858379e+000
 2.877176895336974e-001	 1.533225799634873e+000	 3.082496401682944e+000
 2.722721083133522e-001	 1.536043866592425e+000	 2.993276902291683e+000
 2.568478483801319e-001	 1.538698173125490e+000	 2.910564606286376e+000
 2.414472543753198e-001	 1.541189838070859e+000	 2.833395737320719e+000
 2.260726332979972e-001	 1.543520019622557e+000	 2.760815007781379e+000
 2.107262538441941e-001	 1.545689914068317e+000	 2.691880816415273e+000
 1.954103457901381e-001	 1.547700754519251e+000	 2.625670229655358e+000
 1.801270994193073e-001	 1.549553809634328e+000	 2.561283701741623e+000
 1.648786649929307e-001	 1.551250382341223e+000	 2.497849492310162e+000
 1.496671522635357e-001	 1.552791808555088e+000	 2.434527743896314e+000
 3.083651113492741e-001	 1.556402401343417e+000	 3.375536656974108e+000
 2.926362243840046e-001	 1.559436299730789e+000	 3.279125379690631e+000
 2.769266009019342e-001	 1.562302541552006e+000	 3.189939464319385e+000
 2.612386631944633e-001	 1.565002223463775e+000	 3.106975575372016e+000
 2.455747959845260e-001	 1.567536483429407e+000	 3.029233969064210e+000
 2.299373457093609e-001	 1.569906499442260e+000	 2.955724793782914e+000
 2.143286198483649e-001	 1.572113488240614e+000	 2.885474203241258e+000
 1.987508862957979e-001	 1.574158704015620e+000	 2.817530227334350e+000
 1.832063727780419e-001	 1.576043437113978e+000	 2.750968349463249e+000
 1.676972663150494e-001	 1.577769012736919e+000	 2.684896743107508e+000
 1.522257127255744e-001	 1.579336789637071e+000	 2.618461124659807e+000
 3.135480122362239e-001	 1.582561908658987e+000	 3.565065697930808e+000
 2.975547592348355e-001	 1.585646799827250e+000	 3.468268668501743e+000
 2.815810934910186e-001	 1.588561216512131e+000	 3.378561561258692e+000
 2.656294780092664e-001	 1.591306273802593e+000	 3.294925323154645e+000
 2.497023375941673e-001	 1.593883128788470e+000	 3.216344589269348e+000
 2.338020581211211e-001	 1.596292979262458e+000	 3.141814985357903e+000
 2.179309858528945e-001	 1.598537062413384e+000	 3.070350224090156e+000
 2.020914268017831e-001	 1.600616653512443e+000	 3.000988932607372e+000
 1.862856461370760e-001	 1.602533064594071e+000	 2.932801153214977e+000
 1.705158676374521e-001	 1.604287643133056e+000	 2.864894463513648e+000
 1.547842731878955e-001	 1.605881770719505e+000	 2.796419667005730e+000
 3.187309131236400e-001	 1.608721415975027e+000	 3.747032956367549e+000
 3.024732940861249e-001	 1.611857299924204e+000	 3.649566245751018e+000
 2.862355860805422e-001	 1.614819891472758e+000	 3.559164400909889e+000
 2.700202928244812e-001	 1.617610324141914e+000	 3.474809380828085e+000
 2.538298792041875e-001	 1.620229774148032e+000	 3.395486548678327e+000
 2.376667705332243e-001	 1.622679459083146e+000	 3.320193055704365e+000
 2.215333518577310e-001	 1.624960636586633e+000	 3.247945999916067e+000
 2.054319673080420e-001	 1.627074603009736e+000	 3.177790289132991e+000
 1.893649194963556e-001	 1.629022692074626e+000	 3.108806142578152e+000
 1.733344689600799e-001	 1.630806273529654e+000	 3.040116170217721e+000
 1.573428336504320e-001	 1.632426751802406e+000	 2.970891974314674e+000
 3.239138140114558e-001	 1.634880923291471e+000	 3.920515766541278e+000
 3.073918289378070e-001	 1.638067800021593e+000	 3.822470335761228e+000
 2.908900786704420e-001	 1.641078566433846e+000	 3.731572631382076e+000
 2.744111076400478e-001	 1.643914374481710e+000	 3.646818383464250e+000
 2.579574208145298e-001	 1.646576419508075e+000	 3.567206049510077e+000
 2.415314829456166e-001	 1.649065938904318e+000	 3.491746371329124e+000
 2.251357178628226e-001	 1.651384210760366e+000	 3.419471687812026e+000
 2.087725078145225e-001	 1.653532552507511e+000	 3.349444924300833e+000
 1.924441928558265e-001	 1.655512319555662e+000	 3.280768184422482e+000
 1.761530702828740e-001	 1.657324903926732e+000	 3.212590875793169e+000
 1.599013941131164e-001	 1.658971732885789e+000	 3.144117306857696e+000
 3.290967148996046e-001	 1.661040430608253e+000	 4.084425671958325e+000
 3.123103637898164e-001	 1.664278300119365e+000	 3.986258481635729e+000
 2.955445712606549e-001	 1.667337241395350e+000	 3.895427861679621e+000
 2.788019224559066e-001	 1.670218424821950e+000	 3.810952107690717e+000
 2.620849624251379e-001	 1.672923064868585e+000	 3.731851156345215e+000
 2.453961953582447e-001	 1.675452418725971e+000	 3.657157419746975e+000
 2.287380838681175e-001	 1.677807784934590e+000	 3.585926356614518e+000
 2.121130483211732e-001	 1.679990502005783e+000	 3.517246691332693e+000
 1.955234662154353e-001	 1.682001947037197e+000	 3.450250197624770e+000
 1.789716716057754e-001	 1.683843534324309e+000	 3.384120969737956e+000
 1.624599545758813e-001	 1.685516713969673e+000	 3.318104110514150e+000
 3.342796157880199e-001	 1.687199937925307e+000	 4.237520293200189e+000
 3.172288986420876e-001	 1.690488800217466e+000	 4.140045695730549e+000
 3.001990638511178e-001	 1.693595916357230e+000	 4.050201173411039e+000
 2.831927372719975e-001	 1.696522475162606e+000	 3.967032411716208e+000
 2.662125040359551e-001	 1.699269710229544e+000	 3.889585219985693e+000
 2.492609077710546e-001	 1.701838898548099e+000	 3.816917761095605e+000
 2.323404498735637e-001	 1.704231359109308e+000	 3.748112498584424e+000
 2.154535888279422e-001	 1.706448451504562e+000	 3.682287761731017e+000
 1.986027395751276e-001	 1.708491574519248e+000	 3.618608835402901e+000
 1.817902729287252e-001	 1.710362164722407e+000	 3.556298488266262e+000
 1.650185150386595e-001	 1.712061695054074e+000	 3.494646860106824e+000
 3.394625166766352e-001	 1.713359445242568e+000	 4.378414448377490e+000
 3.221474334945552e-001	 1.716699300315839e+000	 4.282795787005239e+000
 3.048535564417678e-001	 1.719854591319444e+000	 4.195204731442766e+000
 2.875835520882611e-001	 1.722826525503650e+000	 4.114715195013282e+000
 2.703400456469252e-001	 1.725616355590934e+000	 4.040399241151057e+000
 2.531256201839929e-001	 1.728225378370697e+000	 3.971340840048584e+000
 2.359428158791093e-001	 1.730654933284528e+000	 3.906649322933873e+000
 2.187941293347777e-001	 1.732906401003865e+000	 3.845472423008788e+000
 2.016820129348497e-001	 1.734981202001836e+000	 3.787008799039895e+000
 1.846088742516645e-001	 1.736880795121043e+000	 3.730519945054285e+000
 1.675770755013836e-001	 1.738606676139007e+000	 3.675341397481198e+000
 3.446454175653834e-001	 1.739518952559972e+000	 4.505590604884960e+000
 3.270659683471535e-001	 1.742909800414432e+000	 4.413331951900222e+000
 3.095080490325418e-001	 1.746113266281949e+000	 4.329602588351123e+000
 2.919743669046372e-001	 1.749130575845050e+000	 4.253501480858621e+000
 2.744675872579915e-001	 1.751963000952741e+000	 4.184123285614598e+000
 2.569903325970060e-001	 1.754611858193762e+000	 4.120573778001003e+000
 2.395451818847027e-001	 1.757078507460254e+000	 4.061984959432604e+000
 2.221346698416279e-001	 1.759364350503703e+000	 4.007529717991585e+000
 2.047612862945476e-001	 1.761470829484977e+000	 3.956435927068534e+000
 1.874274755745342e-001	 1.763399425520239e+000	 3.907999874427127e+000
 1.701356359639863e-001	 1.765151657224491e+000	 3.861598922785048e+000
 3.498283184541985e-001	 1.765678459877450e+000	 4.617408731808618e+000
 3.319845031998169e-001	 1.769120300513190e+000	 4.530346705118142e+000
 3.141625416233765e-001	 1.772371941244703e+000	 4.452420766281887e+000
 2.963651817210658e-001	 1.775434626186778e+000	 4.382747712696700e+000
 2.785951288690975e-001	 1.778309646314947e+000	 4.320437049151282e+000
 2.608550450100400e-001	 1.780998338017287e+000	 4.264608251281446e+000
 2.431475478902918e-001	 1.783502081636491e+000	 4.214407685127292e+000
 2.254752103484412e-001	 1.785822300004091e+000	 4.169025045832754e+000
 2.078405596541675e-001	 1.787960456968690e+000	 4.127709186913309e+000
 1.902460768972755e-001	 1.789918055920011e+000	 4.089783220516305e+000
 1.726941964264004e-001	 1.791696638310540e+000	 4.054658778622304e+000
 1.471085918018470e-001	 1.526246827473539e+000	 2.241861158936342e+000
 1.321932148552253e-001	 1.527610946368682e+000	 2.187367836124784e+000
 1.173181978656277e-001	 1.528825244973612e+000	 2.141472492900723e+000
 1.024855234592909e-001	 1.529891127063641e+000	 2.103062833129003e+000
 8.769713199627979e-002	 1.530810023842251e+000	 2.071075035630857e+000
 7.295492130094994e-002	 1.531583392679665e+000	 2.044495352474824e+000
 5.826074643223184e-002	 1.532212715858080e+000	 2.022361265491860e+000
 4.361641949297316e-002	 1.532699499324805e+000	 2.003762194549048e+000
 2.902370947754151e-002	 1.533045271454459e+000	 1.987839754689328e+000
 1.448434215685826e-002	 1.533251581821384e+000	 1.973787562715510e+000
 0.000000000000000e+000	 1.533319999983334e+000	 1.960850593848546e+000
 1.496671522635357e-001	 1.552791808555088e+000	 2.434527743896314e+000
 1.344923622314420e-001	 1.554179652649703e+000	 2.375447318687773e+000
 1.193586341098445e-001	 1.555415070730929e+000	 2.324431500778871e+000
 1.042679850074528e-001	 1.556499490988984e+000	 2.280220933492429e+000
 8.922238903169807e-002	 1.557434369519299e+000	 2.241613446872408e+000
 7.422377701450698e-002	 1.558221189039145e+000	 2.207466309916429e+000
 5.927403627859138e-002	 1.558861457611046e+000	 2.176697971878348e+000
 4.437501044347406e-002	 1.559356707374226e+000	 2.148289284417041e+000
 2.952849927044121e-002	 1.559708493285285e+000	 2.121284200431797e+000
 1.473625854557671e-002	 1.559918391869258e+000	 2.094789949371599e+000
 0.000000000000000e+000	 1.559987999982150e+000	 2.067976689100279e+000
 1.522257127255744e-001	 1.579336789637071e+000	 2.618461124659807e+000
 1.367915096080341e-001	 1.580748358931190e+000	 2.555942390268037e+000
 1.213990703544734e-001	 1.582004896488756e+000	 2.501228278581778e+000
 1.060504465560655e-001	 1.583107854914895e+000	 2.452923398795495e+000
 9.074764606759797e-002	 1.584058715196978e+000	 2.409698936090920e+000
 7.549263272855974e-002	 1.584858985399321e+000	 2.370295605265576e+000
 6.028732612543471e-002	 1.585510199364770e+000	 2.333526019003227e+000
 4.513360139441194e-002	 1.586013915424461e+000	 2.298276460589845e+000
 3.003328906368742e-002	 1.586371715116971e+000	 2.263508055475267e+000
 1.498817493449885e-002	 1.586585201918022e+000	 2.228257340551533e+000
 0.000000000000000e+000	 1.586655999981867e+000	 2.191636230617922e+000
 1.547842731878955e-001	 1.605881770719505e+000	 2.796419667005729e+000
 1.390906569849223e-001	 1.607317065213150e+000	 2.731800654096178e+000
 1.234395065994218e-001	 1.608594722247091e+000	 2.674972179824323e+000
 1.078329081050230e-001	 1.609716218841355e+000	 2.624410869047222e+000
 9.227290310386338e-002	 1.610683060875255e+000	 2.578670070549923e+000
 7.676148844298673e-002	 1.611496781760144e+000	 2.536383567571698e+000
 6.130061597264214e-002	 1.612158941119188e+000	 2.496268622777159e+000
 4.589219234567812e-002	 1.612671123475431e+000	 2.457128345268018e+000
 3.053807885719368e-002	 1.613034936949425e+000	 2.417853372411067e+000
 1.524009132357377e-002	 1.613252011967577e+000	 2.377422864290574e+000
 0.000000000000000e+000	 1.613323999982383e+000	 2.334904809574089e+000
 1.573428336504320e-001	 1.632426751802406e+000	 2.970891974314674e+000
 1.413898043620276e-001	 1.633885771495591e+000	 2.905694446268290e+000
 1.254799428445967e-001	 1.635184548005932e+000	 2.848491364289542e+000
 1.096153696542196e-001	 1.636324582768350e+000	 2.797636411240445e+000
 9.379816014037826e-002	 1.637307406554097e+000	 2.751570982675310e+000
 7.803034415766655e-002	 1.638134578121565e+000	 2.708828718176751e+000
 6.231390582009404e-002	 1.638807682874235e+000	 2.668039280658568e+000
 4.665078329716386e-002	 1.639328331527060e+000	 2.627931368771517e+000
 3.104286865087352e-002	 1.639698158782560e+000	 2.587334953352994e+000
 1.549200771275058e-002	 1.639918822017827e+000	 2.545182734513531e+000
 0.000000000000000e+000	 1.639991999983600e+000	 2.500510817380826e+000
 1.599013941131164e-001	 1.658971732885789e+000	 3.144117306857696e+000
 1.436889517392707e-001	 1.660454477778524e+000	 3.080041986397061e+000
 1.275203790899055e-001	 1.661774373765276e+000	 3.024354707045643e+000
 1.113978312035494e-001	 1.662932946695862e+000	 2.975288203856493e+000
 9.532341717702637e-002	 1.663931752233472e+000	 2.931174837340640e+000
 7.929919987247772e-002	 1.664772374483535e+000	 2.890452018315191e+000
 6.332719566767064e-002	 1.665456424629846e+000	 2.851666787432632e+000
 4.740937424876045e-002	 1.665985539579266e+000	 2.813479531788290e+000
 3.154765844464044e-002	 1.666361380616284e+000	 2.774666827490128e+000
 1.574392410197837e-002	 1.666585632068675e+000	 2.734123403394837e+000
 0.000000000000000e+000	 1.666659999985417e+000	 2.690863223168273e+000
 1.624599545758813e-001	 1.685516713969673e+000	 3.318104110514150e+000
 1.459880991165724e-001	 1.687023184061957e+000	 3.257026557228818e+000
 1.295608153352552e-001	 1.688364199525119e+000	 3.204891655868758e+000
 1.131802927529066e-001	 1.689541310623874e+000	 3.159810089749103e+000
 9.684867421369169e-002	 1.690556097913347e+000	 3.120005088668149e+000
 8.056805558729877e-002	 1.691410170846005e+000	 3.083818829155356e+000
 6.434048551525232e-002	 1.692105166385958e+000	 3.049717888760036e+000
 4.816796520035917e-002	 1.692642747631972e+000	 3.016297733737011e+000
 3.205244823840803e-002	 1.693024602450508e+000	 2.982286226713645e+000
 1.599584049120625e-002	 1.693252442120022e+000	 2.946546147964801e+000
 0.000000000000000e+000	 1.693327999987733e+000	 2.908076726480905e+000
 1.650185150386595e-001	 1.712061695054074e+000	 3.494646860106827e+000
 1.482872464938533e-001	 1.713591890345898e+000	 3.438613927150279e+000
 1.316012515805531e-001	 1.714954025285460e+000	 3.392210259736295e+000
 1.149627543021853e-001	 1.716149674552370e+000	 3.353420228757249e+000
 9.837393125025805e-002	 1.717180443593689e+000	 3.320354766255955e+000
 8.183691130200831e-002	 1.718047967208927e+000	 3.291258832556837e+000
 6.535377536271937e-002	 1.718753908142505e+000	 3.264517828875239e+000
 4.892655615185134e-002	 1.719299955685101e+000	 3.238662931399106e+000
 3.255723803208980e-002	 1.719687824285142e+000	 3.212375330858612e+000
 1.624775688038331e-002	 1.719919252171772e+000	 3.184489369430409e+000
 0.000000000000000e+000	 1.719995999990450e+000	 3.153994570065719e+000
 1.675770755013836e-001	 1.738606676139007e+000	 3.675341397481198e+000
 1.505863938710343e-001	 1.740160596630359e+000	 3.626568203375965e+000
 1.336416878257064e-001	 1.741543851046296e+000	 3.588213563858558e+000
 1.167452158512796e-001	 1.742758038481330e+000	 3.558128053139607e+000
 9.989918828660938e-002	 1.743804789274466e+000	 3.534304001437644e+000
 8.310576701648489e-002	 1.744685763572250e+000	 3.514884130493583e+000
 6.636706520995218e-002	 1.745402649899424e+000	 3.498169017499148e+000
 4.968514710312822e-002	 1.745957163738571e+000	 3.482623359713442e+000
 3.306202782559926e-002	 1.746351046120098e+000	 3.466881020934573e+000
 1.649967326945867e-002	 1.746586062223828e+000	 3.449748849665574e+000
 0.000000000000000e+000	 1.746663999993467e+000	 3.430209262831975e+000
 1.701356359639863e-001	 1.765151657224491e+000	 3.861598922785044e+000
 1.528855412480362e-001	 1.766729302915345e+000	 3.822466281016519e+000
 1.356821240706222e-001	 1.768133676807624e+000	 3.794614543201399e+000
 1.185276774000838e-001	 1.769366402410742e+000	 3.775749704491612e+000
 1.014244453226295e-001	 1.770429134955646e+000	 3.763735978843222e+000
 8.437462273060702e-002	 1.771323559935927e+000	 3.756605714872730e+000
 6.738035505683096e-002	 1.772051391656648e+000	 3.752568013952458e+000
 5.044373805408110e-002	 1.772614371792308e+000	 3.750016018724950e+000
 3.356681761884998e-002	 1.773014267955283e+000	 3.747532850041482e+000
 1.675158965838142e-002	 1.773252872276091e+000	 3.743896179917554e+000
 0.000000000000000e+000	 1.773331999996684e+000	 3.738081432975859e+000
 1.726941964264004e-001	 1.791696638310540e+000	 4.054658778622306e+000
 1.551846886247798e-001	 1.793298009200867e+000	 4.027711033647855e+000
 1.377225603152077e-001	 1.794723502569440e+000	 4.012949726070919e+000
 1.203101389484920e-001	 1.795974766340585e+000	 4.007922109626527e+000
 1.029497023582024e-001	 1.797053480637194e+000	 4.010351476572445e+000
 8.564347844425330e-002	 1.797961356299908e+000	 4.018148476752691e+000
 6.839364490323611e-002	 1.798700133414114e+000	 4.029421002992420e+000
 5.120232900460125e-002	 1.799271579846228e+000	 4.042482606503909e+000
 3.407160741175545e-002	 1.799677489790610e+000	 4.055859416811988e+000
 1.700350604710066e-002	 1.799919682328466e+000	 4.068295551285669e+000
 0.000000000000000e+000	 1.800000000000000e+000	 4.078757005187899e+000
 1.800000000000000e+000	 0.000000000000000e+000	 1.328041422321962e+001
 1.799919682328466e+000	 1.700350604710072e-002	 1.325215432886522e+001
 1.799677489790610e+000	 3.407160741175556e-002	 1.323652104737793e+001
 1.799271579846229e+000	 5.120232900460112e-002	 1.323120621079128e+001
 1.798700133414114e+000	 6.839364490323605e-002	 1.323384049569710e+001
 1.797961356299907e+000	 8.564347844425327e-002	 1.324199741306375e+001
 1.797053480637195e+000	 1.029497023582024e-001	 1.325319774281550e+001
 1.795974766340585e+000	 1.203101389484920e-001	 1.326491439463619e+001
 1.794723502569440e+000	 1.377225603152076e-001	 1.327457768606007e+001
 1.793298009200867e+000	 1.551846886247796e-001	 1.327958102582878e+001
 1.791696638310540e+000	 1.726941964264003e-001	 1.327728698732133e+001
 1.826668000003317e+000	 0.000000000000000e+000	 1.309571076807346e+001
 1.826586492380854e+000	 1.725542243558252e-002	 1.307202661977839e+001
 1.826340711625984e+000	 3.457639720425813e-002	 1.306116164115160e+001
 1.825928787900252e+000	 5.196091995461603e-002	 1.306072696035248e+001
 1.825348875171750e+000	 6.940693474908760e-002	 1.306826698974322e+001
 1.824599152664132e+000	 8.691233415734241e-002	 1.308126371170217e+001
 1.823677826319064e+000	 1.044749593932500e-001	 1.309714145146195e+001
 1.822583130270824e+000	 1.220926004964327e-001	 1.311327211813620e+001
 1.821313328331721e+000	 1.397629965593995e-001	 1.312698090432871e+001
 1.819866715486908e+000	 1.574838360012101e-001	 1.313555243133869e+001
 1.818241619397146e+000	 1.752527568885780e-001	 1.313623732350635e+001
 1.853336000006534e+000	 0.000000000000000e+000	 1.293477601714224e+001
 1.853253302433154e+000	 1.750733882386080e-002	 1.291515342940670e+001
 1.853003933461306e+000	 3.508118699641538e-002	 1.290842303688512e+001
 1.852585995954273e+000	 5.271951090419778e-002	 1.291212554109337e+001
 1.851997616929445e+000	 7.042022459446448e-002	 1.292373012689019e+001
 1.851236949028488e+000	 8.818118986995370e-002	 1.294063907567265e+001
 1.850302172001139e+000	 1.060002164278468e-001	 1.296019290953664e+001
 1.849191494201343e+000	 1.238750620439718e-001	 1.297967604720727e+001
 1.847903154094349e+000	 1.418034328032531e-001	 1.299632296134968e+001
 1.846435421773350e+000	 1.597829833773704e-001	 1.300732482317737e+001
 1.844786600484193e+000	 1.778113173505509e-001	 1.300983661648386e+001
 1.880004000009551e+000	 0.000000000000000e+000	 1.279862295387701e+001
 1.879920112485265e+000	 1.775925521198643e-002	 1.278208550895324e+001
 1.879667155296469e+000	 3.558597678831360e-002	 1.277845039833056e+001
 1.879243204008180e+000	 5.347810185345472e-002	 1.278519711307707e+001
 1.878646358687084e+000	 7.143351443948540e-002	 1.279972950250277e+001
 1.877874745392853e+000	 8.945004558220661e-002	 1.281938074735029e+001
 1.876926517683292e+000	 1.075254734621056e-001	 1.284141890983509e+001
 1.875799858132006e+000	 1.256575235912099e-001	 1.286305304092190e+001
 1.874492979857182e+000	 1.438438690468528e-001	 1.288143983355148e+001
 1.873004128060052e+000	 1.620821307533283e-001	 1.289369080650236e+001
 1.871331581571538e+000	 1.803698778123701e-001	 1.289687999943824e+001
 1.906672000012268e+000	 0.000000000000000e+000	 1.268841699886319e+001
 1.906586922537085e+000	 1.801117160001031e-002	 1.267353459080904e+001
 1.906330377131368e+000	 3.609076658003917e-002	 1.267155652644576e+001
 1.905900412061863e+000	 5.423669280249505e-002	 1.267990925617141e+001
 1.905295100444551e+000	 7.244680428426897e-002	 1.269594005585944e+001
 1.904512541757102e+000	 9.071890129422063e-002	 1.271692239396541e+001
 1.903550863365390e+000	 1.090507304961390e-001	 1.274006192358712e+001
 1.902408222062676e+000	 1.274399851382472e-001	 1.276250307938735e+001
 1.901082805620080e+000	 1.458843052902832e-001	 1.278133626708110e+001
 1.899572834346869e+000	 1.643812781291511e-001	 1.279360562880589e+001
 1.897876562659040e+000	 1.829284382740870e-001	 1.279631736318786e+001
 1.933340000014584e+000	 0.000000000000000e+000	 1.260546549642478e+001
 1.933253732588514e+000	 1.826308798798332e-002	 1.259036177852722e+001
 1.932993598965897e+000	 3.659555637167841e-002	 1.258820933315538e+001
 1.932557620115213e+000	 5.499528375142715e-002	 1.259638870471591e+001
 1.931943842201727e+000	 7.346009412893391e-002	 1.261219823936037e+001
 1.931150338121113e+000	 9.198775700611517e-002	 1.263285988131613e+001
 1.930175209047304e+000	 1.105759875300598e-001	 1.265552564477949e+001
 1.929016585993217e+000	 1.292224466851841e-001	 1.267728474073745e+001
 1.927672631382903e+000	 1.479247415336291e-001	 1.269517134529628e+001
 1.926141540633660e+000	 1.666804255049063e-001	 1.270617299132806e+001
 1.924421543746556e+000	 1.854869987357526e-001	 1.270723956034877e+001
 1.960008000016401e+000	 0.000000000000000e+000	 1.255120805950421e+001
 1.959920542639449e+000	 1.851500437595633e-002	 1.253356688504807e+001
 1.959656820799952e+000	 3.710034616331763e-002	 1.252902033946885e+001
 1.959214828168119e+000	 5.575387470035925e-002	 1.253490916900206e+001
 1.958592583958498e+000	 7.447338397359885e-002	 1.254848932358060e+001
 1.957788134484761e+000	 9.325661271800975e-002	 1.256693821917219e+001
 1.956799554728904e+000	 1.121012445639806e-001	 1.258736172908022e+001
 1.955624949923494e+000	 1.310049082321211e-001	 1.260680188296873e+001
 1.954262457145510e+000	 1.499651777769750e-001	 1.262224525895177e+001
 1.952710246920282e+000	 1.689795728806617e-001	 1.263063204890988e+001
 1.950966524833943e+000	 1.880455591974182e-001	 1.262886577188192e+001
 1.986676000017618e+000	 0.000000000000000e+000	 1.252720769217132e+001
 1.986587352689790e+000	 1.876692076398024e-002	 1.250427863007054e+001
 1.986320042633429e+000	 3.760513595504324e-002	 1.249473410170308e+001
 1.985872036220470e+000	 5.651246564939969e-002	 1.249588014144519e+001
 1.985241325714745e+000	 7.548667381838249e-002	 1.250493573143839e+001
 1.984425930847923e+000	 9.452546843002384e-002	 1.251903956827106e+001
 1.983423900410058e+000	 1.136265015980141e-001	 1.253525761511514e+001
 1.982233313853369e+000	 1.327873697791584e-001	 1.255059141740809e+001
 1.980852282907762e+000	 1.520056140204056e-001	 1.256198716606850e+001
 1.979278953206592e+000	 1.712787202564845e-001	 1.256634548661535e+001
 1.977511505921061e+000	 1.906041196591351e-001	 1.256053192680233e+001
 2.013344000018134e+000	 0.000000000000000e+000	 1.252439880707213e+001
 2.013254162739435e+000	 1.901883715210593e-002	 1.249423007396370e+001
 2.012983264466222e+000	 3.810992574694156e-002	 1.247807019011216e+001
 2.012529244272157e+000	 5.727105659865670e-002	 1.247310996351675e+001
 2.011890067470352e+000	 7.649996366340349e-002	 1.247645770887341e+001
 2.011063727210476e+000	 9.579432414227686e-002	 1.248515021963340e+001
 2.010048246090639e+000	 1.151517586322731e-001	 1.249616380937843e+001
 2.008841677782708e+000	 1.345698313263965e-001	 1.250642540859242e+001
 2.007442108669516e+000	 1.540460502640053e-001	 1.251282371713409e+001
 2.005847659492447e+000	 1.735778676324424e-001	 1.251222041564262e+001
 2.004056487007765e+000	 1.931626801209543e-001	 1.250146144204648e+001
 2.040012000017850e+000	 0.000000000000000e+000	 1.248069731342296e+001
 2.039920972788282e+000	 1.927075354038426e-002	 1.244760457901586e+001
 2.039646486298226e+000	 3.861471553909891e-002	 1.242915651872927e+001
 2.039186452323067e+000	 5.802964754823859e-002	 1.242237103250577e+001
 2.038538809225204e+000	 7.751325350878056e-002	 1.242420019130060e+001
 2.037701523572295e+000	 9.706317985488830e-002	 1.243154157119205e+001
 2.036672591770513e+000	 1.166770156668700e-001	 1.244124959761403e+001
 2.035450041711373e+000	 1.363522928739358e-001	 1.245014688587954e+001
 2.034031934430634e+000	 1.560864865078590e-001	 1.245503557910317e+001
 2.032416365777704e+000	 1.758770150086029e-001	 1.245270868801818e+001
 2.030601468093916e+000	 1.957212405829273e-001	 1.243996144058237e+001
 2.066680000016667e+000	 0.000000000000000e+000	 1.238854592789590e+001
 2.066587782836231e+000	 1.952266992886615e-002	 1.235765990728207e+001
 2.066309708129336e+000	 3.911950533160163e-002	 1.234180166922029e+001
 2.065843660373092e+000	 5.878823849825369e-002	 1.233782218467662e+001
 2.065187550979181e+000	 7.852654335463230e-002	 1.234252545550409e+001
 2.064339319933258e+000	 9.833203556797766e-002	 1.235268018695682e+001
 2.063296937449552e+000	 1.182022727019178e-001	 1.236503140410855e+001
 2.062058405639229e+000	 1.381347544218766e-001	 1.237631199857659e+001
 2.060621760190974e+000	 1.581269227520511e-001	 1.238325420760173e+001
 2.058985072062221e+000	 1.781761623850334e-001	 1.238260103141747e+001
 2.057146449179369e+000	 1.982798010451051e-001	 1.237111759874569e+001
 1.791696638310540e+000	 1.726941964264003e-001	 1.327728698732133e+001
 1.789918055920011e+000	 1.902460768972756e-001	 1.327529434469781e+001
 1.787960456968690e+000	 2.078405596541674e-001	 1.328164522812548e+001
 1.785822300004091e+000	 2.254752103484413e-001	 1.329436008067790e+001
 1.783502081636491e+000	 2.431475478902916e-001	 1.331147695783009e+001
 1.780998338017287e+000	 2.608550450100400e-001	 1.333105861612629e+001
 1.778309646314947e+000	 2.785951288690977e-001	 1.335119977557544e+001
 1.775434626186778e+000	 2.963651817210658e-001	 1.337003451750563e+001
 1.772371941244703e+000	 3.141625416233767e-001	 1.338574377673707e+001
 1.769120300513190e+000	 3.319845031998169e-001	 1.339656288420248e+001
 1.765678459877450e+000	 3.498283184541985e-001	 1.340078911358772e+001
 1.818241619397146e+000	 1.752527568885780e-001	 1.313623732350635e+001
 1.816436686320356e+000	 1.930646782198457e-001	 1.313693500226436e+001
 1.814450084452968e+000	 2.109198330136685e-001	 1.314602798518173e+001
 1.812280249505019e+000	 2.288157508551775e-001	 1.316148190322978e+001
 1.809925655813227e+000	 2.467499138958354e-001	 1.318128149246965e+001
 1.807384817841255e+000	 2.647197574230519e-001	 1.320343828448242e+001
 1.804656291677526e+000	 2.827226704801977e-001	 1.322599848943633e+001
 1.801738676528800e+000	 3.007559965374987e-001	 1.324705103005631e+001
 1.798630616207665e+000	 3.188170342142214e-001	 1.326473568160746e+001
 1.795330800612061e+000	 3.369030380524929e-001	 1.327725127000361e+001
 1.791837967194950e+000	 3.550112193430273e-001	 1.328286387734227e+001
 1.844786600484193e+000	 1.778113173505509e-001	 1.300983661648386e+001
 1.842955316721160e+000	 1.958832795422660e-001	 1.301209553935580e+001
 1.840939711937706e+000	 2.139991063730644e-001	 1.302284813793119e+001
 1.838738199006388e+000	 2.321562913618431e-001	 1.304000272816568e+001
 1.836349229990372e+000	 2.503522799013354e-001	 1.306148846528237e+001
 1.833771297665584e+000	 2.685844698360398e-001	 1.308526368974310e+001
 1.831002937040409e+000	 2.868502120912876e-001	 1.310932448635041e+001
 1.828042726871060e+000	 3.051468113539312e-001	 1.313171341100945e+001
 1.824889291170791e+000	 3.234715268050728e-001	 1.315052833621949e+001
 1.821541300711023e+000	 3.418215729051807e-001	 1.316393136307633e+001
 1.817997474512457e+000	 3.601941202318723e-001	 1.317015774448017e+001
 1.871331581571538e+000	 1.803698778123701e-001	 1.289687999943824e+001
 1.869473947122285e+000	 1.987018808645739e-001	 1.289960601474123e+001
 1.867429339422771e+000	 2.170783797323811e-001	 1.291099005479531e+001
 1.865196148508078e+000	 2.354968318684564e-001	 1.292887964788696e+001
 1.862772804167814e+000	 2.539546459068037e-001	 1.295114510499289e+001
 1.860157777490180e+000	 2.724491822490121e-001	 1.297568857860845e+001
 1.857349582403519e+000	 2.909777537023743e-001	 1.300045335696392e+001
 1.854346777213499e+000	 3.095376261703707e-001	 1.302343334413444e+001
 1.851147966134042e+000	 3.281260193959392e-001	 1.304268267276638e+001
 1.847751800810049e+000	 3.467401077578917e-001	 1.305632539254078e+001
 1.844156981829971e+000	 3.653770211207496e-001	 1.306256517411011e+001
 1.897876562659040e+000	 1.829284382740870e-001	 1.279631736318786e+001
 1.895992577523594e+000	 2.015204821868070e-001	 1.279844228487268e+001
 1.893918966908032e+000	 2.201576530916455e-001	 1.280947451666054e+001
 1.891654098009965e+000	 2.388373723750355e-001	 1.282719633191765e+001
 1.889196378345448e+000	 2.575570119122527e-001	 1.284941490700796e+001
 1.886544257314950e+000	 2.763138946619772e-001	 1.287397215398539e+001
 1.883696227766776e+000	 2.951052953134651e-001	 1.289875481287415e+001
 1.880650827556055e+000	 3.139284409868237e-001	 1.292170474972490e+001
 1.877406641097374e+000	 3.327805119868296e-001	 1.294082940249826e+001
 1.873962300909120e+000	 3.516586426106381e-001	 1.295421231288784e+001
 1.870316489147490e+000	 3.705599220096755e-001	 1.296002367849425e+001
 1.924421543746556e+000	 1.854869987357526e-001	 1.270723956034877e+001
 1.922511207924948e+000	 2.043390835090027e-001	 1.270771269919816e+001
 1.920408594393359e+000	 2.232369264508839e-001	 1.271744595338799e+001
 1.918112047511930e+000	 2.421779128815985e-001	 1.273415085278815e+001
 1.915619952523162e+000	 2.611593779176943e-001	 1.275556609492151e+001
 1.912930737139797e+000	 2.801786070749439e-001	 1.277946821636780e+001
 1.910042873130104e+000	 2.992328369245657e-001	 1.280368255009161e+001
 1.906954877898667e+000	 3.183192558032973e-001	 1.282609441024870e+001
 1.903665316060748e+000	 3.374350045777525e-001	 1.284466044151360e+001
 1.900172801008211e+000	 3.565771774634312e-001	 1.285742006566887e+001
 1.896475996465010e+000	 3.757428228986662e-001	 1.286250695415260e+001
 1.950966524833943e+000	 1.880455591974182e-001	 1.262886577188192e+001
 1.949029838326206e+000	 2.071576848311984e-001	 1.262664592404326e+001
 1.946898221878620e+000	 2.263161998101231e-001	 1.263416077118710e+001
 1.944569997013850e+000	 2.455184533881637e-001	 1.264904456126603e+001
 1.942043526700847e+000	 2.647617439231412e-001	 1.266896108611291e+001
 1.939317216964629e+000	 2.840433194879206e-001	 1.269161526040572e+001
 1.936389518493424e+000	 3.033603785356841e-001	 1.271476501522091e+001
 1.933258928241277e+000	 3.227100706197985e-001	 1.273623344276973e+001
 1.929923991024120e+000	 3.420894971687166e-001	 1.275392112399524e+001
 1.926383301107304e+000	 3.614957123162832e-001	 1.276581856601906e+001
 1.922635503782531e+000	 3.809257237877376e-001	 1.277001867201023e+001
 1.977511505921061e+000	 1.906041196591351e-001	 1.256053192680232e+001
 1.975548468727234e+000	 2.099762861534317e-001	 1.255457978901575e+001
 1.973387849363684e+000	 2.293954731693894e-001	 1.255897666835196e+001
 1.971027946515604e+000	 2.488589938947491e-001	 1.257127191233219e+001
 1.968467100878397e+000	 2.683641099286054e-001	 1.258904686709063e+001
 1.965703696789349e+000	 2.879080319009157e-001	 1.260992743690944e+001
 1.962736163856657e+000	 3.074879201468265e-001	 1.263159698953569e+001
 1.959562978583822e+000	 3.271008854363341e-001	 1.265180953857462e+001
 1.956182665987450e+000	 3.467439897597304e-001	 1.266840312889839e+001
 1.952593801206374e+000	 3.664142471692058e-001	 1.267931334590637e+001
 1.948795011100049e+000	 3.861086246769064e-001	 1.268258686465989e+001
 2.004056487007765e+000	 1.931626801209543e-001	 1.250146144204648e+001
 2.002067099127891e+000	 2.127948874757400e-001	 1.249090733137988e+001
 1.999877476848420e+000	 2.324747465287094e-001	 1.249134284771760e+001
 1.997485896017071e+000	 2.521995344013732e-001	 1.250031115374827e+001
 1.994890675055700e+000	 2.719664759340992e-001	 1.251534619422835e+001
 1.992090176613864e+000	 2.917727443139377e-001	 1.253398630004485e+001
 1.989082809219724e+000	 3.116154617579996e-001	 1.255383191511174e+001
 1.985867028926242e+000	 3.314917002529110e-001	 1.257255989886815e+001
 1.982441340950695e+000	 3.513984823508029e-001	 1.258793805393786e+001
 1.978804301305400e+000	 3.713327820222112e-001	 1.259783979321079e+001
 1.974954518417563e+000	 3.912915255661883e-001	 1.260025885537320e+001
 2.030601468093916e+000	 1.957212405829273e-001	 1.243996144058237e+001
 2.028585729528039e+000	 2.156134887981609e-001	 1.242739795383066e+001
 2.026367104332694e+000	 2.355540198881095e-001	 1.242600496356366e+001
 2.023943845518130e+000	 2.555400749080538e-001	 1.243320662691634e+001
 2.021314249232647e+000	 2.755688419396347e-001	 1.244648637836003e+001
 2.018476656438079e+000	 2.956374567269953e-001	 1.246339780340886e+001
 2.015429454582549e+000	 3.157430033692104e-001	 1.248157558545498e+001
 2.012171079268478e+000	 3.358825150695361e-001	 1.249874655444037e+001
 2.008700015913814e+000	 3.560529749419423e-001	 1.251274086818923e+001
 2.005014801404359e+000	 3.762513168753105e-001	 1.252150335896301e+001
 2.001114025735070e+000	 3.964744264555998e-001	 1.252310507911680e+001
 2.057146449179369e+000	 1.982798010451051e-001	 1.237111759874568e+001
 2.055104359927541e+000	 2.184320901207318e-001	 1.235961499737587e+001
 2.052856731816378e+000	 2.386332932476165e-001	 1.235923764334506e+001
 2.050401795018658e+000	 2.588806154148092e-001	 1.236733110204240e+001
 2.047737823409130e+000	 2.791712079452241e-001	 1.238131474567310e+001
 2.044863136261900e+000	 2.995021691400968e-001	 1.239869241878915e+001
 2.041776099945052e+000	 3.198705449804656e-001	 1.241706314580170e+001
 2.038475129610468e+000	 3.402733298862165e-001	 1.243413191456038e+001
 2.034958690876766e+000	 3.607074675331576e-001	 1.244772057256369e+001
 2.031225301503230e+000	 3.811698517285159e-001	 1.245577887443047e+001
 2.027273533052570e+000	 4.016573273451569e-001	 1.245639572086187e+001
 1.765678459877450e+000	 3.498283184541985e-001	 1.340078911358772e+001
 1.762044664318403e+000	 3.676938779329496e-001	 1.340451615436341e+001
 1.758218270537386e+000	 3.855756710127969e-001	 1.341393716068895e+001
 1.754198184645169e+000	 4.034708216724215e-001	 1.342761786922777e+001
 1.749983365329663e+000	 4.213764149277031e-001	 1.344422050760076e+001
 1.745572825227723e+000	 4.392894979044454e-001	 1.346251062617401e+001
 1.740965632275259e+000	 4.572070809624127e-001	 1.348136360055499e+001
 1.736160911033618e+000	 4.751261388703825e-001	 1.349977074715666e+001
 1.731157843990140e+000	 4.930436120318356e-001	 1.351684499404815e+001
 1.725955672830830e+000	 5.109564077608136e-001	 1.353182604957664e+001
 1.720553699683057e+000	 5.288614016073797e-001	 1.354408501194578e+001
 1.791837967194950e+000	 3.550112193430273e-001	 1.328286387734227e+001
 1.788150334935661e+000	 3.731414670106319e-001	 1.328784730066593e+001
 1.784267251004713e+000	 3.912881887890966e-001	 1.329856933028632e+001
 1.780187605306307e+000	 4.094484660472604e-001	 1.331356724616147e+001
 1.775910341100748e+000	 4.276193406139058e-001	 1.333148336799546e+001
 1.771434456396564e+000	 4.457978158663766e-001	 1.335107253512126e+001
 1.766759005320630e+000	 4.639808578712684e-001	 1.337120923031399e+001
 1.761883099464191e+000	 4.821653965768894e-001	 1.339089428435842e+001
 1.756805909202691e+000	 5.003483270571109e-001	 1.340926109800225e+001
 1.751526664987303e+000	 5.185265108061258e-001	 1.342558131818405e+001
 1.746044658606035e+000	 5.366967770835491e-001	 1.343926990615233e+001
 1.817997474512457e+000	 3.601941202318723e-001	 1.317015774448016e+001
 1.814256005552847e+000	 3.785890560883355e-001	 1.317567137655798e+001
 1.810316231471889e+000	 3.970007065654229e-001	 1.318702628555365e+001
 1.806177025967220e+000	 4.154261104221302e-001	 1.320273434522769e+001
 1.801837316871536e+000	 4.338622663001412e-001	 1.322142124296535e+001
 1.797296087565045e+000	 4.523061338283390e-001	 1.324183464974693e+001
 1.792552378365584e+000	 4.707546347801496e-001	 1.326285200600718e+001
 1.787605287894299e+000	 4.892046542834107e-001	 1.328348785428076e+001
 1.782453974414742e+000	 5.076530420823824e-001	 1.330290064928601e+001
 1.777097657143252e+000	 5.260966138514088e-001	 1.332039897634086e+001
 1.771535617528480e+000	 5.445321525596547e-001	 1.333544710975996e+001
 1.844156981829971e+000	 3.653770211207496e-001	 1.306256517411010e+001
 1.840361676169979e+000	 3.840366451660823e-001	 1.306805476275213e+001
 1.836365211938953e+000	 4.027132243418037e-001	 1.307953465254887e+001
 1.832166446627964e+000	 4.214037547970656e-001	 1.309549314867807e+001
 1.827764292642103e+000	 4.401051919864520e-001	 1.311454139451775e+001
 1.823157718733256e+000	 4.588144517903843e-001	 1.313542227861690e+001
 1.818345751410225e+000	 4.775284116891163e-001	 1.315701892822275e+001
 1.813327476324059e+000	 4.962439119900156e-001	 1.317836271392206e+001
 1.808102039626417e+000	 5.149577571077297e-001	 1.319864068964761e+001
 1.802668649298809e+000	 5.336667168967519e-001	 1.321720239252579e+001
 1.797026576450526e+000	 5.523675280357959e-001	 1.323356592782100e+001
 1.870316489147490e+000	 3.705599220096755e-001	 1.296002367849425e+001
 1.866467346787076e+000	 3.894842342438936e-001	 1.296509314674316e+001
 1.862414192405942e+000	 4.084257421182668e-001	 1.297633709746531e+001
 1.858155867288595e+000	 4.273813991721014e-001	 1.299222087877899e+001
 1.853691268412522e+000	 4.463481176728810e-001	 1.301134197854883e+001
 1.849019349901286e+000	 4.653227697525628e-001	 1.303243972034807e+001
 1.844139124454657e+000	 4.843021885982289e-001	 1.305440451532842e+001
 1.839049664753587e+000	 5.032831696967739e-001	 1.307628658777395e+001
 1.833750104837843e+000	 5.222624721332319e-001	 1.309730409174279e+001
 1.828239641454104e+000	 5.412368199422443e-001	 1.311685053640260e+001
 1.822517535372305e+000	 5.602029035120719e-001	 1.313450143846991e+001
 1.896475996465010e+000	 3.757428228986662e-001	 1.286250695415260e+001
 1.892573017404154e+000	 3.949318233217910e-001	 1.286690551553952e+001
 1.888463172872894e+000	 4.141382598948402e-001	 1.287768713131524e+001
 1.884145287949170e+000	 4.333590435472731e-001	 1.289329356205236e+001
 1.879618244182866e+000	 4.525910433594707e-001	 1.291230831356248e+001
 1.874880981069227e+000	 4.718310877149263e-001	 1.293346717908660e+001
 1.869932497498986e+000	 4.910759655075478e-001	 1.295566830539825e+001
 1.864771853182998e+000	 5.103224274037551e-001	 1.297798169334919e+001
 1.859398170049142e+000	 5.295671871589681e-001	 1.299965804293887e+001
 1.853810633609267e+000	 5.488069229879747e-001	 1.302013685316415e+001
 1.848008494293951e+000	 5.680382789885818e-001	 1.303905368773192e+001
 1.922635503782531e+000	 3.809257237877376e-001	 1.277001867201022e+001
 1.918678688021233e+000	 4.003794123997962e-001	 1.277362874175817e+001
 1.914512153339845e+000	 4.198507776715516e-001	 1.278384444574876e+001
 1.910134708609745e+000	 4.393366879226153e-001	 1.279908206601792e+001
 1.905545219953211e+000	 4.588339690462645e-001	 1.281790956699638e+001
 1.900742612237167e+000	 4.783394056775260e-001	 1.283905804657834e+001
 1.895725870543315e+000	 4.978497424171325e-001	 1.286143267773577e+001
 1.890494041612410e+000	 5.173616851110288e-001	 1.288412304346626e+001
 1.885046235260442e+000	 5.368719021850177e-001	 1.290641276732871e+001
 1.879381625764431e+000	 5.563770260340328e-001	 1.292778834196546e+001
 1.873499453215596e+000	 5.758736544654248e-001	 1.294794705885636e+001
 1.948795011100049e+000	 3.861086246769064e-001	 1.268258686465989e+001
 1.944784358638330e+000	 4.058270014779307e-001	 1.268541270732617e+001
 1.940561133806835e+000	 4.255632954484291e-001	 1.269507073009715e+001
 1.936124129270376e+000	 4.453143322981630e-001	 1.270994856403725e+001
 1.931472195723630e+000	 4.650768947333048e-001	 1.272859581991285e+001
 1.926604243405198e+000	 4.848477236404131e-001	 1.274973651638182e+001
 1.921519243587748e+000	 5.046235193270440e-001	 1.277228096395956e+001
 1.916216230041939e+000	 5.244009428186647e-001	 1.279533699928287e+001
 1.910694300471868e+000	 5.441766172114603e-001	 1.281822046356837e+001
 1.904952617919726e+000	 5.639471290805075e-001	 1.284046481926553e+001
 1.898990412137376e+000	 5.837090299427000e-001	 1.286182979977225e+001
 1.974954518417563e+000	 3.912915255661883e-001	 1.260025885537321e+001
 1.970890029255462e+000	 4.112745905562160e-001	 1.260241591494018e+001
 1.966610114273898e+000	 4.312758132255003e-001	 1.261162592502174e+001
 1.962113549931120e+000	 4.512919766739514e-001	 1.262624338856377e+001
 1.957399171494197e+000	 4.713198204206343e-001	 1.264479547497004e+001
 1.952465874573409e+000	 4.913560416036388e-001	 1.266599549942634e+001
 1.947312616632389e+000	 5.113972962373419e-001	 1.268875582180154e+001
 1.941938418471698e+000	 5.314402005267319e-001	 1.271220005082657e+001
 1.936342365683544e+000	 5.514813322383744e-001	 1.273567443852533e+001
 1.930523610075283e+000	 5.715172321274878e-001	 1.275875834993079e+001
 1.924481371059422e+000	 5.915444054205067e-001	 1.278127369400278e+001
 2.001114025735070e+000	 3.964744264555998e-001	 1.252310507911680e+001
 1.996995699872648e+000	 4.167221796346737e-001	 1.252480154264940e+001
 1.992659094741075e+000	 4.369883310027933e-001	 1.253376487281135e+001
 1.988102970592032e+000	 4.572696210500152e-001	 1.254830223725473e+001
 1.983326147264985e+000	 4.775627461082961e-001	 1.256691297625987e+001
 1.978327505741890e+000	 4.978643595672543e-001	 1.258829481333699e+001
 1.973105989677343e+000	 5.181710731480865e-001	 1.261135784757505e+001
 1.967660606901807e+000	 5.384794582353005e-001	 1.263523780420240e+001
 1.961990430895594e+000	 5.587860472658397e-001	 1.265930841881657e+001
 1.956094602231232e+000	 5.790873351750629e-001	 1.268319283074644e+001
 1.949972329981867e+000	 5.993797808989435e-001	 1.270677386190828e+001
 2.027273533052570e+000	 4.016573273451569e-001	 1.245639572086188e+001
 2.023101370489906e+000	 4.221697687133256e-001	 1.245689014847382e+001
 2.018708075208402e+000	 4.427008487803357e-001	 1.246467287629256e+001
 2.014092391253171e+000	 4.632472654263895e-001	 1.247820297826498e+001
 2.009253123036069e+000	 4.838056717963328e-001	 1.249611357833918e+001
 2.004189136910731e+000	 5.043726775313110e-001	 1.251722459306485e+001
 1.998899362722714e+000	 5.249448500593382e-001	 1.254054440575291e+001
 1.993382795332379e+000	 5.455187159444398e-001	 1.256492415680750e+001
 1.987638496108145e+000	 5.660907622939356e-001	 1.258959602416606e+001
 1.981665594387705e+000	 5.866574382233224e-001	 1.261422371256701e+001
 1.975463288904845e+000	 6.072151563781103e-001	 1.263874868048399e+001
 1.720553699683057e+000	 5.288614016073797e-001	 1.354408501194578e+001
 1.714951287895950e+000	 5.467554384699808e-001	 1.355419828041365e+001
 1.709147861924183e+000	 5.646353332059860e-001	 1.356290555624121e+001
 1.703142909757176e+000	 5.824978728425351e-001	 1.357001565552713e+001
 1.696935984454057e+000	 6.003398183486900e-001	 1.357546059838870e+001
 1.690526705208835e+000	 6.181579061975373e-001	 1.357929601069302e+001
 1.683914758373382e+000	 6.359488499726911e-001	 1.358170068733296e+001
 1.677099898436262e+000	 6.537093420179821e-001	 1.358297527981152e+001
 1.670081948955454e+000	 6.714360551290194e-001	 1.358359341583372e+001
 1.662860803443095e+000	 6.891256442852184e-001	 1.358494770941570e+001
 1.655436426200365e+000	 7.067747484208016e-001	 1.358746365691557e+001
 1.746044658606035e+000	 5.366967770835491e-001	 1.343926990615233e+001
 1.740359243975685e+000	 5.548559240432534e-001	 1.345063233536977e+001
 1.734469837023907e+000	 5.730007193529454e-001	 1.346014841579939e+001
 1.728375918154393e+000	 5.911279024377772e-001	 1.346770579159233e+001
 1.722077033804590e+000	 6.092341862787581e-001	 1.347332774766090e+001
 1.715572797526653e+000	 6.273162589980009e-001	 1.347717372559514e+001
 1.708862891025579e+000	 6.453707854890249e-001	 1.347953892263368e+001
 1.701947065152540e+000	 6.633944090908884e-001	 1.348085293233019e+001
 1.694825140851425e+000	 6.813837533048076e-001	 1.348218632096104e+001
 1.687497010056690e+000	 6.993354235518501e-001	 1.348483447157645e+001
 1.679962636540613e+000	 7.172460089701713e-001	 1.348892322361407e+001
 1.771535617528480e+000	 5.445321525596547e-001	 1.333544710975996e+001
 1.765767200054896e+000	 5.629564096164186e-001	 1.334807145733354e+001
 1.759791812123126e+000	 5.813661054997464e-001	 1.335847302424738e+001
 1.753608926551138e+000	 5.997579320328049e-001	 1.336660825183087e+001
 1.747218083154697e+000	 6.181285542085545e-001	 1.337258212622053e+001
 1.740618889844100e+000	 6.364746117981359e-001	 1.337664884853305e+001
 1.733811023677468e+000	 6.547927210049779e-001	 1.337921150517097e+001
 1.726794231868579e+000	 6.730794761633666e-001	 1.338093226580856e+001
 1.719568332747231e+000	 6.913314514801310e-001	 1.338362279174611e+001
 1.712133216670199e+000	 7.095452028179921e-001	 1.338783405722074e+001
 1.704488846880856e+000	 7.277172695190416e-001	 1.339378583512560e+001
 1.797026576450526e+000	 5.523675280357959e-001	 1.323356592782100e+001
 1.791175156133712e+000	 5.710568951895859e-001	 1.324747065221435e+001
 1.785113787221967e+000	 5.897314916465082e-001	 1.325882055093766e+001
 1.778841934947530e+000	 6.083879616277473e-001	 1.326763081213886e+001
 1.772359132504484e+000	 6.270229221382164e-001	 1.327407861397257e+001
 1.765664982161268e+000	 6.456329645980879e-001	 1.327850399192952e+001
 1.758759156329126e+000	 6.642146565207018e-001	 1.328140961864324e+001
 1.751641398584439e+000	 6.827645432355753e-001	 1.328418575653328e+001
 1.744311524642915e+000	 7.012791496551516e-001	 1.328842948254631e+001
 1.736769423283643e+000	 7.197549820838096e-001	 1.329438790580227e+001
 1.729015057221095e+000	 7.381885300675790e-001	 1.330239782284524e+001
 1.822517535372305e+000	 5.602029035120719e-001	 1.313450143846991e+001
 1.816583112212264e+000	 5.791573807628641e-001	 1.314970121150080e+001
 1.810435762320553e+000	 5.980968777933491e-001	 1.316203921783738e+001
 1.804074943343685e+000	 6.170179912227317e-001	 1.317157928243292e+001
 1.797500181854058e+000	 6.359172900678811e-001	 1.317856128238550e+001
 1.790711074478250e+000	 6.547913173980022e-001	 1.318340225729967e+001
 1.783707288980629e+000	 6.736365920363487e-001	 1.318685312537784e+001
 1.776488565300180e+000	 6.924496103076727e-001	 1.319115902653975e+001
 1.769054716538517e+000	 7.112268478300332e-001	 1.319704640176208e+001
 1.761405629897045e+000	 7.299647613494685e-001	 1.320485020597410e+001
 1.753541267561331e+000	 7.486597906159502e-001	 1.321501829279431e+001
 1.848008494293951e+000	 5.680382789885818e-001	 1.303905368773192e+001
 1.841991068290684e+000	 5.872578663363626e-001	 1.305555015916243e+001
 1.835757737419014e+000	 6.064622639403886e-001	 1.306888393379426e+001
 1.829307951739722e+000	 6.256480208178875e-001	 1.307915726425481e+001
 1.822641231203525e+000	 6.448116579976857e-001	 1.308666321221772e+001
 1.815757166795140e+000	 6.639496701980235e-001	 1.309188705079995e+001
 1.808655421632055e+000	 6.830585275520714e-001	 1.309641935298702e+001
 1.801335732015862e+000	 7.021346773798167e-001	 1.310228383822622e+001
 1.793797908434078e+000	 7.211745460049378e-001	 1.310982809940679e+001
 1.786041836510427e+000	 7.401745406151347e-001	 1.311948914433687e+001
 1.778067477901566e+000	 7.591310511643219e-001	 1.313182039899128e+001
 1.873499453215596e+000	 5.758736544654248e-001	 1.294794705885636e+001
 1.867399024369105e+000	 5.953583519101902e-001	 1.296571984787308e+001
 1.861079712517474e+000	 6.148276500877451e-001	 1.298001605693296e+001
 1.854540960135761e+000	 6.342780504133426e-001	 1.299096601922161e+001
 1.847782280552992e+000	 6.537060259277667e-001	 1.299890640860199e+001
 1.840803259112029e+000	 6.731080229982975e-001	 1.300454164833918e+001
 1.833603554283482e+000	 6.924804630680213e-001	 1.301054556911201e+001
 1.826182898731544e+000	 7.118197444521655e-001	 1.301790882380874e+001
 1.818541100329639e+000	 7.311222441800274e-001	 1.302704493384449e+001
 1.810678043123807e+000	 7.503843198809727e-001	 1.303848823708030e+001
 1.802593688241801e+000	 7.696023117128608e-001	 1.305289270650161e+001
 1.898990412137376e+000	 5.837090299427000e-001	 1.286182979977225e+001
 1.892806980447657e+000	 6.034588374844561e-001	 1.288082769052191e+001
 1.886401687616062e+000	 6.231930362355383e-001	 1.289600327313893e+001
 1.879773968531916e+000	 6.429080800092252e-001	 1.290750443790243e+001
 1.872923329902566e+000	 6.626003938582620e-001	 1.291570180433576e+001
 1.865849351429012e+000	 6.822663757989691e-001	 1.292218671928896e+001
 1.858551686934985e+000	 7.019023985843514e-001	 1.292956929850169e+001
 1.851030065447285e+000	 7.215048115248769e-001	 1.293830072361743e+001
 1.843284292225242e+000	 7.410699423554661e-001	 1.294888441025721e+001
 1.835314249737209e+000	 7.605940991471488e-001	 1.296194773673100e+001
 1.827119898582037e+000	 7.800735722617330e-001	 1.297824063574116e+001
 1.924481371059422e+000	 5.915444054205067e-001	 1.278127369400278e+001
 1.918214936526472e+000	 6.115593230592692e-001	 1.280140601446496e+001
 1.911723662714902e+000	 6.315584223838865e-001	 1.281731957986316e+001
 1.905006976928308e+000	 6.515381096056636e-001	 1.282916909980747e+001
 1.898064379252353e+000	 6.714947617893090e-001	 1.283745476872965e+001
 1.890895443746181e+000	 6.914247286001838e-001	 1.284517242517236e+001
 1.883499819586643e+000	 7.113243341012138e-001	 1.285374887862330e+001
 1.875877232163145e+000	 7.311898785981096e-001	 1.286364568903333e+001
 1.868027484120925e+000	 7.510176405314150e-001	 1.287545258419268e+001
 1.859950456350654e+000	 7.708038784138285e-001	 1.288988610704383e+001
 1.851646108922276e+000	 7.905448328111059e-001	 1.290778798050103e+001
 1.949972329981867e+000	 5.993797808989435e-001	 1.270677386190828e+001
 1.943622892605683e+000	 6.196598086347391e-001	 1.272790202728388e+001
 1.937045637814120e+000	 6.399238085329084e-001	 1.274434536560749e+001
 1.930239985325053e+000	 6.601681392027861e-001	 1.275625441614844e+001
 1.923205428602461e+000	 6.803891297210442e-001	 1.276494912688073e+001
 1.915941536063627e+000	 7.005830814020861e-001	 1.277374481949241e+001
 1.908447952238531e+000	 7.207462696187605e-001	 1.278326469249876e+001
 1.900724398879184e+000	 7.408749456720213e-001	 1.279405064415201e+001
 1.892770676016732e+000	 7.609653387080378e-001	 1.280677552423857e+001
 1.884586662964163e+000	 7.810136576811767e-001	 1.282224155980240e+001
 1.876172319262519e+000	 8.010160933611453e-001	 1.284137849294903e+001
 1.975463288904845e+000	 6.072151563781103e-001	 1.263874868048399e+001
 1.969030848685419e+000	 6.277602942109749e-001	 1.266067788397702e+001
 1.962367612913845e+000	 6.482891946827240e-001	 1.267736757644580e+001
 1.955472993722270e+000	 6.687981688007213e-001	 1.268897620633380e+001
 1.948346477952993e+000	 6.892834976536050e-001	 1.269848844193112e+001
 1.940987628381445e+000	 7.097414342048217e-001	 1.270807493982450e+001
 1.933396084890728e+000	 7.301682051371444e-001	 1.271822045685670e+001
 1.925571565595462e+000	 7.505600127467703e-001	 1.272954470087056e+001
 1.917513867912702e+000	 7.709130368854965e-001	 1.274280082848354e+001
 1.909222869577758e+000	 7.912234369493599e-001	 1.275887364793869e+001
 1.900698529602766e+000	 8.114873539120181e-001	 1.277877752955937e+001
 1.655436426200365e+000	 7.067747484208016e-001	 1.358746365691557e+001
 1.647810012626662e+000	 7.243773551837668e-001	 1.358911842745001e+001
 1.639980573555821e+000	 7.419327295049750e-001	 1.358778663633386e+001
 1.631948291327146e+000	 7.594374756351380e-001	 1.358340910767872e+001
 1.623713421824428e+000	 7.768881892624319e-001	 1.357600425617714e+001
 1.615276295033542e+000	 7.942814594508109e-001	 1.356566741071853e+001
 1.606637315540310e+000	 8.116138706063586e-001	 1.355256996199722e+001
 1.597796962967233e+000	 8.288820044695902e-001	 1.353695833566831e+001
 1.588755792347744e+000	 8.460824421315375e-001	 1.351915279302685e+001
 1.579514434436757e+000	 8.632117660713861e-001	 1.349954606160559e+001
 1.570073595956371e+000	 8.802665622133532e-001	 1.347860179850354e+001
 1.679962636540613e+000	 7.172460089701713e-001	 1.348892322361407e+001
 1.672223233413097e+000	 7.351094081314266e-001	 1.349226624623277e+001
 1.664277796852925e+000	 7.529248750760244e-001	 1.349252030018281e+001
 1.656126511900855e+000	 7.706889637447699e-001	 1.348967950382802e+001
 1.647769638231734e+000	 7.883982193890754e-001	 1.348381767563305e+001
 1.639207510720357e+000	 8.060491805379906e-001	 1.347508751188296e+001
 1.630440539946704e+000	 8.236383809936843e-001	 1.346371958392969e+001
 1.621469212639147e+000	 8.411623518532655e-001	 1.345002115682828e+001
 1.612294092054240e+000	 8.586176235547385e-001	 1.343437483164729e+001
 1.602915818291883e+000	 8.760007279448256e-001	 1.341723701415746e+001
 1.593335108544644e+000	 8.933082003663226e-001	 1.339913621302067e+001
 1.704488846880856e+000	 7.277172695190416e-001	 1.339378583512560e+001
 1.696636454199607e+000	 7.458414610785946e-001	 1.339910591455073e+001
 1.688575020150184e+000	 7.639170206466033e-001	 1.340121342984471e+001
 1.680304732474796e+000	 7.819404518539632e-001	 1.340015241083101e+001
 1.671825854639347e+000	 7.999082495153213e-001	 1.339604882050284e+001
 1.663138726407550e+000	 8.178169016248166e-001	 1.338910959381743e+001
 1.654243764353546e+000	 8.356628913807013e-001	 1.337962149167690e+001
 1.645141462311571e+000	 8.534426992366735e-001	 1.336794977224480e+001
 1.635832391761306e+000	 8.711528049777059e-001	 1.335453668216812e+001
 1.626317202147628e+000	 8.887896898180558e-001	 1.333989977069168e+001
 1.616596621133582e+000	 9.063498385190917e-001	 1.332463003006939e+001
 1.729015057221095e+000	 7.381885300675790e-001	 1.330239782284524e+001
 1.721049674986173e+000	 7.565735140254359e-001	 1.330988588276906e+001
 1.712872243447557e+000	 7.749091662168746e-001	 1.331402081762255e+001
 1.704482953048910e+000	 7.931919399628793e-001	 1.331489357718867e+001
 1.695882071047190e+000	 8.114182796413252e-001	 1.331267939512828e+001
 1.687069942095028e+000	 8.295846227114402e-001	 1.330763669552082e+001
 1.678046988760721e+000	 8.476874017675545e-001	 1.330010581039882e+001
 1.668813711984378e+000	 8.657230466199545e-001	 1.329050751069015e+001
 1.659370691468799e+000	 8.836879864005771e-001	 1.327934135339861e+001
 1.649718586003838e+000	 9.015786516912098e-001	 1.326718384826789e+001
 1.639858133723017e+000	 9.193914766717938e-001	 1.325468644758668e+001
 1.753541267561331e+000	 7.486597906159502e-001	 1.321501829279431e+001
 1.745462895772776e+000	 7.673055669721173e-001	 1.322476763802489e+001
 1.737169466745007e+000	 7.859013117870025e-001	 1.323101040280497e+001
 1.728661173623140e+000	 8.044434280716768e-001	 1.323388183786426e+001
 1.719938287455186e+000	 8.229283097672420e-001	 1.323360394013156e+001
 1.711001157782695e+000	 8.413523437980105e-001	 1.323048423342756e+001
 1.701850213168122e+000	 8.597119121543899e-001	 1.322491435613008e+001
 1.692485961657440e+000	 8.780033940032495e-001	 1.321736845846885e+001
 1.682908991176575e+000	 8.962231678234885e-001	 1.320840141251685e+001
 1.673119969860359e+000	 9.143676135644235e-001	 1.319864683835385e+001
 1.663119646312785e+000	 9.324331148245619e-001	 1.318881495028407e+001
 1.778067477901566e+000	 7.591310511643219e-001	 1.313182039899128e+001
 1.769876116559397e+000	 7.780376199188031e-001	 1.314382699245874e+001
 1.761466690042496e+000	 7.968934573571500e-001	 1.315216459143324e+001
 1.752839394197428e+000	 8.156949161805156e-001	 1.315701048316405e+001
 1.743994503863259e+000	 8.344383398932268e-001	 1.315863126887675e+001
 1.734932373470456e+000	 8.531200648846792e-001	 1.315738152479045e+001
 1.725653437575634e+000	 8.717364225413528e-001	 1.315370226628382e+001
 1.716158211330630e+000	 8.902837413866996e-001	 1.314811921808626e+001
 1.706447290884493e+000	 9.087583492465784e-001	 1.314124089377294e+001
 1.696521353717034e+000	 9.271565754378304e-001	 1.313375648824247e+001
 1.686381158902719e+000	 9.454747529775295e-001	 1.312643358725271e+001
 1.802593688241801e+000	 7.696023117128608e-001	 1.305289270650160e+001
 1.794289337346019e+000	 7.887696728656601e-001	 1.306705546876275e+001
 1.785763913339985e+000	 8.078856029274806e-001	 1.307738167970133e+001
 1.777017614771716e+000	 8.269464042895565e-001	 1.308408873615403e+001
 1.768050720271332e+000	 8.459483700194359e-001	 1.308748601586490e+001
 1.758863589158218e+000	 8.648877859715959e-001	 1.308797342480034e+001
 1.749456661983145e+000	 8.837609329285885e-001	 1.308603974401170e+001
 1.739830461003819e+000	 9.025640887704454e-001	 1.308226077911892e+001
 1.729985590592412e+000	 9.212935306699824e-001	 1.307729731588009e+001
 1.719922737573709e+000	 9.399455373115648e-001	 1.307189288569900e+001
 1.709642671492654e+000	 9.585163911308307e-001	 1.306687134530921e+001
 1.827119898582037e+000	 7.800735722617330e-001	 1.297824063574116e+001
 1.818702558132622e+000	 7.995017258128541e-001	 1.299436177390292e+001
 1.810061136637434e+000	 8.188777484981575e-001	 1.300647737125328e+001
 1.801195835345945e+000	 8.381978923989577e-001	 1.301484332841548e+001
 1.792106936679328e+000	 8.574584001460236e-001	 1.301981028654705e+001
 1.782794804845885e+000	 8.766555070589113e-001	 1.302182206675739e+001
 1.773259886390545e+000	 8.957854433162426e-001	 1.302141390572261e+001
 1.763502710676882e+000	 9.148444361546280e-001	 1.301921049074548e+001
 1.753523890300187e+000	 9.338287120938384e-001	 1.301592379788304e+001
 1.743324121430230e+000	 9.527344991857624e-001	 1.301235073713875e+001
 1.732904184082422e+000	 9.715580292845978e-001	 1.300937060908684e+001
 1.851646108922276e+000	 7.905448328111059e-001	 1.290778798050103e+001
 1.843115778919188e+000	 8.102337787605508e-001	 1.292557335284185e+001
 1.834358359934808e+000	 8.298698940693451e-001	 1.293918637967301e+001
 1.825374055920060e+000	 8.494493805088802e-001	 1.294892016502383e+001
 1.816163153087172e+000	 8.689684302731456e-001	 1.295516539915373e+001
 1.806726020533363e+000	 8.884232281467754e-001	 1.295840869574055e+001
 1.797063110797721e+000	 9.078099537044606e-001	 1.295923072219747e+001
 1.787174960349689e+000	 9.271247835393879e-001	 1.295830412651399e+001
 1.777062190007680e+000	 9.463638935182838e-001	 1.295639126437472e+001
 1.766725505286440e+000	 9.655234610605563e-001	 1.295434173066580e+001
 1.756165696671858e+000	 9.845996674389648e-001	 1.295308969983231e+001
 1.876172319262519e+000	 8.010160933611453e-001	 1.284137849294903e+001
 1.867528999705698e+000	 8.209658317089156e-001	 1.286043801494222e+001
 1.858655583232066e+000	 8.408620396412051e-001	 1.287516410837221e+001
 1.849552276494000e+000	 8.607008686194831e-001	 1.288588607058703e+001
 1.840219369494784e+000	 8.804784604009575e-001	 1.289303371012151e+001
 1.830657236220556e+000	 9.001909492353390e-001	 1.289713558722126e+001
 1.820866335204563e+000	 9.198344640933875e-001	 1.289881704473682e+001
 1.810847210022113e+000	 9.394051309248664e-001	 1.289879803290698e+001
 1.800600489714745e+000	 9.588990749434547e-001	 1.289789073188663e+001
 1.790126889142184e+000	 9.783124229360810e-001	 1.289699697620910e+001
 1.779427209260795e+000	 9.976413055940653e-001	 1.289710548570649e+001
 1.900698529602766e+000	 8.114873539120181e-001	 1.277877752955937e+001
 1.891942220492132e+000	 8.316978846581148e-001	 1.279862562648778e+001
 1.882952806529170e+000	 8.518541852139021e-001	 1.281398840088722e+001
 1.873730497067709e+000	 8.719523567309262e-001	 1.282523060902337e+001
 1.864275585902089e+000	 8.919884905296139e-001	 1.283282051556812e+001
 1.854588451907370e+000	 9.119586703247523e-001	 1.283732804295023e+001
 1.844669559610956e+000	 9.318589744831690e-001	 1.283942270866204e+001
 1.834519459694026e+000	 9.516854783112039e-001	 1.283987135413674e+001
 1.824138789421242e+000	 9.714342563694888e-001	 1.283953566912295e+001
 1.813528272997309e+000	 9.911013848124718e-001	 1.283936951579327e+001
 1.802688721849068e+000	 1.010682943750032e+000	 1.284040704437928e+001
 1.570073595956371e+000	 8.802665622133532e-001	 1.347860179850354e+001
 1.560432599048893e+000	 8.972459629298201e-001	 1.345492912474558e+001
 1.550593705615053e+000	 9.141440024143019e-001	 1.342693458013808e+001
 1.540557852787052e+000	 9.309572889204422e-001	 1.339486563238203e+001
 1.530326054011600e+000	 9.476824425612989e-001	 1.335902883316611e+001
 1.519899398955622e+000	 9.643160974265818e-001	 1.331978833505960e+001
 1.509279053342250e+000	 9.808549037040831e-001	 1.327756428385244e+001
 1.498466258716638e+000	 9.972955298026260e-001	 1.323283109034947e+001
 1.487462332141325e+000	 1.013634664473865e+000	 1.318610912288217e+001
 1.476268665820915e+000	 1.029869018930230e+000	 1.313798956679494e+001
 1.464886726656035e+000	 1.045995328956277e+000	 1.308909058132520e+001
 1.593335108544644e+000	 8.933082003663226e-001	 1.339913621302068e+001
 1.583551274911993e+000	 9.105391603372328e-001	 1.337864305556819e+001
 1.573566612805977e+000	 9.276875536643393e-001	 1.335406361822761e+001
 1.563382073242935e+000	 9.447499383506840e-001	 1.332561838632804e+001
 1.552998684684357e+000	 9.617228844344273e-001	 1.329358554632920e+001
 1.542417552941194e+000	 9.786029761374548e-001	 1.325829949835838e+001
 1.531639861007416e+000	 9.953868140182343e-001	 1.322014924795856e+001
 1.520666868822365e+000	 1.012071017126220e+000	 1.317956992613597e+001
 1.509499912961594e+000	 1.028652225155088e+000	 1.313706900700098e+001
 1.498140406255998e+000	 1.045127100592058e+000	 1.309318060128686e+001
 1.486589837339156e+000	 1.061492330860527e+000	 1.304849379519580e+001
 1.616596621133582e+000	 9.063498385190917e-001	 1.332463003006939e+001
 1.606669950775794e+000	 9.238323577444372e-001	 1.330723335427263e+001
 1.596539519997630e+000	 9.412311049141447e-001	 1.328589976795898e+001
 1.586206293699568e+000	 9.585425877806584e-001	 1.326083655076624e+001
 1.575671315357876e+000	 9.757633263072424e-001	 1.323230735736519e+001
 1.564935706927530e+000	 9.928898548479597e-001	 1.320063070624699e+001
 1.554000668673342e+000	 1.009918724331957e+000	 1.316617835135514e+001
 1.542867478928837e+000	 1.026846504449323e+000	 1.312936755012729e+001
 1.531537493782587e+000	 1.043669785835758e+000	 1.309068415386450e+001
 1.520012146691774e+000	 1.060385182253275e+000	 1.305064164728894e+001
 1.508292948022929e+000	 1.076989332764112e+000	 1.300980625732603e+001
 1.639858133723017e+000	 9.193914766717938e-001	 1.325468644758668e+001
 1.629788626640121e+000	 9.371255551515679e-001	 1.324026199694052e+001
 1.619512427189830e+000	 9.547746561638559e-001	 1.322196635720651e+001
 1.609030514156762e+000	 9.723352372105052e-001	 1.320000702163500e+001
 1.598343946031964e+000	 9.898037681798880e-001	 1.317464658352241e+001
 1.587453860914438e+000	 1.007176733558246e+000	 1.314620118244837e+001
 1.576361476339833e+000	 1.024450634645407e+000	 1.311503251781155e+001
 1.565068089035861e+000	 1.041621991772096e+000	 1.308157240527869e+001
 1.553575074604111e+000	 1.058687346516041e+000	 1.304627966854134e+001
 1.541883887128053e+000	 1.075643263914047e+000	 1.300966689760165e+001
 1.529996058707169e+000	 1.092486334667199e+000	 1.297229083883964e+001
 1.663119646312785e+000	 9.324331148245619e-001	 1.318881495028407e+001
 1.652907302504798e+000	 9.504187525587583e-001	 1.317719527071021e+001
 1.642485334382394e+000	 9.683182074136089e-001	 1.316168900281581e+001
 1.631854734614329e+000	 9.861278866403652e-001	 1.314251693503264e+001
 1.621016576706430e+000	 1.003844210052509e+000	 1.311995372644741e+001
 1.609972014901722e+000	 1.021463612268464e+000	 1.309431957985092e+001
 1.598722284006695e+000	 1.038982544958740e+000	 1.306600651339642e+001
 1.587268699143245e+000	 1.056397479094699e+000	 1.303543265964672e+001
 1.575612655425975e+000	 1.073704907196097e+000	 1.300307094915502e+001
 1.563755627564647e+000	 1.090901345574538e+000	 1.296943904901924e+001
 1.551699169391692e+000	 1.107983336569954e+000	 1.293509724037289e+001
 1.686381158902719e+000	 9.454747529775295e-001	 1.312643358725271e+001
 1.676025978369649e+000	 9.637119499661433e-001	 1.311740626256589e+001
 1.665458241575140e+000	 9.818617586635405e-001	 1.310439831526578e+001
 1.654678955072082e+000	 9.999205360703791e-001	 1.308765659056101e+001
 1.643689207381082e+000	 1.017884651925251e+000	 1.306747343594886e+001
 1.632490168889190e+000	 1.035750490978762e+000	 1.304421497416720e+001
 1.621083091673733e+000	 1.053514455272107e+000	 1.301827230800217e+001
 1.609469309250792e+000	 1.071172966417289e+000	 1.299009244569895e+001
 1.597650236247988e+000	 1.088722467876090e+000	 1.296016767945644e+001
 1.585627368001368e+000	 1.106159427234916e+000	 1.292903349056099e+001
 1.573402280076318e+000	 1.123480338472545e+000	 1.289726636547110e+001
 1.709642671492654e+000	 9.585163911308307e-001	 1.306687134530921e+001
 1.699144654234502e+000	 9.770051473738575e-001	 1.306017743502174e+001
 1.688431148767885e+000	 9.954053099137871e-001	 1.304933268084423e+001
 1.677503175529833e+000	 1.013713185500686e+000	 1.303461471277661e+001
 1.666361838055729e+000	 1.031925093798258e+000	 1.301637724341008e+001
 1.655008322876648e+000	 1.050037369689292e+000	 1.299499760959606e+001
 1.643443899340753e+000	 1.068046365585667e+000	 1.297091030458861e+001
 1.631669919358312e+000	 1.085948453740026e+000	 1.294459567590989e+001
 1.619687817069959e+000	 1.103740028556184e+000	 1.291657783892249e+001
 1.607499108438030e+000	 1.121417508895345e+000	 1.288742249989681e+001
 1.595105390760859e+000	 1.138977340375136e+000	 1.285773469340487e+001
 1.732904184082422e+000	 9.715580292845978e-001	 1.300937060908684e+001
 1.722263330099178e+000	 9.902983447820338e-001	 1.300470328053790e+001
 1.711404055960447e+000	 1.008948861164486e+000	 1.299564111405661e+001
 1.700327395987393e+000	 1.027505834931428e+000	 1.298251327686460e+001
 1.689034468730179e+000	 1.045965535671676e+000	 1.296572124947285e+001
 1.677526476863901e+000	 1.064324248400201e+000	 1.294569162652771e+001
 1.665804707007561e+000	 1.082578275899572e+000	 1.292290587929975e+001
 1.653870529465609e+000	 1.100723941063069e+000	 1.289788988307208e+001
 1.641725397891696e+000	 1.118757589236542e+000	 1.287121172873515e+001
 1.629370848874443e+000	 1.136675590555991e+000	 1.284347944719833e+001
 1.616808501445135e+000	 1.154474342277896e+000	 1.281533865146225e+001
 1.756165696671858e+000	 9.845996674389648e-001	 1.295308969983231e+001
 1.745382005963505e+000	 1.003591542190808e+000	 1.295009304737065e+001
 1.734376963152643e+000	 1.022492412415774e+000	 1.294237869649426e+001
 1.723151616444576e+000	 1.041298484362744e+000	 1.293036163272003e+001
 1.711707099404241e+000	 1.060005977545648e+000	 1.291448066830638e+001
 1.700044630850756e+000	 1.078611127111641e+000	 1.289523102183097e+001
 1.688165514673963e+000	 1.097110186213977e+000	 1.287315306062181e+001
 1.676071139572491e+000	 1.115499428386579e+000	 1.284883008303212e+001
 1.663762978713008e+000	 1.133775149917325e+000	 1.282288601217033e+001
 1.651242589310420e+000	 1.151933672217020e+000	 1.279598300572877e+001
 1.638511612128961e+000	 1.169971344180990e+000	 1.276881898676600e+001
 1.779427209260795e+000	 9.976413055940653e-001	 1.289710548570649e+001
 1.768500681827304e+000	 1.016884739600314e+000	 1.289536534599417e+001
 1.757349870344291e+000	 1.036035963667787e+000	 1.288854031646400e+001
 1.745975836901192e+000	 1.055091133794776e+000	 1.287709322556264e+001
 1.734379730077722e+000	 1.074046419420320e+000	 1.286154513961672e+001
 1.722562784837020e+000	 1.092898005823761e+000	 1.284246317550195e+001
 1.710526322339763e+000	 1.111642096529037e+000	 1.282045823640692e+001
 1.698271749678765e+000	 1.130274915710713e+000	 1.279618265780029e+001
 1.685800559533704e+000	 1.148792710598699e+000	 1.277032776807810e+001
 1.673114329745773e+000	 1.167191753878597e+000	 1.274362136855488e+001
 1.660214722812154e+000	 1.185468346084587e+000	 1.271682513766087e+001
 1.802688721849068e+000	 1.010682943750032e+000	 1.284040704437929e+001
 1.791619357690404e+000	 1.030177937010685e+000	 1.283948464251394e+001
 1.780322777535209e+000	 1.049579514920662e+000	 1.283301621505810e+001
 1.768800057357055e+000	 1.068883783227662e+000	 1.282156018017536e+001
 1.757052360750431e+000	 1.088086861295837e+000	 1.280572211123777e+001
 1.745080938822499e+000	 1.107184884536711e+000	 1.278615240957450e+001
 1.732887130004770e+000	 1.126174006844907e+000	 1.276354388624615e+001
 1.720472359784236e+000	 1.145050403035631e+000	 1.273862925719480e+001
 1.707838140353593e+000	 1.163810271280825e+000	 1.271217855627348e+001
 1.694986070180313e+000	 1.182449835540888e+000	 1.268499647083022e+001
 1.681917833494530e+000	 1.200965347988850e+000	 1.265791960471055e+001
 1.464886726656035e+000	 1.045995328956277e+000	 1.308909058132520e+001
 1.453318055313266e+000	 1.062010356656721e+000	 1.303691883686342e+001
 1.441564264409459e+000	 1.077910891462778e+000	 1.297908019082181e+001
 1.429627039115891e+000	 1.093693753232441e+000	 1.291641904191473e+001
 1.417508136850242e+000	 1.109355794658762e+000	 1.284982440029008e+001
 1.405209386483143e+000	 1.124893903309479e+000	 1.278022741993863e+001
 1.392732687476031e+000	 1.140305003643770e+000	 1.270859885358426e+001
 1.380080008951025e+000	 1.155586059003449e+000	 1.263594643676115e+001
 1.367253388693743e+000	 1.170734073575938e+000	 1.256331220802889e+001
 1.354254932090050e+000	 1.185746094326383e+000	 1.249176977250579e+001
 1.341086810997859e+000	 1.200619212896339e+000	 1.242242151611260e+001
 1.486589837339156e+000	 1.061492330860527e+000	 1.304849379519580e+001
 1.474849769703483e+000	 1.077744630093995e+000	 1.300045625382011e+001
 1.462921839857642e+000	 1.093880740157302e+000	 1.294658000401703e+001
 1.450807757939659e+000	 1.109897433792857e+000	 1.288761425783806e+001
 1.438509307404328e+000	 1.125791517064594e+000	 1.282434581703353e+001
 1.426028344218016e+000	 1.141559831427820e+000	 1.275759671032254e+001
 1.413366795983732e+000	 1.157199255775851e+000	 1.268822176710855e+001
 1.400526660997231e+000	 1.172706708460706e+000	 1.261710613413342e+001
 1.387510007235056e+000	 1.188079149285163e+000	 1.254516274177941e+001
 1.374318971275530e+000	 1.203313581463499e+000	 1.247332972693125e+001
 1.360955757153845e+000	 1.218407053548307e+000	 1.240256781949821e+001
 1.508292948022929e+000	 1.076989332764112e+000	 1.300980625732603e+001
 1.496381484094301e+000	 1.093478903530556e+000	 1.296550730599822e+001
 1.484279415306369e+000	 1.109850588851077e+000	 1.291512366399952e+001
 1.471988476763907e+000	 1.126101114352495e+000	 1.285935387560033e+001
 1.459510477958825e+000	 1.142227239469625e+000	 1.279892805970633e+001
 1.446847301953224e+000	 1.158225759545347e+000	 1.273460558226579e+001
 1.434000904491688e+000	 1.174093507907113e+000	 1.266717267690510e+001
 1.420973313043610e+000	 1.189827357917149e+000	 1.259744002019296e+001
 1.407766625776456e+000	 1.205424224993586e+000	 1.252624026812876e+001
 1.394383010461012e+000	 1.220881068599836e+000	 1.245442556063418e+001
 1.380824703309748e+000	 1.236194894199525e+000	 1.238286500099700e+001
 1.529996058707169e+000	 1.092486334667199e+000	 1.297229083883964e+001
 1.517913198485543e+000	 1.109213176966573e+000	 1.293132036669555e+001
 1.505636990755471e+000	 1.125820437544266e+000	 1.288397827156684e+001
 1.493169195588471e+000	 1.142304794911510e+000	 1.283095528857895e+001
 1.480511648513576e+000	 1.158662961874006e+000	 1.277296868385882e+001
 1.467666259688621e+000	 1.174891687662203e+000	 1.271075989414104e+001
 1.454635012999764e+000	 1.190987760037691e+000	 1.264509212424346e+001
 1.441419965090037e+000	 1.206948007372900e+000	 1.257674790883569e+001
 1.428023244317834e+000	 1.222769300701319e+000	 1.250652664510505e+001
 1.414447049646399e+000	 1.238448555735490e+000	 1.243524210309636e+001
 1.400693649465486e+000	 1.253982734850077e+000	 1.236371992066031e+001
 1.551699169391692e+000	 1.107983336569954e+000	 1.293509724037289e+001
 1.539444912877032e+000	 1.124947450402209e+000	 1.289702811386217e+001
 1.526994566204773e+000	 1.141790286237030e+000	 1.285229093860753e+001
 1.514349914413188e+000	 1.158508475470063e+000	 1.280160993128561e+001
 1.501512819068427e+000	 1.175098684277891e+000	 1.274573173426445e+001
 1.488485217424060e+000	 1.191557615778533e+000	 1.268542295618584e+001
 1.475269121507824e+000	 1.207882012167718e+000	 1.262146767795218e+001
 1.461866617136390e+000	 1.224068656828084e+000	 1.255466493067535e+001
 1.448279862859078e+000	 1.240114376408472e+000	 1.248582615232075e+001
 1.434511088831594e+000	 1.256016042870559e+000	 1.241577262994550e+001
 1.420562595620974e+000	 1.271770575500045e+000	 1.234533293458346e+001
 1.573402280076318e+000	 1.123480338472545e+000	 1.289726636547110e+001
 1.560976627268588e+000	 1.140681723837632e+000	 1.286165214425922e+001
 1.548352141654106e+000	 1.157760134929534e+000	 1.281909376151248e+001
 1.535530633237893e+000	 1.174712156028311e+000	 1.277038872373155e+001
 1.522513989623221e+000	 1.191534406681430e+000	 1.271635376502896e+001
 1.509304175159396e+000	 1.208223543894480e+000	 1.265782222411620e+001
 1.495903230015734e+000	 1.224776264297331e+000	 1.259564139215643e+001
 1.482313269182544e+000	 1.241189306282822e+000	 1.253066983828137e+001
 1.468536481400075e+000	 1.257459452115157e+000	 1.246377471974796e+001
 1.454575128016497e+000	 1.273583530005140e+000	 1.239582908387689e+001
 1.440431541776130e+000	 1.289558416149514e+000	 1.232770916907388e+001
 1.595105390760859e+000	 1.138977340375136e+000	 1.285773469340487e+001
 1.582508341660034e+000	 1.156415997273006e+000	 1.282410757340916e+001
 1.569709717103297e+000	 1.173729983621940e+000	 1.278330875674478e+001
 1.556711352062423e+000	 1.190915836586413e+000	 1.273624744485541e+001
 1.543515160177803e+000	 1.207970129084775e+000	 1.268384974675208e+001
 1.530123132894483e+000	 1.224889472010190e+000	 1.262705582942895e+001
 1.516537338523357e+000	 1.241670516426661e+000	 1.256681704255917e+001
 1.502759921228375e+000	 1.258309955737241e+000	 1.250409302461400e+001
 1.488793099940716e+000	 1.274804527821486e+000	 1.243984879773141e+001
 1.474639167201012e+000	 1.291151017139334e+000	 1.237505185883861e+001
 1.460300487930869e+000	 1.307346256798567e+000	 1.231066927469843e+001
 1.616808501445135e+000	 1.154474342277896e+000	 1.281533865146225e+001
 1.604040056051193e+000	 1.172150270708497e+000	 1.278320762267325e+001
 1.591067292552176e+000	 1.189699832314410e+000	 1.274375276212544e+001
 1.577892070886612e+000	 1.207119517144526e+000	 1.269803204167959e+001
 1.564516330732018e+000	 1.224405851488079e+000	 1.264711887135463e+001
 1.550942090629174e+000	 1.241555400125803e+000	 1.259209896173920e+001
 1.537171447030557e+000	 1.258564768555845e+000	 1.253406716207643e+001
 1.523206573273758e+000	 1.275430605191462e+000	 1.247412428160664e+001
 1.509049718480886e+000	 1.292149603527569e+000	 1.241337390195186e+001
 1.494703206385040e+000	 1.308718504273237e+000	 1.235291918851934e+001
 1.480169434085108e+000	 1.325134097447286e+000	 1.229385970908404e+001
 1.638511612128961e+000	 1.169971344180990e+000	 1.276881898676600e+001
 1.625571770441885e+000	 1.187884544144271e+000	 1.273766819465168e+001
 1.612424868000571e+000	 1.205669681007109e+000	 1.269914230701502e+001
 1.599072789710299e+000	 1.223323197702809e+000	 1.265448388015652e+001
 1.585517501285710e+000	 1.240841573891492e+000	 1.260495026406182e+001
 1.571761048363325e+000	 1.258221328241467e+000	 1.255181011687401e+001
 1.557805555537200e+000	 1.275459020685017e+000	 1.249633989443135e+001
 1.543653225318572e+000	 1.292551254645610e+000	 1.243982032299090e+001
 1.529306337020477e+000	 1.309494679233518e+000	 1.238353286347920e+001
 1.514767245568484e+000	 1.326285991406947e+000	 1.232875617582897e+001
 1.500038380238764e+000	 1.342921938095756e+000	 1.227461090948022e+001
 1.660214722812154e+000	 1.185468346084587e+000	 1.271682513766087e+001
 1.647103484831933e+000	 1.203618817580494e+000	 1.268611243797541e+001
 1.633782443448310e+000	 1.221639529700198e+000	 1.264809845423806e+001
 1.620253508533317e+000	 1.239526878261420e+000	 1.260424494304083e+001
 1.606518671838723e+000	 1.257277296295168e+000	 1.255602861103909e+001
 1.592580006096787e+000	 1.274887256357323e+000	 1.250493722300675e+001
 1.578439664043150e+000	 1.292353272814311e+000	 1.245246568236641e+001
 1.564099877362689e+000	 1.309671904099807e+000	 1.240011209293798e+001
 1.549562955559376e+000	 1.326839754939444e+000	 1.234937381090265e+001
 1.534831284751244e+000	 1.343853478540562e+000	 1.229930032235180e+001
 1.519907326391754e+000	 1.360709778744060e+000	 1.224196788140371e+001
 1.681917833494530e+000	 1.200965347988850e+000	 1.265791960471055e+001
 1.668635199221159e+000	 1.219353091017331e+000	 1.262707530244925e+001
 1.655140018895221e+000	 1.237609378393840e+000	 1.258915161630436e+001
 1.641434227355505e+000	 1.255730558820518e+000	 1.254586297957411e+001
 1.627519842390902e+000	 1.273713018699258e+000	 1.249893971030028e+001
 1.613398963829417e+000	 1.291553184473516e+000	 1.245012365585025e+001
 1.599073772548270e+000	 1.309247524943862e+000	 1.240116380541334e+001
 1.584546529405988e+000	 1.326792553554179e+000	 1.235381187986500e+001
 1.569819574097471e+000	 1.344184830645459e+000	 1.230738329988581e+001
 1.554895323933223e+000	 1.361420965674179e+000	 1.225438639039291e+001
 1.539776272543993e+000	 1.378497619392281e+000	 1.219539583918224e+001
 1.341086810997859e+000	 1.200619212896339e+000	 1.242242151611260e+001
 1.327753275425903e+000	 1.215348368834772e+000	 1.234881172048652e+001
 1.314254664028600e+000	 1.229932992248813e+000	 1.226349882955767e+001
 1.300593340761640e+000	 1.244370322232309e+000	 1.216842391735727e+001
 1.286771730854787e+000	 1.258657649759996e+000	 1.206601671227792e+001
 1.272792319379371e+000	 1.272792319379371e+000	 1.195870410921455e+001
 1.258657649759996e+000	 1.286771730854787e+000	 1.184890101083338e+001
 1.244370322232309e+000	 1.300593340761641e+000	 1.173900117006612e+001
 1.229932992248813e+000	 1.314254664028600e+000	 1.163136807665838e+001
 1.215348368834772e+000	 1.327753275425902e+000	 1.152832593103260e+001
 1.200619212896339e+000	 1.341086810997858e+000	 1.143031701074020e+001
 1.360955757153845e+000	 1.218407053548307e+000	 1.240256781949821e+001
 1.347424677844972e+000	 1.233354430115146e+000	 1.232682035516086e+001
 1.333726077020677e+000	 1.248155132827871e+000	 1.224129836591735e+001
 1.319862353659959e+000	 1.262806359875977e+000	 1.214749282517740e+001
 1.305835968923696e+000	 1.277305362098496e+000	 1.204660090227336e+001
 1.291649444700928e+000	 1.291649444700928e+000	 1.194138352225529e+001
 1.277305362098497e+000	 1.305835968923696e+000	 1.183459491847797e+001
 1.262806359875977e+000	 1.319862353659959e+000	 1.172897093451379e+001
 1.248155132827870e+000	 1.333726077020677e+000	 1.162721338672229e+001
 1.233354430115146e+000	 1.347424677844972e+000	 1.152604891503061e+001
 1.218407053548307e+000	 1.360955757153844e+000	 1.142308295331820e+001
 1.380824703309748e+000	 1.236194894199525e+000	 1.238286500099700e+001
 1.367096080263875e+000	 1.251360491394808e+000	 1.230584397185881e+001
 1.353197490012505e+000	 1.266377273406264e+000	 1.221911215617302e+001
 1.339131366557947e+000	 1.281242397519037e+000	 1.212581171097299e+001
 1.324900206992199e+000	 1.295953074436450e+000	 1.202857069528275e+001
 1.310506570022006e+000	 1.310506570022005e+000	 1.192813924985397e+001
 1.295953074436450e+000	 1.324900206992199e+000	 1.182724940454256e+001
 1.281242397519037e+000	 1.339131366557946e+000	 1.172788550721492e+001
 1.266377273406264e+000	 1.353197490012506e+000	 1.162436250033234e+001
 1.251360491394808e+000	 1.367096080263875e+000	 1.151784021038986e+001
 1.236194894199525e+000	 1.380824703309748e+000	 1.141152766805586e+001
 1.400693649465486e+000	 1.253982734850077e+000	 1.236371992066031e+001
 1.386767482682543e+000	 1.269366552673829e+000	 1.228673312888652e+001
 1.372668903004032e+000	 1.284599413984047e+000	 1.220062361887805e+001
 1.358400379455570e+000	 1.299678435161525e+000	 1.210864437947225e+001
 1.343964445060277e+000	 1.314600786773875e+000	 1.201408906361094e+001
 1.329363695342603e+000	 1.329363695342603e+000	 1.192016741401645e+001
 1.314600786773875e+000	 1.343964445060277e+000	 1.182464949832500e+001
 1.299678435161524e+000	 1.358400379455569e+000	 1.172146761762408e+001
 1.284599413984047e+000	 1.372668903004031e+000	 1.161352766627599e+001
 1.269366552673829e+000	 1.386767482682543e+000	 1.150417717182660e+001
 1.253982734850077e+000	 1.400693649465486e+000	 1.139675840675390e+001
 1.420562595620974e+000	 1.271770575500045e+000	 1.234533293458346e+001
 1.406438885100908e+000	 1.287372613952274e+000	 1.226987107222107e+001
 1.392140315995205e+000	 1.302821554561270e+000	 1.218633632883914e+001
 1.377669392352793e+000	 1.318114472803472e+000	 1.209800476806574e+001
 1.363028683127914e+000	 1.333248499110788e+000	 1.200819223546512e+001
 1.348220820662723e+000	 1.348220820662722e+000	 1.191406974920638e+001
 1.333248499110788e+000	 1.363028683127914e+000	 1.181285708549266e+001
 1.318114472803472e+000	 1.377669392352793e+000	 1.170643334722047e+001
 1.302821554561270e+000	 1.392140315995205e+000	 1.159657685148132e+001
 1.287372613952274e+000	 1.406438885100908e+000	 1.148667221686929e+001
 1.271770575500045e+000	 1.420562595620974e+000	 1.138009794257799e+001
 1.440431541776130e+000	 1.289558416149514e+000	 1.232770916907388e+001
 1.426110287518902e+000	 1.305378675230213e+000	 1.225543334174666e+001
 1.411611728985973e+000	 1.321043695137985e+000	 1.217653721733350e+001
 1.396938405249583e+000	 1.336550510444917e+000	 1.209395472786479e+001
 1.382092921195092e+000	 1.351896211447207e+000	 1.200249800555833e+001
 1.367077945982363e+000	 1.367077945982363e+000	 1.190157639085985e+001
 1.351896211447207e+000	 1.382092921195092e+000	 1.179462313151458e+001
 1.336550510444917e+000	 1.396938405249583e+000	 1.168512651530794e+001
 1.321043695137985e+000	 1.411611728985973e+000	 1.157556998198665e+001
 1.305378675230213e+000	 1.426110287518902e+000	 1.146713799815970e+001
 1.289558416149514e+000	 1.440431541776130e+000	 1.136307931481094e+001
 1.460300487930869e+000	 1.307346256798567e+000	 1.231066927469843e+001
 1.445781689936458e+000	 1.323384736507712e+000	 1.224339939186852e+001
 1.431083141976286e+000	 1.339265835714243e+000	 1.217039816918812e+001
 1.416207418145903e+000	 1.354986548085892e+000	 1.208531724757377e+001
 1.401157159261793e+000	 1.370543923783149e+000	 1.198879606804454e+001
 1.385935071301524e+000	 1.385935071301523e+000	 1.188402625942937e+001
 1.370543923783149e+000	 1.401157159261793e+000	 1.177425754753156e+001
 1.354986548085892e+000	 1.416207418145904e+000	 1.166279325201275e+001
 1.339265835714243e+000	 1.431083141976285e+000	 1.155298563802949e+001
 1.323384736507713e+000	 1.445781689936458e+000	 1.144758235689897e+001
 1.307346256798566e+000	 1.460300487930869e+000	 1.134744011268296e+001
 1.480169434085108e+000	 1.325134097447286e+000	 1.229385970908404e+001
 1.465453092353505e+000	 1.341390797784841e+000	 1.223196257854494e+001
 1.450554554966089e+000	 1.357487976290097e+000	 1.215606321730976e+001
 1.435476431041720e+000	 1.373422585726433e+000	 1.206735539736055e+001
 1.420221397328001e+000	 1.389191636118633e+000	 1.196870672992879e+001
 1.404792196620206e+000	 1.404792196620206e+000	 1.186304336841832e+001
 1.389191636118633e+000	 1.420221397328000e+000	 1.175334617604465e+001
 1.373422585726434e+000	 1.435476431041720e+000	 1.164264674996220e+001
 1.357487976290097e+000	 1.450554554966089e+000	 1.153402330380620e+001
 1.341390797784841e+000	 1.465453092353505e+000	 1.143059641093082e+001
 1.325134097447286e+000	 1.480169434085108e+000	 1.133511634158886e+001
 1.500038380238764e+000	 1.342921938095756e+000	 1.227461090948022e+001
 1.485124494769979e+000	 1.359396859061667e+000	 1.220950349576146e+001
 1.470025967955333e+000	 1.375710116865597e+000	 1.213101156332655e+001
 1.454745443936998e+000	 1.391858623366575e+000	 1.204160635642272e+001
 1.439285635393696e+000	 1.407839348453674e+000	 1.194381506396785e+001
 1.423649321938409e+000	 1.423649321938408e+000	 1.184021780542621e+001
 1.407839348453675e+000	 1.439285635393696e+000	 1.173344448181940e+001
 1.391858623366575e+000	 1.454745443936998e+000	 1.162617149156525e+001
 1.375710116865597e+000	 1.470025967955333e+000	 1.152111831112301e+001
 1.359396859061667e+000	 1.485124494769979e+000	 1.142104394074900e+001
 1.342921938095756e+000	 1.500038380238765e+000	 1.132874321603230e+001
 1.519907326391754e+000	 1.360709778744060e+000	 1.224196788140371e+001
 1.504795897185810e+000	 1.377402920338258e+000	 1.217480966691462e+001
 1.489497380943965e+000	 1.393932257440796e+000	 1.209665784799901e+001
 1.474014456831702e+000	 1.410294661006352e+000	 1.200957547902600e+001
 1.458349873458863e+000	 1.426487060788292e+000	 1.191567345710143e+001
 1.442506447256132e+000	 1.442506447256132e+000	 1.181710833622688e+001
 1.426487060788292e+000	 1.458349873458862e+000	 1.171608002028868e+001
 1.410294661006352e+000	 1.474014456831703e+000	 1.161482933229417e+001
 1.393932257440795e+000	 1.489497380943965e+000	 1.151563545750861e+001
 1.377402920338257e+000	 1.504795897185810e+000	 1.142081325843243e+001
 1.360709778744060e+000	 1.519907326391754e+000	 1.133271045989263e+001
 1.539776272543993e+000	 1.378497619392281e+000	 1.219539583918224e+001
 1.524467299600929e+000	 1.395408981614681e+000	 1.212913694071474e+001
 1.508968793931934e+000	 1.412154398015745e+000	 1.205438990215389e+001
 1.493283469725799e+000	 1.428730698645799e+000	 1.197273832124079e+001
 1.477414111523483e+000	 1.445134773122503e+000	 1.188580375985214e+001
 1.461363572573377e+000	 1.461363572573377e+000	 1.179524453905271e+001
 1.445134773122503e+000	 1.477414111523483e+000	 1.170275443008996e+001
 1.428730698645800e+000	 1.493283469725799e+000	 1.161006123610859e+001
 1.412154398015745e+000	 1.508968793931934e+000	 1.151892525953902e+001
 1.395408981614681e+000	 1.524467299600929e+000	 1.143113765035063e+001
 1.378497619392282e+000	 1.539776272543993e+000	 1.134851863065800e+001
 1.200619212896339e+000	 1.341086810997858e+000	 1.143031701074020e+001
 1.185746094326383e+000	 1.354254932090050e+000	 1.132710030305476e+001
 1.170734073575938e+000	 1.367253388693743e+000	 1.121479336076206e+001
 1.155586059003449e+000	 1.380080008951025e+000	 1.109461851473114e+001
 1.140305003643770e+000	 1.392732687476032e+000	 1.096774684059010e+001
 1.124893903309479e+000	 1.405209386483143e+000	 1.083529542596116e+001
 1.109355794658762e+000	 1.417508136850241e+000	 1.069832476493771e+001
 1.093693753232441e+000	 1.429627039115892e+000	 1.055783628371234e+001
 1.077910891462778e+000	 1.441564264409459e+000	 1.041477000084620e+001
 1.062010356656721e+000	 1.453318055313266e+000	 1.027000232528216e+001
 1.045995328956277e+000	 1.464886726656035e+000	 1.012434399484659e+001
 1.218407053548307e+000	 1.360955757153844e+000	 1.142308295331820e+001
 1.203313581463500e+000	 1.374318971275530e+000	 1.131599613104696e+001
 1.188079149285163e+000	 1.387510007235055e+000	 1.120127469173714e+001
 1.172706708460706e+000	 1.400526660997231e+000	 1.108000800190381e+001
 1.157199255775851e+000	 1.413366795983732e+000	 1.095323218108785e+001
 1.141559831427820e+000	 1.426028344218016e+000	 1.082192758467229e+001
 1.125791517064594e+000	 1.438509307404328e+000	 1.068701641660519e+001
 1.109897433792857e+000	 1.450807757939659e+000	 1.054936047500982e+001
 1.093880740157302e+000	 1.462921839857642e+000	 1.040975903323265e+001
 1.077744630093995e+000	 1.474849769703483e+000	 1.026894685848666e+001
 1.061492330860527e+000	 1.486589837339156e+000	 1.012759236989640e+001
 1.236194894199525e+000	 1.380824703309748e+000	 1.141152766805586e+001
 1.220881068599836e+000	 1.394383010461012e+000	 1.130273105752419e+001
 1.205424224993587e+000	 1.407766625776456e+000	 1.118734582703452e+001
 1.189827357917149e+000	 1.420973313043610e+000	 1.106637031110839e+001
 1.174093507907113e+000	 1.434000904491688e+000	 1.094074857230411e+001
 1.158225759545347e+000	 1.446847301953224e+000	 1.081136802715045e+001
 1.142227239469625e+000	 1.459510477958824e+000	 1.067905720365873e+001
 1.126101114352494e+000	 1.471988476763906e+000	 1.054458363256272e+001
 1.109850588851077e+000	 1.484279415306369e+000	 1.040865187399519e+001
 1.093478903530556e+000	 1.496381484094301e+000	 1.027190168091269e+001
 1.076989332764112e+000	 1.508292948022929e+000	 1.013490630023285e+001
 1.253982734850077e+000	 1.400693649465486e+000	 1.139675840675390e+001
 1.238448555735490e+000	 1.414447049646399e+000	 1.128811006891447e+001
 1.222769300701319e+000	 1.428023244317834e+000	 1.117353763997780e+001
 1.206948007372900e+000	 1.441419965090038e+000	 1.105398873395456e+001
 1.190987760037690e+000	 1.454635012999764e+000	 1.093035660997503e+001
 1.174891687662203e+000	 1.467666259688620e+000	 1.080347787128861e+001
 1.158662961874007e+000	 1.480511648513576e+000	 1.067413029657481e+001
 1.142304794911510e+000	 1.493169195588471e+000	 1.054303080497320e+001
 1.125820437544266e+000	 1.505636990755471e+000	 1.041083355578693e+001
 1.109213176966573e+000	 1.517913198485543e+000	 1.027812818341364e+001
 1.092486334667199e+000	 1.529996058707168e+000	 1.014543816771484e+001
 1.271770575500045e+000	 1.420562595620974e+000	 1.138009794257799e+001
 1.256016042870559e+000	 1.434511088831594e+000	 1.127316440796535e+001
 1.240114376408472e+000	 1.448279862859077e+000	 1.116061628380171e+001
 1.224068656828083e+000	 1.461866617136390e+000	 1.104338924600931e+001
 1.207882012167718e+000	 1.475269121507824e+000	 1.092236545086809e+001
 1.191557615778533e+000	 1.488485217424060e+000	 1.079837123939032e+001
 1.175098684277891e+000	 1.501512819068427e+000	 1.067217497385678e+001
 1.158508475470063e+000	 1.514349914413188e+000	 1.054448500725959e+001
 1.141790286237030e+000	 1.526994566204773e+000	 1.041594778593069e+001
 1.124947450402209e+000	 1.539444912877032e+000	 1.028714608522935e+001
 1.107983336569954e+000	 1.551699169391692e+000	 1.015859737782516e+001
 1.289558416149514e+000	 1.440431541776130e+000	 1.136307931481094e+001
 1.273583530005141e+000	 1.454575128016497e+000	 1.125914559342737e+001
 1.257459452115157e+000	 1.468536481400075e+000	 1.114957661555234e+001
 1.241189306282822e+000	 1.482313269182545e+000	 1.103533345708598e+001
 1.224776264297331e+000	 1.495903230015734e+000	 1.091732540440757e+001
 1.208223543894480e+000	 1.509304175159395e+000	 1.079640759875108e+001
 1.191534406681430e+000	 1.522513989623221e+000	 1.067337881176772e+001
 1.174712156028311e+000	 1.535530633237893e+000	 1.054897935242652e+001
 1.157760134929534e+000	 1.548352141654106e+000	 1.042388910492500e+001
 1.140681723837632e+000	 1.560976627268588e+000	 1.029872569687141e+001
 1.123480338472544e+000	 1.573402280076317e+000	 1.017404279666869e+001
 1.307346256798566e+000	 1.460300487930869e+000	 1.134744011268296e+001
 1.291151017139334e+000	 1.474639167201012e+000	 1.124751904841954e+001
 1.274804527821486e+000	 1.488793099940715e+000	 1.114163528859534e+001
 1.258309955737241e+000	 1.502759921228375e+000	 1.103081128094038e+001
 1.241670516426661e+000	 1.516537338523357e+000	 1.091602028593484e+001
 1.224889472010190e+000	 1.530123132894483e+000	 1.079818389809321e+001
 1.207970129084775e+000	 1.543515160177802e+000	 1.067816969669491e+001
 1.190915836586413e+000	 1.556711352062423e+000	 1.055678902557808e+001
 1.173729983621940e+000	 1.569709717103298e+000	 1.043479490111803e+001
 1.156415997273006e+000	 1.582508341660034e+000	 1.031288004710010e+001
 1.138977340375136e+000	 1.595105390760859e+000	 1.019167505486523e+001
 1.325134097447286e+000	 1.480169434085108e+000	 1.133511634158886e+001
 1.308718504273237e+000	 1.494703206385040e+000	 1.123995737424493e+001
 1.292149603527569e+000	 1.509049718480886e+000	 1.113822354487039e+001
 1.275430605191462e+000	 1.523206573273759e+000	 1.103103335073906e+001
 1.258564768555845e+000	 1.537171447030557e+000	 1.091945955400012e+001
 1.241555400125804e+000	 1.550942090629174e+000	 1.080452651903454e+001
 1.224405851488079e+000	 1.564516330732018e+000	 1.068720767681015e+001
 1.207119517144526e+000	 1.577892070886612e+000	 1.056842311536880e+001
 1.189699832314410e+000	 1.591067292552177e+000	 1.044903729506518e+001
 1.172150270708497e+000	 1.604040056051192e+000	 1.032985688675977e+001
 1.154474342277895e+000	 1.616808501445135e+000	 1.021162873084268e+001
 1.342921938095756e+000	 1.500038380238765e+000	 1.132874321603230e+001
 1.326285991406947e+000	 1.514767245568484e+000	 1.123833330252819e+001
 1.309494679233518e+000	 1.529306337020477e+000	 1.114097973472955e+001
 1.292551254645610e+000	 1.543653225318572e+000	 1.103742320386896e+001
 1.275459020685017e+000	 1.557805555537200e+000	 1.092887025170804e+001
 1.258221328241467e+000	 1.571761048363324e+000	 1.081648305974047e+001
 1.240841573891492e+000	 1.585517501285710e+000	 1.070137666792579e+001
 1.223323197702809e+000	 1.599072789710299e+000	 1.058461631601868e+001
 1.205669681007109e+000	 1.612424868000571e+000	 1.046721490564985e+001
 1.187884544144271e+000	 1.625571770441885e+000	 1.035013058089062e+001
 1.169971344180991e+000	 1.638511612128961e+000	 1.023426442471136e+001
 1.360709778744060e+000	 1.519907326391754e+000	 1.133271045989263e+001
 1.343853478540562e+000	 1.534831284751244e+000	 1.124525794634637e+001
 1.326839754939444e+000	 1.549562955559376e+000	 1.115174158928588e+001
 1.309671904099807e+000	 1.564099877362689e+000	 1.105160925719567e+001
 1.292353272814311e+000	 1.578439664043150e+000	 1.094568877004694e+001
 1.274887256357323e+000	 1.592580006096787e+000	 1.083531396611343e+001
 1.257277296295169e+000	 1.606518671838723e+000	 1.072177602688668e+001
 1.239526878261420e+000	 1.620253508533317e+000	 1.060632051173437e+001
 1.221639529700197e+000	 1.633782443448310e+000	 1.049014450878706e+001
 1.203618817580493e+000	 1.647103484831933e+000	 1.037439389933879e+001
 1.185468346084587e+000	 1.660214722812154e+000	 1.026016073273089e+001
 1.378497619392282e+000	 1.539776272543993e+000	 1.134851863065799e+001
 1.361420965674179e+000	 1.554895323933223e+000	 1.126463135379152e+001
 1.344184830645459e+000	 1.569819574097472e+000	 1.117304462478846e+001
 1.326792553554179e+000	 1.584546529405988e+000	 1.107541659169600e+001
 1.309247524943862e+000	 1.599073772548270e+000	 1.097155244927994e+001
 1.291553184473516e+000	 1.613398963829417e+000	 1.086248402429128e+001
 1.273713018699258e+000	 1.627519842390902e+000	 1.074971200446282e+001
 1.255730558820517e+000	 1.641434227355505e+000	 1.063469625415904e+001
 1.237609378393840e+000	 1.655140018895221e+000	 1.051885259841109e+001
 1.219353091017331e+000	 1.668635199221159e+000	 1.040354971503135e+001
 1.200965347988850e+000	 1.681917833494530e+000	 1.029010613134763e+001
 1.045995328956277e+000	 1.464886726656035e+000	 1.012434399484659e+001
 1.029869018930230e+000	 1.476268665820915e+000	 9.976863977212695e+000
 1.013634664473865e+000	 1.487462332141325e+000	 9.826531333906436e+000
 9.972955298026258e-001	 1.498466258716639e+000	 9.673908094398124e+000
 9.808549037040830e-001	 1.509279053342249e+000	 9.519484111687609e+000
 9.643160974265818e-001	 1.519899398955622e+000	 9.363683898814120e+000
 9.476824425612986e-001	 1.530326054011600e+000	 9.206859958055558e+000
 9.309572889204426e-001	 1.540557852787053e+000	 9.049292864450255e+000
 9.141440024143019e-001	 1.550593705615053e+000	 8.891190219094804e+000
 8.972459629298201e-001	 1.560432599048893e+000	 8.732685753720068e+000
 8.802665622133532e-001	 1.570073595956371e+000	 8.573838587857010e+000
 1.061492330860527e+000	 1.486589837339156e+000	 1.012759236989640e+001
 1.045127100592058e+000	 1.498140406255998e+000	 9.984670076020601e+000
 1.028652225155088e+000	 1.509499912961594e+000	 9.839094156313568e+000
 1.012071017126219e+000	 1.520666868822365e+000	 9.691340334407439e+000
 9.953868140182343e-001	 1.531639861007416e+000	 9.541815872166954e+000
 9.786029761374547e-001	 1.542417552941193e+000	 9.390853297406419e+000
 9.617228844344271e-001	 1.552998684684357e+000	 9.238716173163034e+000
 9.447499383506842e-001	 1.563382073242935e+000	 9.085593522944276e+000
 9.276875536643391e-001	 1.573566612805977e+000	 8.931599961485995e+000
 9.105391603372328e-001	 1.583551274911993e+000	 8.776774896593734e+000
 8.933082003663225e-001	 1.593335108544643e+000	 8.621081880032865e+000
 1.076989332764112e+000	 1.508292948022929e+000	 1.013490630023285e+001
 1.060385182253275e+000	 1.520012146691774e+000	 9.996560291052658e+000
 1.043669785835759e+000	 1.531537493782587e+000	 9.855716051223944e+000
 1.026846504449323e+000	 1.542867478928838e+000	 9.712779900571750e+000
 1.009918724331957e+000	 1.554000668673342e+000	 9.568087394385193e+000
 9.928898548479597e-001	 1.564935706927531e+000	 9.421898822033713e+000
 9.757633263072423e-001	 1.575671315357876e+000	 9.274402653575478e+000
 9.585425877806589e-001	 1.586206293699568e+000	 9.125711587993983e+000
 9.412311049141445e-001	 1.596539519997630e+000	 8.975862396467020e+000
 9.238323577444372e-001	 1.606669950775794e+000	 8.824815202564198e+000
 9.063498385190917e-001	 1.616596621133581e+000	 8.672452907735661e+000
 1.092486334667199e+000	 1.529996058707168e+000	 1.014543816771484e+001
 1.075643263914047e+000	 1.541883887128052e+000	 1.001158478442800e+001
 1.058687346516041e+000	 1.553575074604111e+000	 9.875344835035822e+000
 1.041621991772096e+000	 1.565068089035862e+000	 9.737070263553768e+000
 1.024450634645408e+000	 1.576361476339833e+000	 9.597039542015898e+000
 1.007176733558246e+000	 1.587453860914438e+000	 9.455457014364031e+000
 9.898037681798880e-001	 1.598343946031964e+000	 9.312449647865540e+000
 9.723352372105052e-001	 1.609030514156761e+000	 9.168069204306171e+000
 9.547746561638559e-001	 1.619512427189830e+000	 9.022289442897435e+000
 9.371255551515678e-001	 1.629788626640121e+000	 8.875005942249608e+000
 9.193914766717937e-001	 1.639858133723017e+000	 8.726035582169999e+000
 1.107983336569954e+000	 1.551699169391692e+000	 1.015859737782516e+001
 1.090901345574538e+000	 1.563755627564647e+000	 1.002904891612902e+001
 1.073704907196097e+000	 1.575612655425975e+000	 9.897181560914605e+000
 1.056397479094698e+000	 1.587268699143244e+000	 9.763307576229607e+000
 1.038982544958740e+000	 1.598722284006695e+000	 9.627663889647595e+000
 1.021463612268464e+000	 1.609972014901722e+000	 9.490410923374450e+000
 1.003844210052509e+000	 1.621016576706430e+000	 9.351631814144996e+000
 9.861278866403656e-001	 1.631854734614329e+000	 9.211330567748902e+000
 9.683182074136085e-001	 1.642485334382394e+000	 9.069432689334159e+000
 9.504187525587582e-001	 1.652907302504798e+000	 8.925783670474880e+000
 9.324331148245619e-001	 1.663119646312786e+000	 8.780148728467996e+000
 1.123480338472544e+000	 1.573402280076317e+000	 1.017404279666869e+001
 1.106159427234916e+000	 1.585627368001368e+000	 1.004850589356240e+001
 1.088722467876090e+000	 1.597650236247987e+000	 9.920673391647553e+000
 1.071172966417288e+000	 1.609469309250792e+000	 9.790832254897978e+000
 1.053514455272107e+000	 1.621083091673733e+000	 9.659192253263580e+000
 1.035750490978762e+000	 1.632490168889190e+000	 9.525884834686892e+000
 1.017884651925251e+000	 1.643689207381082e+000	 9.390962133745687e+000
 9.999205360703791e-001	 1.654678955072082e+000	 9.254395991612679e+000
 9.818617586635403e-001	 1.665458241575140e+000	 9.116077697351972e+000
 9.637119499661435e-001	 1.676025978369650e+000	 8.975816760579548e+000
 9.454747529775296e-001	 1.686381158902720e+000	 8.833340842567822e+000
 1.138977340375136e+000	 1.595105390760859e+000	 1.019167505486523e+001
 1.121417508895345e+000	 1.607499108438029e+000	 1.006974928821273e+001
 1.103740028556184e+000	 1.619687817069959e+000	 9.945506339398756e+000
 1.085948453740026e+000	 1.631669919358312e+000	 9.819221950214256e+000
 1.068046365585667e+000	 1.643443899340753e+000	 9.691092823618890e+000
 1.050037369689291e+000	 1.655008322876647e+000	 9.561235523049945e+000
 1.031925093798258e+000	 1.666361838055729e+000	 9.429685505531687e+000
 1.013713185500686e+000	 1.677503175529833e+000	 9.296396286463423e+000
 9.954053099137867e-001	 1.688431148767885e+000	 9.161238170859253e+000
 9.770051473738575e-001	 1.699144654234502e+000	 9.023999806021548e+000
 9.585163911308307e-001	 1.709642671492654e+000	 8.884384717493543e+000
 1.154474342277895e+000	 1.616808501445135e+000	 1.021162873084268e+001
 1.136675590555991e+000	 1.629370848874443e+000	 1.009280543187476e+001
 1.118757589236542e+000	 1.641725397891696e+000	 9.971597884868904e+000
 1.100723941063069e+000	 1.653870529465609e+000	 9.848284397140573e+000
 1.082578275899572e+000	 1.665804707007561e+000	 9.723062410893393e+000
 1.064324248400201e+000	 1.677526476863901e+000	 9.596047417438582e+000
 1.045965535671676e+000	 1.689034468730179e+000	 9.467272002036863e+000
 1.027505834931428e+000	 1.700327395987393e+000	 9.336685016475341e+000
 1.008948861164486e+000	 1.711404055960447e+000	 9.204150003997270e+000
 9.902983447820342e-001	 1.722263330099179e+000	 9.069447901743587e+000
 9.715580292845979e-001	 1.732904184082422e+000	 8.932271951304371e+000
 1.169971344180991e+000	 1.638511612128961e+000	 1.023426442471136e+001
 1.151933672217020e+000	 1.651242589310421e+000	 1.011792570362844e+001
 1.133775149917325e+000	 1.663762978713008e+000	 9.999089487040539e+000
 1.115499428386579e+000	 1.676071139572491e+000	 9.878050155129087e+000
 1.097110186213977e+000	 1.688165514673963e+000	 9.755019420976746e+000
 1.078611127111641e+000	 1.700044630850756e+000	 9.630125248600871e+000
 1.060005977545648e+000	 1.711707099404241e+000	 9.503410898038052e+000
 1.041298484362745e+000	 1.723151616444576e+000	 9.374834093767028e+000
 1.022492412415773e+000	 1.734376963152644e+000	 9.244266313128296e+000
 1.003591542190808e+000	 1.745382005963505e+000	 9.111490816445379e+000
 9.845996674389650e-001	 1.756165696671858e+000	 8.976207347680671e+000
 1.185468346084587e+000	 1.660214722812154e+000	 1.026016073273089e+001
 1.167191753878597e+000	 1.673114329745773e+000	 1.014557871755426e+001
 1.148792710598699e+000	 1.685800559533704e+000	 1.002833899351971e+001
 1.130274915710713e+000	 1.698271749678765e+000	 9.908765248580549e+000
 1.111642096529037e+000	 1.710526322339764e+000	 9.787096731644622e+000
 1.092898005823761e+000	 1.722562784837020e+000	 9.663487164661394e+000
 1.074046419420320e+000	 1.734379730077722e+000	 9.538003777756703e+000
 1.055091133794776e+000	 1.745975836901192e+000	 9.410626462804821e+000
 1.036035963667787e+000	 1.757349870344292e+000	 9.281247041286045e+000
 1.016884739600314e+000	 1.768500681827304e+000	 9.149668642811776e+000
 9.976413055940656e-001	 1.779427209260796e+000	 9.015603218969156e+000
 1.200965347988850e+000	 1.681917833494530e+000	 1.029010613134763e+001
 1.182449835540888e+000	 1.694986070180314e+000	 1.017644242015253e+001
 1.163810271280825e+000	 1.707838140353592e+000	 1.005991296045157e+001
 1.145050403035632e+000	 1.720472359784237e+000	 9.940883716585935e+000
 1.126174006844908e+000	 1.732887130004770e+000	 9.819634477667606e+000
 1.107184884536711e+000	 1.745080938822499e+000	 9.696357755352144e+000
 1.088086861295837e+000	 1.757052360750431e+000	 9.571157800180643e+000
 1.068883783227663e+000	 1.768800057357055e+000	 9.444049730906096e+000
 1.049579514920662e+000	 1.780322777535210e+000	 9.314958771767714e+000
 1.030177937010685e+000	 1.791619357690404e+000	 9.183719593313592e+000
 1.010682943750033e+000	 1.802688721849068e+000	 9.050075753083284e+000
 8.802665622133532e-001	 1.570073595956371e+000	 8.573838587857004e+000
 8.632117660713863e-001	 1.579514434436757e+000	 8.414916706871939e+000
 8.460824421315376e-001	 1.588755792347744e+000	 8.256641593553447e+000
 8.288820044695899e-001	 1.597796962967234e+000	 8.099715866794391e+000
 8.116138706063589e-001	 1.606637315540310e+000	 7.944771297366603e+000
 7.942814594508111e-001	 1.615276295033541e+000	 7.792367014428583e+000
 7.768881892624316e-001	 1.623713421824429e+000	 7.642987889806046e+000
 7.594374756351380e-001	 1.631948291327146e+000	 7.497043104505705e+000
 7.419327295049752e-001	 1.639980573555821e+000	 7.354864901732744e+000
 7.243773551837668e-001	 1.647810012626662e+000	 7.216707530462504e+000
 7.067747484208015e-001	 1.655436426200365e+000	 7.082746383376850e+000
 8.933082003663225e-001	 1.593335108544643e+000	 8.621081880032865e+000
 8.760007279448260e-001	 1.602915818291883e+000	 8.464936097290920e+000
 8.586176235547386e-001	 1.612294092054241e+000	 8.309279505501189e+000
 8.411623518532653e-001	 1.621469212639146e+000	 8.154825322876336e+000
 8.236383809936846e-001	 1.630440539946704e+000	 8.002213697229722e+000
 8.060491805379904e-001	 1.639207510720356e+000	 7.852009766848782e+000
 7.883982193890753e-001	 1.647769638231734e+000	 7.704701900061553e+000
 7.706889637447694e-001	 1.656126511900855e+000	 7.560700118380643e+000
 7.529248750760244e-001	 1.664277796852925e+000	 7.420334707957459e+000
 7.351094081314270e-001	 1.672223233413098e+000	 7.283855023902913e+000
 7.172460089701712e-001	 1.679962636540613e+000	 7.151428491827462e+000
 9.063498385190917e-001	 1.616596621133581e+000	 8.672452907735663e+000
 8.887896898180561e-001	 1.626317202147628e+000	 8.519344499152123e+000
 8.711528049777059e-001	 1.635832391761306e+000	 8.366641674129109e+000
 8.534426992366734e-001	 1.645141462311570e+000	 8.215056825952456e+000
 8.356628913807014e-001	 1.654243764353546e+000	 8.065226892158860e+000
 8.178169016248167e-001	 1.663138726407550e+000	 7.917711291301280e+000
 7.999082495153213e-001	 1.671825854639347e+000	 7.772990038527509e+000
 7.819404518539631e-001	 1.680304732474796e+000	 7.631462045230183e+000
 7.639170206466032e-001	 1.688575020150183e+000	 7.493443607928144e+000
 7.458414610785948e-001	 1.696636454199607e+000	 7.359167091409597e+000
 7.277172695190414e-001	 1.704488846880856e+000	 7.228779811008056e+000
 9.193914766717937e-001	 1.639858133723017e+000	 8.726035582169999e+000
 9.015786516912100e-001	 1.649718586003838e+000	 8.576104763423183e+000
 8.836879864005770e-001	 1.659370691468799e+000	 8.426561916631345e+000
 8.657230466199544e-001	 1.668813711984378e+000	 8.278108043670443e+000
 8.476874017675546e-001	 1.678046988760721e+000	 8.131366154317190e+000
 8.295846227114402e-001	 1.687069942095027e+000	 7.986879099837779e+000
 8.114182796413252e-001	 1.695882071047190e+000	 7.845107584643698e+000
 7.931919399628790e-001	 1.704482953048911e+000	 7.706428361600034e+000
 7.749091662168747e-001	 1.712872243447557e+000	 7.571132616535036e+000
 7.565735140254362e-001	 1.721049674986173e+000	 7.439424547424862e+000
 7.381885300675789e-001	 1.729015057221095e+000	 7.311420143623383e+000
 9.324331148245619e-001	 1.663119646312786e+000	 8.780148728467996e+000
 9.143676135644236e-001	 1.673119969860358e+000	 8.633412472528221e+000
 8.962231678234888e-001	 1.682908991176575e+000	 8.487104917776895e+000
 8.780033940032496e-001	 1.692485961657440e+000	 8.341905923936208e+000
 8.597119121543899e-001	 1.701850213168122e+000	 8.198414683743110e+000
 8.413523437980107e-001	 1.711001157782695e+000	 8.057147473774732e+000
 8.229283097672420e-001	 1.719938287455187e+000	 7.918535581658840e+000
 8.044434280716766e-001	 1.728661173623140e+000	 7.782923415536727e+000
 7.859013117870025e-001	 1.737169466745007e+000	 7.650566801675473e+000
 7.673055669721173e-001	 1.745462895772776e+000	 7.521631476121563e+000
 7.486597906159502e-001	 1.753541267561331e+000	 7.396191776240462e+000
 9.454747529775296e-001	 1.686381158902720e+000	 8.833340842567822e+000
 9.271565754378307e-001	 1.696521353717034e+000	 8.689690898489189e+000
 9.087583492465783e-001	 1.706447290884493e+000	 8.546561358059380e+000
 8.902837413866998e-001	 1.716158211330630e+000	 8.404601963826844e+000
 8.717364225413530e-001	 1.725653437575633e+000	 8.264378990817098e+000
 8.531200648846794e-001	 1.734932373470456e+000	 8.126372934564582e+000
 8.344383398932268e-001	 1.743994503863259e+000	 7.990976372839151e+000
 8.156949161805157e-001	 1.752839394197428e+000	 7.858492007169554e+000
 7.968934573571501e-001	 1.761466690042496e+000	 7.729130890372022e+000
 7.780376199188031e-001	 1.769876116559398e+000	 7.603010846362516e+000
 7.591310511643220e-001	 1.778067477901566e+000	 7.480155088557081e+000
 9.585163911308307e-001	 1.709642671492654e+000	 8.884384717493539e+000
 9.399455373115651e-001	 1.719922737573709e+000	 8.743585834382174e+000
 9.212935306699827e-001	 1.729985590592412e+000	 8.603442921654352e+000
 9.025640887704454e-001	 1.739830461003820e+000	 8.464567367174675e+000
 8.837609329285886e-001	 1.749456661983145e+000	 8.327484178424978e+000
 8.648877859715963e-001	 1.758863589158218e+000	 8.192629627340642e+000
 8.459483700194360e-001	 1.768050720271332e+000	 8.060349065068897e+000
 8.269464042895561e-001	 1.777017614771715e+000	 7.930894912935269e+000
 8.078856029274806e-001	 1.785763913339985e+000	 7.804424836101338e+000
 7.887696728656604e-001	 1.794289337346019e+000	 7.681000106548342e+000
 7.696023117128608e-001	 1.802593688241801e+000	 7.560584162132796e+000
 9.715580292845979e-001	 1.732904184082422e+000	 8.932271951304371e+000
 9.527344991857626e-001	 1.743324121430229e+000	 8.793960311008952e+000
 9.338287120938384e-001	 1.753523890300188e+000	 8.656477195473084e+000
 9.148444361546277e-001	 1.763502710676882e+000	 8.520388101279201e+000
 8.957854433162428e-001	 1.773259886390545e+000	 8.386169133239214e+000
 8.766555070589114e-001	 1.782794804845885e+000	 8.254204625338485e+000
 8.574584001460237e-001	 1.792106936679329e+000	 8.124784926663637e+000
 8.381978923989577e-001	 1.801195835345946e+000	 7.998104358737705e+000
 8.188777484981575e-001	 1.810061136637435e+000	 7.874259350977463e+000
 7.995017258128542e-001	 1.818702558132622e+000	 7.753246761240282e+000
 7.800735722617330e-001	 1.827119898582037e+000	 7.634962388627888e+000
 9.845996674389650e-001	 1.756165696671858e+000	 8.976207347680672e+000
 9.655234610605563e-001	 1.766725505286440e+000	 8.839889209422941e+000
 9.463638935182839e-001	 1.777062190007680e+000	 8.704602469409521e+000
 9.271247835393878e-001	 1.787174960349689e+000	 8.570859862097187e+000
 9.078099537044607e-001	 1.797063110797722e+000	 8.439081634541454e+000
 8.884232281467757e-001	 1.806726020533363e+000	 8.309593162526372e+000
 8.689684302731457e-001	 1.816163153087172e+000	 8.182622725493342e+000
 8.494493805088798e-001	 1.825374055920060e+000	 8.058299446774665e+000
 8.298698940693450e-001	 1.834358359934808e+000	 7.936651406042850e+000
 8.102337787605508e-001	 1.843115778919188e+000	 7.817603931245206e+000
 7.905448328111057e-001	 1.851646108922276e+000	 7.700978077595927e+000
 9.976413055940656e-001	 1.779427209260796e+000	 9.015603218969156e+000
 9.783124229360812e-001	 1.790126889142184e+000	 8.880653778836056e+000
 9.588990749434547e-001	 1.800600489714745e+000	 8.746962446815930e+000
 9.394051309248662e-001	 1.810847210022113e+000	 8.614982956282381e+000
 9.198344640933878e-001	 1.820866335204562e+000	 8.485073388128582e+000
 9.001909492353392e-001	 1.830657236220556e+000	 8.357493801012138e+000
 8.804784604009575e-001	 1.840219369494784e+000	 8.232404012873424e+000
 8.607008686194827e-001	 1.849552276494000e+000	 8.109861540269401e+000
 8.408620396412051e-001	 1.858655583232066e+000	 7.989819702586269e+000
 8.209658317089157e-001	 1.867528999705697e+000	 7.872125898674101e+000
 8.010160933611453e-001	 1.876172319262519e+000	 7.756520063865334e+000
 1.010682943750033e+000	 1.802688721849068e+000	 9.050075753083283e+000
 9.911013848124723e-001	 1.813528272997309e+000	 8.915736068451478e+000
 9.714342563694887e-001	 1.824138789421242e+000	 8.782900873315549e+000
 9.516854783112035e-001	 1.834519459694026e+000	 8.651957107582229e+000
 9.318589744831693e-001	 1.844669559610956e+000	 8.523194992067570e+000
 9.119586703247526e-001	 1.854588451907370e+000	 8.396803539114337e+000
 8.919884905296137e-001	 1.864275585902090e+000	 8.272868358120162e+000
 8.719523567309262e-001	 1.873730497067710e+000	 8.151369609905460e+000
 8.518541852139021e-001	 1.882952806529170e+000	 8.032180117098999e+000
 8.316978846581150e-001	 1.891942220492133e+000	 7.915063638328057e+000
 8.114873539120182e-001	 1.900698529602767e+000	 7.799673314548053e+000
 7.067747484208015e-001	 1.655436426200365e+000	 7.082746383376850e+000
 6.891256442852183e-001	 1.662860803443095e+000	 6.947112950525672e+000
 6.714360551290197e-001	 1.670081948955455e+000	 6.804373273647832e+000
 6.537093420179819e-001	 1.677099898436262e+000	 6.655846994711810e+000
 6.359488499726910e-001	 1.683914758373383e+000	 6.504737087229990e+000
 6.181579061975374e-001	 1.690526705208835e+000	 6.353316386356129e+000
 6.003398183486900e-001	 1.696935984454057e+000	 6.203619655759189e+000
 5.824978728425352e-001	 1.703142909757176e+000	 6.057505985746343e+000
 5.646353332059857e-001	 1.709147861924183e+000	 5.916655014812979e+000
 5.467554384699808e-001	 1.714951287895949e+000	 5.782565441114048e+000
 5.288614016073797e-001	 1.720553699683057e+000	 5.656555719775529e+000
 7.172460089701712e-001	 1.679962636540613e+000	 7.151428491827463e+000
 6.993354235518500e-001	 1.687497010056689e+000	 7.017139983289271e+000
 6.813837533048077e-001	 1.694825140851425e+000	 6.875693784556463e+000
 6.633944090908881e-001	 1.701947065152540e+000	 6.728036376097776e+000
 6.453707854890251e-001	 1.708862891025580e+000	 6.576864502807909e+000
 6.273162589980006e-001	 1.715572797526653e+000	 6.425197750188515e+000
 6.092341862787581e-001	 1.722077033804590e+000	 6.275312360954415e+000
 5.911279024377771e-001	 1.728375918154393e+000	 6.129282472358806e+000
 5.730007193529454e-001	 1.734469837023908e+000	 5.988976280504038e+000
 5.548559240432534e-001	 1.740359243975686e+000	 5.856054746244674e+000
 5.366967770835491e-001	 1.746044658606036e+000	 5.731972726817491e+000
 7.277172695190414e-001	 1.704488846880856e+000	 7.228779811008056e+000
 7.095452028179917e-001	 1.712133216670198e+000	 7.096363740066608e+000
 6.913314514801311e-001	 1.719568332747231e+000	 6.956794350041110e+000
 6.730794761633667e-001	 1.726794231868579e+000	 6.811217690868261e+000
 6.547927210049780e-001	 1.733811023677469e+000	 6.661234311080488e+000
 6.364746117981360e-001	 1.740618889844100e+000	 6.510454768346467e+000
 6.181285542085547e-001	 1.747218083154697e+000	 6.361482642553489e+000
 5.997579320328053e-001	 1.753608926551139e+000	 6.216568018690951e+000
 5.813661054997462e-001	 1.759791812123126e+000	 6.077725833614501e+000
 5.629564096164186e-001	 1.765767200054896e+000	 5.946734899866248e+000
 5.445321525596547e-001	 1.771535617528480e+000	 5.825139613244993e+000
 7.381885300675789e-001	 1.729015057221095e+000	 7.311420143623383e+000
 7.197549820838096e-001	 1.736769423283644e+000	 7.181242162057955e+000
 7.012791496551518e-001	 1.744311524642915e+000	 7.043970664212727e+000
 6.827645432355752e-001	 1.751641398584440e+000	 6.900962751696810e+000
 6.642146565207017e-001	 1.758759156329126e+000	 6.753499748238956e+000
 6.456329645980879e-001	 1.765664982161268e+000	 6.604548898715059e+000
 6.270229221382165e-001	 1.772359132504484e+000	 6.457432779187370e+000
 6.083879616277474e-001	 1.778841934947530e+000	 6.314539377486183e+000
 5.897314916465081e-001	 1.785113787221967e+000	 6.177989341951849e+000
 5.710568951895859e-001	 1.791175156133712e+000	 6.049635451513199e+000
 5.523675280357959e-001	 1.797026576450526e+000	 5.931065046930950e+000
 7.486597906159502e-001	 1.753541267561331e+000	 7.396191776240464e+000
 7.299647613494683e-001	 1.761405629897045e+000	 7.268454901832397e+000
 7.112268478300333e-001	 1.769054716538517e+000	 7.133739365423305e+000
 6.924496103076727e-001	 1.776488565300181e+000	 6.993588450032250e+000
 6.736365920363487e-001	 1.783707288980629e+000	 6.849445659427949e+000
 6.547913173980023e-001	 1.790711074478250e+000	 6.703189836675541e+000
 6.359172900678811e-001	 1.797500181854058e+000	 6.558684495090591e+000
 6.170179912227322e-001	 1.804074943343686e+000	 6.418566049383238e+000
 5.980968777933491e-001	 1.810435762320554e+000	 6.285020550037126e+000
 5.791573807628641e-001	 1.816583112212264e+000	 6.159931303769375e+000
 5.602029035120719e-001	 1.822517535372305e+000	 6.044882182623856e+000
 7.591310511643220e-001	 1.778067477901566e+000	 7.480155088557082e+000
 7.401745406151347e-001	 1.786041836510427e+000	 7.354898910888706e+000
 7.211745460049378e-001	 1.793797908434078e+000	 7.222833586364238e+000
 7.021346773798164e-001	 1.801335732015862e+000	 7.085665183247214e+000
 6.830585275520711e-001	 1.808655421632055e+000	 6.944997249277166e+000
 6.639496701980238e-001	 1.815757166795140e+000	 6.802353807130368e+000
 6.448116579976856e-001	 1.822641231203525e+000	 6.660995452581877e+000
 6.256480208178877e-001	 1.829307951739723e+000	 6.524225059029654e+000
 6.064622639403884e-001	 1.835757737419014e+000	 6.394254427700203e+000
 5.872578663363622e-001	 1.841991068290684e+000	 6.272954327548987e+000
 5.680382789885817e-001	 1.848008494293950e+000	 6.161858843157686e+000
 7.696023117128608e-001	 1.802593688241801e+000	 7.560584162132797e+000
 7.503843198809724e-001	 1.810678043123807e+000	 7.437684047238190e+000
 7.311222441800278e-001	 1.818541100329640e+000	 7.308198545679531e+000
 7.118197444521650e-001	 1.826182898731543e+000	 7.173974525396370e+000
 6.924804630680210e-001	 1.833603554283482e+000	 7.036753740984159e+000
 6.731080229982976e-001	 1.840803259112029e+000	 6.898169200565108e+000
 6.537060259277669e-001	 1.847782280552992e+000	 6.760375873133966e+000
 6.342780504133430e-001	 1.854540960135760e+000	 6.627315879642789e+000
 6.148276500877450e-001	 1.861079712517475e+000	 6.501320485433732e+000
 5.953583519101899e-001	 1.867399024369105e+000	 6.384205160496500e+000
 5.758736544654247e-001	 1.873499453215596e+000	 6.277407897791539e+000
 7.800735722617330e-001	 1.827119898582037e+000	 7.634962388627889e+000
 7.605940991471489e-001	 1.835314249737210e+000	 7.514128701125074e+000
 7.410699423554661e-001	 1.843284292225242e+000	 7.386987177190039e+000
 7.215048115248767e-001	 1.851030065447285e+000	 7.255504849957056e+000
 7.019023985843511e-001	 1.858551686934985e+000	 7.121541198932294e+000
 6.822663757989691e-001	 1.865849351429012e+000	 6.986844038319787e+000
 6.626003938582623e-001	 1.872923329902566e+000	 6.853105274975361e+000
 6.429080800092253e-001	 1.879773968531916e+000	 6.723875492091023e+000
 6.231930362355381e-001	 1.886401687616062e+000	 6.602056240852526e+000
 6.034588374844560e-001	 1.892806980447657e+000	 6.489365171311452e+000
 5.837090299427000e-001	 1.898990412137376e+000	 6.387097819167702e+000
 7.905448328111057e-001	 1.851646108922276e+000	 7.700978077595925e+000
 7.708038784138284e-001	 1.859950456350654e+000	 7.581755437201554e+000
 7.510176405314152e-001	 1.868027484120925e+000	 7.456555793239601e+000
 7.311898785981090e-001	 1.875877232163145e+000	 7.327447004779095e+000
 7.113243341012138e-001	 1.883499819586643e+000	 7.196387094778326e+000
 6.914247286001836e-001	 1.890895443746181e+000	 7.065219678028067e+000
 6.714947617893092e-001	 1.898064379252353e+000	 6.935669705718603e+000
 6.515381096056636e-001	 1.905006976928308e+000	 6.810193566042753e+000
 6.315584223838864e-001	 1.911723662714902e+000	 6.692520822266069e+000
 6.115593230592691e-001	 1.918214936526472e+000	 6.584308574629085e+000
 5.915444054205066e-001	 1.924481371059421e+000	 6.486663402337221e+000
 8.010160933611453e-001	 1.876172319262519e+000	 7.756520063865334e+000
 7.810136576811766e-001	 1.884586662964163e+000	 7.638286651648547e+000
 7.609653387080380e-001	 1.892770676016731e+000	 7.514459779037674e+000
 7.408749456720213e-001	 1.900724398879184e+000	 7.387190034464670e+000
 7.207462696187608e-001	 1.908447952238532e+000	 7.258516052017323e+000
 7.005830814020861e-001	 1.915941536063627e+000	 7.130359495711228e+000
 6.803891297210440e-001	 1.923205428602460e+000	 7.004520363820006e+000
 6.601681392027861e-001	 1.930239985325052e+000	 6.882827752035481e+000
 6.399238085329084e-001	 1.937045637814121e+000	 6.769008696834860e+000
 6.196598086347389e-001	 1.943622892605682e+000	 6.665114682692901e+000
 5.993797808989435e-001	 1.949972329981867e+000	 6.572016631033815e+000
 8.114873539120182e-001	 1.900698529602767e+000	 7.799673314548054e+000
 7.912234369493598e-001	 1.909222869577757e+000	 7.681640242889604e+000
 7.709130368854968e-001	 1.917513867912702e+000	 7.558449315197751e+000
 7.505600127467703e-001	 1.925571565595462e+000	 7.432316945891826e+000
 7.301682051371443e-001	 1.933396084890728e+000	 7.305345648703308e+000
 7.097414342048215e-001	 1.940987628381445e+000	 7.179518592580156e+000
 6.892834976536051e-001	 1.948346477952993e+000	 7.056694479265160e+000
 6.687981688007214e-001	 1.955472993722270e+000	 6.938602760151271e+000
 6.482891946827237e-001	 1.962367612913845e+000	 6.828063512075185e+000
 6.277602942109746e-001	 1.969030848685419e+000	 6.728080281479295e+000
 6.072151563781101e-001	 1.975463288904845e+000	 6.639257677909175e+000
 5.288614016073797e-001	 1.720553699683057e+000	 5.656555719775529e+000
 5.109564077608135e-001	 1.725955672830829e+000	 5.536788298485029e+000
 4.930436120318358e-001	 1.731157843990140e+000	 5.420831183589494e+000
 4.751261388703822e-001	 1.736160911033619e+000	 5.308844718372415e+000
 4.572070809624126e-001	 1.740965632275259e+000	 5.200820709759181e+000
 4.392894979044454e-001	 1.745572825227723e+000	 5.096594178359774e+000
 4.213764149277031e-001	 1.749983365329664e+000	 4.995856413644248e+000
 4.034708216724216e-001	 1.754198184645169e+000	 4.898169166671853e+000
 3.855756710127967e-001	 1.758218270537386e+000	 4.802979810244084e+000
 3.676938779329494e-001	 1.762044664318403e+000	 4.709637295203805e+000
 3.498283184541985e-001	 1.765678459877450e+000	 4.617408731808617e+000
 5.366967770835491e-001	 1.746044658606036e+000	 5.731972726817491e+000
 5.185265108061257e-001	 1.751526664987303e+000	 5.614567879366152e+000
 5.003483270571110e-001	 1.756805909202691e+000	 5.501074218989282e+000
 4.821653965768892e-001	 1.761883099464191e+000	 5.391738093194152e+000
 4.639808578712683e-001	 1.766759005320630e+000	 5.286614918148477e+000
 4.457978158663765e-001	 1.771434456396564e+000	 5.185582364657391e+000
 4.276193406139059e-001	 1.775910341100748e+000	 5.088354997260954e+000
 4.094484660472607e-001	 1.780187605306307e+000	 4.994500181253440e+000
 3.912881887890963e-001	 1.784267251004713e+000	 4.903455069620237e+000
 3.731414670106318e-001	 1.788150334935661e+000	 4.814544480612265e+000
 3.550112193430272e-001	 1.791837967194950e+000	 4.726999476895570e+000
 5.445321525596547e-001	 1.771535617528480e+000	 5.825139613244993e+000
 5.260966138514088e-001	 1.777097657143252e+000	 5.710413578328026e+000
 5.076530420823825e-001	 1.782453974414742e+000	 5.599454840546033e+000
 4.892046542834104e-001	 1.787605287894299e+000	 5.492601558168751e+000
 4.707546347801495e-001	 1.792552378365583e+000	 5.389976634040624e+000
 4.523061338283391e-001	 1.797296087565045e+000	 5.291502453290575e+000
 4.338622663001412e-001	 1.801837316871536e+000	 5.196917234720521e+000
 4.154261104221303e-001	 1.806177025967220e+000	 5.105792791686850e+000
 3.970007065654226e-001	 1.810316231471889e+000	 5.017553495198057e+000
 3.785890560883355e-001	 1.814256005552847e+000	 4.931496230549304e+000
 3.601941202318723e-001	 1.817997474512458e+000	 4.846811139029331e+000
 5.523675280357959e-001	 1.797026576450526e+000	 5.931065046930950e+000
 5.336667168967521e-001	 1.802668649298809e+000	 5.819358098372624e+000
 5.149577571077297e-001	 1.808102039626417e+000	 5.711082433557665e+000
 4.962439119900155e-001	 1.813327476324059e+000	 5.606670819740231e+000
 4.775284116891162e-001	 1.818345751410224e+000	 5.506314304502975e+000
 4.588144517903843e-001	 1.823157718733256e+000	 5.409978634528066e+000
 4.401051919864520e-001	 1.827764292642103e+000	 5.317422461908381e+000
 4.214037547970657e-001	 1.832166446627964e+000	 5.228217113368475e+000
 4.027132243418035e-001	 1.836365211938954e+000	 5.141767694365576e+000
 3.840366451660822e-001	 1.840361676169979e+000	 5.057335298494738e+000
 3.653770211207496e-001	 1.844156981829972e+000	 4.974060092840860e+000
 5.602029035120719e-001	 1.822517535372305e+000	 6.044882182623856e+000
 5.412368199422444e-001	 1.828239641454104e+000	 5.936538979653914e+000
 5.222624721332320e-001	 1.833750104837843e+000	 5.831152231593488e+000
 5.032831696967738e-001	 1.839049664753587e+000	 5.729249127107897e+000
 4.843021885982289e-001	 1.844139124454658e+000	 5.631086309950352e+000
 4.653227697525628e-001	 1.849019349901286e+000	 5.536668122047571e+000
 4.463481176728810e-001	 1.853691268412522e+000	 5.445766822062703e+000
 4.273813991721016e-001	 1.858155867288595e+000	 5.357944532799911e+000
 4.084257421182667e-001	 1.862414192405942e+000	 5.272576667103528e+000
 3.894842342438936e-001	 1.866467346787076e+000	 5.188876580183615e+000
 3.705599220096755e-001	 1.870316489147490e+000	 5.105921196533440e+000
 5.680382789885817e-001	 1.848008494293950e+000	 6.161858843157686e+000
 5.488069229879748e-001	 1.853810633609267e+000	 6.057207487853709e+000
 5.295671871589682e-001	 1.859398170049142e+000	 5.954953088359479e+000
 5.103224274037549e-001	 1.864771853182998e+000	 5.855714098140388e+000
 4.910759655075475e-001	 1.869932497498987e+000	 5.759807008631023e+000
 4.718310877149262e-001	 1.874880981069227e+000	 5.667266574233336e+000
 4.525910433594708e-001	 1.879618244182866e+000	 5.577868215598064e+000
 4.333590435472733e-001	 1.884145287949170e+000	 5.491152330908173e+000
 4.141382598948399e-001	 1.888463172872894e+000	 5.406450240820227e+000
 3.949318233217909e-001	 1.892573017404154e+000	 5.322911490828852e+000
 3.757428228986661e-001	 1.896475996465010e+000	 5.239532235050913e+000
 5.758736544654247e-001	 1.873499453215596e+000	 6.277407897791539e+000
 5.563770260340329e-001	 1.879381625764431e+000	 6.176737707914920e+000
 5.368719021850180e-001	 1.885046235260443e+000	 6.077875454471956e+000
 5.173616851110285e-001	 1.890494041612411e+000	 5.981524741491989e+000
 4.978497424171324e-001	 1.895725870543315e+000	 5.888052960782047e+000
 4.783394056775259e-001	 1.900742612237167e+000	 5.797513671206153e+000
 4.588339690462645e-001	 1.905545219953211e+000	 5.709671374755559e+000
 4.393366879226154e-001	 1.910134708609745e+000	 5.624028393742554e+000
 4.198507776715514e-001	 1.914512153339845e+000	 5.539853549002862e+000
 4.003794123997961e-001	 1.918678688021233e+000	 5.456212336924342e+000
 3.809257237877377e-001	 1.922635503782531e+000	 5.371998303343261e+000
 5.837090299427000e-001	 1.898990412137376e+000	 6.387097819167702e+000
 5.639471290805076e-001	 1.904952617919726e+000	 6.290635823843831e+000
 5.441766172114603e-001	 1.910694300471868e+000	 6.195419539889961e+000
 5.244009428186642e-001	 1.916216230041938e+000	 6.102228656489610e+000
 5.046235193270438e-001	 1.921519243587748e+000	 6.011469315573384e+000
 4.848477236404132e-001	 1.926604243405198e+000	 5.923198832956660e+000
 4.650768947333047e-001	 1.931472195723630e+000	 5.837153051350581e+000
 4.453143322981632e-001	 1.936124129270376e+000	 5.752776002339084e+000
 4.255632954484288e-001	 1.940561133806834e+000	 5.669251549569829e+000
 4.058270014779305e-001	 1.944784358638330e+000	 5.585536683137169e+000
 3.861086246769064e-001	 1.948795011100049e+000	 5.500396135358172e+000
 5.915444054205066e-001	 1.924481371059421e+000	 6.486663402337221e+000
 5.715172321274878e-001	 1.930523610075283e+000	 6.394549567338927e+000
 5.514813322383746e-001	 1.936342365683543e+000	 6.303203644800474e+000
 5.314402005267317e-001	 1.941938418471699e+000	 6.213469394315003e+000
 5.113972962373418e-001	 1.947312616632389e+000	 6.125776345752312e+000
 4.913560416036388e-001	 1.952465874573409e+000	 6.040167065500612e+000
 4.713198204206343e-001	 1.957399171494196e+000	 5.956327307134043e+000
 4.512919766739515e-001	 1.962113549931120e+000	 5.873618694412675e+000
 4.312758132255001e-001	 1.966610114273899e+000	 5.791113579243305e+000
 4.112745905562159e-001	 1.970890029255462e+000	 5.707631714745054e+000
 3.912915255661882e-001	 1.974954518417563e+000	 5.621778383789919e+000
 5.993797808989435e-001	 1.949972329981867e+000	 6.572016631033815e+000
 5.790873351750631e-001	 1.956094602231232e+000	 6.484277819805905e+000
 5.587860472658400e-001	 1.961990430895594e+000	 6.396972643548037e+000
 5.384794582353004e-001	 1.967660606901807e+000	 6.310993965724393e+000
 5.181710731480863e-001	 1.973105989677342e+000	 6.226776116476305e+000
 4.978643595672542e-001	 1.978327505741890e+000	 6.144324923344386e+000
 4.775627461082961e-001	 1.983326147264985e+000	 6.063250897379840e+000
 4.572696210500153e-001	 1.988102970592032e+000	 5.982805191306062e+000
 4.369883310027929e-001	 1.992659094741074e+000	 5.901917940646069e+000
 4.167221796346737e-001	 1.996995699872648e+000	 5.819238596027529e+000
 3.964744264555997e-001	 2.001114025735070e+000	 5.733135474123650e+000
 6.072151563781101e-001	 1.975463288904845e+000	 6.639257677909175e+000
 5.866574382233224e-001	 1.981665594387705e+000	 6.555780353913458e+000
 5.660907622939357e-001	 1.987638496108145e+000	 6.472606607792075e+000
 5.455187159444396e-001	 1.993382795332379e+000	 6.390660482078131e+000
 5.249448500593381e-001	 1.998899362722714e+000	 6.310359276217002e+000
 5.043726775313110e-001	 2.004189136910731e+000	 6.230884244062651e+000
 4.838056717963329e-001	 2.009253123036070e+000	 6.150363824518357e+000
 4.632472654263897e-001	 2.014092391253171e+000	 6.068334976704557e+000
 4.427008487803356e-001	 2.018708075208402e+000	 5.984140403089518e+000
 4.221697687133255e-001	 2.023101370489906e+000	 5.896910112811402e+000
 4.016573273451569e-001	 2.027273533052570e+000	 5.805593699714242e+000
 3.498283184541985e-001	 1.765678459877450e+000	 4.617408731808618e+000
 3.319845031998169e-001	 1.769120300513190e+000	 4.530346705118142e+000
 3.141625416233765e-001	 1.772371941244703e+000	 4.452420766281887e+000
 2.963651817210658e-001	 1.775434626186778e+000	 4.382747712696700e+000
 2.785951288690975e-001	 1.778309646314947e+000	 4.320437049151282e+000
 2.608550450100400e-001	 1.780998338017287e+000	 4.264608251281446e+000
 2.431475478902918e-001	 1.783502081636491e+000	 4.214407685127292e+000
 2.254752103484412e-001	 1.785822300004091e+000	 4.169025045832754e+000
 2.078405596541675e-001	 1.787960456968690e+000	 4.127709186913309e+000
 1.902460768972755e-001	 1.789918055920011e+000	 4.089783220516305e+000
 1.726941964264004e-001	 1.791696638310540e+000	 4.054658778622304e+000
 3.550112193430272e-001	 1.791837967194950e+000	 4.726999476895569e+000
 3.369030380524930e-001	 1.795330800612061e+000	 4.644998066440464e+000
 3.188170342142214e-001	 1.798630616207665e+000	 4.572672275330318e+000
 3.007559965374987e-001	 1.801738676528800e+000	 4.509144656145648e+000
 2.827226704801975e-001	 1.804656291677526e+000	 4.453526872326338e+000
 2.647197574230519e-001	 1.807384817841254e+000	 4.404938976425764e+000
 2.467499138958356e-001	 1.809925655813227e+000	 4.362528322480859e+000
 2.288157508551774e-001	 1.812280249505019e+000	 4.325487960864544e+000
 2.109198330136687e-001	 1.814450084452968e+000	 4.293074373169850e+000
 1.930646782198457e-001	 1.816436686320356e+000	 4.264624414531659e+000
 1.752527568885781e-001	 1.818241619397146e+000	 4.239571341223845e+000
 3.601941202318723e-001	 1.817997474512458e+000	 4.846811139029329e+000
 3.418215729051807e-001	 1.821541300711022e+000	 4.767806601473360e+000
 3.234715268050726e-001	 1.824889291170791e+000	 4.698774420007311e+000
 3.051468113539313e-001	 1.828042726871060e+000	 4.638826076217483e+000
 2.868502120912874e-001	 1.831002937040409e+000	 4.587057857244663e+000
 2.685844698360398e-001	 1.833771297665584e+000	 4.542572350266451e+000
 2.503522799013355e-001	 1.836349229990371e+000	 4.504499548092341e+000
 2.321562913618431e-001	 1.838738199006388e+000	 4.472017398343458e+000
 2.139991063730645e-001	 1.840939711937706e+000	 4.444371638722116e+000
 1.958832795422659e-001	 1.842955316721160e+000	 4.420894771656050e+000
 1.778113173505509e-001	 1.844786600484193e+000	 4.401024043014958e+000
 3.653770211207496e-001	 1.844156981829972e+000	 4.974060092840860e+000
 3.467401077578918e-001	 1.847751800810049e+000	 4.896372862904993e+000
 3.281260193959391e-001	 1.851147966134042e+000	 4.828709898941420e+000
 3.095376261703706e-001	 1.854346777213498e+000	 4.770150803323008e+000
 2.909777537023743e-001	 1.857349582403519e+000	 4.719754925142239e+000
 2.724491822490120e-001	 1.860157777490180e+000	 4.676585288623303e+000
 2.539546459068039e-001	 1.862772804167814e+000	 4.639732108503250e+000
 2.354968318684564e-001	 1.865196148508078e+000	 4.608335707654541e+000
 2.170783797323812e-001	 1.867429339422771e+000	 4.581608663176590e+000
 1.987018808645739e-001	 1.869473947122285e+000	 4.558857018951551e+000
 1.803698778123702e-001	 1.871331581571538e+000	 4.539500415122747e+000
 3.705599220096755e-001	 1.870316489147490e+000	 5.105921196533440e+000
 3.516586426106382e-001	 1.873962300909120e+000	 5.028243258701947e+000
 3.327805119868295e-001	 1.877406641097375e+000	 4.960396080242910e+000
 3.139284409868238e-001	 1.880650827556055e+000	 4.901402514470469e+000
 2.951052953134649e-001	 1.883696227766776e+000	 4.850259299106585e+000
 2.763138946619772e-001	 1.886544257314950e+000	 4.805963653217543e+000
 2.575570119122528e-001	 1.889196378345448e+000	 4.767539435699288e+000
 2.388373723750355e-001	 1.891654098009965e+000	 4.734062662015547e+000
 2.201576530916456e-001	 1.893918966908032e+000	 4.704686187823461e+000
 2.015204821868069e-001	 1.895992577523594e+000	 4.678663380956127e+000
 1.829284382740870e-001	 1.897876562659040e+000	 4.655370616818173e+000
 3.757428228986661e-001	 1.896475996465010e+000	 5.239532235050912e+000
 3.565771774634313e-001	 1.900172801008212e+000	 5.160914644183250e+000
 3.374350045777524e-001	 1.903665316060748e+000	 5.091689785903338e+000
 3.183192558032973e-001	 1.906954877898667e+000	 5.030794747433300e+000
 2.992328369245657e-001	 1.910042873130104e+000	 4.977133779412429e+000
 2.801786070749438e-001	 1.912930737139797e+000	 4.929607813465477e+000
 2.611593779176946e-001	 1.915619952523162e+000	 4.887143514504097e+000
 2.421779128815985e-001	 1.918112047511930e+000	 4.848721644432921e+000
 2.232369264508841e-001	 1.920408594393359e+000	 4.813404526920392e+000
 2.043390835090026e-001	 1.922511207924947e+000	 4.780362416864750e+000
 1.854869987357526e-001	 1.924421543746556e+000	 4.748898592980951e+000
 3.809257237877377e-001	 1.922635503782531e+000	 5.371998303343263e+000
 3.614957123162833e-001	 1.926383301107304e+000	 5.291838797605275e+000
 3.420894971687164e-001	 1.929923991024120e+000	 5.220391904043854e+000
 3.227100706197986e-001	 1.933258928241276e+000	 5.156475688320631e+000
 3.033603785356840e-001	 1.936389518493424e+000	 5.098867739303992e+000
 2.840433194879206e-001	 1.939317216964629e+000	 5.046337877537529e+000
 2.647617439231413e-001	 1.942043526700847e+000	 4.997680370100483e+000
 2.455184533881636e-001	 1.944569997013850e+000	 4.951745406959030e+000
 2.263161998101232e-001	 1.946898221878620e+000	 4.907469608028007e+000
 2.071576848311983e-001	 1.949029838326206e+000	 4.863905345347880e+000
 1.880455591974182e-001	 1.950966524833943e+000	 4.820248680872926e+000
 3.861086246769064e-001	 1.948795011100049e+000	 5.500396135358172e+000
 3.664142471692060e-001	 1.952593801206374e+000	 5.418426790202035e+000
 3.467439897597303e-001	 1.956182665987450e+000	 5.344251845189415e+000
 3.271008854363341e-001	 1.959562978583822e+000	 5.276532753840379e+000
 3.074879201468264e-001	 1.962736163856656e+000	 5.213881867493344e+000
 2.879080319009157e-001	 1.965703696789349e+000	 5.154898623758877e+000
 2.683641099286056e-001	 1.968467100878397e+000	 5.098205211371825e+000
 2.488589938947491e-001	 1.971027946515605e+000	 5.042481443344002e+000
 2.293954731693895e-001	 1.973387849363684e+000	 4.986498585648483e+000
 2.099762861534316e-001	 1.975548468727234e+000	 4.929151905148082e+000
 1.906041196591352e-001	 1.977511505921061e+000	 4.869491717964003e+000
 3.912915255661882e-001	 1.974954518417563e+000	 5.621778383789918e+000
 3.713327820222112e-001	 1.978804301305400e+000	 5.538053260468238e+000
 3.513984823508028e-001	 1.982441340950695e+000	 5.460971857030622e+000
 3.314917002529111e-001	 1.985867028926243e+000	 5.388996987291943e+000
 3.116154617579995e-001	 1.989082809219724e+000	 5.320532680857889e+000
 2.917727443139378e-001	 1.992090176613864e+000	 5.253964160136273e+000
 2.719664759340993e-001	 1.994890675055700e+000	 5.187697261976314e+000
 2.521995344013732e-001	 1.997485896017071e+000	 5.120197010928526e+000
 2.324747465287095e-001	 1.999877476848419e+000	 5.050025067730290e+000
 2.127948874757400e-001	 2.002067099127891e+000	 4.976004295222860e+000
 1.931626801209544e-001	 2.004056487007765e+000	 4.897297707698866e+000
 3.964744264555997e-001	 2.001114025735070e+000	 5.733135474123652e+000
 3.762513168753105e-001	 2.005014801404359e+000	 5.647294003089740e+000
 3.560529749419423e-001	 2.008700015913815e+000	 5.566235673415453e+000
 3.358825150695361e-001	 2.012171079268478e+000	 5.488743056765805e+000
 3.157430033692104e-001	 2.015429454582549e+000	 5.413544795576655e+000
 2.956374567269953e-001	 2.018476656438079e+000	 5.339341755497384e+000
 2.755688419396348e-001	 2.021314249232647e+000	 5.264832225234352e+000
 2.555400749080536e-001	 2.023943845518130e+000	 5.188736331541901e+000
 2.355540198881096e-001	 2.026367104332694e+000	 5.109819829465770e+000
 2.156134887981608e-001	 2.028585729528039e+000	 5.026917418784866e+000
 1.957212405829273e-001	 2.030601468093916e+000	 4.938955727093255e+000
 4.016573273451569e-001	 2.027273533052570e+000	 5.805593699714243e+000
 3.811698517285161e-001	 2.031225301503230e+000	 5.715094635710607e+000
 3.607074675331575e-001	 2.034958690876767e+000	 5.630340010230412e+000
 3.402733298862165e-001	 2.038475129610468e+000	 5.550165920930974e+000
 3.198705449804655e-001	 2.041776099945052e+000	 5.473329888191504e+000
 2.995021691400967e-001	 2.044863136261900e+000	 5.398535334986313e+000
 2.791712079452243e-001	 2.047737823409130e+000	 5.324455144691096e+000
 2.588806154148092e-001	 2.050401795018658e+000	 5.249754489413248e+000
 2.386332932476166e-001	 2.052856731816378e+000	 5.173113112478752e+000
 2.184320901207317e-001	 2.055104359927540e+000	 5.093247238086054e+000
 1.982798010451052e-001	 2.057146449179369e+000	 5.008931269058370e+000
 1.726941964264004e-001	 1.791696638310540e+000	 4.054658778622306e+000
 1.551846886247798e-001	 1.793298009200867e+000	 4.027711033647855e+000
 1.377225603152077e-001	 1.794723502569440e+000	 4.012949726070919e+000
 1.203101389484920e-001	 1.795974766340585e+000	 4.007922109626527e+000
 1.029497023582024e-001	 1.797053480637194e+000	 4.010351476572445e+000
 8.564347844425330e-002	 1.797961356299908e+000	 4.018148476752691e+000
 6.839364490323611e-002	 1.798700133414114e+000	 4.029421002992420e+000
 5.120232900460125e-002	 1.799271579846228e+000	 4.042482606503909e+000
 3.407160741175545e-002	 1.799677489790610e+000	 4.055859416811988e+000
 1.700350604710066e-002	 1.799919682328466e+000	 4.068295551285669e+000
 0.000000000000000e+000	 1.800000000000000e+000	 4.078757005187899e+000
 1.752527568885781e-001	 1.818241619397146e+000	 4.239571341223845e+000
 1.574838360012102e-001	 1.819866715486908e+000	 4.223440076337883e+000
 1.397629965593997e-001	 1.821313328331721e+000	 4.220267993466216e+000
 1.220926004964326e-001	 1.822583130270824e+000	 4.227465174978041e+000
 1.044749593932499e-001	 1.823677826319064e+000	 4.242636078409525e+000
 8.691233415734243e-002	 1.824599152664132e+000	 4.263592357919324e+000
 6.940693474908768e-002	 1.825348875171750e+000	 4.288364108325393e+000
 5.196091995461615e-002	 1.825928787900252e+000	 4.315209490444094e+000
 3.457639720425804e-002	 1.826340711625985e+000	 4.342622708360297e+000
 1.725542243558246e-002	 1.826586492380854e+000	 4.369340320892580e+000
 0.000000000000000e+000	 1.826668000003317e+000	 4.394345876388284e+000
 1.778113173505509e-001	 1.844786600484193e+000	 4.401024043014958e+000
 1.597829833773705e-001	 1.846435421773350e+000	 4.390439126884990e+000
 1.418034328032533e-001	 1.847903154094349e+000	 4.393259911604567e+000
 1.238750620439718e-001	 1.849191494201344e+000	 4.406814399348975e+000
 1.060002164278468e-001	 1.850302172001139e+000	 4.428643023012147e+000
 8.818118986995374e-002	 1.851236949028488e+000	 4.456513046980169e+000
 7.042022459446456e-002	 1.851997616929445e+000	 4.488431240692089e+000
 5.271951090419792e-002	 1.852585995954273e+000	 4.522654778240044e+000
 3.508118699641526e-002	 1.853003933461306e+000	 4.557700330319049e+000
 1.750733882386074e-002	 1.853253302433154e+000	 4.592351327605694e+000
 0.000000000000000e+000	 1.853336000006534e+000	 4.625663382645231e+000
 1.803698778123702e-001	 1.871331581571538e+000	 4.539500415122747e+000
 1.620821307533284e-001	 1.873004128060052e+000	 4.529368752584558e+000
 1.438438690468529e-001	 1.874492979857181e+000	 4.532707800937874e+000
 1.256575235912098e-001	 1.875799858132006e+000	 4.546811868607395e+000
 1.075254734621056e-001	 1.876926517683292e+000	 4.569205620479981e+000
 8.945004558220665e-002	 1.877874745392853e+000	 4.597660148622243e+000
 7.143351443948548e-002	 1.878646358687085e+000	 4.630207159156383e+000
 5.347810185345483e-002	 1.879243204008180e+000	 4.665151222534920e+000
 3.558597678831350e-002	 1.879667155296469e+000	 4.701080048744905e+000
 1.775925521198637e-002	 1.879920112485265e+000	 4.736872762947447e+000
 0.000000000000000e+000	 1.880004000009551e+000	 4.771706166287132e+000
 1.829284382740870e-001	 1.897876562659040e+000	 4.655370616818173e+000
 1.643812781291512e-001	 1.899572834346869e+000	 4.640774186306061e+000
 1.458843052902834e-001	 1.901082805620080e+000	 4.639277916170094e+000
 1.274399851382471e-001	 1.902408222062676e+000	 4.648184164954467e+000
 1.090507304961390e-001	 1.903550863365390e+000	 4.665043592953563e+000
 9.071890129422065e-002	 1.904512541757102e+000	 4.687673007626423e+000
 7.244680428426906e-002	 1.905295100444551e+000	 4.714171160898823e+000
 5.423669280249519e-002	 1.905900412061864e+000	 4.742932439007235e+000
 3.609076658003904e-002	 1.906330377131367e+000	 4.772658401145965e+000
 1.801117160001025e-002	 1.906586922537085e+000	 4.802367138440119e+000
 0.000000000000000e+000	 1.906672000012268e+000	 4.831400435323295e+000
 1.854869987357526e-001	 1.924421543746556e+000	 4.748898592980951e+000
 1.666804255049065e-001	 1.926141540633660e+000	 4.725092770705428e+000
 1.479247415336293e-001	 1.927672631382903e+000	 4.713528107955832e+000
 1.292224466851840e-001	 1.929016585993217e+000	 4.711550159298676e+000
 1.105759875300598e-001	 1.930175209047304e+000	 4.716770893545507e+000
 9.198775700611518e-002	 1.931150338121113e+000	 4.727088433192135e+000
 7.346009412893398e-002	 1.931943842201728e+000	 4.740704573006582e+000
 5.499528375142728e-002	 1.932557620115213e+000	 4.756140011229721e+000
 3.659555637167828e-002	 1.932993598965896e+000	 4.772247243857583e+000
 1.826308798798325e-002	 1.933253732588513e+000	 4.788221089114568e+000
 0.000000000000000e+000	 1.933340000014584e+000	 4.803606821209551e+000
 1.880455591974182e-001	 1.950966524833943e+000	 4.820248680872927e+000
 1.689795728806618e-001	 1.952710246920282e+000	 4.782660818526979e+000
 1.499651777769752e-001	 1.954262457145510e+000	 4.755914875245566e+000
 1.310049082321210e-001	 1.955624949923494e+000	 4.737428177778771e+000
 1.121012445639806e-001	 1.956799554728904e+000	 4.724902893023026e+000
 9.325661271800977e-002	 1.957788134484761e+000	 4.716347795850039e+000
 7.447338397359894e-002	 1.958592583958498e+000	 4.710097634035458e+000
 5.575387470035939e-002	 1.959214828168119e+000	 4.704830015920644e+000
 3.710034616331752e-002	 1.959656820799952e+000	 4.699579764933437e+000
 1.851500437595628e-002	 1.959920542639449e+000	 4.693750703205405e+000
 0.000000000000000e+000	 1.960008000016401e+000	 4.687124840043526e+000
 1.906041196591352e-001	 1.977511505921061e+000	 4.869491717964003e+000
 1.712787202564847e-001	 1.979278953206592e+000	 4.813719943863966e+000
 1.520056140204057e-001	 1.980852282907762e+000	 4.766799865534541e+000
 1.327873697791583e-001	 1.982233313853369e+000	 4.726242601241959e+000
 1.136265015980141e-001	 1.983423900410058e+000	 4.689862993650117e+000
 9.452546843002388e-002	 1.984425930847923e+000	 4.655803555918125e+000
 7.548667381838257e-002	 1.985241325714745e+000	 4.622555822683832e+000
 5.651246564939982e-002	 1.985872036220470e+000	 4.588979023049565e+000
 3.760513595504313e-002	 1.986320042633429e+000	 4.554316012774233e+000
 1.876692076398018e-002	 1.986587352689790e+000	 4.518206422556072e+000
 0.000000000000000e+000	 1.986676000017618e+000	 4.480696994452837e+000
 1.931626801209544e-001	 2.004056487007765e+000	 4.897297707698866e+000
 1.735778676324426e-001	 2.005847659492447e+000	 4.820286374260049e+000
 1.540460502640055e-001	 2.007442108669516e+000	 4.750240806405665e+000
 1.345698313263964e-001	 2.008841677782708e+000	 4.684843077107805e+000
 1.151517586322730e-001	 2.010048246090638e+000	 4.622030305781371e+000
 9.579432414227686e-002	 2.011063727210475e+000	 4.560020722782551e+000
 7.649996366340360e-002	 2.011890067470353e+000	 4.497339614269764e+000
 5.727105659865683e-002	 2.012529244272157e+000	 4.432845185643432e+000
 3.810992574694144e-002	 2.012983264466222e+000	 4.365754369317717e+000
 1.901883715210586e-002	 2.013254162739434e+000	 4.295668590286750e+000
 0.000000000000000e+000	 2.013344000018134e+000	 4.222599485994244e+000
 1.957212405829273e-001	 2.030601468093916e+000	 4.938955727093259e+000
 1.758770150086030e-001	 2.032416365777704e+000	 4.852264164255816e+000
 1.560864865078591e-001	 2.034031934430634e+000	 4.772231880276507e+000
 1.363522928739357e-001	 2.035450041711373e+000	 4.696563302964997e+000
 1.166770156668700e-001	 2.036672591770513e+000	 4.623178561188173e+000
 9.706317985488833e-002	 2.037701523572295e+000	 4.550239074375702e+000
 7.751325350878065e-002	 2.038538809225204e+000	 4.476173224822134e+000
 5.802964754823874e-002	 2.039186452323067e+000	 4.399702157579240e+000
 3.861471553909877e-002	 2.039646486298226e+000	 4.319865738468795e+000
 1.927075354038420e-002	 2.039920972788282e+000	 4.236048686659947e+000
 0.000000000000000e+000	 2.040012000017850e+000	 4.148006877569371e+000
 1.982798010451052e-001	 2.057146449179369e+000	 5.008931269058370e+000
 1.781761623850336e-001	 2.058985072062221e+000	 4.926450960739531e+000
 1.581269227520513e-001	 2.060621760190973e+000	 4.851348704515115e+000
 1.381347544218765e-001	 2.062058405639229e+000	 4.781415170495962e+000
 1.182022727019177e-001	 2.063296937449552e+000	 4.714612518367406e+000
 9.833203556797766e-002	 2.064339319933258e+000	 4.649099260226925e+000
 7.852654335463237e-002	 2.065187550979181e+000	 4.583255431942030e+000
 5.878823849825383e-002	 2.065843660373091e+000	 4.515708125210347e+000
 3.911950533160152e-002	 2.066309708129337e+000	 4.445357416251306e+000
 1.952266992886609e-002	 2.066587782836232e+000	 4.371402711046874e+000
 0.000000000000000e+000	 2.066680000016667e+000	 4.293369502553283e+000
 2.066680000016667e+000	 0.000000000000000e+000	 1.238854592789589e+001
 2.066587782836231e+000	 1.952266992886615e-002	 1.235765990728207e+001
 2.066309708129336e+000	 3.911950533160163e-002	 1.234180166922029e+001
 2.065843660373092e+000	 5.878823849825369e-002	 1.233782218467662e+001
 2.065187550979181e+000	 7.852654335463230e-002	 1.234252545550409e+001
 2.064339319933258e+000	 9.833203556797766e-002	 1.235268018695682e+001
 2.063296937449552e+000	 1.182022727019178e-001	 1.236503140410855e+001
 2.062058405639229e+000	 1.381347544218766e-001	 1.237631199857659e+001
 2.060621760190974e+000	 1.581269227520511e-001	 1.238325420760173e+001
 2.058985072062221e+000	 1.781761623850334e-001	 1.238260103141747e+001
 2.057146449179369e+000	 1.982798010451051e-001	 1.237111759874569e+001
 2.093344000014533e+000	 0.000000000000000e+000	 1.228223027001060e+001
 2.093250593061714e+000	 1.977454853201645e-002	 1.225428426780798e+001
 2.092968930676188e+000	 3.962421940982406e-002	 1.224174498591255e+001
 2.092496870040883e+000	 5.954671566582060e-002	 1.224130258768845e+001
 2.091832295620812e+000	 7.953968121516000e-002	 1.224962029555573e+001
 2.090973120823608e+000	 9.960070096278299e-002	 1.226334635267444e+001
 2.089917289675494e+000	 1.197273009603743e-001	 1.227912585610699e+001
 2.088662778511150e+000	 1.399169486144205e-001	 1.229361244832850e+001
 2.087207597675990e+000	 1.601670529465026e-001	 1.230347987029735e+001
 2.085549793239212e+000	 1.804749649069133e-001	 1.230543338372949e+001
 2.083687448715941e+000	 2.008379777426381e-001	 1.229622107466639e+001
 2.120008000011600e+000	 0.000000000000000e+000	 1.219110265468604e+001
 2.119913403286397e+000	 2.002642713537022e-002	 1.216314794424059e+001
 2.119628153222235e+000	 4.012893348839165e-002	 1.215117297422445e+001
 2.119150079707866e+000	 6.030519283382015e-002	 1.215171361744146e+001
 2.118477040261631e+000	 8.055281907616123e-002	 1.216129901923206e+001
 2.117606921713150e+000	 1.008693663580642e-001	 1.217646377396642e+001
 2.116537641900631e+000	 1.212523292192781e-001	 1.219375989514886e+001
 2.115267151382275e+000	 1.416991428073603e-001	 1.220976856677350e+001
 2.113793435160225e+000	 1.622071831412843e-001	 1.222111168062853e+001
 2.112114514415441e+000	 1.827737674290515e-001	 1.222446316925896e+001
 2.110228448251783e+000	 2.033961544403597e-001	 1.221656014933321e+001
 2.146672000008067e+000	 0.000000000000000e+000	 1.211143606573105e+001
 2.146576213510477e+000	 2.027830573887656e-002	 1.208141343311713e+001
 2.146287375767672e+000	 4.063364756721792e-002	 1.206806745805445e+001
 2.145803289374231e+000	 6.106367000214360e-002	 1.206778716106994e+001
 2.145121784901822e+000	 8.156595693751639e-002	 1.207697532592435e+001
 2.144240722602052e+000	 1.021380317536996e-001	 1.209206081256827e+001
 2.143157994125120e+000	 1.227773574785130e-001	 1.210951058003231e+001
 2.141871524252747e+000	 1.434813370005902e-001	 1.212584140799433e+001
 2.140379272643811e+000	 1.642473133363034e-001	 1.213763132353133e+001
 2.138679235591033e+000	 1.850725699513688e-001	 1.214153074521166e+001
 2.136769447787005e+000	 2.059543311382027e-001	 1.213427336235287e+001
 2.173336000004134e+000	 0.000000000000000e+000	 1.203993461554735e+001
 2.173239023734152e+000	 2.053018434248459e-002	 1.200662110016272e+001
 2.172946598312694e+000	 4.113836164621647e-002	 1.199073664699863e+001
 2.172456499040166e+000	 6.182214717068232e-002	 1.198853185496780e+001
 2.171766529541564e+000	 8.257909479910577e-002	 1.199629194605952e+001
 2.170874523490487e+000	 1.034066971495681e-001	 1.201034913215490e+001
 2.169778346349123e+000	 1.243023857379629e-001	 1.202709460192542e+001
 2.168475897122718e+000	 1.452635311940044e-001	 1.204299011799206e+001
 2.166965110126884e+000	 1.662874435314671e-001	 1.205457923301688e+001
 2.165243956766109e+000	 1.873713724737860e-001	 1.205849813972012e+001
 2.163310447321718e+000	 2.085125078360998e-001	 1.205148617617864e+001
 2.200000000000001e+000	 0.000000000000000e+000	 1.197370741873663e+001
 2.199901833957622e+000	 2.078206294614344e-002	 1.193666563723980e+001
 2.199605820857498e+000	 4.164307572530086e-002	 1.191779405550720e+001
 2.199109708705859e+000	 6.258062433932760e-002	 1.191321434621952e+001
 2.198411274181037e+000	 8.359223266080977e-002	 1.191910412616149e+001
 2.197508324378621e+000	 1.046753625455480e-001	 1.193170928976931e+001
 2.196398698572797e+000	 1.258274139975117e-001	 1.194735586635312e+001
 2.195080269992334e+000	 1.470457253874971e-001	 1.196246139296071e+001
 2.193550947609579e+000	 1.683275737266827e-001	 1.197354581407675e+001
 2.191808677940789e+000	 1.896701749962238e-001	 1.197724192641054e+001
 2.189851446856028e+000	 2.110706845339837e-001	 1.197030539412208e+001
 2.226663999995867e+000	 0.000000000000000e+000	 1.191024434286727e+001
 2.226564644181085e+000	 2.103394154980220e-002	 1.186977421121070e+001
 2.226265043402275e+000	 4.214778980438460e-002	 1.184813893820521e+001
 2.225762918371497e+000	 6.333910150797077e-002	 1.184134190396305e+001
 2.225056018820421e+000	 8.460537052250870e-002	 1.184546430714362e+001
 2.224142125266629e+000	 1.059440279415181e-001	 1.185667737331034e+001
 2.223019050796304e+000	 1.273524422570433e-001	 1.187125398360811e+001
 2.221684642861741e+000	 1.488279195809625e-001	 1.188557971787721e+001
 2.220136785092031e+000	 1.703677039218573e-001	 1.189616332630715e+001
 2.218373399115199e+000	 1.919689775186032e-001	 1.189964665157808e+001
 2.216392446390048e+000	 2.136288612317870e-001	 1.189281403132745e+001
 2.253327999991934e+000	 0.000000000000000e+000	 1.184739348091162e+001
 2.253227454404741e+000	 2.128582015341000e-002	 1.180448616456620e+001
 2.252924265947221e+000	 4.265250388338127e-002	 1.178093811578832e+001
 2.252416128037271e+000	 6.409757867650315e-002	 1.177264626886605e+001
 2.251700763459897e+000	 8.561850838408298e-002	 1.177560789699146e+001
 2.250775926154679e+000	 1.072126933373569e-001	 1.178593259843610e+001
 2.249639403019801e+000	 1.288774705164418e-001	 1.179985359234146e+001
 2.248289015731089e+000	 1.506101137742947e-001	 1.181373832077119e+001
 2.246722622574374e+000	 1.724078341168981e-001	 1.182409837443638e+001
 2.244938120289457e+000	 1.942677800408449e-001	 1.182759876819830e+001
 2.242933445923886e+000	 2.161870379294425e-001	 1.182106660118857e+001
 2.279991999988401e+000	 0.000000000000000e+000	 1.178334020441235e+001
 2.279890264628786e+000	 2.153769875691595e-002	 1.173963414078978e+001
 2.279583488492532e+000	 4.315721796220443e-002	 1.171560907766013e+001
 2.279069337703367e+000	 6.485605584481599e-002	 1.170706863936233e+001
 2.278345508099645e+000	 8.663164624541291e-002	 1.170994004824813e+001
 2.277409727042943e+000	 1.084813587329429e-001	 1.172028578633836e+001
 2.276259755243449e+000	 1.304024987755909e-001	 1.173431444812452e+001
 2.274893388600523e+000	 1.523923079673880e-001	 1.174839078408781e+001
 2.273308460056743e+000	 1.744479643117125e-001	 1.175904495607573e+001
 2.271502841463688e+000	 1.965665825628696e-001	 1.176298103527933e+001
 2.269474445457651e+000	 2.187452146268828e-001	 1.175708478319843e+001
 2.306655999985467e+000	 0.000000000000000e+000	 1.171658766946869e+001
 2.306553074853420e+000	 2.178957736026917e-002	 1.167432651916931e+001
 2.306242711038400e+000	 4.366193204076763e-002	 1.165180425799610e+001
 2.305722547369975e+000	 6.561453301280069e-002	 1.164474570266109e+001
 2.304990252739845e+000	 8.764478410637885e-002	 1.164902335899379e+001
 2.304043527931590e+000	 1.097500241281548e-001	 1.166066865111201e+001
 2.302880107467407e+000	 1.319275270343746e-001	 1.167588221508236e+001
 2.301497761470192e+000	 1.541745021601365e-001	 1.169104325997135e+001
 2.299894297539273e+000	 1.764880945062075e-001	 1.170271802160206e+001
 2.298067562638013e+000	 1.988653850845982e-001	 1.170766734490506e+001
 2.296015444991454e+000	 2.213033913240406e-001	 1.170285344136481e+001
 2.333319999983334e+000	 0.000000000000000e+000	 1.164593865932922e+001
 2.333215885078842e+000	 2.204145596341876e-002	 1.160793105431291e+001
 2.332901933585021e+000	 4.416664611898443e-002	 1.158939639137221e+001
 2.332375757037283e+000	 6.637301018034852e-002	 1.158599662695794e+001
 2.331634997380677e+000	 8.865792196686113e-002	 1.159356642344773e+001
 2.330677328820791e+000	 1.110186895228712e-001	 1.160812383195790e+001
 2.329500459691833e+000	 1.334525552926768e-001	 1.162587990436000e+001
 2.328102134340243e+000	 1.559566963524343e-001	 1.164324724116168e+001
 2.326480135022099e+000	 1.785282247002904e-001	 1.165684750520591e+001
 2.324632283812556e+000	 2.011641876059514e-001	 1.166351794275181e+001
 2.322556444525403e+000	 2.238615680208486e-001	 1.166031696515142e+001
 2.057146449179369e+000	 1.982798010451051e-001	 1.237111759874568e+001
 2.055104359927541e+000	 2.184320901207318e-001	 1.235961499737587e+001
 2.052856731816378e+000	 2.386332932476165e-001	 1.235923764334506e+001
 2.050401795018658e+000	 2.588806154148092e-001	 1.236733110204240e+001
 2.047737823409130e+000	 2.791712079452241e-001	 1.238131474567310e+001
 2.044863136261900e+000	 2.995021691400968e-001	 1.239869241878915e+001
 2.041776099945052e+000	 3.198705449804656e-001	 1.241706314580170e+001
 2.038475129610468e+000	 3.402733298862165e-001	 1.243413191456038e+001
 2.034958690876766e+000	 3.607074675331576e-001	 1.244772057256369e+001
 2.031225301503230e+000	 3.811698517285159e-001	 1.245577887443047e+001
 2.027273533052570e+000	 4.016573273451569e-001	 1.245639572086187e+001
 2.083687448715941e+000	 2.008379777426381e-001	 1.229622107466640e+001
 2.081619012730616e+000	 2.212502686744141e-001	 1.228681172206992e+001
 2.079342386053916e+000	 2.417121047393327e-001	 1.228845495025560e+001
 2.076855776024568e+000	 2.622206548656227e-001	 1.229842626896665e+001
 2.074157434247109e+000	 2.827730336229843e-001	 1.231408972087293e+001
 2.071245658311171e+000	 3.033663018753616e-001	 1.233290824807916e+001
 2.068118793507961e+000	 3.239974674914737e-001	 1.235245406764941e+001
 2.064775234541886e+000	 3.446634861136526e-001	 1.237041909619479e+001
 2.061213427235205e+000	 3.653612619854609e-001	 1.238462546644342e+001
 2.057431870223552e+000	 3.860876488384815e-001	 1.239303618113067e+001
 2.053429116640150e+000	 4.068394508385930e-001	 1.239376595145576e+001
 2.110228448251783e+000	 2.033961544403597e-001	 1.221656014933321e+001
 2.108133665533004e+000	 2.240684472282250e-001	 1.220847563827199e+001
 2.105828040290817e+000	 2.447909162311279e-001	 1.221151223769215e+001
 2.103309757029900e+000	 2.655606943164766e-001	 1.222288303879534e+001
 2.100577045084579e+000	 2.863748593007571e-001	 1.223990386303557e+001
 2.097628180360006e+000	 3.072304346106214e-001	 1.226000322131240e+001
 2.094461487070513e+000	 3.281243900024697e-001	 1.228073224824611e+001
 2.091075339473031e+000	 3.490536423410803e-001	 1.229977465820862e+001
 2.087468163593456e+000	 3.700150564377693e-001	 1.231495677308278e+001
 2.083638438943774e+000	 3.910054459484762e-001	 1.232425767451665e+001
 2.079584700227718e+000	 4.120215743320919e-001	 1.232581953568362e+001
 2.136769447787005e+000	 2.059543311382027e-001	 1.213427336235287e+001
 2.134648318334801e+000	 2.268866257821053e-001	 1.212698838821877e+001
 2.132313694527165e+000	 2.478697277229482e-001	 1.213098464369618e+001
 2.129763738034729e+000	 2.689007337673182e-001	 1.214342195151655e+001
 2.126996655921599e+000	 2.899766849784880e-001	 1.216157656410801e+001
 2.124010702408456e+000	 3.110945673458185e-001	 1.218285060045579e+001
 2.120804180632748e+000	 3.322513125133902e-001	 1.220478142302604e+001
 2.117375444403931e+000	 3.534437985684282e-001	 1.222505100875489e+001
 2.113722899951540e+000	 3.746688508900029e-001	 1.224149537186040e+001
 2.109845007663906e+000	 3.959232430584103e-001	 1.225211409943761e+001
 2.105740283815281e+000	 4.172036978255548e-001	 1.225508006339425e+001
 2.163310447321718e+000	 2.085125078360998e-001	 1.205148617617865e+001
 2.161162971136105e+000	 2.297048043359963e-001	 1.204468599481223e+001
 2.158799348763049e+000	 2.509485392147393e-001	 1.204937121739332e+001
 2.156217719039129e+000	 2.722407732180951e-001	 1.206265912472462e+001
 2.153416266758237e+000	 2.935785106561236e-001	 1.208179665711075e+001
 2.150393224456572e+000	 3.149587000808951e-001	 1.210416920681953e+001
 2.147146874194708e+000	 3.363782350241716e-001	 1.212730931438547e+001
 2.143675549334621e+000	 3.578339547956261e-001	 1.214890533082817e+001
 2.139977636309479e+000	 3.793226453420825e-001	 1.216681011209475e+001
 2.136051576383962e+000	 4.008410401681957e-001	 1.217904981568553e+001
 2.131895867402834e+000	 4.223858213188828e-001	 1.218383287239290e+001
 2.189851446856028e+000	 2.110706845339837e-001	 1.197030539412209e+001
 2.187677623937013e+000	 2.325229828898390e-001	 1.196385472711850e+001
 2.185285002998553e+000	 2.540273507064468e-001	 1.196909214958406e+001
 2.182671700043172e+000	 2.755808126687546e-001	 1.198310476852728e+001
 2.179835877594552e+000	 2.971803363336100e-001	 1.200312213623871e+001
 2.176775746504409e+000	 3.188228328157937e-001	 1.202652426890709e+001
 2.173489567756436e+000	 3.405051575347510e-001	 1.205084953154098e+001
 2.169975654265129e+000	 3.622241110226026e-001	 1.207380246011168e+001
 2.166232372667292e+000	 3.839764397939289e-001	 1.209326159659661e+001
 2.162258145103953e+000	 4.057588372777426e-001	 1.210728741671634e+001
 2.158051450990382e+000	 4.275679448119764e-001	 1.211413043354413e+001
 2.216392446390048e+000	 2.136288612317870e-001	 1.189281403132744e+001
 2.214192276737622e+000	 2.353411614435744e-001	 1.188672732778541e+001
 2.211770657233760e+000	 2.571061621980169e-001	 1.189248628193397e+001
 2.209125681046936e+000	 2.789208521192439e-001	 1.190716190342963e+001
 2.206255488430610e+000	 3.007821620108933e-001	 1.192798001197870e+001
 2.203158268552019e+000	 3.226869655504569e-001	 1.195232834494859e+001
 2.199832261317972e+000	 3.446320800450645e-001	 1.197776349231633e+001
 2.196275759195487e+000	 3.666142672492870e-001	 1.200201773952869e+001
 2.192487109025002e+000	 3.886302342454619e-001	 1.202300590417364e+001
 2.188464713823888e+000	 4.106766343869623e-001	 1.203883225697929e+001
 2.184207034577926e+000	 4.327500683047373e-001	 1.204779762147977e+001
 2.242933445923886e+000	 2.161870379294425e-001	 1.182106660118858e+001
 2.240706929538030e+000	 2.381593399971436e-001	 1.181547957240177e+001
 2.238256311468759e+000	 2.601849736893952e-001	 1.182180887168652e+001
 2.235579662050491e+000	 2.822608915695107e-001	 1.183712526438141e+001
 2.232675099266471e+000	 3.043839876879194e-001	 1.185866629006020e+001
 2.229540790599451e+000	 3.265510982848271e-001	 1.188384231392849e+001
 2.226174954879359e+000	 3.487590025550492e-001	 1.191024236504036e+001
 2.222575864125728e+000	 3.710044234756086e-001	 1.193563985242532e+001
 2.218741845382629e+000	 3.932840286966024e-001	 1.195799825614115e+001
 2.214671282543780e+000	 4.155944314957660e-001	 1.197547689542200e+001
 2.210362618165463e+000	 4.379321917970662e-001	 1.198643688038298e+001
 2.269474445457651e+000	 2.187452146268828e-001	 1.175708478319844e+001
 2.267221582338333e+000	 2.409775185504877e-001	 1.175222713362225e+001
 2.264741965703633e+000	 2.632637851805277e-001	 1.175922959097950e+001
 2.262033643053913e+000	 2.856009310195024e-001	 1.177518037574551e+001
 2.259094710102200e+000	 3.079858133646347e-001	 1.179734606409887e+001
 2.255923312646760e+000	 3.304152310188462e-001	 1.182317642950005e+001
 2.252517648440637e+000	 3.528859250646414e-001	 1.185030902890666e+001
 2.248875969055882e+000	 3.753945797014968e-001	 1.187657363613222e+001
 2.244996581740197e+000	 3.979378231472712e-001	 1.189999663142003e+001
 2.240877851263638e+000	 4.205122286040643e-001	 1.191880546203109e+001
 2.236518201752999e+000	 4.431143152888640e-001	 1.193143329343552e+001
 2.296015444991454e+000	 2.213033913240406e-001	 1.170285344136481e+001
 2.293736235138629e+000	 2.437956971035477e-001	 1.169902272539681e+001
 2.291227619938468e+000	 2.663425966713601e-001	 1.170683074178044e+001
 2.288487624057276e+000	 2.889409704691661e-001	 1.172340278335684e+001
 2.285514320937859e+000	 3.115876390409852e-001	 1.174605371273293e+001
 2.282305834693997e+000	 3.342793637524572e-001	 1.177229143169588e+001
 2.278860342001849e+000	 3.570128475737778e-001	 1.179982005129983e+001
 2.275176073985981e+000	 3.797847359268805e-001	 1.182654287749034e+001
 2.271251318097723e+000	 4.025916175973881e-001	 1.185056533438074e+001
 2.267084419983474e+000	 4.254300257117684e-001	 1.187019795363341e+001
 2.262673785340533e+000	 4.482964387800323e-001	 1.188395956372162e+001
 2.322556444525403e+000	 2.238615680208486e-001	 1.166031696515142e+001
 2.320250887939015e+000	 2.466138756562646e-001	 1.165785350489801e+001
 2.317713274173349e+000	 2.694214081618382e-001	 1.166660566919221e+001
 2.314941605060654e+000	 2.922810099184495e-001	 1.168375743110415e+001
 2.311933931773511e+000	 3.151894647169170e-001	 1.170669319289156e+001
 2.308688356741215e+000	 3.381434964856023e-001	 1.173299971180932e+001
 2.305203035563035e+000	 3.611397700823949e-001	 1.176046768072937e+001
 2.301476178916054e+000	 3.841748921516888e-001	 1.178709309178194e+001
 2.297506054455230e+000	 4.072454120468744e-001	 1.181107851920939e+001
 2.293290988703300e+000	 4.303478228187891e-001	 1.183083446461367e+001
 2.288829368928065e+000	 4.534785622704716e-001	 1.184498091366738e+001
 2.027273533052570e+000	 4.016573273451569e-001	 1.245639572086188e+001
 2.023101370489906e+000	 4.221697687133256e-001	 1.245689014847382e+001
 2.018708075208402e+000	 4.427008487803357e-001	 1.246467287629256e+001
 2.014092391253171e+000	 4.632472654263895e-001	 1.247820297826498e+001
 2.009253123036069e+000	 4.838056717963328e-001	 1.249611357833917e+001
 2.004189136910731e+000	 5.043726775313110e-001	 1.251722459306485e+001
 1.998899362722714e+000	 5.249448500593382e-001	 1.254054440575291e+001
 1.993382795332379e+000	 5.455187159444398e-001	 1.256492415680751e+001
 1.987638496108145e+000	 5.660907622939356e-001	 1.258959602416606e+001
 1.981665594387705e+000	 5.866574382233224e-001	 1.261422371256700e+001
 1.975463288904845e+000	 6.072151563781103e-001	 1.263874868048399e+001
 2.053429116640150e+000	 4.068394508385930e-001	 1.239376595145576e+001
 2.049203125452439e+000	 4.276165406946643e-001	 1.239407344452827e+001
 2.044753148524194e+000	 4.484125097233065e-001	 1.240130979407937e+001
 2.040077913696388e+000	 4.692240132012558e-001	 1.241397565387512e+001
 2.035176209955583e+000	 4.900476610927235e-001	 1.243075261204999e+001
 2.030046889029278e+000	 5.108800192969424e-001	 1.245051555443943e+001
 2.024688866956064e+000	 5.317176109553853e-001	 1.247234552125730e+001
 2.019101125628145e+000	 5.525569178183158e-001	 1.249554310015147e+001
 2.013282714303859e+000	 5.733943816702276e-001	 1.251964239490113e+001
 2.007232751087750e+000	 5.942264058136259e-001	 1.254442560442287e+001
 2.000950424375789e+000	 6.150493566104990e-001	 1.256993824132422e+001
 2.079584700227718e+000	 4.120215743320919e-001	 1.232581953568362e+001
 2.075304880415053e+000	 4.330633126761094e-001	 1.232678295707133e+001
 2.070798221840153e+000	 4.541241706664352e-001	 1.233437398107731e+001
 2.066063436139859e+000	 4.752007609763388e-001	 1.234712335802825e+001
 2.061099296875428e+000	 4.962896503893942e-001	 1.236374848527226e+001
 2.055904641148230e+000	 5.173873610629187e-001	 1.238316532978027e+001
 2.050478371189883e+000	 5.384903718518439e-001	 1.240450089509655e+001
 2.044819455924433e+000	 5.595951196926688e-001	 1.242710628420536e+001
 2.038926932500135e+000	 5.806980010470583e-001	 1.245057040588643e+001
 2.032799907788383e+000	 6.017953734045253e-001	 1.247473436722472e+001
 2.026437559847334e+000	 6.228835568435334e-001	 1.249970658911505e+001
 2.105740283815281e+000	 4.172036978255548e-001	 1.225508006339425e+001
 2.101406635377738e+000	 4.385100846575524e-001	 1.225736750796936e+001
 2.096843295156265e+000	 4.598358316096043e-001	 1.226602156753538e+001
 2.092048958583554e+000	 4.811775087515100e-001	 1.227959349629785e+001
 2.087022383795570e+000	 5.025316396862062e-001	 1.229682568931233e+001
 2.081762393267542e+000	 5.238947028290933e-001	 1.231666309622802e+001
 2.076267875424119e+000	 5.452631327485581e-001	 1.233826523715335e+001
 2.070537786221185e+000	 5.666333215673344e-001	 1.236101888152013e+001
 2.064571150696912e+000	 5.880016204242573e-001	 1.238455144658228e+001
 2.058367064489540e+000	 6.093643409958431e-001	 1.240874516694178e+001
 2.051924695319411e+000	 6.307177570770309e-001	 1.243375208024553e+001
 2.131895867402834e+000	 4.223858213188828e-001	 1.218383287239289e+001
 2.127508390340486e+000	 4.439568566388839e-001	 1.218792793388505e+001
 2.122888368472507e+000	 4.655474925526937e-001	 1.219815273043913e+001
 2.118034481027448e+000	 4.871542565266411e-001	 1.221307132214517e+001
 2.112945470715970e+000	 5.087736289830220e-001	 1.223144213259578e+001
 2.107620145387170e+000	 5.304020445953191e-001	 1.225222877874893e+001
 2.102057379658718e+000	 5.520358936453725e-001	 1.227461156776188e+001
 2.096256116518343e+000	 5.736715234421500e-001	 1.229799973179982e+001
 2.090215368894127e+000	 5.953052398016531e-001	 1.232204446731788e+001
 2.083934221191156e+000	 6.169333085874018e-001	 1.234665283970997e+001
 2.077411830791955e+000	 6.385519573108083e-001	 1.237200260751075e+001
 2.158051450990382e+000	 4.275679448119764e-001	 1.211413043354412e+001
 2.153610145303288e+000	 4.494036286199951e-001	 1.212032319423270e+001
 2.148933441788862e+000	 4.712591534955853e-001	 1.213241850658154e+001
 2.144020003471510e+000	 4.931310043016033e-001	 1.214898744023110e+001
 2.138868557636592e+000	 5.150156182797036e-001	 1.216879732216466e+001
 2.133477897507068e+000	 5.369093863614491e-001	 1.219082190053558e+001
 2.127846883893632e+000	 5.588086545421322e-001	 1.221425224771122e+001
 2.121974446815849e+000	 5.807097253169513e-001	 1.223850848453101e+001
 2.115859587091717e+000	 6.026088591790751e-001	 1.226325240298217e+001
 2.109501377893164e+000	 6.245022761790249e-001	 1.228840105850661e+001
 2.102898966264897e+000	 6.463861575446830e-001	 1.231414139594998e+001
 2.184207034577926e+000	 4.327500683047373e-001	 1.204779762147977e+001
 2.179711900266134e+000	 4.548504006007772e-001	 1.205617634731327e+001
 2.174978515105309e+000	 4.769708144381600e-001	 1.207022746015331e+001
 2.170005525915712e+000	 4.991077520762679e-001	 1.208852515418158e+001
 2.164791644557400e+000	 5.212576075761127e-001	 1.210984038298446e+001
 2.159335649627190e+000	 5.434167281273360e-001	 1.213315026781495e+001
 2.153636388128806e+000	 5.655814154386811e-001	 1.215764832505242e+001
 2.147692777113644e+000	 5.877479271915754e-001	 1.218275560676153e+001
 2.141503805289620e+000	 6.099124785563528e-001	 1.220813284315458e+001
 2.135068534595499e+000	 6.320712437705344e-001	 1.223369366935011e+001
 2.128386101738172e+000	 6.542203577784719e-001	 1.225961901109463e+001
 2.210362618165463e+000	 4.379321917970662e-001	 1.198643688038298e+001
 2.205813655229016e+000	 4.602971725811210e-001	 1.199688040554388e+001
 2.201023588421832e+000	 4.826824753802987e-001	 1.201275221689907e+001
 2.195991048360028e+000	 5.050844998505065e-001	 1.203262767168812e+001
 2.190714731478355e+000	 5.274995968721120e-001	 1.205527792849212e+001
 2.185193401747493e+000	 5.499240698928333e-001	 1.207967850277877e+001
 2.179425892364189e+000	 5.723541763348634e-001	 1.210501872971402e+001
 2.173411107411672e+000	 5.947861290658582e-001	 1.213071224100961e+001
 2.167148023487771e+000	 6.172160979333151e-001	 1.215640855714915e+001
 2.160635691298096e+000	 6.396402113617532e-001	 1.218200588947948e+001
 2.153873237211714e+000	 6.620545580119925e-001	 1.220766523836113e+001
 2.236518201752999e+000	 4.431143152888640e-001	 1.193143329343552e+001
 2.231915410191926e+000	 4.657439445609178e-001	 1.194360407967777e+001
 2.227068661738412e+000	 4.883941363218828e-001	 1.196093587576079e+001
 2.221976570804428e+000	 5.110612476241907e-001	 1.198200517861912e+001
 2.216637818399421e+000	 5.337415861675627e-001	 1.200558179456000e+001
 2.211051153867931e+000	 5.564314116577933e-001	 1.203063643706464e+001
 2.205215396599727e+000	 5.791269372305239e-001	 1.205634932838259e+001
 2.199129437709874e+000	 6.018243309396368e-001	 1.208211992557087e+001
 2.192792241686112e+000	 6.245197173097915e-001	 1.210757788584900e+001
 2.186202848000890e+000	 6.472091789525045e-001	 1.213259537881127e+001
 2.179360372685457e+000	 6.698887582450618e-001	 1.215738073802228e+001
 2.262673785340533e+000	 4.482964387800323e-001	 1.188395956372162e+001
 2.258017165154852e+000	 4.711907165400585e-001	 1.189729742099370e+001
 2.253113735055028e+000	 4.941057972627939e-001	 1.191549830791809e+001
 2.247962093248883e+000	 5.170379953971916e-001	 1.193714179273878e+001
 2.242560905320561e+000	 5.399835754623272e-001	 1.196099664792576e+001
 2.236908905988459e+000	 5.629387534220696e-001	 1.198602737707173e+001
 2.231004900835369e+000	 5.858996981255067e-001	 1.201140185095323e+001
 2.224847768008192e+000	 6.088625328127471e-001	 1.203650018835624e+001
 2.218436459884576e+000	 6.318233366856108e-001	 1.206092501110904e+001
 2.211770004703814e+000	 6.547781465426102e-001	 1.208451319492902e+001
 2.204847508159331e+000	 6.777229584774968e-001	 1.210835261217469e+001
 2.288829368928065e+000	 4.534785622704716e-001	 1.184498091366739e+001
 2.284118920117788e+000	 4.766374885184339e-001	 1.185869736961401e+001
 2.279158808371665e+000	 4.998174582029122e-001	 1.187694235223062e+001
 2.273947615693367e+000	 5.230147431693808e-001	 1.189830240666132e+001
 2.268483992241738e+000	 5.462255647562675e-001	 1.192154747912678e+001
 2.262766658109032e+000	 5.694460951855148e-001	 1.194563625135949e+001
 2.256794405071063e+000	 5.926724590196567e-001	 1.196972269882194e+001
 2.250566098306568e+000	 6.159007346850259e-001	 1.199316402437657e+001
 2.244080678083104e+000	 6.391269560606027e-001	 1.201553011252129e+001
 2.237337161406804e+000	 6.623471141318938e-001	 1.203661464092294e+001
 2.230334643633273e+000	 6.855571587091147e-001	 1.205953469413225e+001
 1.975463288904845e+000	 6.072151563781103e-001	 1.263874868048399e+001
 1.969030848685419e+000	 6.277602942109749e-001	 1.266067788397702e+001
 1.962367612913845e+000	 6.482891946827240e-001	 1.267736757644580e+001
 1.955472993722270e+000	 6.687981688007213e-001	 1.268897620633380e+001
 1.948346477952993e+000	 6.892834976536050e-001	 1.269848844193112e+001
 1.940987628381445e+000	 7.097414342048217e-001	 1.270807493982450e+001
 1.933396084890728e+000	 7.301682051371444e-001	 1.271822045685670e+001
 1.925571565595462e+000	 7.505600127467703e-001	 1.272954470087056e+001
 1.917513867912702e+000	 7.709130368854965e-001	 1.274280082848354e+001
 1.909222869577758e+000	 7.912234369493599e-001	 1.275887364793869e+001
 1.900698529602766e+000	 8.114873539120181e-001	 1.277877752955937e+001
 2.000950424375789e+000	 6.150493566104990e-001	 1.256993824132422e+001
 1.994434993762919e+000	 6.358595647759501e-001	 1.259308910946140e+001
 1.987685789907810e+000	 6.566533260882138e-001	 1.261034641707718e+001
 1.980702217358025e+000	 6.774269039598259e-001	 1.262245041596456e+001
 1.973483756335180e+000	 6.981765314985874e-001	 1.263335202251807e+001
 1.966029963973694e+000	 7.188984133242424e-001	 1.264403532947074e+001
 1.958340475510495e+000	 7.395887274367914e-001	 1.265505305574851e+001
 1.950415005423359e+000	 7.602436271350284e-001	 1.266709549413757e+001
 1.942253348515647e+000	 7.808592429837707e-001	 1.268098880051037e+001
 1.933855380945223e+000	 8.014316848281606e-001	 1.269769298391879e+001
 1.925221061195408e+000	 8.219570438532781e-001	 1.271829960062245e+001
 2.026437559847334e+000	 6.228835568435334e-001	 1.249970658911505e+001
 2.019839138841012e+000	 6.439588353416125e-001	 1.252231125247668e+001
 2.013003966902344e+000	 6.650174574944245e-001	 1.253905716236830e+001
 2.005931440994312e+000	 6.860556391196769e-001	 1.255224239420654e+001
 1.998621034717845e+000	 7.070695653443356e-001	 1.256518845734978e+001
 1.991072299566360e+000	 7.280553924444430e-001	 1.257783236850708e+001
 1.983284866130609e+000	 7.490092497372286e-001	 1.259050710227967e+001
 1.975258445251525e+000	 7.699272415240817e-001	 1.260396187606040e+001
 1.966992829118775e+000	 7.908054490828436e-001	 1.261908429908825e+001
 1.958487892312784e+000	 8.116399327077613e-001	 1.263689817092363e+001
 1.949743592788055e+000	 8.324267337953375e-001	 1.265856098086864e+001
 2.051924695319411e+000	 6.307177570770309e-001	 1.243375208024553e+001
 2.045243283919631e+000	 6.520581059077750e-001	 1.245603234856516e+001
 2.038322143897384e+000	 6.733815889011648e-001	 1.247194180280835e+001
 2.031160664631070e+000	 6.946843742800805e-001	 1.248561691399784e+001
 2.023758313100938e+000	 7.159625991906542e-001	 1.249874774939861e+001
 2.016114635159398e+000	 7.372123715652268e-001	 1.251182855039971e+001
 2.008229256751030e+000	 7.584297720382565e-001	 1.252549123717667e+001
 2.000101885079928e+000	 7.796108559137310e-001	 1.254050405103217e+001
 1.991732309722068e+000	 8.007516551825156e-001	 1.255735548837286e+001
 1.983120403680432e+000	 8.218481805879621e-001	 1.257667409058390e+001
 1.974266124380708e+000	 8.428964237379968e-001	 1.259967262654148e+001
 2.077411830791955e+000	 6.385519573108083e-001	 1.237200260751075e+001
 2.070647428998710e+000	 6.601573764742490e-001	 1.239418710425791e+001
 2.063640320892865e+000	 6.817457203082433e-001	 1.241036063572726e+001
 2.056389888268241e+000	 7.033131094408428e-001	 1.242499786897261e+001
 2.048895591484403e+000	 7.248556330373464e-001	 1.243875825960613e+001
 2.041156970752760e+000	 7.463693506863948e-001	 1.245216114375904e+001
 2.033173647371722e+000	 7.678502943396767e-001	 1.246586512114146e+001
 2.024945324908542e+000	 7.892944703037774e-001	 1.248066669366947e+001
 2.016471790325502e+000	 8.106978612825859e-001	 1.249749861298188e+001
 2.007752915048153e+000	 8.320564284685622e-001	 1.251742792315019e+001
 1.998788655973365e+000	 8.533661136810563e-001	 1.254164625224763e+001
 2.102898966264897e+000	 6.463861575446830e-001	 1.231414139594998e+001
 2.096051574078183e+000	 6.682566470408484e-001	 1.233622106643621e+001
 2.088958497888727e+000	 6.901098517154685e-001	 1.235368783534620e+001
 2.081619111905765e+000	 7.119418446017694e-001	 1.236956757246639e+001
 2.074032869868189e+000	 7.337486668842165e-001	 1.238425193959295e+001
 2.066199306346401e+000	 7.555263298077501e-001	 1.239827435309203e+001
 2.058118037992645e+000	 7.772708166412899e-001	 1.241230892391160e+001
 2.049788764737333e+000	 7.989780846940209e-001	 1.242716913075769e+001
 2.041211270929059e+000	 8.206440673828559e-001	 1.244380621226538e+001
 2.032385426415939e+000	 8.422646763493622e-001	 1.246330726300116e+001
 2.023311187566027e+000	 8.638358036243159e-001	 1.248689301726292e+001
 2.128386101738172e+000	 6.542203577784719e-001	 1.225961901109463e+001
 2.121455719157986e+000	 6.763559176073852e-001	 1.228196930565020e+001
 2.114276674884903e+000	 6.984739831226499e-001	 1.230108411336332e+001
 2.106848335543585e+000	 7.205705797626663e-001	 1.231831558168993e+001
 2.099170148252240e+000	 7.426417007310675e-001	 1.233405760111532e+001
 2.091241641940274e+000	 7.646833089290945e-001	 1.234884700933387e+001
 2.083062428613760e+000	 7.866913389428978e-001	 1.236336259135481e+001
 2.074632204566274e+000	 8.086616990842620e-001	 1.237842382662752e+001
 2.065950751532719e+000	 8.305902734831250e-001	 1.239498936758989e+001
 2.057017937783778e+000	 8.524729242301623e-001	 1.241415523283065e+001
 2.047833719158692e+000	 8.743054935675753e-001	 1.243715269697454e+001
 2.153873237211714e+000	 6.620545580119925e-001	 1.220766523836113e+001
 2.146859864238053e+000	 6.844551881736720e-001	 1.223086179136853e+001
 2.139594851881333e+000	 7.068381145295958e-001	 1.225152177145066e+001
 2.132077559181639e+000	 7.291993149233395e-001	 1.227004720620871e+001
 2.124307426636505e+000	 7.515347345777036e-001	 1.228682410557599e+001
 2.116283977534334e+000	 7.738402880502304e-001	 1.230238237742655e+001
 2.108006819235030e+000	 7.961118612443013e-001	 1.231739492579541e+001
 2.099475644395333e+000	 8.183453134743010e-001	 1.233267651260487e+001
 2.090690232136461e+000	 8.405364795831936e-001	 1.234918236570888e+001
 2.081650449151659e+000	 8.626811721107623e-001	 1.236800651461399e+001
 2.072356250751360e+000	 8.847751835106346e-001	 1.239037983391926e+001
 2.179360372685457e+000	 6.698887582450618e-001	 1.215738073802228e+001
 2.172264009318315e+000	 6.925544587395214e-001	 1.218186348563573e+001
 2.164913028877952e+000	 7.152022459361156e-001	 1.220379282544102e+001
 2.157306782819872e+000	 7.378280500835952e-001	 1.222339192298583e+001
 2.149444705020930e+000	 7.604277684239289e-001	 1.224102908691609e+001
 2.141326313128531e+000	 7.829972671709592e-001	 1.225721720465293e+001
 2.132951209856413e+000	 8.055323835453013e-001	 1.227261297795918e+001
 2.124319084224482e+000	 8.280289278639389e-001	 1.228801594128745e+001
 2.115429712740264e+000	 8.504826856828617e-001	 1.230436724395813e+001
 2.106282960519573e+000	 8.728894199909624e-001	 1.232274817549654e+001
 2.096878782344030e+000	 8.952448734532940e-001	 1.234437841188866e+001
 2.204847508159331e+000	 6.777229584774968e-001	 1.210835261217469e+001
 2.197668154398711e+000	 7.006537293047456e-001	 1.213376255862466e+001
 2.190231205874697e+000	 7.235663773420179e-001	 1.215651703676445e+001
 2.182536006458222e+000	 7.464567852432394e-001	 1.217681170554976e+001
 2.174581983405460e+000	 7.693208022695464e-001	 1.219498759466294e+001
 2.166368648722823e+000	 7.921542462910846e-001	 1.221153069421404e+001
 2.157895600477876e+000	 8.149529058456997e-001	 1.222707136820776e+001
 2.149162524053690e+000	 8.377125422529760e-001	 1.224238357302004e+001
 2.140169193344107e+000	 8.604288917819297e-001	 1.225838385998939e+001
 2.130915471887508e+000	 8.830976678705622e-001	 1.227613013921664e+001
 2.121401313936701e+000	 9.057145633953535e-001	 1.229682017982501e+001
 2.230334643633273e+000	 6.855571587091147e-001	 1.205953469413225e+001
 2.223072299479172e+000	 7.087529998691573e-001	 1.208517804562173e+001
 2.215549382871506e+000	 7.319305087471114e-001	 1.210814985855643e+001
 2.207765230096631e+000	 7.550855204020772e-001	 1.212860927415917e+001
 2.199719261790046e+000	 7.782138361143607e-001	 1.214686066352166e+001
 2.191410984317160e+000	 8.013112254104075e-001	 1.216335341003021e+001
 2.182839991099376e+000	 8.243734281452965e-001	 1.217868154272051e+001
 2.174005963882928e+000	 8.473961566412124e-001	 1.219358319999431e+001
 2.164908673947971e+000	 8.703750978801975e-001	 1.220893990066911e+001
 2.155547983255453e+000	 8.933059157493628e-001	 1.222577559700961e+001
 2.145923845529373e+000	 9.161842533366132e-001	 1.224525548224183e+001
 1.900698529602766e+000	 8.114873539120181e-001	 1.277877752955937e+001
 1.891942220492132e+000	 8.316978846581148e-001	 1.279862562648778e+001
 1.882952806529170e+000	 8.518541852139021e-001	 1.281398840088722e+001
 1.873730497067709e+000	 8.719523567309262e-001	 1.282523060902337e+001
 1.864275585902089e+000	 8.919884905296139e-001	 1.283282051556812e+001
 1.854588451907370e+000	 9.119586703247523e-001	 1.283732804295023e+001
 1.844669559610956e+000	 9.318589744831690e-001	 1.283942270866204e+001
 1.834519459694026e+000	 9.516854783112039e-001	 1.283987135413674e+001
 1.824138789421242e+000	 9.714342563694888e-001	 1.283953566912295e+001
 1.813528272997309e+000	 9.911013848124718e-001	 1.283936951579327e+001
 1.802688721849068e+000	 1.010682943750032e+000	 1.284040704437929e+001
 1.925221061195408e+000	 8.219570438532781e-001	 1.271829960062245e+001
 1.916351779478452e+000	 8.424283278807977e-001	 1.273880930127721e+001
 1.907246385424817e+000	 8.628446820481397e-001	 1.275465509359957e+001
 1.897905091089386e+000	 8.832021572044753e-001	 1.276624489455587e+001
 1.888328194056983e+000	 9.034967942410130e-001	 1.277409323710704e+001
 1.878516078090858e+000	 9.237246263451977e-001	 1.277881931975008e+001
 1.868469213711673e+000	 9.438816812875146e-001	 1.278114484171266e+001
 1.858188158705416e+000	 9.639639837384756e-001	 1.278189162751099e+001
 1.847673558558638e+000	 9.839675576132633e-001	 1.278197904486287e+001
 1.836926146819623e+000	 1.003888428441440e+000	 1.278242122023145e+001
 1.825946745384119e+000	 1.023722625759030e+000	 1.278431600605762e+001
 1.949743592788055e+000	 8.324267337953375e-001	 1.265856098086864e+001
 1.940761338464687e+000	 8.531587711042798e-001	 1.267998283465017e+001
 1.931539964320292e+000	 8.738351788831774e-001	 1.269649914247194e+001
 1.922079685110801e+000	 8.944519576788236e-001	 1.270857670431673e+001
 1.912380802211533e+000	 9.150050979532125e-001	 1.271679219122511e+001
 1.902443704273920e+000	 9.354905823664447e-001	 1.272183007265696e+001
 1.892268867811892e+000	 9.559043880926642e-001	 1.272448032709420e+001
 1.881856857716237e+000	 9.762424891665525e-001	 1.272563593970925e+001
 1.871208327695403e+000	 9.965008588578462e-001	 1.272629019117832e+001
 1.860324020641252e+000	 1.016675472071220e+000	 1.272752478503239e+001
 1.849204768918440e+000	 1.036762307768845e+000	 1.273054438074986e+001
 1.974266124380708e+000	 8.428964237379968e-001	 1.259967262654148e+001
 1.965170897450847e+000	 8.638892143283621e-001	 1.262218966407604e+001
 1.955833543215612e+000	 8.848256757188150e-001	 1.263949922752618e+001
 1.946254279131986e+000	 9.057017581537731e-001	 1.265214236100256e+001
 1.936433410365777e+000	 9.265134016660142e-001	 1.266077337212380e+001
 1.926371330456609e+000	 9.472565383882964e-001	 1.266615761541337e+001
 1.916068521911670e+000	 9.679270948984196e-001	 1.266916905646009e+001
 1.905525556726559e+000	 9.885209945952411e-001	 1.267078762080418e+001
 1.894743096831615e+000	 1.009034160103045e+000	 1.267209633172793e+001
 1.883721894462284e+000	 1.029462515701623e+000	 1.267427026187423e+001
 1.872462792452129e+000	 1.049801989779293e+000	 1.267860688589005e+001
 1.998788655973365e+000	 8.533661136810563e-001	 1.254164625224763e+001
 1.989580456436942e+000	 8.746196575528440e-001	 1.256537337919070e+001
 1.980127122110799e+000	 8.958161725548529e-001	 1.258353356987379e+001
 1.970428873152970e+000	 9.169515586291239e-001	 1.259675712863334e+001
 1.960486018519757e+000	 9.380217053792193e-001	 1.260579114295468e+001
 1.950298956638970e+000	 9.590224944105530e-001	 1.261149710170650e+001
 1.939868176011067e+000	 9.799498017045860e-001	 1.261484829164648e+001
 1.929194255736452e+000	 1.000799500024346e+000	 1.261692697631069e+001
 1.918277865967356e+000	 1.021567461348670e+000	 1.261891238926758e+001
 1.907119768282811e+000	 1.042249559332463e+000	 1.262211529775443e+001
 1.895720815985286e+000	 1.062841671790190e+000	 1.262791463773128e+001
 2.023311187566027e+000	 8.638358036243159e-001	 1.248689301726292e+001
 2.013990015422981e+000	 8.853501007775261e-001	 1.251022493836932e+001
 2.004420701005870e+000	 9.068066693910915e-001	 1.252846267848784e+001
 1.994603467173784e+000	 9.282013591046769e-001	 1.254213923604333e+001
 1.984538626673510e+000	 9.495300090926281e-001	 1.255150241755259e+001
 1.974226582821057e+000	 9.707884504330185e-001	 1.255744586671947e+001
 1.963667830110143e+000	 9.919725085109665e-001	 1.256105716608277e+001
 1.952862954745983e+000	 1.013078005453673e+000	 1.256352580640830e+001
 1.941812635102705e+000	 1.034100762594528e+000	 1.256618268510832e+001
 1.930517642102919e+000	 1.055036602963550e+000	 1.257042896216185e+001
 1.918978839518010e+000	 1.075881353801352e+000	 1.257778026162898e+001
 2.047833719158692e+000	 8.743054935675753e-001	 1.243715269697454e+001
 2.038399574408974e+000	 8.960805440022087e-001	 1.245959516213185e+001
 2.028714279900847e+000	 9.177971662273304e-001	 1.247665086631075e+001
 2.018778061194453e+000	 9.394511595802317e-001	 1.248906242370789e+001
 2.008591234827077e+000	 9.610383128060426e-001	 1.249769157382843e+001
 1.998154209002917e+000	 9.825544064554941e-001	 1.250350766615579e+001
 1.987467484208959e+000	 1.003995215317365e+000	 1.250724107998629e+001
 1.976531653755224e+000	 1.025356510883029e+000	 1.250999359181532e+001
 1.965347404237740e+000	 1.046634063840428e+000	 1.251322876448019e+001
 1.953915515922700e+000	 1.067823646594697e+000	 1.251848661422715e+001
 1.942236863050402e+000	 1.088921035812597e+000	 1.252742288287739e+001
 2.072356250751360e+000	 8.847751835106346e-001	 1.239037983391926e+001
 2.062809133394929e+000	 9.068109872266907e-001	 1.241187341127405e+001
 2.053007858795747e+000	 9.287876630633706e-001	 1.242768447427564e+001
 2.042952655215010e+000	 9.507009600555888e-001	 1.243866656447938e+001
 2.032643842980497e+000	 9.725466165192632e-001	 1.244579602915015e+001
 2.022081835184600e+000	 9.943203624777819e-001	 1.245016985459223e+001
 2.011267138307571e+000	 1.016017922123584e+000	 1.245299275194722e+001
 2.000200352764243e+000	 1.037635016312218e+000	 1.245561788927428e+001
 1.988882173372540e+000	 1.059167365086179e+000	 1.245929297980783e+001
 1.977313389742244e+000	 1.080610690225716e+000	 1.246547464502875e+001
 1.965494886582561e+000	 1.101960717823740e+000	 1.247597300799409e+001
 2.096878782344030e+000	 8.952448734532940e-001	 1.234437841188866e+001
 2.087218692380858e+000	 9.175414304507734e-001	 1.236478977837843e+001
 2.077301437690591e+000	 9.397781598990115e-001	 1.237922564264526e+001
 2.067127249235484e+000	 9.619507605305498e-001	 1.238866092095254e+001
 2.056696451133809e+000	 9.840549202320910e-001	 1.239419708647069e+001
 2.046009461366154e+000	 1.006086318499684e+000	 1.239706004746499e+001
 2.035066792406040e+000	 1.028040628929428e+000	 1.239858837761206e+001
 2.023869051773110e+000	 1.049913521741047e+000	 1.240026948120068e+001
 2.012416942507187e+000	 1.071700666331588e+000	 1.240367385469475e+001
 2.000711263561638e+000	 1.093397733856419e+000	 1.241049546711417e+001
 1.988752910114585e+000	 1.115000399834598e+000	 1.242247730542086e+001
 2.121401313936701e+000	 9.057145633953535e-001	 1.229682017982502e+001
 2.111628251366767e+000	 9.282718736742562e-001	 1.231594698010704e+001
 2.101595016585397e+000	 9.507686567340533e-001	 1.232881404821645e+001
 2.091301843255902e+000	 9.732005610049138e-001	 1.233652742019983e+001
 2.080749059287054e+000	 9.955632239443274e-001	 1.234032349979968e+001
 2.069937087547631e+000	 1.017852274521003e+000	 1.234155635476665e+001
 2.058866446504426e+000	 1.040063335734701e+000	 1.234174027463592e+001
 2.047537750781894e+000	 1.062192027169320e+000	 1.234247516979709e+001
 2.035951711641758e+000	 1.084233967576464e+000	 1.234549408628296e+001
 2.024109137380973e+000	 1.106184777486618e+000	 1.235264567569512e+001
 2.012010933646574e+000	 1.128040081844988e+000	 1.236588974834304e+001
 2.145923845529373e+000	 9.161842533366132e-001	 1.224525548224183e+001
 2.136037810352666e+000	 9.390023168969390e-001	 1.226283161739939e+001
 2.125888595480185e+000	 9.617591535682968e-001	 1.227387859604912e+001
 2.115476437276295e+000	 9.844503614784820e-001	 1.227964259842022e+001
 2.104801667440269e+000	 1.007071527655773e+000	 1.228150403146417e+001
 2.093864713729079e+000	 1.029618230541540e+000	 1.228096606519586e+001
 2.082666100602788e+000	 1.052086042539205e+000	 1.227969247252387e+001
 2.071206449790665e+000	 1.074470532596845e+000	 1.227944054117174e+001
 2.059486480776334e+000	 1.096767268820616e+000	 1.228210348370908e+001
 2.047507011200339e+000	 1.118971821116124e+000	 1.228969426425923e+001
 2.035268957178629e+000	 1.141079763854727e+000	 1.230434115009351e+001
 1.802688721849068e+000	 1.010682943750032e+000	 1.284040704437928e+001
 1.791619357690404e+000	 1.030177937010685e+000	 1.283948464251394e+001
 1.780322777535209e+000	 1.049579514920662e+000	 1.283301621505810e+001
 1.768800057357055e+000	 1.068883783227662e+000	 1.282156018017536e+001
 1.757052360750431e+000	 1.088086861295837e+000	 1.280572211123777e+001
 1.745080938822499e+000	 1.107184884536711e+000	 1.278615240957450e+001
 1.732887130004770e+000	 1.126174006844907e+000	 1.276354388624615e+001
 1.720472359784236e+000	 1.145050403035631e+000	 1.273862925719480e+001
 1.707838140353593e+000	 1.163810271280825e+000	 1.271217855627348e+001
 1.694986070180313e+000	 1.182449835540888e+000	 1.268499647083022e+001
 1.681917833494530e+000	 1.200965347988850e+000	 1.265791960471055e+001
 1.825946745384119e+000	 1.023722625759030e+000	 1.278431600605762e+001
 1.814734565924675e+000	 1.043469140542086e+000	 1.278412275575832e+001
 1.803292238961473e+000	 1.063121034743368e+000	 1.277790273753138e+001
 1.791620854350134e+000	 1.082674363867519e+000	 1.276631055110262e+001
 1.779721590697669e+000	 1.102125197211310e+000	 1.275004681064642e+001
 1.767595715252836e+000	 1.121469620325929e+000	 1.272985564673964e+001
 1.755244583715393e+000	 1.140703737484130e+000	 1.270652212061380e+001
 1.742669639963753e+000	 1.159823674149157e+000	 1.268086955509163e+001
 1.729872415700694e+000	 1.178825579442343e+000	 1.265375678672866e+001
 1.716854530016881e+000	 1.197705628606193e+000	 1.262607534383617e+001
 1.703617688872131e+000	 1.216460025459840e+000	 1.259874655523817e+001
 1.849204768918440e+000	 1.036762307768845e+000	 1.273054438074986e+001
 1.837849774158181e+000	 1.056760344074309e+000	 1.273137612422645e+001
 1.826261700386945e+000	 1.076662554566901e+000	 1.272570490478934e+001
 1.814441651342400e+000	 1.096464944508205e+000	 1.271429140414231e+001
 1.802390820644081e+000	 1.116163533127615e+000	 1.269794101447724e+001
 1.790110491682342e+000	 1.135754356115979e+000	 1.267750115672058e+001
 1.777602037425184e+000	 1.155233468124176e+000	 1.265385851465306e+001
 1.764866920142439e+000	 1.174596945263497e+000	 1.262793618931106e+001
 1.751906691046967e+000	 1.193840887604655e+000	 1.260069077819474e+001
 1.738722989852626e+000	 1.212961421672268e+000	 1.257310938394595e+001
 1.725317544248913e+000	 1.231954702931564e+000	 1.254620655732136e+001
 1.872462792452129e+000	 1.049801989779293e+000	 1.267860688589005e+001
 1.860964982391031e+000	 1.070051547607175e+000	 1.268070191438198e+001
 1.849231161811743e+000	 1.090204074391089e+000	 1.267582064140670e+001
 1.837262448333983e+000	 1.110255525149559e+000	 1.266483952556343e+001
 1.825060050589807e+000	 1.130201869044597e+000	 1.264867826764087e+001
 1.812625268111165e+000	 1.150039091906711e+000	 1.262829693294475e+001
 1.799959491134298e+000	 1.169763198764909e+000	 1.260469299338331e+001
 1.787064200320456e+000	 1.189370216378519e+000	 1.257889829372724e+001
 1.773940966392586e+000	 1.208856195767643e+000	 1.255197594655495e+001
 1.760591449687725e+000	 1.228217214739001e+000	 1.252501716051362e+001
 1.747017399625063e+000	 1.247449380403922e+000	 1.249913800667725e+001
 1.895720815985286e+000	 1.062841671790190e+000	 1.262791463773128e+001
 1.884080190623331e+000	 1.083342751140507e+000	 1.263145376809253e+001
 1.872200623235985e+000	 1.103745594215760e+000	 1.262754459955592e+001
 1.860083245325013e+000	 1.124046105791413e+000	 1.261718886135089e+001
 1.847729280534987e+000	 1.144240204962098e+000	 1.260142989102151e+001
 1.835140044539452e+000	 1.164323827697978e+000	 1.258134954934471e+001
 1.822316944842891e+000	 1.184292929406189e+000	 1.255806505921075e+001
 1.809261480497970e+000	 1.204143487494096e+000	 1.253272577287085e+001
 1.795975241737718e+000	 1.223871503931185e+000	 1.250650987202684e+001
 1.782459909522359e+000	 1.243473007806281e+000	 1.248062100533843e+001
 1.768717255000763e+000	 1.262944057876813e+000	 1.245628486805928e+001
 1.918978839518010e+000	 1.075881353801352e+000	 1.257778026162898e+001
 1.907195398855194e+000	 1.096633954674126e+000	 1.258288704878540e+001
 1.895170084659793e+000	 1.117287114040742e+000	 1.258007353033970e+001
 1.882904042315616e+000	 1.137836686433605e+000	 1.257047600212278e+001
 1.870398510479757e+000	 1.158278540879961e+000	 1.255527056749847e+001
 1.857654820967350e+000	 1.178608563489632e+000	 1.253566983412421e+001
 1.844674398551119e+000	 1.198822660047875e+000	 1.251291953920931e+001
 1.831458760675146e+000	 1.218916758610096e+000	 1.248829510763763e+001
 1.818009517082537e+000	 1.238886812095163e+000	 1.246309814736810e+001
 1.804328369356703e+000	 1.258728800874001e+000	 1.243865288660658e+001
 1.790417110376194e+000	 1.278438735350138e+000	 1.241630255736115e+001
 1.942236863050402e+000	 1.088921035812597e+000	 1.252742288287739e+001
 1.930310607086727e+000	 1.109925158207855e+000	 1.253416396577604e+001
 1.918139546083284e+000	 1.130828633865865e+000	 1.253251153154959e+001
 1.905724839305924e+000	 1.151627267075969e+000	 1.252374554340924e+001
 1.893067740424256e+000	 1.172316876798029e+000	 1.250918380299250e+001
 1.880169597395008e+000	 1.192893299281524e+000	 1.249017841898639e+001
 1.867031852259138e+000	 1.213352390689829e+000	 1.246811220912196e+001
 1.853656040852145e+000	 1.233690029726389e+000	 1.244439503984208e+001
 1.840043792427213e+000	 1.253902120259454e+000	 1.242046010796237e+001
 1.826196829190936e+000	 1.273984593942049e+000	 1.239776016870449e+001
 1.812116965751543e+000	 1.293933412823795e+000	 1.237776371458341e+001
 1.965494886582561e+000	 1.101960717823740e+000	 1.247597300799409e+001
 1.953425815318042e+000	 1.123216361741514e+000	 1.248435858686165e+001
 1.941109007506578e+000	 1.144370153690955e+000	 1.248387518208848e+001
 1.928545636296065e+000	 1.165417847718342e+000	 1.247595533161737e+001
 1.915736970368623e+000	 1.186355212716147e+000	 1.246206727288930e+001
 1.902684373822573e+000	 1.207178035073504e+000	 1.244371117414050e+001
 1.889389305967105e+000	 1.227882121331912e+000	 1.242241530429462e+001
 1.875853321029134e+000	 1.248463300842847e+000	 1.239973214565250e+001
 1.862078067771918e+000	 1.268917428423940e+000	 1.237723445357093e+001
 1.848065289025234e+000	 1.289240387010314e+000	 1.235651126735889e+001
 1.833816821126989e+000	 1.309428090297686e+000	 1.233916387670350e+001
 1.988752910114585e+000	 1.115000399834598e+000	 1.242247730542086e+001
 1.976541023549247e+000	 1.136507565274927e+000	 1.243246174832689e+001
 1.964078468929796e+000	 1.157911673515843e+000	 1.243309857233446e+001
 1.951366433286169e+000	 1.179208428360558e+000	 1.242598160504140e+001
 1.938406200312997e+000	 1.200393548634157e+000	 1.241273806322404e+001
 1.925199150250191e+000	 1.221462770865427e+000	 1.239502453843832e+001
 1.911746759675175e+000	 1.242411851973984e+000	 1.237452292679921e+001
 1.898050601206275e+000	 1.263236571959339e+000	 1.235293630700343e+001
 1.884112343116823e+000	 1.283932736588499e+000	 1.233198477061826e+001
 1.869933748859776e+000	 1.304496180078686e+000	 1.231340120867152e+001
 1.855516676502718e+000	 1.324922767771708e+000	 1.229892705864387e+001
 2.012010933646574e+000	 1.128040081844988e+000	 1.236588974834304e+001
 1.999656231780452e+000	 1.149798768807915e+000	 1.237738587066338e+001
 1.987047930353056e+000	 1.171453193340354e+000	 1.237903823886714e+001
 1.974187230276363e+000	 1.192999009002452e+000	 1.237262403841053e+001
 1.961075430257516e+000	 1.214431884551902e+000	 1.235993781514300e+001
 1.947713926678010e+000	 1.235747506657143e+000	 1.234280075312605e+001
 1.934104213383504e+000	 1.256941582615906e+000	 1.232305635714596e+001
 1.920247881383731e+000	 1.278009843075735e+000	 1.230256608924237e+001
 1.906146618462098e+000	 1.298948044753012e+000	 1.228320496306118e+001
 1.891802208694739e+000	 1.319751973147056e+000	 1.226685709982662e+001
 1.877216531878911e+000	 1.340417445245763e+000	 1.225513120572073e+001
 2.035268957178629e+000	 1.141079763854727e+000	 1.230434115009351e+001
 2.022771440011766e+000	 1.163089972340299e+000	 1.231752399887250e+001
 2.010017391776478e+000	 1.184994713164319e+000	 1.232037110008775e+001
 1.997008027266777e+000	 1.206789589643860e+000	 1.231461069869131e+001
 1.983744660202318e+000	 1.228470220469227e+000	 1.230233778037976e+001
 1.970228703106179e+000	 1.250032242448504e+000	 1.228565300692246e+001
 1.956461667092249e+000	 1.271471313257540e+000	 1.226656927821795e+001
 1.942445161561669e+000	 1.292783114191905e+000	 1.224711403251075e+001
 1.928180893807916e+000	 1.313963352917359e+000	 1.222932459915363e+001
 1.913670668530300e+000	 1.335007766215311e+000	 1.221523315956673e+001
 1.898916387255753e+000	 1.355912122719749e+000	 1.220482931027265e+001
 1.681917833494530e+000	 1.200965347988850e+000	 1.265791960471055e+001
 1.668635199221159e+000	 1.219353091017331e+000	 1.262707530244925e+001
 1.655140018895221e+000	 1.237609378393840e+000	 1.258915161630436e+001
 1.641434227355505e+000	 1.255730558820518e+000	 1.254586297957411e+001
 1.627519842390902e+000	 1.273713018699258e+000	 1.249893971030028e+001
 1.613398963829417e+000	 1.291553184473516e+000	 1.245012365585025e+001
 1.599073772548270e+000	 1.309247524943862e+000	 1.240116380541334e+001
 1.584546529405988e+000	 1.326792553554179e+000	 1.235381187986500e+001
 1.569819574097471e+000	 1.344184830645459e+000	 1.230738329988581e+001
 1.554895323933223e+000	 1.361420965674179e+000	 1.225438639039291e+001
 1.539776272543993e+000	 1.378497619392281e+000	 1.219539583918224e+001
 1.703617688872131e+000	 1.216460025459840e+000	 1.259874655523817e+001
 1.690163684013768e+000	 1.235085004431891e+000	 1.256790627345695e+001
 1.676494390865051e+000	 1.253576831730622e+000	 1.253035615572692e+001
 1.662611769227780e+000	 1.271931808949659e+000	 1.248805222227733e+001
 1.648517862924069e+000	 1.290146275868779e+000	 1.244296721864126e+001
 1.634214798873599e+000	 1.308216612825929e+000	 1.239708581605806e+001
 1.619704786090954e+000	 1.326139243062656e+000	 1.235239977516491e+001
 1.604990114603931e+000	 1.343910635039803e+000	 1.230875466906784e+001
 1.590073154293838e+000	 1.361527304720379e+000	 1.225907236194358e+001
 1.574956353658965e+000	 1.378985817816562e+000	 1.220398058765807e+001
 1.559642238502527e+000	 1.396282791997798e+000	 1.214508619745460e+001
 1.725317544248913e+000	 1.231954702931564e+000	 1.254620655732136e+001
 1.711692168805565e+000	 1.250816917847140e+000	 1.251616738086818e+001
 1.697848762834074e+000	 1.269544285068040e+000	 1.247990719563047e+001
 1.683789311099254e+000	 1.288133059079376e+000	 1.243957020077477e+001
 1.669515883456440e+000	 1.306579533038807e+000	 1.239731722672363e+001
 1.655030633916995e+000	 1.324880041178775e+000	 1.235532058480746e+001
 1.640335799632866e+000	 1.343030961181805e+000	 1.231409785391445e+001
 1.625433699801120e+000	 1.361028716525699e+000	 1.226700897233095e+001
 1.610326734489472e+000	 1.378869778795487e+000	 1.221452034145452e+001
 1.595017383384004e+000	 1.396550669959047e+000	 1.215833406618266e+001
 1.579508204460395e+000	 1.414067964603332e+000	 1.210017259096886e+001
 1.747017399625063e+000	 1.247449380403922e+000	 1.249913800667725e+001
 1.733220653596737e+000	 1.266548831262988e+000	 1.247060488763801e+001
 1.719203134802480e+000	 1.285511738406013e+000	 1.243643977195389e+001
 1.704966852970118e+000	 1.304334309209597e+000	 1.239892369907249e+001
 1.690513903988211e+000	 1.323012790209282e+000	 1.236035333621980e+001
 1.675846468959799e+000	 1.341543469532005e+000	 1.232195307197148e+001
 1.660966813174197e+000	 1.359922679301271e+000	 1.227768704331817e+001
 1.645877284997742e+000	 1.378146798011843e+000	 1.222763133285231e+001
 1.630580314684557e+000	 1.396212252870773e+000	 1.217352383420097e+001
 1.615078413108516e+000	 1.414115522101638e+000	 1.211712295177576e+001
 1.599374170417763e+000	 1.431853137208900e+000	 1.206020693037445e+001
 1.768717255000763e+000	 1.262944057876813e+000	 1.245628486805928e+001
 1.754749138387473e+000	 1.282280744679345e+000	 1.242987305897793e+001
 1.740557506770460e+000	 1.301479191744462e+000	 1.239850032771313e+001
 1.726144394840567e+000	 1.320535559340253e+000	 1.236453517827332e+001
 1.711511924519575e+000	 1.339446047380145e+000	 1.232982151662960e+001
 1.696662304002206e+000	 1.358206897885572e+000	 1.228924627037019e+001
 1.681597826715140e+000	 1.376814397421019e+000	 1.224225647366547e+001
 1.666320870193986e+000	 1.395264879498211e+000	 1.219056963651152e+001
 1.650833894879276e+000	 1.413554726946223e+000	 1.213592338458238e+001
 1.635139442832677e+000	 1.431680374244336e+000	 1.208007493023080e+001
 1.619240136374797e+000	 1.449638309814519e+000	 1.202480052641889e+001
 1.790417110376194e+000	 1.278438735350138e+000	 1.241630255736115e+001
 1.776277623177960e+000	 1.298012658096122e+000	 1.239254000916013e+001
 1.761911878738208e+000	 1.317446645083307e+000	 1.236455245961404e+001
 1.747321936710794e+000	 1.336736809471274e+000	 1.233460058310014e+001
 1.732509945050727e+000	 1.355879304551337e+000	 1.229893244239539e+001
 1.717478139044409e+000	 1.374870326239427e+000	 1.225614412626205e+001
 1.702228840255884e+000	 1.393706115541010e+000	 1.220788034404940e+001
 1.686764455390040e+000	 1.412382960984778e+000	 1.215580468452486e+001
 1.671087475073812e+000	 1.430897201021828e+000	 1.210159930822933e+001
 1.655200472556662e+000	 1.449245226387142e+000	 1.204696463842061e+001
 1.639106102331665e+000	 1.467423482420205e+000	 1.199361904317261e+001
 1.812116965751543e+000	 1.293933412823795e+000	 1.237776371458341e+001
 1.797806107968385e+000	 1.313744571513226e+000	 1.235709344702087e+001
 1.783266250705911e+000	 1.333414098422468e+000	 1.233298243609667e+001
 1.768499478580991e+000	 1.352938059602591e+000	 1.230351800803527e+001
 1.753507965581860e+000	 1.372312561722800e+000	 1.226629024259282e+001
 1.738293974086600e+000	 1.391533754593522e+000	 1.222282282136662e+001
 1.722859853796624e+000	 1.410597833661210e+000	 1.217465597281562e+001
 1.707208040586091e+000	 1.429501042471520e+000	 1.212334645665633e+001
 1.691341055268346e+000	 1.448239675097573e+000	 1.207046756558622e+001
 1.675261502280647e+000	 1.466810078530060e+000	 1.201760913659705e+001
 1.658972068288533e+000	 1.485208655025974e+000	 1.196637756342967e+001
 1.833816821126989e+000	 1.309428090297686e+000	 1.233916387670350e+001
 1.819334592758936e+000	 1.329476484930569e+000	 1.232194632855456e+001
 1.804620622673762e+000	 1.349381551761863e+000	 1.229968686468049e+001
 1.789677020451354e+000	 1.369139309734133e+000	 1.226934478701572e+001
 1.774505986113169e+000	 1.388745818894472e+000	 1.223214954834895e+001
 1.759109809128975e+000	 1.408197182947809e+000	 1.218947305337300e+001
 1.743490867337550e+000	 1.427489551781582e+000	 1.214270042774207e+001
 1.727651625782327e+000	 1.446619123958412e+000	 1.209323039454580e+001
 1.711594635463063e+000	 1.465582149173449e+000	 1.204247568224035e+001
 1.695322532004806e+000	 1.484374930673091e+000	 1.199186345516845e+001
 1.678838034245567e+000	 1.502993827631844e+000	 1.194283575699238e+001
 1.855516676502718e+000	 1.324922767771708e+000	 1.229892705864387e+001
 1.840863077549801e+000	 1.345208398348059e+000	 1.228438408999816e+001
 1.825974994641952e+000	 1.365349005101414e+000	 1.226198319043500e+001
 1.810854562322073e+000	 1.385340559865832e+000	 1.223239138590890e+001
 1.795504006644848e+000	 1.405179076066297e+000	 1.219677204769464e+001
 1.779925644171727e+000	 1.424860611302240e+000	 1.215629696541669e+001
 1.764121880878855e+000	 1.444381269902088e+000	 1.211214715164091e+001
 1.748095210978938e+000	 1.463737205445430e+000	 1.206551370350711e+001
 1.731848215658145e+000	 1.482924623249444e+000	 1.201759871217097e+001
 1.715383561729319e+000	 1.501939782816236e+000	 1.196961620985864e+001
 1.698704000202935e+000	 1.520779000237831e+000	 1.192279314341788e+001
 1.877216531878911e+000	 1.340417445245763e+000	 1.225513120572073e+001
 1.862391562341168e+000	 1.360940311765608e+000	 1.224124344223818e+001
 1.847329366610672e+000	 1.381316458441041e+000	 1.222021611326652e+001
 1.832032104193344e+000	 1.401541809997616e+000	 1.219296896129031e+001
 1.816502027177093e+000	 1.421612333238214e+000	 1.216042365254490e+001
 1.800741479215049e+000	 1.441524039656767e+000	 1.212350505181100e+001
 1.784752894420728e+000	 1.461272988022692e+000	 1.208314258375320e+001
 1.768538796176111e+000	 1.480855286932549e+000	 1.204027167130163e+001
 1.752101795853774e+000	 1.500267097325546e+000	 1.199583524044522e+001
 1.735444591454357e+000	 1.519504634959500e+000	 1.195078527971322e+001
 1.718569966160802e+000	 1.538564172843951e+000	 1.190608444158254e+001
 1.898916387255753e+000	 1.355912122719749e+000	 1.220482931027265e+001
 1.883920047133223e+000	 1.376672225183124e+000	 1.219275323770592e+001
 1.868683738580113e+000	 1.397283911780662e+000	 1.217472569748979e+001
 1.853209646065358e+000	 1.417743060129417e+000	 1.215138670885355e+001
 1.837500047710095e+000	 1.438045590410163e+000	 1.212337162769732e+001
 1.821557314259136e+000	 1.458187468011342e+000	 1.209131304193253e+001
 1.805383907963363e+000	 1.478164706143358e+000	 1.205584277727244e+001
 1.788982381374034e+000	 1.497973368419745e+000	 1.201759400252970e+001
 1.772355376050134e+000	 1.517609571401743e+000	 1.197720342220534e+001
 1.755505621180099e+000	 1.537069487102882e+000	 1.193531354292675e+001
 1.738435932119337e+000	 1.556349345450221e+000	 1.189257499912008e+001
 1.539776272543993e+000	 1.378497619392281e+000	 1.219539583918224e+001
 1.524467299600929e+000	 1.395408981614681e+000	 1.212913694071474e+001
 1.508968793931934e+000	 1.412154398015745e+000	 1.205438990215389e+001
 1.493283469725799e+000	 1.428730698645799e+000	 1.197273832124079e+001
 1.477414111523483e+000	 1.445134773122503e+000	 1.188580375985214e+001
 1.461363572573377e+000	 1.461363572573377e+000	 1.179524453905271e+001
 1.445134773122503e+000	 1.477414111523483e+000	 1.170275443008996e+001
 1.428730698645800e+000	 1.493283469725799e+000	 1.161006123610859e+001
 1.412154398015745e+000	 1.508968793931934e+000	 1.151892525953902e+001
 1.395408981614681e+000	 1.524467299600929e+000	 1.143113765035063e+001
 1.378497619392282e+000	 1.539776272543993e+000	 1.134851863065800e+001
 1.559642238502527e+000	 1.396282791997798e+000	 1.214508619745460e+001
 1.544135751452474e+000	 1.413412342116847e+000	 1.208134971798645e+001
 1.528437286353301e+000	 1.430373805406068e+000	 1.201136275855021e+001
 1.512549592411856e+000	 1.447163971017574e+000	 1.193624226890692e+001
 1.496475490094825e+000	 1.463779688439336e+000	 1.185713352549040e+001
 1.480217869462783e+000	 1.480217869462783e+000	 1.177520990608460e+001
 1.463779688439336e+000	 1.496475490094825e+000	 1.169167257751005e+001
 1.447163971017574e+000	 1.512549592411856e+000	 1.160775008842429e+001
 1.430373805406068e+000	 1.528437286353301e+000	 1.152469785945580e+001
 1.413412342116847e+000	 1.544135751452474e+000	 1.144379756307572e+001
 1.396282791997798e+000	 1.559642238502527e+000	 1.136635638587060e+001
 1.579508204460395e+000	 1.414067964603332e+000	 1.210017259096886e+001
 1.563804203303395e+000	 1.431415702618946e+000	 1.203907320132914e+001
 1.547905778774097e+000	 1.448593212796243e+000	 1.197338243350483e+001
 1.531815715097399e+000	 1.465597243389118e+000	 1.190384305256468e+001
 1.515536868665719e+000	 1.482424603755863e+000	 1.183121870288404e+001
 1.499072166351807e+000	 1.499072166351807e+000	 1.175629451196982e+001
 1.482424603755862e+000	 1.515536868665718e+000	 1.167987762094762e+001
 1.465597243389118e+000	 1.531815715097399e+000	 1.160279763143286e+001
 1.448593212796242e+000	 1.547905778774097e+000	 1.152590695856429e+001
 1.431415702618947e+000	 1.563804203303396e+000	 1.145008108011852e+001
 1.414067964603332e+000	 1.579508204460395e+000	 1.137621867184767e+001
 1.599374170417763e+000	 1.431853137208900e+000	 1.206020693037445e+001
 1.583472655153850e+000	 1.449419063121011e+000	 1.200176451327352e+001
 1.567374271194464e+000	 1.466812620186314e+000	 1.193987005048631e+001
 1.551081837782558e+000	 1.484030515760497e+000	 1.187498099334964e+001
 1.534598247236275e+000	 1.501069519072161e+000	 1.180757035730771e+001
 1.517926463240549e+000	 1.517926463240549e+000	 1.173812800837681e+001
 1.501069519072162e+000	 1.534598247236275e+000	 1.166716188661640e+001
 1.484030515760496e+000	 1.551081837782558e+000	 1.159519915422655e+001
 1.466812620186314e+000	 1.567374271194464e+000	 1.152278725589416e+001
 1.449419063121011e+000	 1.583472655153850e+000	 1.145049487911153e+001
 1.431853137208900e+000	 1.599374170417763e+000	 1.137891280238213e+001
 1.619240136374797e+000	 1.449638309814519e+000	 1.202480052641889e+001
 1.603141107003993e+000	 1.467422423623072e+000	 1.196894661197940e+001
 1.586842763614545e+000	 1.485032027576333e+000	 1.191031615318243e+001
 1.570347960467461e+000	 1.502463788131775e+000	 1.184916673635601e+001
 1.553659625806610e+000	 1.519714434388317e+000	 1.178576827331931e+001
 1.536780760129105e+000	 1.536780760129105e+000	 1.172040482778323e+001
 1.519714434388316e+000	 1.553659625806610e+000	 1.165337638589664e+001
 1.502463788131775e+000	 1.570347960467461e+000	 1.158500055672621e+001
 1.485032027576333e+000	 1.586842763614545e+000	 1.151561418841700e+001
 1.467422423623072e+000	 1.603141107003993e+000	 1.144557488584129e+001
 1.449638309814519e+000	 1.619240136374797e+000	 1.137526241570879e+001
 1.639106102331665e+000	 1.467423482420205e+000	 1.199361904317261e+001
 1.622809558853981e+000	 1.485425784125162e+000	 1.194020289913440e+001
 1.606311256034485e+000	 1.503251434966346e+000	 1.188427514816383e+001
 1.589614083152236e+000	 1.520897060503017e+000	 1.182597569770700e+001
 1.572721004376836e+000	 1.538359349704408e+000	 1.176545556525827e+001
 1.555635057017574e+000	 1.555635057017573e+000	 1.170287910564090e+001
 1.538359349704408e+000	 1.572721004376835e+000	 1.163842618646874e+001
 1.520897060503017e+000	 1.589614083152237e+000	 1.157229429601019e+001
 1.503251434966346e+000	 1.606311256034484e+000	 1.150470056759240e+001
 1.485425784125162e+000	 1.622809558853982e+000	 1.143588370471164e+001
 1.467423482420205e+000	 1.639106102331665e+000	 1.136610579115659e+001
 1.658972068288533e+000	 1.485208655025974e+000	 1.196637756342967e+001
 1.642478010703969e+000	 1.503429144627313e+000	 1.191517196463124e+001
 1.625779748454424e+000	 1.521470842356402e+000	 1.186135989626806e+001
 1.608880205837015e+000	 1.539330332874287e+000	 1.180504266037990e+001
 1.591782382947066e+000	 1.557004265020518e+000	 1.174633342538552e+001
 1.574489353906053e+000	 1.574489353906053e+000	 1.168535971869230e+001
 1.557004265020518e+000	 1.591782382947067e+000	 1.162226586851763e+001
 1.539330332874287e+000	 1.608880205837015e+000	 1.155721537783336e+001
 1.521470842356401e+000	 1.625779748454424e+000	 1.149039321322401e+001
 1.503429144627313e+000	 1.642478010703968e+000	 1.142200799144581e+001
 1.485208655025974e+000	 1.658972068288533e+000	 1.135229404659411e+001
 1.678838034245567e+000	 1.502993827631844e+000	 1.194283575699238e+001
 1.662146462554112e+000	 1.521432505129557e+000	 1.189354245669311e+001
 1.645248240874508e+000	 1.539690249746549e+000	 1.184123644038656e+001
 1.628146328521925e+000	 1.557763605245652e+000	 1.178605650646400e+001
 1.610843761517417e+000	 1.575649180336727e+000	 1.172815599826233e+001
 1.593343650794640e+000	 1.593343650794641e+000	 1.166770542981858e+001
 1.575649180336727e+000	 1.610843761517417e+000	 1.160489505896165e+001
 1.557763605245651e+000	 1.628146328521925e+000	 1.153993738959264e+001
 1.539690249746549e+000	 1.645248240874507e+000	 1.147306958484847e+001
 1.521432505129557e+000	 1.662146462554112e+000	 1.140455577281274e+001
 1.502993827631845e+000	 1.678838034245567e+000	 1.133468922654188e+001
 1.698704000202935e+000	 1.520779000237831e+000	 1.192279314341788e+001
 1.681814914404567e+000	 1.539435865631926e+000	 1.187504806717831e+001
 1.664716733294878e+000	 1.557909657136836e+000	 1.182361885848692e+001
 1.647412451207094e+000	 1.576196877617173e+000	 1.176875507468286e+001
 1.629905140088000e+000	 1.594294095653117e+000	 1.171072537103495e+001
 1.612197947683434e+000	 1.612197947683434e+000	 1.164982013069663e+001
 1.594294095653117e+000	 1.629905140088000e+000	 1.158635403731814e+001
 1.576196877617174e+000	 1.647412451207094e+000	 1.152066857134674e+001
 1.557909657136836e+000	 1.664716733294878e+000	 1.145313441085870e+001
 1.539435865631927e+000	 1.681814914404567e+000	 1.138415371771323e+001
 1.520779000237831e+000	 1.698704000202935e+000	 1.131416228990318e+001
 1.718569966160802e+000	 1.538564172843951e+000	 1.190608444158254e+001
 1.701483366255489e+000	 1.557439226134452e+000	 1.185946262274351e+001
 1.684185225715678e+000	 1.576129064527310e+000	 1.180826423173745e+001
 1.666678573892654e+000	 1.594630149988919e+000	 1.175292013304486e+001
 1.648966518658931e+000	 1.612939010969770e+000	 1.169388667024540e+001
 1.631052244572532e+000	 1.631052244572532e+000	 1.163164817435177e+001
 1.612939010969769e+000	 1.648966518658930e+000	 1.156671940740954e+001
 1.594630149988920e+000	 1.666678573892654e+000	 1.149964792181006e+001
 1.576129064527309e+000	 1.684185225715677e+000	 1.143101631554579e+001
 1.557439226134453e+000	 1.701483366255490e+000	 1.136144436356260e+001
 1.538564172843951e+000	 1.718569966160803e+000	 1.129159100543438e+001
 1.738435932119337e+000	 1.556349345450221e+000	 1.189257499912008e+001
 1.721151818107034e+000	 1.575442586637167e+000	 1.184659527339809e+001
 1.703653718137051e+000	 1.594348471918019e+000	 1.179496771852664e+001
 1.685944696578731e+000	 1.613063422360952e+000	 1.173837245741190e+001
 1.668027897230322e+000	 1.631583926286766e+000	 1.167752325664783e+001
 1.649906541462032e+000	 1.649906541462032e+000	 1.161316979041497e+001
 1.631583926286766e+000	 1.668027897230322e+000	 1.154609982964288e+001
 1.613063422360952e+000	 1.685944696578732e+000	 1.147714133652393e+001
 1.594348471918019e+000	 1.703653718137051e+000	 1.140716444422480e+001
 1.575442586637168e+000	 1.721151818107034e+000	 1.133708330154572e+001
 1.556349345450221e+000	 1.738435932119336e+000	 1.126785776233636e+001
 1.378497619392282e+000	 1.539776272543993e+000	 1.134851863065800e+001
 1.361420965674179e+000	 1.554895323933223e+000	 1.126463135379152e+001
 1.344184830645459e+000	 1.569819574097472e+000	 1.117304462478846e+001
 1.326792553554179e+000	 1.584546529405988e+000	 1.107541659169600e+001
 1.309247524943862e+000	 1.599073772548270e+000	 1.097155244927994e+001
 1.291553184473516e+000	 1.613398963829417e+000	 1.086248402429128e+001
 1.273713018699258e+000	 1.627519842390902e+000	 1.074971200446282e+001
 1.255730558820517e+000	 1.641434227355505e+000	 1.063469625415904e+001
 1.237609378393840e+000	 1.655140018895221e+000	 1.051885259841109e+001
 1.219353091017331e+000	 1.668635199221159e+000	 1.040354971503135e+001
 1.200965347988850e+000	 1.681917833494530e+000	 1.029010613134763e+001
 1.396282791997798e+000	 1.559642238502527e+000	 1.136635638587060e+001
 1.378985817816562e+000	 1.574956353658965e+000	 1.128574620539088e+001
 1.361527304720379e+000	 1.590073154293837e+000	 1.119576769698747e+001
 1.343910635039803e+000	 1.604990114603931e+000	 1.109839428215178e+001
 1.326139243062656e+000	 1.619704786090954e+000	 1.099545616568835e+001
 1.308216612825929e+000	 1.634214798873599e+000	 1.088713371314904e+001
 1.290146275868779e+000	 1.648517862924069e+000	 1.077472156326054e+001
 1.271931808949659e+000	 1.662611769227780e+000	 1.065988407784751e+001
 1.253576831730622e+000	 1.676494390865051e+000	 1.054424551265812e+001
 1.235085004431890e+000	 1.690163684013768e+000	 1.042938656854643e+001
 1.216460025459840e+000	 1.703617688872130e+000	 1.031684104219358e+001
 1.414067964603332e+000	 1.579508204460395e+000	 1.137621867184767e+001
 1.396550669959048e+000	 1.595017383384004e+000	 1.129771412567123e+001
 1.378869778795487e+000	 1.610326734489471e+000	 1.120871203572304e+001
 1.361028716525699e+000	 1.625433699801120e+000	 1.111126503686489e+001
 1.343030961181805e+000	 1.640335799632866e+000	 1.100748258334457e+001
 1.324880041178775e+000	 1.655030633916994e+000	 1.089931122933692e+001
 1.306579533038807e+000	 1.669515883456440e+000	 1.078730219424528e+001
 1.288133059079376e+000	 1.683789311099253e+000	 1.067299782275861e+001
 1.269544285068039e+000	 1.697848762834074e+000	 1.055817797003295e+001
 1.250816917847140e+000	 1.711692168805566e+000	 1.044458111575295e+001
 1.231954702931564e+000	 1.725317544248913e+000	 1.033390078718428e+001
 1.431853137208900e+000	 1.599374170417763e+000	 1.137891280238214e+001
 1.414115522101638e+000	 1.615078413108516e+000	 1.130162782168066e+001
 1.396212252870773e+000	 1.630580314684557e+000	 1.121320031994515e+001
 1.378146798011843e+000	 1.645877284997743e+000	 1.111571465649900e+001
 1.359922679301271e+000	 1.660966813174197e+000	 1.101131770487267e+001
 1.341543469532005e+000	 1.675846468959799e+000	 1.090221656145685e+001
 1.323012790209282e+000	 1.690513903988210e+000	 1.079042791774567e+001
 1.304334309209597e+000	 1.704966852970118e+000	 1.067688718258609e+001
 1.285511738406013e+000	 1.719203134802480e+000	 1.056333162218418e+001
 1.266548831262987e+000	 1.733220653596737e+000	 1.045160542818838e+001
 1.247449380403922e+000	 1.747017399625063e+000	 1.034350852854181e+001
 1.449638309814519e+000	 1.619240136374797e+000	 1.137526241570878e+001
 1.431680374244336e+000	 1.635139442832677e+000	 1.129858411275377e+001
 1.413554726946223e+000	 1.650833894879276e+000	 1.121054980238609e+001
 1.395264879498211e+000	 1.666320870193986e+000	 1.111322980794128e+001
 1.376814397421018e+000	 1.681597826715139e+000	 1.100876096469188e+001
 1.358206897885572e+000	 1.696662304002206e+000	 1.089934445584554e+001
 1.339446047380145e+000	 1.711511924519575e+000	 1.078724340790709e+001
 1.320535559340253e+000	 1.726144394840567e+000	 1.067452066521342e+001
 1.301479191744462e+000	 1.740557506770461e+000	 1.056251024988376e+001
 1.282280744679345e+000	 1.754749138387473e+000	 1.045305900551667e+001
 1.262944057876814e+000	 1.768717255000763e+000	 1.034802201868442e+001
 1.467423482420205e+000	 1.639106102331665e+000	 1.136610579115659e+001
 1.449245226387142e+000	 1.655200472556662e+000	 1.128968309526232e+001
 1.430897201021827e+000	 1.671087475073811e+000	 1.120207216501615e+001
 1.412382960984778e+000	 1.686764455390040e+000	 1.110528516217958e+001
 1.393706115541010e+000	 1.702228840255884e+000	 1.100140310381937e+001
 1.374870326239427e+000	 1.717478139044408e+000	 1.089257392793128e+001
 1.355879304551337e+000	 1.732509945050727e+000	 1.078101030716364e+001
 1.336736809471274e+000	 1.747321936710794e+000	 1.066898720566037e+001
 1.317446645083307e+000	 1.761911878738207e+000	 1.055863416326833e+001
 1.298012658096122e+000	 1.776277623177960e+000	 1.045166307171215e+001
 1.278438735350138e+000	 1.790417110376195e+000	 1.034992768775977e+001
 1.485208655025974e+000	 1.658972068288533e+000	 1.135229404659411e+001
 1.466810078530060e+000	 1.675261502280647e+000	 1.127602712969847e+001
 1.448239675097573e+000	 1.691341055268345e+000	 1.118907314992062e+001
 1.429501042471520e+000	 1.707208040586091e+000	 1.109334352832508e+001
 1.410597833661210e+000	 1.722859853796624e+000	 1.099081927085483e+001
 1.391533754593522e+000	 1.738293974086600e+000	 1.088354936470654e+001
 1.372312561722800e+000	 1.753507965581860e+000	 1.077364891379073e+001
 1.352938059602591e+000	 1.768499478580991e+000	 1.066329700675811e+001
 1.333414098422467e+000	 1.783266250705911e+000	 1.055473431225253e+001
 1.313744571513226e+000	 1.797806107968385e+000	 1.045025460603449e+001
 1.293933412823795e+000	 1.812116965751542e+000	 1.035183449592742e+001
 1.502993827631845e+000	 1.678838034245567e+000	 1.133468922654188e+001
 1.484374930673091e+000	 1.695322532004807e+000	 1.125871966480673e+001
 1.465582149173450e+000	 1.711594635463063e+000	 1.117285198420079e+001
 1.446619123958412e+000	 1.727651625782327e+000	 1.107885574885117e+001
 1.427489551781582e+000	 1.743490867337551e+000	 1.097856926205338e+001
 1.408197182947809e+000	 1.759109809128975e+000	 1.087389839348134e+001
 1.388745818894472e+000	 1.774505986113169e+000	 1.076681513867890e+001
 1.369139309734133e+000	 1.789677020451354e+000	 1.065935590248983e+001
 1.349381551761863e+000	 1.804620622673762e+000	 1.055361949930561e+001
 1.329476484930569e+000	 1.819334592758937e+000	 1.045178013076214e+001
 1.309428090297686e+000	 1.833816821126989e+000	 1.035646756987632e+001
 1.520779000237831e+000	 1.698704000202935e+000	 1.131416228990317e+001
 1.501939782816236e+000	 1.715383561729319e+000	 1.123886391210511e+001
 1.482924623249444e+000	 1.731848215658145e+000	 1.115470061576063e+001
 1.463737205445429e+000	 1.748095210978939e+000	 1.106326037559493e+001
 1.444381269902088e+000	 1.764121880878854e+000	 1.096619752106611e+001
 1.424860611302240e+000	 1.779925644171726e+000	 1.086523209355630e+001
 1.405179076066297e+000	 1.795504006644849e+000	 1.076214893121981e+001
 1.385340559865832e+000	 1.810854562322073e+000	 1.065879647103193e+001
 1.365349005101414e+000	 1.825974994641952e+000	 1.055708525884545e+001
 1.345208398348060e+000	 1.840863077549801e+000	 1.045898615963362e+001
 1.324922767771708e+000	 1.855516676502718e+000	 1.036666164124061e+001
 1.538564172843951e+000	 1.718569966160803e+000	 1.129159100543438e+001
 1.519504634959500e+000	 1.735444591454357e+000	 1.121756138290074e+001
 1.500267097325547e+000	 1.752101795853774e+000	 1.113590277528197e+001
 1.480855286932549e+000	 1.768538796176111e+000	 1.104798314426239e+001
 1.461272988022692e+000	 1.784752894420728e+000	 1.095523291779479e+001
 1.441524039656768e+000	 1.800741479215049e+000	 1.085914497558517e+001
 1.421612333238213e+000	 1.816502027177092e+000	 1.076127435975696e+001
 1.401541809997616e+000	 1.832032104193344e+000	 1.066323769783668e+001
 1.381316458441040e+000	 1.847329366610672e+000	 1.056671232650282e+001
 1.360940311765608e+000	 1.862391562341168e+000	 1.047343510596102e+001
 1.340417445245762e+000	 1.877216531878911e+000	 1.038520091634744e+001
 1.556349345450221e+000	 1.738435932119336e+000	 1.126785776233636e+001
 1.537069487102882e+000	 1.755505621180099e+000	 1.119591029880006e+001
 1.517609571401743e+000	 1.772355376050134e+000	 1.111773287829158e+001
 1.497973368419745e+000	 1.788982381374034e+000	 1.103443626355473e+001
 1.478164706143358e+000	 1.805383907963363e+000	 1.094718832403030e+001
 1.458187468011342e+000	 1.821557314259135e+000	 1.085721474721028e+001
 1.438045590410163e+000	 1.837500047710095e+000	 1.076579947481342e+001
 1.417743060129417e+000	 1.853209646065358e+000	 1.067428484823241e+001
 1.397283911780661e+000	 1.868683738580113e+000	 1.058407144903339e+001
 1.376672225183124e+000	 1.883920047133223e+000	 1.049661762175920e+001
 1.355912122719749e+000	 1.898916387255753e+000	 1.041343866788818e+001
 1.200965347988850e+000	 1.681917833494530e+000	 1.029010613134763e+001
 1.182449835540888e+000	 1.694986070180314e+000	 1.017644242015253e+001
 1.163810271280825e+000	 1.707838140353592e+000	 1.005991296045157e+001
 1.145050403035632e+000	 1.720472359784237e+000	 9.940883716585933e+000
 1.126174006844908e+000	 1.732887130004770e+000	 9.819634477667606e+000
 1.107184884536711e+000	 1.745080938822499e+000	 9.696357755352144e+000
 1.088086861295837e+000	 1.757052360750431e+000	 9.571157800180641e+000
 1.068883783227663e+000	 1.768800057357055e+000	 9.444049730906096e+000
 1.049579514920662e+000	 1.780322777535210e+000	 9.314958771767710e+000
 1.030177937010685e+000	 1.791619357690404e+000	 9.183719593313592e+000
 1.010682943750033e+000	 1.802688721849068e+000	 9.050075753083284e+000
 1.216460025459840e+000	 1.703617688872130e+000	 1.031684104219358e+001
 1.197705628606193e+000	 1.716854530016881e+000	 1.020423903286829e+001
 1.178825579442343e+000	 1.729872415700694e+000	 1.008853197729071e+001
 1.159823674149157e+000	 1.742669639963754e+000	 9.970133597333664e+000
 1.140703737484130e+000	 1.755244583715394e+000	 9.849370055393697e+000
 1.121469620325929e+000	 1.767595715252836e+000	 9.726478839649447e+000
 1.102125197211310e+000	 1.779721590697669e+000	 9.601607762248353e+000
 1.082674363867519e+000	 1.791620854350134e+000	 9.474814063764894e+000
 1.063121034743368e+000	 1.803292238961474e+000	 9.346063617922010e+000
 1.043469140542086e+000	 1.814734565924676e+000	 9.215230231311644e+000
 1.023722625759031e+000	 1.825946745384120e+000	 9.082095033682652e+000
 1.231954702931564e+000	 1.725317544248913e+000	 1.033390078718428e+001
 1.212961421672267e+000	 1.738722989852626e+000	 1.022338137650027e+001
 1.193840887604656e+000	 1.751906691046967e+000	 1.010951231394608e+001
 1.174596945263497e+000	 1.764866920142439e+000	 9.992753380016179e+000
 1.155233468124176e+000	 1.777602037425184e+000	 9.873476068571051e+000
 1.135754356115979e+000	 1.790110491682342e+000	 9.751962471389296e+000
 1.116163533127615e+000	 1.802390820644081e+000	 9.628404268168650e+000
 1.096464944508205e+000	 1.814441651342400e+000	 9.502901814134523e+000
 1.076662554566900e+000	 1.826261700386945e+000	 9.375463318165620e+000
 1.056760344074309e+000	 1.837849774158181e+000	 9.246004105216754e+000
 1.036762307768846e+000	 1.849204768918440e+000	 9.114345957779687e+000
 1.247449380403922e+000	 1.747017399625063e+000	 1.034350852854181e+001
 1.228217214739000e+000	 1.760591449687726e+000	 1.023583107576102e+001
 1.208856195767644e+000	 1.773940966392586e+000	 1.012456675514955e+001
 1.189370216378519e+000	 1.787064200320456e+000	 1.001021986799698e+001
 1.169763198764909e+000	 1.799959491134297e+000	 9.893206349396666e+000
 1.150039091906711e+000	 1.812625268111165e+000	 9.773852665159312e+000
 1.130201869044597e+000	 1.825060050589807e+000	 9.652394804841290e+000
 1.110255525149559e+000	 1.837262448333983e+000	 9.528977361730592e+000
 1.090204074391088e+000	 1.849231161811743e+000	 9.403652691507453e+000
 1.070051547607175e+000	 1.860964982391030e+000	 9.276380142296949e+000
 1.049801989779293e+000	 1.872462792452129e+000	 9.147025349938854e+000
 1.262944057876814e+000	 1.768717255000763e+000	 1.034802201868442e+001
 1.243473007806282e+000	 1.782459909522359e+000	 1.024369204754247e+001
 1.223871503931186e+000	 1.795975241737718e+000	 1.013555736399068e+001
 1.204143487494095e+000	 1.809261480497971e+000	 1.002416539269505e+001
 1.184292929406188e+000	 1.822316944842891e+000	 9.909975751367059e+000
 1.164323827697979e+000	 1.835140044539452e+000	 9.793359174451554e+000
 1.144240204962098e+000	 1.847729280534987e+000	 9.674596521715317e+000
 1.124046105791414e+000	 1.860083245325012e+000	 9.553877861127681e+000
 1.103745594215759e+000	 1.872200623235985e+000	 9.431301616432094e+000
 1.083342751140507e+000	 1.884080190623331e+000	 9.306873770952223e+000
 1.062841671790189e+000	 1.895720815985286e+000	 9.180507120442488e+000
 1.278438735350138e+000	 1.790417110376195e+000	 1.034992768775977e+001
 1.258728800874001e+000	 1.804328369356703e+000	 1.024920435402465e+001
 1.238886812095163e+000	 1.818009517082537e+000	 1.014448914954066e+001
 1.218916758610096e+000	 1.831458760675146e+000	 1.003637134451813e+001
 1.198822660047875e+000	 1.844674398551119e+000	 9.925353592122791e+000
 1.178608563489632e+000	 1.857654820967351e+000	 9.811850894778715e+000
 1.158278540879960e+000	 1.870398510479757e+000	 9.696189642252998e+000
 1.137836686433605e+000	 1.882904042315616e+000	 9.578606709316230e+000
 1.117287114040742e+000	 1.895170084659792e+000	 9.459248601924029e+000
 1.096633954674127e+000	 1.907195398855193e+000	 9.338170642170024e+000
 1.075881353801352e+000	 1.918978839518011e+000	 9.215336183694436e+000
 1.293933412823795e+000	 1.812116965751542e+000	 1.035183449592742e+001
 1.273984593942049e+000	 1.826196829190936e+000	 1.025473785281139e+001
 1.253902120259454e+000	 1.840043792427213e+000	 1.015350356069208e+001
 1.233690029726389e+000	 1.853656040852145e+000	 1.004876155608423e+001
 1.213352390689829e+000	 1.867031852259139e+000	 9.941056971509296e+000
 1.192893299281523e+000	 1.880169597395008e+000	 9.830849161767935e+000
 1.172316876798029e+000	 1.893067740424256e+000	 9.718510786943291e+000
 1.151627267075970e+000	 1.905724839305924e+000	 9.604326938175808e+000
 1.130828633865865e+000	 1.918139546083284e+000	 9.488494293556416e+000
 1.109925158207855e+000	 1.930310607086728e+000	 9.371120292963141e+000
 1.088921035812597e+000	 1.942236863050402e+000	 9.252222322283767e+000
 1.309428090297686e+000	 1.833816821126989e+000	 1.035646756987632e+001
 1.289240387010314e+000	 1.848065289025234e+000	 1.026278566090503e+001
 1.268917428423940e+000	 1.862078067771918e+000	 1.016487182060972e+001
 1.248463300842847e+000	 1.875853321029134e+000	 1.006339554996644e+001
 1.227882121331912e+000	 1.889389305967105e+000	 9.958943975189722e+000
 1.207178035073505e+000	 1.902684373822573e+000	 9.852020952929893e+000
 1.186355212716147e+000	 1.915736970368623e+000	 9.743046215190567e+000
 1.165417847718342e+000	 1.928545636296065e+000	 9.632354538084458e+000
 1.144370153690955e+000	 1.941109007506578e+000	 9.520194920023029e+000
 1.123216361741515e+000	 1.953425815318042e+000	 9.406729756594654e+000
 1.101960717823740e+000	 1.965494886582560e+000	 9.292034001209812e+000
 1.324922767771708e+000	 1.855516676502718e+000	 1.036666164124061e+001
 1.304496180078686e+000	 1.869933748859776e+000	 1.027595744775969e+001
 1.283932736588499e+000	 1.884112343116823e+000	 1.018098811484000e+001
 1.263236571959339e+000	 1.898050601206275e+000	 1.008246166205142e+001
 1.242411851973984e+000	 1.911746759675175e+000	 9.981006773178637e+000
 1.221462770865427e+000	 1.925199150250191e+000	 9.877172000989084e+000
 1.200393548634157e+000	 1.938406200312997e+000	 9.771424992719894e+000
 1.179208428360558e+000	 1.951366433286168e+000	 9.664151718300774e+000
 1.157911673515842e+000	 1.964078468929797e+000	 9.555655684988070e+000
 1.136507565274927e+000	 1.976541023549247e+000	 9.446157123945666e+000
 1.115000399834598e+000	 1.988752910114585e+000	 9.335792136347212e+000
 1.340417445245762e+000	 1.877216531878911e+000	 1.038520091634744e+001
 1.319751973147055e+000	 1.891802208694739e+000	 1.029697257124331e+001
 1.298948044753012e+000	 1.906146618462098e+000	 1.020436264492006e+001
 1.278009843075734e+000	 1.920247881383732e+000	 1.010827005057573e+001
 1.256941582615906e+000	 1.934104213383504e+000	 1.000936462179873e+001
 1.235747506657143e+000	 1.947713926678010e+000	 9.908239825930060e+000
 1.214431884551902e+000	 1.961075430257515e+000	 9.805412090525170e+000
 1.192999009002452e+000	 1.974187230276363e+000	 9.701320109234116e+000
 1.171453193340355e+000	 1.987047930353057e+000	 9.596324108678747e+000
 1.149798768807915e+000	 1.999656231780452e+000	 9.490705059979113e+000
 1.128040081844989e+000	 2.012010933646574e+000	 9.384187234332007e+000
 1.355912122719749e+000	 1.898916387255753e+000	 1.041343866788818e+001
 1.335007766215312e+000	 1.913670668530300e+000	 1.032864160281353e+001
 1.313963352917359e+000	 1.928180893807915e+000	 1.023761455824556e+001
 1.292783114191905e+000	 1.942445161561669e+000	 1.014324559998505e+001
 1.271471313257540e+000	 1.956461667092249e+000	 1.004625677678582e+001
 1.250032242448504e+000	 1.970228703106179e+000	 9.947286692262903e+000
 1.228470220469227e+000	 1.983744660202318e+000	 9.846901420835778e+000
 1.206789589643861e+000	 1.997008027266777e+000	 9.745593911251536e+000
 1.184994713164319e+000	 2.010017391776478e+000	 9.643822117960003e+000
 1.163089972340300e+000	 2.022771440011767e+000	 9.541340882031230e+000
 1.141079763854727e+000	 2.035268957178629e+000	 9.437146370839837e+000
 1.010682943750033e+000	 1.802688721849068e+000	 9.050075753083284e+000
 9.911013848124723e-001	 1.813528272997309e+000	 8.915736068451478e+000
 9.714342563694887e-001	 1.824138789421242e+000	 8.782900873315549e+000
 9.516854783112035e-001	 1.834519459694026e+000	 8.651957107582229e+000
 9.318589744831693e-001	 1.844669559610956e+000	 8.523194992067570e+000
 9.119586703247526e-001	 1.854588451907370e+000	 8.396803539114339e+000
 8.919884905296137e-001	 1.864275585902090e+000	 8.272868358120160e+000
 8.719523567309262e-001	 1.873730497067710e+000	 8.151369609905462e+000
 8.518541852139021e-001	 1.882952806529170e+000	 8.032180117099003e+000
 8.316978846581150e-001	 1.891942220492133e+000	 7.915063638328059e+000
 8.114873539120182e-001	 1.900698529602767e+000	 7.799673314548053e+000
 1.023722625759031e+000	 1.825946745384120e+000	 9.082095033682652e+000
 1.003888428441440e+000	 1.836926146819623e+000	 8.948462884328402e+000
 9.839675576132633e-001	 1.847673558558638e+000	 8.816574599329597e+000
 9.639639837384755e-001	 1.858188158705416e+000	 8.686766857200565e+000
 9.438816812875148e-001	 1.868469213711674e+000	 8.559276609825854e+000
 9.237246263451980e-001	 1.878516078090857e+000	 8.434236511504082e+000
 9.034967942410129e-001	 1.888328194056983e+000	 8.311672729046006e+000
 8.832021572044748e-001	 1.897905091089385e+000	 8.191502890507110e+000
 8.628446820481395e-001	 1.907246385424817e+000	 8.073534179871732e+000
 8.424283278807979e-001	 1.916351779478452e+000	 7.957461585759474e+000
 8.219570438532781e-001	 1.925221061195408e+000	 7.842866312911621e+000
 1.036762307768846e+000	 1.849204768918440e+000	 9.114345957779687e+000
 1.016675472071220e+000	 1.860324020641252e+000	 8.982374613736399e+000
 9.965008588578460e-001	 1.871208327695403e+000	 8.852364410606626e+000
 9.762424891665522e-001	 1.881856857716237e+000	 8.724644107101643e+000
 9.559043880926638e-001	 1.892268867811892e+000	 8.599428297235514e+000
 9.354905823664451e-001	 1.902443704273920e+000	 8.476827324216041e+000
 9.150050979532124e-001	 1.912380802211533e+000	 8.356842130247092e+000
 8.944519576788237e-001	 1.922079685110802e+000	 8.239362143432446e+000
 8.738351788831772e-001	 1.931539964320292e+000	 8.124163299665016e+000
 8.531587711042796e-001	 1.940761338464687e+000	 8.010906207958362e+000
 8.324267337953374e-001	 1.949743592788055e+000	 7.899134468515313e+000
 1.049801989779293e+000	 1.872462792452129e+000	 9.147025349938852e+000
 1.029462515701623e+000	 1.883721894462284e+000	 9.017532394411594e+000
 1.009034160103046e+000	 1.894743096831615e+000	 8.890217388055923e+000
 9.885209945952407e-001	 1.905525556726559e+000	 8.765425086553258e+000
 9.679270948984198e-001	 1.916068521911670e+000	 8.643383536024127e+000
 9.472565383882966e-001	 1.926371330456608e+000	 8.524213902081312e+000
 9.265134016660140e-001	 1.936433410365777e+000	 8.407925221220804e+000
 9.057017581537732e-001	 1.946254279131987e+000	 8.294412171089515e+000
 8.848256757188148e-001	 1.955833543215612e+000	 8.183452963744017e+000
 8.638892143283621e-001	 1.965170897450847e+000	 8.074707370847607e+000
 8.428964237379969e-001	 1.974266124380708e+000	 7.967714890745097e+000
 1.062841671790189e+000	 1.895720815985286e+000	 9.180507120442488e+000
 1.042249559332463e+000	 1.907119768282810e+000	 9.054182924265355e+000
 1.021567461348670e+000	 1.918277865967356e+000	 8.930260274505883e+000
 1.000799500024346e+000	 1.929194255736451e+000	 8.809120495325519e+000
 9.799498017045861e-001	 1.939868176011067e+000	 8.691048153541640e+000
 9.590224944105535e-001	 1.950298956638970e+000	 8.576203835667844e+000
 9.380217053792190e-001	 1.960486018519756e+000	 8.464637136545619e+000
 9.169515586291239e-001	 1.970428873152970e+000	 8.356280594653837e+000
 8.958161725548528e-001	 1.980127122110799e+000	 8.250947402149345e+000
 8.746196575528441e-001	 1.989580456436942e+000	 8.148329234282393e+000
 8.533661136810564e-001	 1.998788655973366e+000	 8.047994208881558e+000
 1.075881353801352e+000	 1.918978839518011e+000	 9.215336183694436e+000
 1.055036602963550e+000	 1.930517642102919e+000	 9.092741099947782e+000
 1.034100762594529e+000	 1.941812635102705e+000	 8.972779137768333e+000
 1.013078005453673e+000	 1.952862954745983e+000	 8.855914816983850e+000
 9.919725085109667e-001	 1.963667830110144e+000	 8.742495379189723e+000
 9.707884504330185e-001	 1.974226582821057e+000	 8.632769787349782e+000
 9.495300090926281e-001	 1.984538626673510e+000	 8.526855260302019e+000
 9.282013591046765e-001	 1.994603467173783e+000	 8.424754011894583e+000
 9.068066693910913e-001	 2.004420701005870e+000	 8.325964507858611e+000
 8.853501007775266e-001	 2.013990015422982e+000	 8.227258744854597e+000
 8.638358036243158e-001	 2.023311187566027e+000	 8.127188166709843e+000
 1.088921035812597e+000	 1.942236863050402e+000	 9.252222322283769e+000
 1.067823646594697e+000	 1.953915515922700e+000	 9.133786959835344e+000
 1.046634063840428e+000	 1.965347404237740e+000	 9.018235994377228e+000
 1.025356510883029e+000	 1.976531653755224e+000	 8.906142507737480e+000
 1.003995215317365e+000	 1.987467484208959e+000	 8.797960836288953e+000
 9.825544064554943e-001	 1.998154209002917e+000	 8.694044825453993e+000
 9.610383128060425e-001	 2.008591234827077e+000	 8.593480028477861e+000
 9.394511595802311e-001	 2.018778061194452e+000	 8.493803767882241e+000
 9.177971662273304e-001	 2.028714279900847e+000	 8.394244496359349e+000
 8.960805440022087e-001	 2.038399574408974e+000	 8.294024546909576e+000
 8.743054935675751e-001	 2.047833719158692e+000	 8.192315013671761e+000
 1.101960717823740e+000	 1.965494886582560e+000	 9.292034001209812e+000
 1.080610690225716e+000	 1.977313389742243e+000	 9.178059737741076e+000
 1.059167365086179e+000	 1.988882173372540e+000	 9.067248276755983e+000
 1.037635016312218e+000	 2.000200352764243e+000	 8.960310103010842e+000
 1.016017922123584e+000	 2.011267138307571e+000	 8.856415094678622e+000
 9.943203624777822e-001	 2.022081835184600e+000	 8.754089941253730e+000
 9.725466165192630e-001	 2.032643842980497e+000	 8.652845064295404e+000
 9.507009600555887e-001	 2.042952655215010e+000	 8.552118248694120e+000
 9.287876630633704e-001	 2.053007858795747e+000	 8.451301480786221e+000
 9.068109872266910e-001	 2.062809133394929e+000	 8.349738257976414e+000
 8.847751835106342e-001	 2.072356250751360e+000	 8.246725640445687e+000
 1.115000399834598e+000	 1.988752910114585e+000	 9.335792136347216e+000
 1.093397733856419e+000	 2.000711263561638e+000	 9.226448954785745e+000
 1.071700666331588e+000	 2.012416942507187e+000	 9.119476256349273e+000
 1.049913521741047e+000	 2.023869051773110e+000	 9.014132025600265e+000
 1.028040628929428e+000	 2.035066792406040e+000	 8.910160839458293e+000
 1.006086318499684e+000	 2.046009461366154e+000	 8.807241076695407e+000
 9.840549202320906e-001	 2.056696451133809e+000	 8.705015425272190e+000
 9.619507605305493e-001	 2.067127249235484e+000	 8.603060049510855e+000
 9.397781598990115e-001	 2.077301437690591e+000	 8.500910521165450e+000
 9.175414304507735e-001	 2.087218692380858e+000	 8.398059499427392e+000
 8.952448734532940e-001	 2.096878782344030e+000	 8.293958786875884e+000
 1.128040081844989e+000	 2.012010933646574e+000	 9.384187234332007e+000
 1.106184777486618e+000	 2.024109137380973e+000	 9.277271047827441e+000
 1.084233967576464e+000	 2.035951711641759e+000	 9.171239685014458e+000
 1.062192027169320e+000	 2.047537750781894e+000	 9.066044045568566e+000
 1.040063335734701e+000	 2.058866446504426e+000	 8.961574543201870e+000
 1.017852274521003e+000	 2.069937087547630e+000	 8.857667617368874e+000
 9.955632239443272e-001	 2.080749059287053e+000	 8.754103245433159e+000
 9.732005610049137e-001	 2.091301843255902e+000	 8.650640424183310e+000
 9.507686567340532e-001	 2.101595016585397e+000	 8.546977996973137e+000
 9.282718736742566e-001	 2.111628251366767e+000	 8.442784725498440e+000
 9.057145633953535e-001	 2.121401313936701e+000	 8.337694944138850e+000
 1.141079763854727e+000	 2.035268957178629e+000	 9.437146370839837e+000
 1.118971821116124e+000	 2.047507011200339e+000	 9.331659544486552e+000
 1.096767268820617e+000	 2.059486480776334e+000	 9.226082175891195e+000
 1.074470532596845e+000	 2.071206449790665e+000	 9.120526421826510e+000
 1.052086042539205e+000	 2.082666100602788e+000	 9.015049817308945e+000
 1.029618230541540e+000	 2.093864713729079e+000	 8.909662290423199e+000
 1.007071527655773e+000	 2.104801667440268e+000	 8.804324528964623e+000
 9.844503614784818e-001	 2.115476437276296e+000	 8.698981989792305e+000
 9.617591535682968e-001	 2.125888595480185e+000	 8.593528549353803e+000
 9.390023168969391e-001	 2.136037810352666e+000	 8.487834952467168e+000
 9.161842533366131e-001	 2.145923845529372e+000	 8.381744867093069e+000
 8.114873539120182e-001	 1.900698529602767e+000	 7.799673314548053e+000
 7.912234369493598e-001	 1.909222869577757e+000	 7.681640242889604e+000
 7.709130368854968e-001	 1.917513867912702e+000	 7.558449315197749e+000
 7.505600127467703e-001	 1.925571565595462e+000	 7.432316945891826e+000
 7.301682051371443e-001	 1.933396084890728e+000	 7.305345648703310e+000
 7.097414342048215e-001	 1.940987628381445e+000	 7.179518592580158e+000
 6.892834976536051e-001	 1.948346477952993e+000	 7.056694479265159e+000
 6.687981688007214e-001	 1.955472993722270e+000	 6.938602760151271e+000
 6.482891946827237e-001	 1.962367612913845e+000	 6.828063512075184e+000
 6.277602942109746e-001	 1.969030848685419e+000	 6.728080281479295e+000
 6.072151563781101e-001	 1.975463288904845e+000	 6.639257677909175e+000
 8.219570438532781e-001	 1.925221061195408e+000	 7.842866312911621e+000
 8.014316848281604e-001	 1.933855380945222e+000	 7.725781211675044e+000
 7.808592429837711e-001	 1.942253348515646e+000	 7.604165258259509e+000
 7.602436271350281e-001	 1.950415005423360e+000	 7.480267976758222e+000
 7.395887274367915e-001	 1.958340475510496e+000	 7.356222899518779e+000
 7.188984133242422e-001	 1.966029963973694e+000	 7.234041743473979e+000
 6.981765314985874e-001	 1.973483756335180e+000	 7.115608907737395e+000
 6.774269039598260e-001	 1.980702217358025e+000	 7.002676311822179e+000
 6.566533260882138e-001	 1.987685789907810e+000	 6.897228580275883e+000
 6.358595647759500e-001	 1.994434993762919e+000	 6.802802910685683e+000
 6.150493566104991e-001	 2.000950424375790e+000	 6.720051567592421e+000
 8.324267337953374e-001	 1.949743592788055e+000	 7.899134468515313e+000
 8.116399327077611e-001	 1.958487892312784e+000	 7.785338216615349e+000
 7.908054490828439e-001	 1.966992829118775e+000	 7.667951028240512e+000
 7.699272415240813e-001	 1.975258445251525e+000	 7.549207851497169e+000
 7.490092497372286e-001	 1.983284866130609e+000	 7.431225099140145e+000
 7.280553924444432e-001	 1.991072299566360e+000	 7.315994526581450e+000
 7.070695653443357e-001	 1.998621034717844e+000	 7.205377428514208e+000
 6.860556391196770e-001	 2.005931440994312e+000	 7.099833792489130e+000
 6.650174574944245e-001	 2.013003966902344e+000	 6.998431893685980e+000
 6.439588353416124e-001	 2.019839138841012e+000	 6.904228615683645e+000
 6.228835568435334e-001	 2.026437559847334e+000	 6.818698582768918e+000
 8.428964237379969e-001	 1.974266124380708e+000	 7.967714890745098e+000
 8.218481805879621e-001	 1.983120403680432e+000	 7.859462622194627e+000
 8.007516551825158e-001	 1.991732309722067e+000	 7.748845499864268e+000
 7.796108559137310e-001	 2.000101885079929e+000	 7.638038224502902e+000
 7.584297720382563e-001	 2.008229256751030e+000	 7.527014410230781e+000
 7.372123715652267e-001	 2.016114635159398e+000	 7.415570430233187e+000
 7.159625991906543e-001	 2.023758313100938e+000	 7.305328792288746e+000
 6.946843742800806e-001	 2.031160664631070e+000	 7.197839570356206e+000
 6.733815889011646e-001	 2.038322143897384e+000	 7.094573870550180e+000
 6.520581059077746e-001	 2.045243283919630e+000	 6.997684402243336e+000
 6.307177570770309e-001	 2.051924695319412e+000	 6.909848727328503e+000
 8.533661136810564e-001	 1.998788655973366e+000	 8.047994208881558e+000
 8.320564284685621e-001	 2.007752915048153e+000	 7.945936094296053e+000
 8.106978612825863e-001	 2.016471790325503e+000	 7.838769325585203e+000
 7.892944703037772e-001	 2.024945324908542e+000	 7.728183754002362e+000
 7.678502943396766e-001	 2.033173647371722e+000	 7.615852988021438e+000
 7.463693506863949e-001	 2.041156970752760e+000	 7.503393781348625e+000
 7.248556330373465e-001	 2.048895591484403e+000	 7.392359757438761e+000
 7.033131094408428e-001	 2.056389888268241e+000	 7.284234810693382e+000
 6.817457203082428e-001	 2.063640320892865e+000	 7.180426229288011e+000
 6.601573764742492e-001	 2.070647428998710e+000	 7.082425495413992e+000
 6.385519573108083e-001	 2.077411830791955e+000	 6.993379054912763e+000
 8.638358036243158e-001	 2.023311187566027e+000	 8.127188166709841e+000
 8.422646763493622e-001	 2.032385426415939e+000	 8.023312192528801e+000
 8.206440673828561e-001	 2.041211270929060e+000	 7.914956967804821e+000
 7.989780846940207e-001	 2.049788764737333e+000	 7.803729252191785e+000
 7.772708166412898e-001	 2.058118037992645e+000	 7.691188488335462e+000
 7.555263298077501e-001	 2.066199306346401e+000	 7.578840819352791e+000
 7.337486668842164e-001	 2.074032869868189e+000	 7.468132667885524e+000
 7.119418446017694e-001	 2.081619111905766e+000	 7.360443919819948e+000
 6.901098517154681e-001	 2.088958497888726e+000	 7.257080761014123e+000
 6.682566470408484e-001	 2.096051574078183e+000	 7.159268220096065e+000
 6.463861575446830e-001	 2.102898966264897e+000	 7.069541953224594e+000
 8.743054935675751e-001	 2.047833719158692e+000	 8.192315013671761e+000
 8.524729242301624e-001	 2.057017937783778e+000	 8.087213726745818e+000
 8.305902734831250e-001	 2.065950751532719e+000	 7.978414085365942e+000
 8.086616990842614e-001	 2.074632204566274e+000	 7.867367544332482e+000
 7.866913389428977e-001	 2.083062428613760e+000	 7.755482211425296e+000
 7.646833089290944e-001	 2.091241641940274e+000	 7.644116871641656e+000
 7.426417007310678e-001	 2.099170148252240e+000	 7.534574490464633e+000
 7.205705797626665e-001	 2.106848335543585e+000	 7.428095242126726e+000
 6.984739831226497e-001	 2.114276674884903e+000	 7.325849114683757e+000
 6.763559176073851e-001	 2.121455719157986e+000	 7.228928148994920e+000
 6.542203577784720e-001	 2.128386101738172e+000	 7.138938099272684e+000
 8.847751835106342e-001	 2.072356250751360e+000	 8.246725640445691e+000
 8.626811721107622e-001	 2.081650449151659e+000	 8.140883141172363e+000
 8.405364795831936e-001	 2.090690232136461e+000	 8.032210344177354e+000
 8.183453134743008e-001	 2.099475644395333e+000	 7.921967629835802e+000
 7.961118612443011e-001	 2.108006819235029e+000	 7.811376419723700e+000
 7.738402880502302e-001	 2.116283977534334e+000	 7.701613283610986e+000
 7.515347345777037e-001	 2.124307426636505e+000	 7.593803434867374e+000
 7.291993149233398e-001	 2.132077559181640e+000	 7.489013663153594e+000
 7.068381145295957e-001	 2.139594851881333e+000	 7.388244759776358e+000
 6.844551881736718e-001	 2.146859864238052e+000	 7.292423496970852e+000
 6.620545580119923e-001	 2.153873237211714e+000	 7.202489406062107e+000
 8.952448734532940e-001	 2.096878782344030e+000	 8.293958786875884e+000
 8.728894199909623e-001	 2.106282960519573e+000	 8.187720150762136e+000
 8.504826856828617e-001	 2.115429712740264e+000	 8.079577307201134e+000
 8.280289278639385e-001	 2.124319084224482e+000	 7.970565432499385e+000
 8.055323835453017e-001	 2.132951209856415e+000	 7.861685627559004e+000
 7.829972671709593e-001	 2.141326313128531e+000	 7.753899182401842e+000
 7.604277684239289e-001	 2.149444705020930e+000	 7.648121130000917e+000
 7.378280500835953e-001	 2.157306782819872e+000	 7.545213141249755e+000
 7.152022459361153e-001	 2.164913028877952e+000	 7.445975820110358e+000
 6.925544587395210e-001	 2.172264009318316e+000	 7.351140464522485e+000
 6.698887582450617e-001	 2.179360372685457e+000	 7.261360364487934e+000
 9.057145633953535e-001	 2.121401313936701e+000	 8.337694944138850e+000
 8.830976678705623e-001	 2.130915471887508e+000	 8.231271095296290e+000
 8.604288917819299e-001	 2.140169193344108e+000	 8.123898467883752e+000
 8.377125422529758e-001	 2.149162524053690e+000	 8.016354444200617e+000
 8.149529058456995e-001	 2.157895600477876e+000	 7.909387789585352e+000
 7.921542462910846e-001	 2.166368648722823e+000	 7.803713148158667e+000
 7.693208022695467e-001	 2.174581983405461e+000	 7.700004719856197e+000
 7.464567852432394e-001	 2.182536006458223e+000	 7.598889173595566e+000
 7.235663773420178e-001	 2.190231205874698e+000	 7.500937859393306e+000
 7.006537293047455e-001	 2.197668154398711e+000	 7.406658389496781e+000
 6.777229584774968e-001	 2.204847508159331e+000	 7.316485665082814e+000
 9.161842533366131e-001	 2.145923845529372e+000	 8.381744867093069e+000
 8.933059157493626e-001	 2.155547983255453e+000	 8.275218196799974e+000
 8.703750978801976e-001	 2.164908673947971e+000	 8.168699184296509e+000
 8.473961566412123e-001	 2.174005963882928e+000	 8.062676270570940e+000
 8.243734281452965e-001	 2.182839991099376e+000	 7.957615396029249e+000
 8.013112254104073e-001	 2.191410984317160e+000	 7.853954800193789e+000
 7.782138361143608e-001	 2.199719261790046e+000	 7.752098885316394e+000
 7.550855204020774e-001	 2.207765230096631e+000	 7.652411201831775e+000
 7.319305087471113e-001	 2.215549382871506e+000	 7.555206622365053e+000
 7.087529998691573e-001	 2.223072299479171e+000	 7.460742779021557e+000
 6.855571587091146e-001	 2.230334643633273e+000	 7.369210845876311e+000
 6.072151563781101e-001	 1.975463288904845e+000	 6.639257677909175e+000
 5.866574382233224e-001	 1.981665594387705e+000	 6.555780353913458e+000
 5.660907622939357e-001	 1.987638496108145e+000	 6.472606607792073e+000
 5.455187159444396e-001	 1.993382795332379e+000	 6.390660482078133e+000
 5.249448500593381e-001	 1.998899362722714e+000	 6.310359276217004e+000
 5.043726775313110e-001	 2.004189136910731e+000	 6.230884244062649e+000
 4.838056717963329e-001	 2.009253123036070e+000	 6.150363824518359e+000
 4.632472654263897e-001	 2.014092391253171e+000	 6.068334976704557e+000
 4.427008487803356e-001	 2.018708075208402e+000	 5.984140403089519e+000
 4.221697687133255e-001	 2.023101370489906e+000	 5.896910112811401e+000
 4.016573273451569e-001	 2.027273533052570e+000	 5.805593699714244e+000
 6.150493566104991e-001	 2.000950424375790e+000	 6.720051567592421e+000
 5.942264058136259e-001	 2.007232751087749e+000	 6.640707758825708e+000
 5.733943816702277e-001	 2.013282714303859e+000	 6.558533313222769e+000
 5.525569178183158e-001	 2.019101125628146e+000	 6.474675852022477e+000
 5.317176109553852e-001	 2.024688866956063e+000	 6.389866760289361e+000
 5.108800192969422e-001	 2.030046889029278e+000	 6.304465426431023e+000
 4.900476610927235e-001	 2.035176209955582e+000	 6.218500345765278e+000
 4.692240132012560e-001	 2.040077913696388e+000	 6.131707269443589e+000
 4.484125097233062e-001	 2.044753148524193e+000	 6.043564597830242e+000
 4.276165406946642e-001	 2.049203125452439e+000	 5.953326231887935e+000
 4.068394508385930e-001	 2.053429116640149e+000	 5.860052107256991e+000
 6.228835568435334e-001	 2.026437559847334e+000	 6.818698582768918e+000
 6.017953734045254e-001	 2.032799907788383e+000	 6.735451299847985e+000
 5.806980010470585e-001	 2.038926932500136e+000	 6.649523602630623e+000
 5.595951196926687e-001	 2.044819455924433e+000	 6.562163490228776e+000
 5.384903718518437e-001	 2.050478371189883e+000	 6.474200031722345e+000
 5.173873610629187e-001	 2.055904641148230e+000	 6.386086857300733e+000
 4.962896503893941e-001	 2.061099296875428e+000	 6.297942207147080e+000
 4.752007609763390e-001	 2.066063436139859e+000	 6.209585751215461e+000
 4.541241706664351e-001	 2.070798221840154e+000	 6.120572411976989e+000
 4.330633126761093e-001	 2.075304880415053e+000	 6.030223437437494e+000
 4.120215743320919e-001	 2.079584700227718e+000	 5.937654983355666e+000
 6.307177570770309e-001	 2.051924695319412e+000	 6.909848727328503e+000
 6.093643409958433e-001	 2.058367064489541e+000	 6.824650024533469e+000
 5.880016204242572e-001	 2.064571150696912e+000	 6.737181074484703e+000
 5.666333215673344e-001	 2.070537786221184e+000	 6.648721156945142e+000
 5.452631327485580e-001	 2.076267875424119e+000	 6.560131571910758e+000
 5.238947028290932e-001	 2.081762393267542e+000	 6.471898272459637e+000
 5.025316396862062e-001	 2.087022383795570e+000	 6.384170718401791e+000
 4.811775087515102e-001	 2.092048958583554e+000	 6.296797198444080e+000
 4.598358316096041e-001	 2.096843295156265e+000	 6.209356888702759e+000
 4.385100846575524e-001	 2.101406635377738e+000	 6.121188931478621e+000
 4.172036978255548e-001	 2.105740283815280e+000	 6.031418830343355e+000
 6.385519573108083e-001	 2.077411830791955e+000	 6.993379054912763e+000
 6.169333085874019e-001	 2.083934221191156e+000	 6.907558361064219e+000
 5.953052398016532e-001	 2.090215368894127e+000	 6.820117615282546e+000
 5.736715234421498e-001	 2.096256116518343e+000	 6.732303802282710e+000
 5.520358936453728e-001	 2.102057379658719e+000	 6.644950846840167e+000
 5.304020445953191e-001	 2.107620145387170e+000	 6.558521256220011e+000
 5.087736289830221e-001	 2.112945470715970e+000	 6.473143614273496e+000
 4.871542565266414e-001	 2.118034481027448e+000	 6.388646212361193e+000
 4.655474925526936e-001	 2.122888368472507e+000	 6.304587123654427e+000
 4.439568566388837e-001	 2.127508390340486e+000	 6.220281044366336e+000
 4.223858213188826e-001	 2.131895867402835e+000	 6.134823238145060e+000
 6.463861575446830e-001	 2.102898966264897e+000	 7.069541953224594e+000
 6.245022761790250e-001	 2.109501377893164e+000	 6.983827953600965e+000
 6.026088591790755e-001	 2.115859587091717e+000	 6.897361120600517e+000
 5.807097253169511e-001	 2.121974446815848e+000	 6.811298013424598e+000
 5.588086545421321e-001	 2.127846883893632e+000	 6.726391366187326e+000
 5.369093863614490e-001	 2.133477897507068e+000	 6.643030584917296e+000
 5.150156182797036e-001	 2.138868557636592e+000	 6.561277693272866e+000
 4.931310043016035e-001	 2.144020003471510e+000	 6.480899052628817e+000
 4.712591534955852e-001	 2.148933441788862e+000	 6.401393204948177e+000
 4.494036286199950e-001	 2.153610145303287e+000	 6.322015204833405e+000
 4.275679448119763e-001	 2.158051450990382e+000	 6.241797820414487e+000
 6.542203577784720e-001	 2.128386101738172e+000	 7.138938099272684e+000
 6.320712437705345e-001	 2.135068534595499e+000	 7.053482613122298e+000
 6.099124785563529e-001	 2.141503805289619e+000	 6.968332288176420e+000
 5.877479271915753e-001	 2.147692777113644e+000	 6.884500506198812e+000
 5.655814154386809e-001	 2.153636388128806e+000	 6.802610739603427e+000
 5.434167281273361e-001	 2.159335649627190e+000	 6.722935724445531e+000
 5.212576075761130e-001	 2.164791644557400e+000	 6.645431643654668e+000
 4.991077520762680e-001	 2.170005525915713e+000	 6.569767689895837e+000
 4.769708144381596e-001	 2.174978515105310e+000	 6.495351401671900e+000
 4.548504006007771e-001	 2.179711900266135e+000	 6.421350185285659e+000
 4.327500683047372e-001	 2.184207034577925e+000	 6.346709449182216e+000
 6.620545580119923e-001	 2.153873237211714e+000	 7.202489406062107e+000
 6.396402113617532e-001	 2.160635691298096e+000	 7.116893287208339e+000
 6.172160979333151e-001	 2.167148023487771e+000	 7.032821459319449e+000
 5.947861290658582e-001	 2.173411107411672e+000	 6.951096695596717e+000
 5.723541763348633e-001	 2.179425892364188e+000	 6.872170843143934e+000
 5.499240698928331e-001	 2.185193401747493e+000	 6.796162469076347e+000
 5.274995968721120e-001	 2.190714731478355e+000	 6.722889041107374e+000
 5.050844998505067e-001	 2.195991048360028e+000	 6.651894059158589e+000
 4.826824753802985e-001	 2.201023588421832e+000	 6.582469580314126e+000
 4.602971725811209e-001	 2.205813655229016e+000	 6.513674599558194e+000
 4.379321917970661e-001	 2.210362618165464e+000	 6.444349763293571e+000
 6.698887582450617e-001	 2.179360372685457e+000	 7.261360364487934e+000
 6.472091789525045e-001	 2.186202848000890e+000	 7.174753047211556e+000
 6.245197173097914e-001	 2.192792241686111e+000	 7.090965504690860e+000
 6.018243309396364e-001	 2.199129437709874e+000	 7.010639338775305e+000
 5.791269372305237e-001	 2.205215396599727e+000	 6.934018086829193e+000
 5.564314116577933e-001	 2.211051153867931e+000	 6.861034709994118e+000
 5.337415861675627e-001	 2.216637818399421e+000	 6.791341504101871e+000
 5.110612476241907e-001	 2.221976570804427e+000	 6.724334497489029e+000
 4.883941363218828e-001	 2.227068661738413e+000	 6.659172830465118e+000
 4.657439445609177e-001	 2.231915410191926e+000	 6.594793632469844e+000
 4.431143152888640e-001	 2.236518201752999e+000	 6.529922928227429e+000
 6.777229584774968e-001	 2.204847508159331e+000	 7.316485665082814e+000
 6.547781465426102e-001	 2.211770004703814e+000	 7.228052091401399e+000
 6.318233366856110e-001	 2.218436459884577e+000	 7.143224750859885e+000
 6.088625328127469e-001	 2.224847768008192e+000	 7.063027244675850e+000
 5.858996981255067e-001	 2.231004900835369e+000	 6.987463775151224e+000
 5.629387534220697e-001	 2.236908905988459e+000	 6.916256323056265e+000
 5.399835754623272e-001	 2.242560905320560e+000	 6.848871994143757e+000
 5.170379953971918e-001	 2.247962093248883e+000	 6.784544351219024e+000
 4.941057972627936e-001	 2.253113735055029e+000	 6.722289282860118e+000
 4.711907165400582e-001	 2.258017165154852e+000	 6.660915982421177e+000
 4.482964387800322e-001	 2.262673785340533e+000	 6.599033626958618e+000
 6.855571587091146e-001	 2.230334643633273e+000	 7.369210845876311e+000
 6.623471141318938e-001	 2.237337161406804e+000	 7.278052762795800e+000
 6.391269560606028e-001	 2.244080678083104e+000	 7.190359944368058e+000
 6.159007346850257e-001	 2.250566098306568e+000	 7.108484044928368e+000
 5.926724590196567e-001	 2.256794405071064e+000	 7.032164553094476e+000
 5.694460951855147e-001	 2.262766658109031e+000	 6.960893166240024e+000
 5.462255647562676e-001	 2.268483992241738e+000	 6.893938249341185e+000
 5.230147431693810e-001	 2.273947615693367e+000	 6.830362739023389e+000
 4.998174582029119e-001	 2.279158808371665e+000	 6.769036104382280e+000
 4.766374885184339e-001	 2.284118920117789e+000	 6.708641000000129e+000
 4.534785622704716e-001	 2.288829368928065e+000	 6.647675263385294e+000
 4.016573273451569e-001	 2.027273533052570e+000	 5.805593699714245e+000
 3.811698517285161e-001	 2.031225301503230e+000	 5.715094635710606e+000
 3.607074675331575e-001	 2.034958690876767e+000	 5.630340010230412e+000
 3.402733298862165e-001	 2.038475129610468e+000	 5.550165920930974e+000
 3.198705449804655e-001	 2.041776099945052e+000	 5.473329888191505e+000
 2.995021691400967e-001	 2.044863136261900e+000	 5.398535334986313e+000
 2.791712079452243e-001	 2.047737823409130e+000	 5.324455144691096e+000
 2.588806154148092e-001	 2.050401795018658e+000	 5.249754489413248e+000
 2.386332932476166e-001	 2.052856731816378e+000	 5.173113112478752e+000
 2.184320901207317e-001	 2.055104359927540e+000	 5.093247238086052e+000
 1.982798010451052e-001	 2.057146449179369e+000	 5.008931269058370e+000
 4.068394508385930e-001	 2.053429116640149e+000	 5.860052107256990e+000
 3.860876488384815e-001	 2.057431870223552e+000	 5.768688866454838e+000
 3.653612619854609e-001	 2.061213427235205e+000	 5.684196847507820e+000
 3.446634861136527e-001	 2.064775234541886e+000	 5.605479858736902e+000
 3.239974674914737e-001	 2.068118793507961e+000	 5.531338725045456e+000
 3.033663018753617e-001	 2.071245658311171e+000	 5.460493775014407e+000
 2.827730336229843e-001	 2.074157434247109e+000	 5.391606437874692e+000
 2.622206548656227e-001	 2.076855776024568e+000	 5.323300170121715e+000
 2.417121047393329e-001	 2.079342386053916e+000	 5.254180921153689e+000
 2.212502686744141e-001	 2.081619012730616e+000	 5.182857335120240e+000
 2.008379777426382e-001	 2.083687448715941e+000	 5.107960872377066e+000
 4.120215743320919e-001	 2.079584700227718e+000	 5.937654983355667e+000
 3.910054459484762e-001	 2.083638438943773e+000	 5.847771450358626e+000
 3.700150564377691e-001	 2.087468163593456e+000	 5.765511343818194e+000
 3.490536423410803e-001	 2.091075339473030e+000	 5.689839397333515e+000
 3.281243900024696e-001	 2.094461487070513e+000	 5.619594417919197e+000
 3.072304346106214e-001	 2.097628180360005e+000	 5.553509451721626e+000
 2.863748593007571e-001	 2.100577045084578e+000	 5.490231090769119e+000
 2.655606943164766e-001	 2.103309757029900e+000	 5.428338170198909e+000
 2.447909162311281e-001	 2.105828040290817e+000	 5.366360093491235e+000
 2.240684472282249e-001	 2.108133665533004e+000	 5.302795009346045e+000
 2.033961544403598e-001	 2.110228448251783e+000	 5.236128048206224e+000
 4.172036978255548e-001	 2.105740283815280e+000	 6.031418830343355e+000
 3.959232430584104e-001	 2.109845007663906e+000	 5.944840945354371e+000
 3.746688508900027e-001	 2.113722899951540e+000	 5.866333352207247e+000
 3.534437985684283e-001	 2.117375444403932e+000	 5.794920878611730e+000
 3.322513125133900e-001	 2.120804180632748e+000	 5.729480990379749e+000
 3.110945673458185e-001	 2.124010702408456e+000	 5.668761279608518e+000
 2.899766849784881e-001	 2.126996655921599e+000	 5.611396124380714e+000
 2.689007337673182e-001	 2.129763738034729e+000	 5.555922801756628e+000
 2.478697277229483e-001	 2.132313694527165e+000	 5.500797322270025e+000
 2.268866257821052e-001	 2.134648318334801e+000	 5.444410238421736e+000
 2.059543311382028e-001	 2.136769447787005e+000	 5.385102662053309e+000
 4.223858213188826e-001	 2.131895867402835e+000	 6.134823238145060e+000
 4.008410401681958e-001	 2.136051576383963e+000	 6.052847392022001e+000
 3.793226453420824e-001	 2.139977636309478e+000	 5.979148653789154e+000
 3.578339547956261e-001	 2.143675549334621e+000	 5.912817220344955e+000
 3.363782350241716e-001	 2.147146874194709e+000	 5.852776054835780e+000
 3.149587000808950e-001	 2.150393224456572e+000	 5.797795312469585e+000
 2.935785106561237e-001	 2.153416266758236e+000	 5.746505967766030e+000
 2.722407732180950e-001	 2.156217719039128e+000	 5.697412960149494e+000
 2.509485392147394e-001	 2.158799348763049e+000	 5.648908159463460e+000
 2.297048043359962e-001	 2.161162971136105e+000	 5.599283435300181e+000
 2.085125078360999e-001	 2.163310447321717e+000	 5.546744094308508e+000
 4.275679448119763e-001	 2.158051450990382e+000	 6.241797820414488e+000
 4.057588372777426e-001	 2.162258145103952e+000	 6.165180194526419e+000
 3.839764397939287e-001	 2.166232372667292e+000	 6.096867802127899e+000
 3.622241110226025e-001	 2.169975654265129e+000	 6.036027750793140e+000
 3.405051575347509e-001	 2.173489567756436e+000	 5.981641672398750e+000
 3.188228328157938e-001	 2.176775746504410e+000	 5.932516671898484e+000
 2.971803363336101e-001	 2.179835877594552e+000	 5.887295506989771e+000
 2.755808126687545e-001	 2.182671700043172e+000	 5.844466353672551e+000
 2.540273507064469e-001	 2.185285002998553e+000	 5.802372495467988e+000
 2.325229828898389e-001	 2.187677623937013e+000	 5.759222254288807e+000
 2.110706845339838e-001	 2.189851446856028e+000	 5.713099458934104e+000
 4.327500683047372e-001	 2.184207034577925e+000	 6.346709449182216e+000
 4.106766343869625e-001	 2.188464713823888e+000	 6.275656316995400e+000
 3.886302342454617e-001	 2.192487109025002e+000	 6.212815291066451e+000
 3.666142672492871e-001	 2.196275759195488e+000	 6.157448365539958e+000
 3.446320800450644e-001	 2.199832261317972e+000	 6.108615524245853e+000
 3.226869655504569e-001	 2.203158268552019e+000	 6.065181766761152e+000
 3.007821620108935e-001	 2.206255488430609e+000	 6.025823394446987e+000
 2.789208521192439e-001	 2.209125681046935e+000	 5.989033952678086e+000
 2.571061621980170e-001	 2.211770657233760e+000	 5.953130206210977e+000
 2.353411614435743e-001	 2.214192276737622e+000	 5.916258502610813e+000
 2.136288612317871e-001	 2.216392446390048e+000	 5.876401854197842e+000
 4.379321917970661e-001	 2.210362618165464e+000	 6.444349763293572e+000
 4.155944314957661e-001	 2.214671282543780e+000	 6.378508769211451e+000
 3.932840286966023e-001	 2.218741845382629e+000	 6.320719019214664e+000
 3.710044234756087e-001	 2.222575864125727e+000	 6.270361979872710e+000
 3.487590025550489e-001	 2.226174954879359e+000	 6.226602368682584e+000
 3.265510982848270e-001	 2.229540790599451e+000	 6.188390779538604e+000
 3.043839876879196e-001	 2.232675099266471e+000	 6.154465596980487e+000
 2.822608915695107e-001	 2.235579662050491e+000	 6.123354639935403e+000
 2.601849736893954e-001	 2.238256311468759e+000	 6.093376954232855e+000
 2.381593399971435e-001	 2.240706929538030e+000	 6.062645148727998e+000
 2.161870379294426e-001	 2.242933445923886e+000	 6.029068642802332e+000
 4.431143152888640e-001	 2.236518201752999e+000	 6.529922928227429e+000
 4.205122286040645e-001	 2.240877851263638e+000	 6.468375357939876e+000
 3.979378231472710e-001	 2.244996581740196e+000	 6.414700026814517e+000
 3.753945797014967e-001	 2.248875969055882e+000	 6.368429252516032e+000
 3.528859250646412e-001	 2.252517648440637e+000	 6.328865760520541e+000
 3.304152310188463e-001	 2.255923312646761e+000	 6.295080397695468e+000
 3.079858133646348e-001	 2.259094710102200e+000	 6.265909163253475e+000
 2.856009310195024e-001	 2.262033643053914e+000	 6.239950045763676e+000
 2.632637851805277e-001	 2.264741965703632e+000	 6.215560131139618e+000
 2.409775185504876e-001	 2.267221582338333e+000	 6.190853419507230e+000
 2.187452146268828e-001	 2.269474445457651e+000	 6.163699759000520e+000
 4.482964387800322e-001	 2.262673785340533e+000	 6.599033626958616e+000
 4.254300257117685e-001	 2.267084419983474e+000	 6.540287682400562e+000
 4.025916175973881e-001	 2.271251318097723e+000	 6.489262482946047e+000
 3.797847359268805e-001	 2.275176073985980e+000	 6.445679558763962e+000
 3.570128475737776e-001	 2.278860342001849e+000	 6.409020011548383e+000
 3.342793637524572e-001	 2.282305834693997e+000	 6.378516770247799e+000
 3.115876390409853e-001	 2.285514320937858e+000	 6.353146192631555e+000
 2.889409704691662e-001	 2.288487624057277e+000	 6.331619552986269e+000
 2.663425966713602e-001	 2.291227619938468e+000	 6.312374929988753e+000
 2.437956971035476e-001	 2.293736235138629e+000	 6.293569979041375e+000
 2.213033913240406e-001	 2.296015444991454e+000	 6.273076040517672e+000
 4.534785622704716e-001	 2.288829368928065e+000	 6.647675263385294e+000
 4.303478228187894e-001	 2.293290988703301e+000	 6.589660354358044e+000
 4.072454120468742e-001	 2.297506054455230e+000	 6.539283903052542e+000
 3.841748921516889e-001	 2.301476178916054e+000	 6.496502193065110e+000
 3.611397700823948e-001	 2.305203035563035e+000	 6.461022372811324e+000
 3.381434964856022e-001	 2.308688356741214e+000	 6.432288671521053e+000
 3.151894647169172e-001	 2.311933931773511e+000	 6.409467989461827e+000
 2.922810099184495e-001	 2.314941605060654e+000	 6.391435458125306e+000
 2.694214081618384e-001	 2.317713274173349e+000	 6.376760537216991e+000
 2.466138756562645e-001	 2.320250887939014e+000	 6.363694182593944e+000
 2.238615680208486e-001	 2.322556444525402e+000	 6.350157583293383e+000
 1.982798010451052e-001	 2.057146449179369e+000	 5.008931269058369e+000
 1.781761623850336e-001	 2.058985072062221e+000	 4.926450960739532e+000
 1.581269227520513e-001	 2.060621760190973e+000	 4.851348704515115e+000
 1.381347544218765e-001	 2.062058405639229e+000	 4.781415170495962e+000
 1.182022727019177e-001	 2.063296937449552e+000	 4.714612518367406e+000
 9.833203556797766e-002	 2.064339319933258e+000	 4.649099260226928e+000
 7.852654335463237e-002	 2.065187550979181e+000	 4.583255431942030e+000
 5.878823849825383e-002	 2.065843660373091e+000	 4.515708125210352e+000
 3.911950533160152e-002	 2.066309708129337e+000	 4.445357416251301e+000
 1.952266992886609e-002	 2.066587782836232e+000	 4.371402711046874e+000
 0.000000000000000e+000	 2.066680000016667e+000	 4.293369502553287e+000
 2.008379777426382e-001	 2.083687448715941e+000	 5.107960872377062e+000
 1.804749649069134e-001	 2.085549793239212e+000	 5.035719791001809e+000
 1.601670529465028e-001	 2.087207597675990e+000	 4.971826115009614e+000
 1.399169486144204e-001	 2.088662778511150e+000	 4.914180500004555e+000
 1.197273009603743e-001	 2.089917289675494e+000	 4.860807775136237e+000
 9.960070096278301e-002	 2.090973120823608e+000	 4.809880834023222e+000
 7.953968121516011e-002	 2.091832295620812e+000	 4.759745080615925e+000
 5.954671566582075e-002	 2.092496870040883e+000	 4.708943490486039e+000
 3.962421940982393e-002	 2.092968930676188e+000	 4.656242329651745e+000
 1.977454853201639e-002	 2.093250593061714e+000	 4.600657554925847e+000
 0.000000000000000e+000	 2.093344000014533e+000	 4.541481891420268e+000
 2.033961544403598e-001	 2.110228448251783e+000	 5.236128048206219e+000
 1.827737674290516e-001	 2.112114514415441e+000	 5.172499768447591e+000
 1.622071831412844e-001	 2.113793435160225e+000	 5.117716166882008e+000
 1.416991428073602e-001	 2.115267151382274e+000	 5.069774235084966e+000
 1.212523292192780e-001	 2.116537641900631e+000	 5.026746398913880e+000
 1.008693663580642e-001	 2.117606921713150e+000	 4.986803196764803e+000
 8.055281907616133e-002	 2.118477040261631e+000	 4.948236777474098e+000
 6.030519283382028e-002	 2.119150079707866e+000	 4.909485287724547e+000
 4.012893348839152e-002	 2.119628153222235e+000	 4.869158198139648e+000
 2.002642713537015e-002	 2.119913403286397e+000	 4.826062596866097e+000
 0.000000000000000e+000	 2.120008000011600e+000	 4.779230447142079e+000
 2.059543311382028e-001	 2.136769447787005e+000	 5.385102662053309e+000
 1.850725699513690e-001	 2.138679235591033e+000	 5.328904894255080e+000
 1.642473133363036e-001	 2.140379272643812e+000	 5.281708787376756e+000
 1.434813370005900e-001	 2.141871524252748e+000	 5.241599484962697e+000
 1.227773574785129e-001	 2.143157994125120e+000	 5.206687186245441e+000
 1.021380317536997e-001	 2.144240722602053e+000	 5.175128350133802e+000
 8.156595693751645e-002	 2.145121784901822e+000	 5.145148003085511e+000
 6.106367000214374e-002	 2.145803289374232e+000	 5.115063231233925e+000
 4.063364756721779e-002	 2.146287375767672e+000	 5.083307913980067e+000
 2.027830573887649e-002	 2.146576213510476e+000	 5.048458733442227e+000
 0.000000000000000e+000	 2.146672000008067e+000	 5.009262457826203e+000
 2.085125078360999e-001	 2.163310447321717e+000	 5.546744094308512e+000
 1.873713724737861e-001	 2.165243956766109e+000	 5.497195368435604e+000
 1.662874435314673e-001	 2.166965110126885e+000	 5.456594497672729e+000
 1.452635311940043e-001	 2.168475897122718e+000	 5.423112255235300e+000
 1.243023857379628e-001	 2.169778346349123e+000	 5.394892236006966e+000
 1.034066971495681e-001	 2.170874523490486e+000	 5.370070302822653e+000
 8.257909479910586e-002	 2.171766529541564e+000	 5.346795441701374e+000
 6.182214717068246e-002	 2.172456499040166e+000	 5.323252118106250e+000
 4.113836164621634e-002	 2.172946598312695e+000	 5.297684200487825e+000
 2.053018434248453e-002	 2.173239023734152e+000	 5.268420491923373e+000
 0.000000000000000e+000	 2.173336000004134e+000	 5.233901870221463e+000
 2.110706845339838e-001	 2.189851446856028e+000	 5.713099458934104e+000
 1.896701749962240e-001	 2.191808677940790e+000	 5.669777321617540e+000
 1.683275737266829e-001	 2.193550947609579e+000	 5.635265772931323e+000
 1.470457253874970e-001	 2.195080269992333e+000	 5.607824560445625e+000
 1.258274139975116e-001	 2.196398698572797e+000	 5.585631947742908e+000
 1.046753625455481e-001	 2.197508324378621e+000	 5.566802096721131e+000
 8.359223266080985e-002	 2.198411274181037e+000	 5.549404186065957e+000
 6.258062433932776e-002	 2.199109708705858e+000	 5.531483370942997e+000
 4.164307572530071e-002	 2.199605820857498e+000	 5.511083660289298e+000
 2.078206294614337e-002	 2.199901833957623e+000	 5.486272759821786e+000
 0.000000000000000e+000	 2.200000000000001e+000	 5.455168884205934e+000
 2.136288612317871e-001	 2.216392446390048e+000	 5.876401854197842e+000
 1.919689775186034e-001	 2.218373399115199e+000	 5.839202493679091e+000
 1.703677039218575e-001	 2.220136785092031e+000	 5.810718251577317e+000
 1.488279195809624e-001	 2.221684642861741e+000	 5.789307275594044e+000
 1.273524422570433e-001	 2.223019050796304e+000	 5.773189635718593e+000
 1.059440279415181e-001	 2.224142125266629e+000	 5.760462312421579e+000
 8.460537052250881e-002	 2.225056018820421e+000	 5.749116271748433e+000
 6.333910150797092e-002	 2.225762918371497e+000	 5.737055746688724e+000
 4.214778980438445e-002	 2.226265043402274e+000	 5.722119812458369e+000
 2.103394154980214e-002	 2.226564644181086e+000	 5.702106312056652e+000
 0.000000000000000e+000	 2.226663999995867e+000	 5.674798139426109e+000
 2.161870379294426e-001	 2.242933445923886e+000	 6.029068642802336e+000
 1.942677800408450e-001	 2.244938120289457e+000	 5.998167863634166e+000
 1.724078341168984e-001	 2.246722622574373e+000	 5.976051806302468e+000
 1.506101137742947e-001	 2.248289015731089e+000	 5.961192748211919e+000
 1.288774705164417e-001	 2.249639403019801e+000	 5.951865790515795e+000
 1.072126933373569e-001	 2.250775926154679e+000	 5.946161097170013e+000
 8.561850838408310e-002	 2.251700763459898e+000	 5.941998596535570e+000
 6.409757867650329e-002	 2.252416128037270e+000	 5.937145280650864e+000
 4.265250388338113e-002	 2.252924265947220e+000	 5.929235202280331e+000
 2.128582015340993e-002	 2.253227454404740e+000	 5.915792235329605e+000
 0.000000000000000e+000	 2.253327999991934e+000	 5.894255610704905e+000
 2.187452146268828e-001	 2.269474445457651e+000	 6.163699759000520e+000
 1.965665825628697e-001	 2.271502841463688e+000	 6.139515234760815e+000
 1.744479643117127e-001	 2.273308460056742e+000	 6.124471488112205e+000
 1.523923079673879e-001	 2.274893388600523e+000	 6.117177190602243e+000
 1.304024987755909e-001	 2.276259755243449e+000	 6.115982017027704e+000
 1.084813587329429e-001	 2.277409727042943e+000	 6.118985754358805e+000
 8.663164624541299e-002	 2.278345508099645e+000	 6.124050275222288e+000
 6.485605584481614e-002	 2.279069337703367e+000	 6.128814528309509e+000
 4.315721796220429e-002	 2.279583488492531e+000	 6.130712659559490e+000
 2.153769875691588e-002	 2.279890264628786e+000	 6.126995339992527e+000
 0.000000000000000e+000	 2.279991999988401e+000	 6.114754317919990e+000
 2.213033913240406e-001	 2.296015444991454e+000	 6.273076040517675e+000
 1.988653850845983e-001	 2.298067562638013e+000	 6.256230778596121e+000
 1.764880945062078e-001	 2.299894297539273e+000	 6.249288353687622e+000
 1.541745021601364e-001	 2.301497761470192e+000	 6.251022870031383e+000
 1.319275270343746e-001	 2.302880107467406e+000	 6.259884675034651e+000
 1.097500241281549e-001	 2.304043527931590e+000	 6.274005930038204e+000
 8.764478410637891e-002	 2.304990252739845e+000	 6.291209475493074e+000
 6.561453301280085e-002	 2.305722547369975e+000	 6.309021161745236e+000
 4.366193204076749e-002	 2.306242711038399e+000	 6.324685774370314e+000
 2.178957736026910e-002	 2.306553074853420e+000	 6.335186641332681e+000
 0.000000000000000e+000	 2.306655999985467e+000	 6.337268946284675e+000
 2.238615680208486e-001	 2.322556444525402e+000	 6.350157583293379e+000
 2.011641876059516e-001	 2.324632283812556e+000	 6.341444541088120e+000
 1.785282247002906e-001	 2.326480135022100e+000	 6.343920185398093e+000
 1.559566963524342e-001	 2.328102134340242e+000	 6.356560113036927e+000
 1.334525552926767e-001	 2.329500459691833e+000	 6.377948246156194e+000
 1.110186895228712e-001	 2.330677328820791e+000	 6.406278428684521e+000
 8.865792196686122e-002	 2.331634997380677e+000	 6.439359776395267e+000
 6.637301018034868e-002	 2.332375757037283e+000	 6.474625972303891e+000
 4.416664611898429e-002	 2.332901933585021e+000	 6.509148652850508e+000
 2.204145596341870e-002	 2.333215885078842e+000	 6.539654984718423e+000
 0.000000000000000e+000	 2.333319999983334e+000	 6.562549464190805e+000
 2.333319999983334e+000	 0.000000000000000e+000	 1.164593865932922e+001
 2.333215885078842e+000	 2.204145596341876e-002	 1.160793105431291e+001
 2.332901933585021e+000	 4.416664611898443e-002	 1.158939639137221e+001
 2.332375757037283e+000	 6.637301018034852e-002	 1.158599662695794e+001
 2.331634997380677e+000	 8.865792196686113e-002	 1.159356642344773e+001
 2.330677328820791e+000	 1.110186895228712e-001	 1.160812383195790e+001
 2.329500459691833e+000	 1.334525552926768e-001	 1.162587990436000e+001
 2.328102134340243e+000	 1.559566963524343e-001	 1.164324724116168e+001
 2.326480135022099e+000	 1.785282247002904e-001	 1.165684750520591e+001
 2.324632283812556e+000	 2.011641876059514e-001	 1.166351794275181e+001
 2.322556444525403e+000	 2.238615680208486e-001	 1.166031696515142e+001
 2.359987999982150e+000	 0.000000000000000e+000	 1.157925937581058e+001
 2.359882695126717e+000	 2.229337235189980e-002	 1.154613686507961e+001
 2.359565155415852e+000	 4.467143591148032e-002	 1.153211781997331e+001
 2.359032965086723e+000	 6.713160113034042e-002	 1.153280725062393e+001
 2.358283739133689e+000	 8.967121181265775e-002	 1.154400913935674e+001
 2.357315125180361e+000	 1.122875452358524e-001	 1.156173648265451e+001
 2.356124805369035e+000	 1.349778123275370e-001	 1.158222011830029e+001
 2.354710498265832e+000	 1.577391579000762e-001	 1.160191634851777e+001
 2.353069960779785e+000	 1.805686609440348e-001	 1.161751339415232e+001
 2.351200990094103e+000	 2.034633349817420e-001	 1.162593672764757e+001
 2.349101425607677e+000	 2.264201284821455e-001	 1.162435334532571e+001
 2.386655999981866e+000	 0.000000000000000e+000	 1.152512531541950e+001
 2.386549505175481e+000	 2.254528874017717e-002	 1.149510342388976e+001
 2.386228377247541e+000	 4.517622570362982e-002	 1.148395107154254e+001
 2.385690173136973e+000	 6.789019207989576e-002	 1.148721290071809e+001
 2.384932480887448e+000	 9.068450165797154e-002	 1.150066035143681e+001
 2.383952921540606e+000	 1.135564009483399e-001	 1.152030098664196e+001
 2.382749151046835e+000	 1.365030693619190e-001	 1.154238644975026e+001
 2.381318862191934e+000	 1.595216194472729e-001	 1.156341906987648e+001
 2.379659786537899e+000	 1.826090971873751e-001	 1.158015715529954e+001
 2.377769696375999e+000	 2.057624823571689e-001	 1.158961902961370e+001
 2.375646406690224e+000	 2.289786889431086e-001	 1.158908587893964e+001
 2.413323999982383e+000	 0.000000000000000e+000	 1.148375098630158e+001
 2.413216315225037e+000	 2.279720512830178e-002	 1.145520874801408e+001
 2.412891599079999e+000	 4.568101549551953e-002	 1.144540631898836e+001
 2.412347381187954e+000	 6.864878302912364e-002	 1.144982711186449e+001
 2.411581222641890e+000	 9.169779150292323e-002	 1.146421080709719e+001
 2.410590717901479e+000	 1.148252566604571e-001	 1.148456187784938e+001
 2.409373496725197e+000	 1.380283263959423e-001	 1.150715658499050e+001
 2.407927226118532e+000	 1.613040809941355e-001	 1.152854846252320e+001
 2.406249612296439e+000	 1.846495334304123e-001	 1.154557233998810e+001
 2.404338402658252e+000	 2.080616297323231e-001	 1.155534696350968e+001
 2.402191387773061e+000	 2.315372494038215e-001	 1.155527629232245e+001
 2.439991999983599e+000	 0.000000000000000e+000	 1.145556274990486e+001
 2.439883125275288e+000	 2.304912151632456e-002	 1.142702120079939e+001
 2.439554820913136e+000	 4.618580528723603e-002	 1.141716236856926e+001
 2.439004589239588e+000	 6.940737397813324e-002	 1.142141017963504e+001
 2.438229964396953e+000	 9.271108134763358e-002	 1.143547602956136e+001
 2.437228514262929e+000	 1.160941123723274e-001	 1.145536641596080e+001
 2.435997842404091e+000	 1.395535834297265e-001	 1.147738886947224e+001
 2.434535590045607e+000	 1.630865425407754e-001	 1.149815620852101e+001
 2.432839438055403e+000	 1.866899696732476e-001	 1.151458917087677e+001
 2.430907108940868e+000	 2.103607771072954e-001	 1.152391749145474e+001
 2.428736368856203e+000	 2.340958098643674e-001	 1.152367951229494e+001
 2.466659999985416e+000	 0.000000000000000e+000	 1.144118736884777e+001
 2.466549935326134e+000	 2.330103790429640e-002	 1.141128863046422e+001
 2.466218042746860e+000	 4.669059507886593e-002	 1.140005639584880e+001
 2.465661797291797e+000	 7.016596492703370e-002	 1.140285950328611e+001
 2.464878706152569e+000	 9.372437119222317e-002	 1.141538728041095e+001
 2.463866310624908e+000	 1.173629680840743e-001	 1.143365618521474e+001
 2.462622188083482e+000	 1.410788404633911e-001	 1.145401456275132e+001
 2.461143953973147e+000	 1.648690040873041e-001	 1.147314554909016e+001
 2.459429263814787e+000	 1.887304059159818e-001	 1.148806818250738e+001
 2.457475815223860e+000	 2.126599244821766e-001	 1.149613679973657e+001
 2.455281349939667e+000	 2.366543703248298e-001	 1.149503881297813e+001
 2.493327999987733e+000	 0.000000000000000e+000	 1.144144128972297e+001
 2.493216745377482e+000	 2.355295429226825e-002	 1.140892820623066e+001
 2.492881264581083e+000	 4.719538487049581e-002	 1.139507434170349e+001
 2.492319005344500e+000	 7.092455587593410e-002	 1.139520055144613e+001
 2.491527447908675e+000	 9.473766103681273e-002	 1.140498310804192e+001
 2.490504106987368e+000	 1.186318237958211e-001	 1.142045924201265e+001
 2.489246533763340e+000	 1.426040974970558e-001	 1.143803060493694e+001
 2.487752317901132e+000	 1.666514656338327e-001	 1.145446469288868e+001
 2.486019089574589e+000	 1.907708421587160e-001	 1.146689429770690e+001
 2.484044521507234e+000	 2.149590718570578e-001	 1.147281507291233e+001
 2.481826331023469e+000	 2.392129307852923e-001	 1.147008132043974e+001
 2.519995999990449e+000	 0.000000000000000e+000	 1.145732060639240e+001
 2.519883555429231e+000	 2.380487068029099e-002	 1.142101690013702e+001
 2.519544486415716e+000	 4.770017466221225e-002	 1.140334191948331e+001
 2.518976213397622e+000	 7.168314682494363e-002	 1.139957840460586e+001
 2.518176189665208e+000	 9.575095088152302e-002	 1.140540143863065e+001
 2.517141903350260e+000	 1.199006795076914e-001	 1.141688277068523e+001
 2.515870879443631e+000	 1.441293545308398e-001	 1.143049285676453e+001
 2.514360681829545e+000	 1.684339271804727e-001	 1.144310066308672e+001
 2.512608915334807e+000	 1.928112784015512e-001	 1.145197130753869e+001
 2.510613227791000e+000	 2.172582192320301e-001	 1.145476163567776e+001
 2.508371312107629e+000	 2.417714912458381e-001	 1.144951384867013e+001
 2.546663999993466e+000	 0.000000000000000e+000	 1.148999165389399e+001
 2.546550365481286e+000	 2.405678706841556e-002	 1.144878256719847e+001
 2.546207708250668e+000	 4.820496445410191e-002	 1.142611618852946e+001
 2.545633421451082e+000	 7.244173777417141e-002	 1.141724983213374e+001
 2.544824931422100e+000	 9.676424072647459e-002	 1.141787216984357e+001
 2.543779699713533e+000	 1.211695352198085e-001	 1.142410621016341e+001
 2.542495225124322e+000	 1.456546115648631e-001	 1.143250977857476e+001
 2.540969045758369e+000	 1.702163887273352e-001	 1.144007355107255e+001
 2.539198741095438e+000	 1.948517146445884e-001	 1.144421672522285e+001
 2.537181934075167e+000	 2.195573666071841e-001	 1.144278043554647e+001
 2.534916293192159e+000	 2.443300517065509e-001	 1.143401904260044e+001
 2.573331999996683e+000	 0.000000000000000e+000	 1.154078218721170e+001
 2.573217175533549e+000	 2.430870345669286e-002	 1.149359558051413e+001
 2.572870930085849e+000	 4.870975424625130e-002	 1.146477765296357e+001
 2.572290629504804e+000	 7.320032872372663e-002	 1.144957586503592e+001
 2.571473673179290e+000	 9.777753057178830e-002	 1.144371023081762e+001
 2.570417496077141e+000	 1.224383909322958e-001	 1.144337481739638e+001
 2.569119570805381e+000	 1.471798685992449e-001	 1.144523651635820e+001
 2.567577409687590e+000	 1.719988502745317e-001	 1.144643114728896e+001
 2.565788566856480e+000	 1.968921508879285e-001	 1.144455698689566e+001
 2.563750640359744e+000	 2.218565139826109e-001	 1.143766584161506e+001
 2.561461274277079e+000	 2.468886121675139e-001	 1.142425180588803e+001
 2.600000000000000e+000	 0.000000000000000e+000	 1.161117310291912e+001
 2.599883985585924e+000	 2.456061984517381e-002	 1.155696098147150e+001
 2.599534151921172e+000	 4.921454403874706e-002	 1.152082284803409e+001
 2.598947837558706e+000	 7.395891967371834e-002	 1.149801482887179e+001
 2.598122414936712e+000	 9.879082041758469e-002	 1.148430907493565e+001
 2.597055292441034e+000	 1.237072466452768e-001	 1.147599363615690e+001
 2.595743916486777e+000	 1.487051256341049e-001	 1.146986936564067e+001
 2.594185773617187e+000	 1.737813118221734e-001	 1.146324392212553e+001
 2.592378392617928e+000	 1.989325871316728e-001	 1.145392297430670e+001
 2.590319346644739e+000	 2.241556613584015e-001	 1.144019873672007e+001
 2.588006255362404e+000	 2.494471726288108e-001	 1.142083599302353e+001
 2.322556444525403e+000	 2.238615680208486e-001	 1.166031696515142e+001
 2.320250887939015e+000	 2.466138756562646e-001	 1.165785350489801e+001
 2.317713274173349e+000	 2.694214081618382e-001	 1.166660566919222e+001
 2.314941605060654e+000	 2.922810099184495e-001	 1.168375743110415e+001
 2.311933931773511e+000	 3.151894647169170e-001	 1.170669319289156e+001
 2.308688356741215e+000	 3.381434964856023e-001	 1.173299971180932e+001
 2.305203035563035e+000	 3.611397700823949e-001	 1.176046768072937e+001
 2.301476178916054e+000	 3.841748921516888e-001	 1.178709309178194e+001
 2.297506054455230e+000	 4.072454120468744e-001	 1.181107851920939e+001
 2.293290988703300e+000	 4.303478228187891e-001	 1.183083446461367e+001
 2.288829368928065e+000	 4.534785622704716e-001	 1.184498091366738e+001
 2.349101425607677e+000	 2.264201284821455e-001	 1.162435334532571e+001
 2.346769518335254e+000	 2.494324769776625e-001	 1.162321512531099e+001
 2.344202901653812e+000	 2.725006815198410e-001	 1.163280016558480e+001
 2.341399554558111e+000	 2.956215504233459e-001	 1.165035929593307e+001
 2.338357505947168e+000	 3.187918307202850e-001	 1.167335445113538e+001
 2.335074836562539e+000	 3.420082088961281e-001	 1.169945890305704e+001
 2.331549680923443e+000	 3.652673116907452e-001	 1.172655710018190e+001
 2.327780229256406e+000	 3.885657069651761e-001	 1.175274425713591e+001
 2.323764729417043e+000	 4.118999046346667e-001	 1.177632584550471e+001
 2.319501488801562e+000	 4.352663576684167e-001	 1.179581714492918e+001
 2.314988876245497e+000	 4.586614631563876e-001	 1.180994301995358e+001
 2.375646406690224e+000	 2.289786889431086e-001	 1.158908587893964e+001
 2.373288148731701e+000	 2.522510782987388e-001	 1.158882221807104e+001
 2.370692529134423e+000	 2.755799548775168e-001	 1.159886852137441e+001
 2.367857504055670e+000	 2.989620909278955e-001	 1.161653806576007e+001
 2.364781080120887e+000	 3.223941967232736e-001	 1.163936588687214e+001
 2.361461316383892e+000	 3.458729213062330e-001	 1.166510718800971e+001
 2.357896326283851e+000	 3.693948532986258e-001	 1.169173530800552e+001
 2.354084279596734e+000	 3.929565217781407e-001	 1.171743940594406e+001
 2.350023404378815e+000	 4.165543972218820e-001	 1.174062203016992e+001
 2.345711988899768e+000	 4.401848925174142e-001	 1.175989674744969e+001
 2.341148383562864e+000	 4.638443640416253e-001	 1.177408601527199e+001
 2.402191387773061e+000	 2.315372494038215e-001	 1.155527629232244e+001
 2.399806779128375e+000	 2.550696796195738e-001	 1.155540585362931e+001
 2.397182156615205e+000	 2.786592282349472e-001	 1.156549980247850e+001
 2.394315453553343e+000	 3.023026314321842e-001	 1.158293281794698e+001
 2.391204654294674e+000	 3.259965627259768e-001	 1.160531196924361e+001
 2.387847796205268e+000	 3.497376337160196e-001	 1.163047316067379e+001
 2.384242971644243e+000	 3.735223949061500e-001	 1.165647708582610e+001
 2.380388329937012e+000	 3.973473365907070e-001	 1.168160486524107e+001
 2.376282079340506e+000	 4.212088898086548e-001	 1.170435355225057e+001
 2.371922488997865e+000	 4.451034273659248e-001	 1.172343170086123e+001
 2.367307890880099e+000	 4.690272649263335e-001	 1.173775519734243e+001
 2.428736368856203e+000	 2.340958098643674e-001	 1.152367951229495e+001
 2.426325409525294e+000	 2.578882809402479e-001	 1.152366907248529e+001
 2.423671784096173e+000	 2.817385015922139e-001	 1.153333445196316e+001
 2.420773403051145e+000	 3.056431719362983e-001	 1.155011408033585e+001
 2.417628228468532e+000	 3.295989287284877e-001	 1.157168938380486e+001
 2.414234276026662e+000	 3.536023461255909e-001	 1.159597911373122e+001
 2.410589617004602e+000	 3.776499365134308e-001	 1.162113313330122e+001
 2.406692380277210e+000	 4.017381514029980e-001	 1.164552585402575e+001
 2.402540754302072e+000	 4.258633823951184e-001	 1.166774952514790e+001
 2.398132989095801e+000	 4.500219622140910e-001	 1.168660758902921e+001
 2.393467398197139e+000	 4.742101658106620e-001	 1.170110832407882e+001
 2.455281349939667e+000	 2.366543703248298e-001	 1.149503881297814e+001
 2.452844039922479e+000	 2.607068822608415e-001	 1.149428282849239e+001
 2.450161411577347e+000	 2.848177749493983e-001	 1.150296105023403e+001
 2.447231352549091e+000	 3.089837124403242e-001	 1.151858143285391e+001
 2.444051802642469e+000	 3.332012947309000e-001	 1.153890550418699e+001
 2.440620755848070e+000	 3.574670585350495e-001	 1.156194041299192e+001
 2.436936262364911e+000	 3.817774781205810e-001	 1.158593038214344e+001
 2.432996430617297e+000	 4.061289662151378e-001	 1.160934777763979e+001
 2.428799429263472e+000	 4.305178749814069e-001	 1.163088401608781e+001
 2.424343489193518e+000	 4.549404970620558e-001	 1.164944054418191e+001
 2.419626905513916e+000	 4.793930666947602e-001	 1.166412013293109e+001
 2.481826331023469e+000	 2.392129307852923e-001	 1.147008132043974e+001
 2.479362670319949e+000	 2.635254835814351e-001	 1.146788225046804e+001
 2.476651039058744e+000	 2.878970483065821e-001	 1.147491335430178e+001
 2.473689302047192e+000	 3.123242529443478e-001	 1.148876134907858e+001
 2.470475376816489e+000	 3.368036607333074e-001	 1.150727706453776e+001
 2.467007235669486e+000	 3.613317709444980e-001	 1.152856503318266e+001
 2.463282907725154e+000	 3.859050197277140e-001	 1.155097243158959e+001
 2.459300480957246e+000	 4.105197810272501e-001	 1.157307760306181e+001
 2.455058104224664e+000	 4.351723675676544e-001	 1.159367840514131e+001
 2.450553989290963e+000	 4.598590319099618e-001	 1.161178063725263e+001
 2.445786412830364e+000	 4.845759675787774e-001	 1.162658681377024e+001
 2.508371312107629e+000	 2.417714912458381e-001	 1.144951384867013e+001
 2.505881300717724e+000	 2.663440849021089e-001	 1.144506319852807e+001
 2.503140666540384e+000	 2.909763216638469e-001	 1.144966759544599e+001
 2.500147251545462e+000	 3.156647934484557e-001	 1.146100525998633e+001
 2.496898950990597e+000	 3.404060267358030e-001	 1.147702901786519e+001
 2.493393715490908e+000	 3.651964833540393e-001	 1.149595324311967e+001
 2.489629553085315e+000	 3.900325613349428e-001	 1.151624009631908e+001
 2.485604531297026e+000	 4.149105958394586e-001	 1.153658530912122e+001
 2.481316779185606e+000	 4.398268601539944e-001	 1.155590378086335e+001
 2.476764489388081e+000	 4.647775667579515e-001	 1.157331526558901e+001
 2.471945920146419e+000	 4.897588684628632e-001	 1.158813043875673e+001
 2.534916293192159e+000	 2.443300517065509e-001	 1.143401904260044e+001
 2.532399931115824e+000	 2.691626862229434e-001	 1.142637909353996e+001
 2.529630294022282e+000	 2.940555950212740e-001	 1.142764001633741e+001
 2.526605201043915e+000	 3.190053339527335e-001	 1.143558782359775e+001
 2.523322525164801e+000	 3.440083927384807e-001	 1.144829356665659e+001
 2.519780195312328e+000	 3.690611957637762e-001	 1.146409742931374e+001
 2.515976198445378e+000	 3.941601029423806e-001	 1.148159205857554e+001
 2.511908581636609e+000	 4.193014106518870e-001	 1.149960540613868e+001
 2.507575454146253e+000	 4.444813527405609e-001	 1.151718336986598e+001
 2.502974989484819e+000	 4.696961016061680e-001	 1.153357253822111e+001
 2.498105427462015e+000	 4.949417693471667e-001	 1.154820335234363e+001
 2.561461274277079e+000	 2.468886121675139e-001	 1.142425180588802e+001
 2.558918561514267e+000	 2.719812875440190e-001	 1.141233799988309e+001
 2.556119921504460e+000	 2.971348683789455e-001	 1.140918463024508e+001
 2.553063150542562e+000	 3.223458744572679e-001	 1.141270538558137e+001
 2.549746099339105e+000	 3.476107587414337e-001	 1.142110935327436e+001
 2.546166675133743e+000	 3.729259081738113e-001	 1.143288204796382e+001
 2.542322843805324e+000	 3.982876445501403e-001	 1.144676561693289e+001
 2.538212631975964e+000	 4.236922254646593e-001	 1.146173851995521e+001
 2.533834129106566e+000	 4.491358453274881e-001	 1.147699499786112e+001
 2.529185489581120e+000	 4.746146364547536e-001	 1.149192465886327e+001
 2.524264934777087e+000	 5.001246702318375e-001	 1.150609252430519e+001
 2.588006255362404e+000	 2.494471726288108e-001	 1.142083599302352e+001
 2.585437191913076e+000	 2.747998888654162e-001	 1.140339994332703e+001
 2.582609548986936e+000	 3.002141417369426e-001	 1.139459118638402e+001
 2.579521100041420e+000	 3.256864149621451e-001	 1.139247461710528e+001
 2.576169673513514e+000	 3.512131247447558e-001	 1.139542079865595e+001
 2.572553154955151e+000	 3.767906205842475e-001	 1.140208369612047e+001
 2.568669489165140e+000	 4.024151861583352e-001	 1.141137752476472e+001
 2.564516682315065e+000	 4.280830402778990e-001	 1.142245303572528e+001
 2.560092804066504e+000	 4.537903379149099e-001	 1.143467357991309e+001
 2.555395989676932e+000	 4.795331713038518e-001	 1.144759130681208e+001
 2.550424442091569e+000	 5.053075711170251e-001	 1.146092386844399e+001
 2.288829368928065e+000	 4.534785622704716e-001	 1.184498091366739e+001
 2.284118920117788e+000	 4.766374885184339e-001	 1.185869736961401e+001
 2.279158808371665e+000	 4.998174582029122e-001	 1.187694235223062e+001
 2.273947615693367e+000	 5.230147431693808e-001	 1.189830240666132e+001
 2.268483992241738e+000	 5.462255647562675e-001	 1.192154747912678e+001
 2.262766658109032e+000	 5.694460951855148e-001	 1.194563625135948e+001
 2.256794405071063e+000	 5.926724590196567e-001	 1.196972269882194e+001
 2.250566098306568e+000	 6.159007346850259e-001	 1.199316402437657e+001
 2.244080678083104e+000	 6.391269560606027e-001	 1.201553011252129e+001
 2.237337161406804e+000	 6.623471141318938e-001	 1.203661464092294e+001
 2.230334643633273e+000	 6.855571587091147e-001	 1.205953469413225e+001
 2.314988876245497e+000	 4.586614631563876e-001	 1.180994301995357e+001
 2.310224590735523e+000	 4.820850775934856e-001	 1.182361579008216e+001
 2.305207788840002e+000	 5.055299759769892e-001	 1.184146591441766e+001
 2.299937036356030e+000	 5.289923875425029e-001	 1.186208754671252e+001
 2.294410968014828e+000	 5.524684904413271e-001	 1.188425039705086e+001
 2.288628289280320e+000	 5.759544131469154e-001	 1.190690374887750e+001
 2.282587778119268e+000	 5.994462359286034e-001	 1.192918182468155e+001
 2.276288286740297e+000	 6.229399923922245e-001	 1.195041066925618e+001
 2.269728743299059e+000	 6.464316710871186e-001	 1.197011671247240e+001
 2.262908153566842e+000	 6.699172171789136e-001	 1.198812788405862e+001
 2.255825602559878e+000	 6.933925341873451e-001	 1.201062650785810e+001
 2.341148383562864e+000	 4.638443640416253e-001	 1.177408601527199e+001
 2.336330261353183e+000	 4.875326666678163e-001	 1.178781354260629e+001
 2.331256769308257e+000	 5.112424937503096e-001	 1.180536515447678e+001
 2.325926457018605e+000	 5.349700319148381e-001	 1.182534027971710e+001
 2.320337943787829e+000	 5.587114161255757e-001	 1.184650367818985e+001
 2.314489920451514e+000	 5.824627311074863e-001	 1.186778801204239e+001
 2.308381151167378e+000	 6.062200128367058e-001	 1.188829790171874e+001
 2.302010475173931e+000	 6.299792500985681e-001	 1.190731565413891e+001
 2.295376808514921e+000	 6.537363861127731e-001	 1.192430884302086e+001
 2.288479145726790e+000	 6.774873202250676e-001	 1.194000844454266e+001
 2.281316561486399e+000	 7.012279096647086e-001	 1.196247079772106e+001
 2.367307890880099e+000	 4.690272649263335e-001	 1.173775519734243e+001
 2.362435931970694e+000	 4.929802557415794e-001	 1.175162494575993e+001
 2.357305749776348e+000	 5.169550115230278e-001	 1.176895243736445e+001
 2.351915877681005e+000	 5.409476762865410e-001	 1.178834250384027e+001
 2.346264919560646e+000	 5.649543418091653e-001	 1.180855261221215e+001
 2.340351551622521e+000	 5.889710490673754e-001	 1.182849385254613e+001
 2.334174524215299e+000	 6.129937897441082e-001	 1.184723355816946e+001
 2.327732663607379e+000	 6.370185078041980e-001	 1.186399976561437e+001
 2.321024873730601e+000	 6.610411011377028e-001	 1.187818771356568e+001
 2.314050137886562e+000	 6.850574232704915e-001	 1.189260924882445e+001
 2.306807520412753e+000	 7.090632851413388e-001	 1.191525051749219e+001
 2.393467398197139e+000	 4.742101658106620e-001	 1.170110832407882e+001
 2.388541602587979e+000	 4.984278448149279e-001	 1.171518355796579e+001
 2.383354730244194e+000	 5.226675292952986e-001	 1.173232832389765e+001
 2.377905298343142e+000	 5.469253206577649e-001	 1.175115545377024e+001
 2.372191895333188e+000	 5.711972674922478e-001	 1.177041515256663e+001
 2.366213182793248e+000	 5.954793670267320e-001	 1.178899425502783e+001
 2.359967897262938e+000	 6.197675666509557e-001	 1.180591727472383e+001
 2.353454852040546e+000	 6.440577655092539e-001	 1.182034947388311e+001
 2.346672938946006e+000	 6.683458161620447e-001	 1.183162842213649e+001
 2.339621130046071e+000	 6.926275263153183e-001	 1.184590032739921e+001
 2.332298479338855e+000	 7.168986606173690e-001	 1.186892185142166e+001
 2.419626905513916e+000	 4.793930666947602e-001	 1.166412013293109e+001
 2.414647273204966e+000	 5.038754338880156e-001	 1.167842784199799e+001
 2.409403710711710e+000	 5.283800470672767e-001	 1.169538836491283e+001
 2.403894719004927e+000	 5.529029650286648e-001	 1.171362761168358e+001
 2.398118871105364e+000	 5.774401931749745e-001	 1.173189093401203e+001
 2.392074813963600e+000	 6.019876849857039e-001	 1.174904049348645e+001
 2.385761270310199e+000	 6.265413435573921e-001	 1.176405459464565e+001
 2.379177040473338e+000	 6.510970232138766e-001	 1.177602923385206e+001
 2.372321004161045e+000	 6.756505311859365e-001	 1.178499168416873e+001
 2.365192122205227e+000	 7.001976293596834e-001	 1.179963723421897e+001
 2.357789438264623e+000	 7.247340360929329e-001	 1.182322562248313e+001
 2.445786412830364e+000	 4.845759675787774e-001	 1.162658681377024e+001
 2.440752943821578e+000	 5.093230229609954e-001	 1.164110674038613e+001
 2.435452691178814e+000	 5.340925648391165e-001	 1.165782976690551e+001
 2.429884139666275e+000	 5.588806093993936e-001	 1.167540245335367e+001
 2.424045846877084e+000	 5.836831188574979e-001	 1.169257009189558e+001
 2.417936445133483e+000	 6.084960029444394e-001	 1.170817201884405e+001
 2.411554643356989e+000	 6.333151204635623e-001	 1.172113907709159e+001
 2.404899228905664e+000	 6.581362809182071e-001	 1.173049350397306e+001
 2.397969069375629e+000	 6.829552462095149e-001	 1.173813829167041e+001
 2.390763114363941e+000	 7.077677324037210e-001	 1.175337146239249e+001
 2.383280397189971e+000	 7.325694115681636e-001	 1.177769835541713e+001
 2.471945920146419e+000	 4.897588684628632e-001	 1.158813043875672e+001
 2.466858614437743e+000	 5.147706120340211e-001	 1.160278516831877e+001
 2.461501671645428e+000	 5.398050826109729e-001	 1.161915793867008e+001
 2.455873560327097e+000	 5.648582537701059e-001	 1.163592604161469e+001
 2.449972822648255e+000	 5.899260445399690e-001	 1.165184189786567e+001
 2.443798076302805e+000	 6.150043209030871e-001	 1.166572613461223e+001
 2.437348016403213e+000	 6.400888973696106e-001	 1.167646301265361e+001
 2.430621417337429e+000	 6.651755386223857e-001	 1.168299850373489e+001
 2.423617134589663e+000	 6.902599612329167e-001	 1.169044068661750e+001
 2.416334106522128e+000	 7.153378354475658e-001	 1.170646055778729e+001
 2.408771356114817e+000	 7.404047870431946e-001	 1.173168302014642e+001
 2.498105427462015e+000	 4.949417693471667e-001	 1.154820335234363e+001
 2.492964285053382e+000	 5.202182011072452e-001	 1.156284943009289e+001
 2.487550652111465e+000	 5.455176003830007e-001	 1.157869292766058e+001
 2.481862980987305e+000	 5.708358981409557e-001	 1.159445447836850e+001
 2.475899798418785e+000	 5.961689702225396e-001	 1.160890322547437e+001
 2.469659707471471e+000	 6.215126388617955e-001	 1.162084747619420e+001
 2.463141389448778e+000	 6.468626742756822e-001	 1.162912791855509e+001
 2.456343605768538e+000	 6.722147963265528e-001	 1.163295063275456e+001
 2.449265199803056e+000	 6.975646762562793e-001	 1.164108716910150e+001
 2.441905098679697e+000	 7.229079384913518e-001	 1.165807795267804e+001
 2.434262315039078e+000	 7.482401625181596e-001	 1.168433947899387e+001
 2.524264934777087e+000	 5.001246702318375e-001	 1.150609252430519e+001
 2.519069955668423e+000	 5.256657901808217e-001	 1.152051256465455e+001
 2.513599632576846e+000	 5.512301181553541e-001	 1.153557575407209e+001
 2.507852401646812e+000	 5.768135425120967e-001	 1.155006122539572e+001
 2.501826774188584e+000	 6.024118959053616e-001	 1.156276685800913e+001
 2.495521338639389e+000	 6.280209568207136e-001	 1.157249730806773e+001
 2.488934762493587e+000	 6.536364511819210e-001	 1.157805482948665e+001
 2.482065794198899e+000	 6.792540540308492e-001	 1.158004958194653e+001
 2.474913265015719e+000	 7.048693912797397e-001	 1.158909085643034e+001
 2.467476090836561e+000	 7.304780415352139e-001	 1.160722253975198e+001
 2.459753273962669e+000	 7.560755379931917e-001	 1.163465465919132e+001
 2.550424442091569e+000	 5.053075711170251e-001	 1.146092386844399e+001
 2.545175626282793e+000	 5.311133792549038e-001	 1.147481962531930e+001
 2.539648613041488e+000	 5.569426359281883e-001	 1.148877464998479e+001
 2.533841822305532e+000	 5.827911868836830e-001	 1.150164430339016e+001
 2.527753749957560e+000	 6.086548215885872e-001	 1.151226964988221e+001
 2.521382969806465e+000	 6.345292747799887e-001	 1.151946265192536e+001
 2.514728135537550e+000	 6.604102280884717e-001	 1.152199439875601e+001
 2.507787982628420e+000	 6.862933117354155e-001	 1.152318229328842e+001
 2.500561330227559e+000	 7.121741063034355e-001	 1.153329841670082e+001
 2.493047082992633e+000	 7.380481445792869e-001	 1.155272800511407e+001
 2.485244232885506e+000	 7.639109134684247e-001	 1.158145247040355e+001
 2.230334643633273e+000	 6.855571587091147e-001	 1.205953469413225e+001
 2.223072299479172e+000	 7.087529998691573e-001	 1.208517804562173e+001
 2.215549382871506e+000	 7.319305087471114e-001	 1.210814985855643e+001
 2.207765230096631e+000	 7.550855204020772e-001	 1.212860927415916e+001
 2.199719261790046e+000	 7.782138361143607e-001	 1.214686066352167e+001
 2.191410984317160e+000	 8.013112254104075e-001	 1.216335341003021e+001
 2.182839991099376e+000	 8.243734281452965e-001	 1.217868154272051e+001
 2.174005963882928e+000	 8.473961566412124e-001	 1.219358319999431e+001
 2.164908673947971e+000	 8.703750978801975e-001	 1.220893990066911e+001
 2.155547983255453e+000	 8.933059157493628e-001	 1.222577559700962e+001
 2.145923845529373e+000	 9.161842533366132e-001	 1.224525548224183e+001
 2.255825602559878e+000	 6.933925341873451e-001	 1.201062650785810e+001
 2.248480255562493e+000	 7.168534854447088e-001	 1.203621466681061e+001
 2.240871357974673e+000	 7.402958948964447e-001	 1.205918543238160e+001
 2.232998238497061e+000	 7.637155499996891e-001	 1.207966074218977e+001
 2.224860311143484e+000	 7.871082040467171e-001	 1.209790677482834e+001
 2.216457076637509e+000	 8.104695782130247e-001	 1.211433394387100e+001
 2.207788123753673e+000	 8.337953636636194e-001	 1.212949677385719e+001
 2.198853130600829e+000	 8.570812237159357e-001	 1.214409363575862e+001
 2.189651865845055e+000	 8.803227960576487e-001	 1.215896631661995e+001
 2.180184189869628e+000	 9.035156950175444e-001	 1.217509939540273e+001
 2.170450055869658e+000	 9.266555138874861e-001	 1.219361939458607e+001
 2.281316561486399e+000	 7.012279096647086e-001	 1.196247079772106e+001
 2.273888211645736e+000	 7.249539710193941e-001	 1.198822079537686e+001
 2.266193333077769e+000	 7.486612810449148e-001	 1.201144477490704e+001
 2.258231246897426e+000	 7.723455795964405e-001	 1.203223470329308e+001
 2.250001360496865e+000	 7.960025719782181e-001	 1.205082448344403e+001
 2.241503168957809e+000	 8.196279310147910e-001	 1.206759015937165e+001
 2.232736256407929e+000	 8.432172991810966e-001	 1.208305003887210e+001
 2.223700297318700e+000	 8.667662907898179e-001	 1.209786470921045e+001
 2.214395057742118e+000	 8.902704942342625e-001	 1.211283691811718e+001
 2.204820396483794e+000	 9.137254742848917e-001	 1.212891128937536e+001
 2.194976266209943e+000	 9.371267744375259e-001	 1.214717383944386e+001
 2.306807520412753e+000	 7.090632851413388e-001	 1.191525051749219e+001
 2.299296167728821e+000	 7.330544565933477e-001	 1.194135871158468e+001
 2.291515308180721e+000	 7.570266671926574e-001	 1.196505562938116e+001
 2.283464255297661e+000	 7.809756091924723e-001	 1.198641005626125e+001
 2.275142409850133e+000	 8.048969399090080e-001	 1.200562907462683e+001
 2.266549261278012e+000	 8.287862838158566e-001	 1.202305848218558e+001
 2.257684389062107e+000	 8.526392346978825e-001	 1.203918316793341e+001
 2.248547464036510e+000	 8.764513578630184e-001	 1.205462741924159e+001
 2.239138249639141e+000	 9.002181924102024e-001	 1.207015512985998e+001
 2.229456603097937e+000	 9.239352535515704e-001	 1.208666987521880e+001
 2.219502476550226e+000	 9.475980349868982e-001	 1.210521481819529e+001
 2.332298479338855e+000	 7.168986606173690e-001	 1.186892185142166e+001
 2.324704123811673e+000	 7.411549421667038e-001	 1.189556360503444e+001
 2.316837283283455e+000	 7.653920533398096e-001	 1.191991976207501e+001
 2.308697263697703e+000	 7.896056387879249e-001	 1.194204225272338e+001
 2.300283459203230e+000	 8.137913078392319e-001	 1.196211631137564e+001
 2.291595353598070e+000	 8.379446366163708e-001	 1.198046111239855e+001
 2.282632521716166e+000	 8.620611702141319e-001	 1.199753040863699e+001
 2.273394630754231e+000	 8.861364249356956e-001	 1.201391314389617e+001
 2.263881441536102e+000	 9.101658905856304e-001	 1.203033400658434e+001
 2.254092809712048e+000	 9.341450328177450e-001	 1.204765388784748e+001
 2.244028686890507e+000	 9.580692955357705e-001	 1.206687020389568e+001
 2.357789438264623e+000	 7.247340360929329e-001	 1.182322562248313e+001
 2.350112079894210e+000	 7.492554277395965e-001	 1.185055561446592e+001
 2.342159258385902e+000	 7.737574394865083e-001	 1.187572558577207e+001
 2.333930272097482e+000	 7.982356683829374e-001	 1.189877645526856e+001
 2.325424508556097e+000	 8.226856757690343e-001	 1.191987607697146e+001
 2.316641445917932e+000	 8.471029894164828e-001	 1.193932010013257e+001
 2.307580654370066e+000	 8.714831057299988e-001	 1.195753288220260e+001
 2.298241797471829e+000	 8.958214920080092e-001	 1.197506842359931e+001
 2.288624633432979e+000	 9.201135887607101e-001	 1.199261128870691e+001
 2.278729016326116e+000	 9.443548120835820e-001	 1.201097747321647e+001
 2.268554897230787e+000	 9.685405560843096e-001	 1.203111517383885e+001
 2.383280397189971e+000	 7.325694115681636e-001	 1.177769835541713e+001
 2.375520035976356e+000	 7.573559133121597e-001	 1.180585150611082e+001
 2.367481233487989e+000	 7.821228256328895e-001	 1.183196040903628e+001
 2.359163280496938e+000	 8.068656979776510e-001	 1.185606031208381e+001
 2.350565557908681e+000	 8.315800436985599e-001	 1.187830562830056e+001
 2.341687538237552e+000	 8.562613422163423e-001	 1.189897102975192e+001
 2.332528787023769e+000	 8.809050412456384e-001	 1.191845264966143e+001
 2.323088964189278e+000	 9.055065590801182e-001	 1.193726935935275e+001
 2.313367825329754e+000	 9.300612869356039e-001	 1.195606408150988e+001
 2.303365222940131e+000	 9.545645913492464e-001	 1.197560509646166e+001
 2.293081107571061e+000	 9.790118166326809e-001	 1.199678729363773e+001
 2.408771356114817e+000	 7.404047870431946e-001	 1.173168302014642e+001
 2.400927992058032e+000	 7.654563988845280e-001	 1.176077601737127e+001
 2.392803208589645e+000	 7.904882117790897e-001	 1.178792233898236e+001
 2.384396288896006e+000	 8.154957275722057e-001	 1.181315637651519e+001
 2.375706607260921e+000	 8.404744116279526e-001	 1.183662248879289e+001
 2.366733630556880e+000	 8.654196950160988e-001	 1.185857634166439e+001
 2.357476919677233e+000	 8.903269767612047e-001	 1.187938641692635e+001
 2.347936130906541e+000	 9.151916261521809e-001	 1.189953565442082e+001
 2.338111017226406e+000	 9.400089851104752e-001	 1.191962318575537e+001
 2.328001429554082e+000	 9.647743706149041e-001	 1.194036611274869e+001
 2.317607317911332e+000	 9.894830771810523e-001	 1.196260127863813e+001
 2.434262315039078e+000	 7.482401625181596e-001	 1.168433947899387e+001
 2.426335948139160e+000	 7.735568844568357e-001	 1.171447289035756e+001
 2.418125183690795e+000	 7.988535979252458e-001	 1.174273186294644e+001
 2.409629297294618e+000	 8.241257571667410e-001	 1.176915419758179e+001
 2.400847656612762e+000	 8.493687795573580e-001	 1.179387700739384e+001
 2.391779722875867e+000	 8.745780478159020e-001	 1.181713831828531e+001
 2.382425052330418e+000	 8.997489122768517e-001	 1.183927890521734e+001
 2.372783297623596e+000	 9.248766932243574e-001	 1.186074432564155e+001
 2.362854209122914e+000	 9.499566832854866e-001	 1.188208710528123e+001
 2.352637636167958e+000	 9.749841498807208e-001	 1.190396902555485e+001
 2.342133528251599e+000	 9.999543377295894e-001	 1.192716345631740e+001
 2.459753273962669e+000	 7.560755379931917e-001	 1.163465465919132e+001
 2.451743904219661e+000	 7.816573700292162e-001	 1.166591561778439e+001
 2.443447158791370e+000	 8.072189840714945e-001	 1.169534313235382e+001
 2.434862305692713e+000	 8.327557867613982e-001	 1.172298210531373e+001
 2.425988705964147e+000	 8.582631474869201e-001	 1.174896460779698e+001
 2.416825815194466e+000	 8.837364006159015e-001	 1.177351175852642e+001
 2.407373184983288e+000	 9.091708477927348e-001	 1.179693591111806e+001
 2.397630464340407e+000	 9.345617602968064e-001	 1.181964310832736e+001
 2.387597401019257e+000	 9.599043814608010e-001	 1.184213575501052e+001
 2.377273842781749e+000	 9.851939291468613e-001	 1.186501545505869e+001
 2.366659738591859e+000	 1.010425598278460e+000	 1.188897235524327e+001
 2.485244232885506e+000	 7.639109134684247e-001	 1.158145247040355e+001
 2.477151860299458e+000	 7.897578556018046e-001	 1.161391792187995e+001
 2.468769133891298e+000	 8.155843702179724e-001	 1.164455497016456e+001
 2.460095314090223e+000	 8.413858163563166e-001	 1.167341871282457e+001
 2.451129755315018e+000	 8.671575154167841e-001	 1.170063775017760e+001
 2.441871907512629e+000	 8.928947534162470e-001	 1.172641636317490e+001
 2.432321317635803e+000	 9.185927833090084e-001	 1.175103707854823e+001
 2.422477631056948e+000	 9.442468273696871e-001	 1.177486357675811e+001
 2.412340592915415e+000	 9.698520796365817e-001	 1.179834389088531e+001
 2.401910049395445e+000	 9.954037084134922e-001	 1.182201383745115e+001
 2.391185948932115e+000	 1.020896858827830e+000	 1.184648848581630e+001
 2.145923845529373e+000	 9.161842533366132e-001	 1.224525548224183e+001
 2.136037810352666e+000	 9.390023168969390e-001	 1.226283161739939e+001
 2.125888595480185e+000	 9.617591535682968e-001	 1.227387859604912e+001
 2.115476437276295e+000	 9.844503614784820e-001	 1.227964259842022e+001
 2.104801667440269e+000	 1.007071527655773e+000	 1.228150403146417e+001
 2.093864713729079e+000	 1.029618230541540e+000	 1.228096606519586e+001
 2.082666100602788e+000	 1.052086042539205e+000	 1.227969247252387e+001
 2.071206449790665e+000	 1.074470532596845e+000	 1.227944054117174e+001
 2.059486480776334e+000	 1.096767268820616e+000	 1.228210348370909e+001
 2.047507011200339e+000	 1.118971821116124e+000	 1.228969426425923e+001
 2.035268957178629e+000	 1.141079763854727e+000	 1.230434115009351e+001
 2.170450055869658e+000	 9.266555138874861e-001	 1.219361939458607e+001
 2.160451031138595e+000	 9.497343698461394e-001	 1.220993542794203e+001
 2.150185818776248e+000	 9.727512991410006e-001	 1.221949316791164e+001
 2.139654657848451e+000	 9.957018495899493e-001	 1.222367494245861e+001
 2.128857883845541e+000	 1.018581557784486e+000	 1.222398978024838e+001
 2.117795929413422e+000	 1.041385951631064e+000	 1.222211824398093e+001
 2.106469325006327e+000	 1.064110552929180e+000	 1.221983568645416e+001
 2.094878699459406e+000	 1.086750879983490e+000	 1.221906250081040e+001
 2.083024780479415e+000	 1.109302450247109e+000	 1.222184663490001e+001
 2.070908395051891e+000	 1.131760782993169e+000	 1.223035977324087e+001
 2.058530469763273e+000	 1.154121402011593e+000	 1.224689292943510e+001
 2.194976266209943e+000	 9.371267744375259e-001	 1.214717383944386e+001
 2.184864251924532e+000	 9.604664227945057e-001	 1.216299358667133e+001
 2.174483042072331e+000	 9.837434447128692e-001	 1.217188153272601e+001
 2.163832878420640e+000	 1.006953337700580e+000	 1.217533954652569e+001
 2.152914100250859e+000	 1.030091587912363e+000	 1.217500011970344e+001
 2.141727145097828e+000	 1.053153672719756e+000	 1.217266637231866e+001
 2.130272549409948e+000	 1.076135063318328e+000	 1.217024328944270e+001
 2.118550949128249e+000	 1.099031227369320e+000	 1.216978273289040e+001
 2.106563080182627e+000	 1.121837631672806e+000	 1.217346750860464e+001
 2.094309778903607e+000	 1.144549744869444e+000	 1.218360767928979e+001
 2.081791982348114e+000	 1.167163040167724e+000	 1.220263626299028e+001
 2.219502476550226e+000	 9.475980349868982e-001	 1.210521481819529e+001
 2.209277472710488e+000	 9.711984757422032e-001	 1.212112616427411e+001
 2.198780265368454e+000	 9.947355902840656e-001	 1.212997914877244e+001
 2.188011098992888e+000	 1.018204825810533e+000	 1.213336699653248e+001
 2.176970316656258e+000	 1.041601618039557e+000	 1.213306256488828e+001
 2.165658360782336e+000	 1.064921393807760e+000	 1.213093904768505e+001
 2.154075773813694e+000	 1.088159573706788e+000	 1.212902365320146e+001
 2.142223198797243e+000	 1.111311574754465e+000	 1.212948031096489e+001
 2.130101379886014e+000	 1.134372813097828e+000	 1.213460677308361e+001
 2.117711162755524e+000	 1.157338706745061e+000	 1.214683112552261e+001
 2.105053494933187e+000	 1.180204678323221e+000	 1.216870766137513e+001
 2.244028686890507e+000	 9.580692955357705e-001	 1.206687020389568e+001
 2.233690693496472e+000	 9.819305286893982e-001	 1.208329780895965e+001
 2.223077488664634e+000	 1.005727735854752e+000	 1.209257946924396e+001
 2.212189319565223e+000	 1.029456313919966e+000	 1.209639565414072e+001
 2.201026533061774e+000	 1.053111648166220e+000	 1.209660366373157e+001
 2.189589576466989e+000	 1.076689114895224e+000	 1.209516682799247e+001
 2.177878998217611e+000	 1.100184084094699e+000	 1.209420281220754e+001
 2.165895448466434e+000	 1.123591922139056e+000	 1.209596810101274e+001
 2.153639679589622e+000	 1.146907994522294e+000	 1.210285538759454e+001
 2.141112546607686e+000	 1.170127668620127e+000	 1.211739035497765e+001
 2.128315007518526e+000	 1.193246316478183e+000	 1.214222779588144e+001
 2.268554897230787e+000	 9.685405560843096e-001	 1.203111517383885e+001
 2.258103914282494e+000	 9.926625816362567e-001	 1.204833329319175e+001
 2.247374711960891e+000	 1.016719881425092e+000	 1.205833751212454e+001
 2.236367540137673e+000	 1.040707802029039e+000	 1.206291457519698e+001
 2.225082749467440e+000	 1.064621678292507e+000	 1.206395238967323e+001
 2.213520792151827e+000	 1.088456835982292e+000	 1.206349788992630e+001
 2.201682222621746e+000	 1.112208594482198e+000	 1.206374006436960e+001
 2.189567698135869e+000	 1.135872269523220e+000	 1.206700827061867e+001
 2.177177979293499e+000	 1.159443175946325e+000	 1.207576998654613e+001
 2.164513930460135e+000	 1.182916630494756e+000	 1.209262793652351e+001
 2.151576520104164e+000	 1.206287954632712e+000	 1.212031653328859e+001
 2.293081107571061e+000	 9.790118166326809e-001	 1.199678729363773e+001
 2.282517135068562e+000	 1.003394634582944e+000	 1.201493273060080e+001
 2.271671935257244e+000	 1.027712026995249e+000	 1.202583472520910e+001
 2.260545760710265e+000	 1.051959290137911e+000	 1.203132875812801e+001
 2.249138965873294e+000	 1.076131708418570e+000	 1.203335556200906e+001
 2.237452007836891e+000	 1.100224557069113e+000	 1.203401345226731e+001
 2.225485447026142e+000	 1.124233104869425e+000	 1.203554336508883e+001
 2.213239947805595e+000	 1.148152616907090e+000	 1.204032762169381e+001
 2.200716278997688e+000	 1.171978357370042e+000	 1.205088811899975e+001
 2.187915314312909e+000	 1.195705592369057e+000	 1.206988387950681e+001
 2.174838032690135e+000	 1.219329592786908e+000	 1.210010789430966e+001
 2.317607317911332e+000	 9.894830771810523e-001	 1.196260127863813e+001
 2.306930355854685e+000	 1.014126687529626e+000	 1.198167373203026e+001
 2.295969158553711e+000	 1.038704172565387e+000	 1.199351762888894e+001
 2.284723981283027e+000	 1.063210778246740e+000	 1.199996144734697e+001
 2.273195182279369e+000	 1.087641738544563e+000	 1.200299302400254e+001
 2.261383223522225e+000	 1.111992278155832e+000	 1.200474298160874e+001
 2.249288671430845e+000	 1.136257615256517e+000	 1.200748453001818e+001
 2.236912197475659e+000	 1.160432964290793e+000	 1.201363275980694e+001
 2.224254578702236e+000	 1.184513538793563e+000	 1.202574335423341e+001
 2.211316698166055e+000	 1.208494554243140e+000	 1.204651064538002e+001
 2.198099545276473e+000	 1.232371230940871e+000	 1.207876494132732e+001
 2.342133528251599e+000	 9.999543377295894e-001	 1.192716345631740e+001
 2.331343576640874e+000	 1.024858740476468e+000	 1.194707844671192e+001
 2.320266381850311e+000	 1.049696318135667e+000	 1.195976493831430e+001
 2.308902201855987e+000	 1.074462266355686e+000	 1.196706900745762e+001
 2.297251398685700e+000	 1.099151768670638e+000	 1.197099259651975e+001
 2.285314439207865e+000	 1.123759999242595e+000	 1.197367919641760e+001
 2.273091895835900e+000	 1.148282125643612e+000	 1.197741426054204e+001
 2.260584447146108e+000	 1.172713311674460e+000	 1.198462511210250e+001
 2.247792878407190e+000	 1.197048720217011e+000	 1.199788026318404e+001
 2.234718082019611e+000	 1.221283516117117e+000	 1.201988806385813e+001
 2.221361057863212e+000	 1.245412869094703e+000	 1.205349460060070e+001
 2.366659738591859e+000	 1.010425598278460e+000	 1.188897235524327e+001
 2.355756797427137e+000	 1.035590793423637e+000	 1.190954713403686e+001
 2.344563605147063e+000	 1.060688463706254e+000	 1.192288862487600e+001
 2.333080422429172e+000	 1.085713754464907e+000	 1.193085556959712e+001
 2.321307615092325e+000	 1.110661798796949e+000	 1.193544482347066e+001
 2.309245654893859e+000	 1.135527720329549e+000	 1.193879288406900e+001
 2.296895120241353e+000	 1.160306636030850e+000	 1.194317700483511e+001
 2.284256696816990e+000	 1.184993659058219e+000	 1.195101580478773e+001
 2.271331178112595e+000	 1.209583901640504e+000	 1.196486928477106e+001
 2.258119465873619e+000	 1.234072477991097e+000	 1.198743816052940e+001
 2.244622570450384e+000	 1.258454507248503e+000	 1.202156242369466e+001
 2.391185948932115e+000	 1.020896858827830e+000	 1.184648848581630e+001
 2.380170018213486e+000	 1.046322846371298e+000	 1.186742765651589e+001
 2.368860828443987e+000	 1.071680609277310e+000	 1.188114820771950e+001
 2.357258643002612e+000	 1.096965242574563e+000	 1.188948746627659e+001
 2.345363831499277e+000	 1.122171828923650e+000	 1.189441752400390e+001
 2.333176870580242e+000	 1.147295441416840e+000	 1.189804754427917e+001
 2.320698344647250e+000	 1.172331146418369e+000	 1.190262566630463e+001
 2.307928946488350e+000	 1.197274006442202e+000	 1.191054041026993e+001
 2.294869477818497e+000	 1.222119083064165e+000	 1.192432148536452e+001
 2.281520849728123e+000	 1.246861439865192e+000	 1.194663990227472e+001
 2.267884083038025e+000	 1.271496145402371e+000	 1.198030729249311e+001
 2.035268957178629e+000	 1.141079763854727e+000	 1.230434115009351e+001
 2.022771440011766e+000	 1.163089972340299e+000	 1.231752399887250e+001
 2.010017391776478e+000	 1.184994713164319e+000	 1.232037110008775e+001
 1.997008027266777e+000	 1.206789589643860e+000	 1.231461069869131e+001
 1.983744660202318e+000	 1.228470220469227e+000	 1.230233778037976e+001
 1.970228703106179e+000	 1.250032242448504e+000	 1.228565300692246e+001
 1.956461667092249e+000	 1.271471313257540e+000	 1.226656927821795e+001
 1.942445161561669e+000	 1.292783114191905e+000	 1.224711403251075e+001
 1.928180893807916e+000	 1.313963352917359e+000	 1.222932459915363e+001
 1.913670668530300e+000	 1.335007766215311e+000	 1.221523315956673e+001
 1.898916387255753e+000	 1.355912122719749e+000	 1.220482931027265e+001
 2.058530469763273e+000	 1.154121402011593e+000	 1.224689292943510e+001
 2.045890115871281e+000	 1.176383169751865e+000	 1.226219656459366e+001
 2.032990298963952e+000	 1.198538264418723e+000	 1.226666006482414e+001
 2.019832247719413e+000	 1.220582239078633e+000	 1.226215340487136e+001
 2.006417290872079e+000	 1.242510662346993e+000	 1.225057437961072e+001
 1.992746857089031e+000	 1.264319121164056e+000	 1.223395649124617e+001
 1.978822474754979e+000	 1.286003223576338e+000	 1.221494413923820e+001
 1.964645771665227e+000	 1.307558601520036e+000	 1.219581176095936e+001
 1.950218474626249e+000	 1.328980913602921e+000	 1.217875828281320e+001
 1.935542408963624e+000	 1.350265847881186e+000	 1.216538840531949e+001
 1.920619497937211e+000	 1.371409124627651e+000	 1.215589518204744e+001
 2.081791982348114e+000	 1.167163040167724e+000	 1.220263626299028e+001
 2.069008791731038e+000	 1.189676367162741e+000	 1.222052157126423e+001
 2.055963206151714e+000	 1.212081815672490e+000	 1.222686452904786e+001
 2.042656468172388e+000	 1.234374888512827e+000	 1.222367289218737e+001
 2.029089921542231e+000	 1.256551104224243e+000	 1.221298373924653e+001
 2.015265011072332e+000	 1.278605999879157e+000	 1.219685698446160e+001
 2.001183282418213e+000	 1.300535133894753e+000	 1.217736823076341e+001
 1.986846381769342e+000	 1.322334088847847e+000	 1.215712525352662e+001
 1.972256055445192e+000	 1.343998474288225e+000	 1.213909240384527e+001
 1.957414149397602e+000	 1.365523929546859e+000	 1.212503681230941e+001
 1.942322608619367e+000	 1.386906126535401e+000	 1.211583373571867e+001
 2.105053494933187e+000	 1.180204678323221e+000	 1.216870766137513e+001
 2.092127467591057e+000	 1.202969564573016e+000	 1.218938293723791e+001
 2.078936113339772e+000	 1.225625366925698e+000	 1.219763302581615e+001
 2.065480688625693e+000	 1.248167537946512e+000	 1.219558815254182e+001
 2.051762552212749e+000	 1.270591546101038e+000	 1.218541036097516e+001
 2.037783165056030e+000	 1.292892878593861e+000	 1.216928704224626e+001
 2.023544090081879e+000	 1.315067044212827e+000	 1.214942375516536e+001
 2.009046991873926e+000	 1.337109576175375e+000	 1.212806592925201e+001
 1.994293636264635e+000	 1.359016034973300e+000	 1.210844761123292e+001
 1.979285889832116e+000	 1.380782011212353e+000	 1.209329093667974e+001
 1.964025719302089e+000	 1.402403128443017e+000	 1.208372148348646e+001
 2.128315007518526e+000	 1.193246316478183e+000	 1.214222779588144e+001
 2.115246143451361e+000	 1.216262761982781e+000	 1.216566542363331e+001
 2.101909020528132e+000	 1.239168918178429e+000	 1.217563060304906e+001
 2.088304909079315e+000	 1.261960187379757e+000	 1.217436061848789e+001
 2.074435182883600e+000	 1.284631987977440e+000	 1.216412807410235e+001
 2.060301319040078e+000	 1.307179757308217e+000	 1.214723450720623e+001
 2.045904897745909e+000	 1.329598954530604e+000	 1.212600323877275e+001
 2.031247601978889e+000	 1.351885063502655e+000	 1.210400859700285e+001
 2.016331217084475e+000	 1.374033595658174e+000	 1.208489018106929e+001
 2.001157630267043e+000	 1.396040092877691e+000	 1.206929280699331e+001
 1.985728829985244e+000	 1.417900130350513e+000	 1.205867232143717e+001
 2.151576520104164e+000	 1.206287954632712e+000	 1.212031653328859e+001
 2.138364819311972e+000	 1.229555959392127e+000	 1.214626947664722e+001
 2.124881927716801e+000	 1.252712469430764e+000	 1.215755350329196e+001
 2.111129129533247e+000	 1.275752836812638e+000	 1.215649739621046e+001
 2.097107813554756e+000	 1.298672429853509e+000	 1.214546978135098e+001
 2.082819473024427e+000	 1.321466636022281e+000	 1.212687289533126e+001
 2.068265705410237e+000	 1.344130864848129e+000	 1.210380280322553e+001
 2.053448212084144e+000	 1.366660550829724e+000	 1.208241043342567e+001
 2.038368797904605e+000	 1.389051156342877e+000	 1.206418813657320e+001
 2.023029370702263e+000	 1.411298174542895e+000	 1.204972210085982e+001
 2.007431940668699e+000	 1.433397132257910e+000	 1.203956264428989e+001
 2.174838032690135e+000	 1.219329592786908e+000	 1.210010789430966e+001
 2.161483495172912e+000	 1.242849156801144e+000	 1.212812602783155e+001
 2.147854834905787e+000	 1.266256020682782e+000	 1.214014383313453e+001
 2.133953349987477e+000	 1.289545486245221e+000	 1.213856583148833e+001
 2.119780444226189e+000	 1.312712871729308e+000	 1.212584194885374e+001
 2.105337627009026e+000	 1.335753514736103e+000	 1.210450845734956e+001
 2.090626513074790e+000	 1.358662775165445e+000	 1.208160444413675e+001
 2.075648822189603e+000	 1.381436038156617e+000	 1.206129941477786e+001
 2.060406378724920e+000	 1.404068717027437e+000	 1.204419876291244e+001
 2.044901111137655e+000	 1.426556256207987e+000	 1.203087662468129e+001
 2.029135051352321e+000	 1.448894134165222e+000	 1.202187258521569e+001
 2.198099545276473e+000	 1.232371230940871e+000	 1.207876494132733e+001
 2.184602171034203e+000	 1.256142354209923e+000	 1.210821125544534e+001
 2.170827742095097e+000	 1.279799571934566e+000	 1.212020422305065e+001
 2.156777570441994e+000	 1.303338135677579e+000	 1.211720809292574e+001
 2.142453074897868e+000	 1.326753313604898e+000	 1.210173913770810e+001
 2.127855780993828e+000	 1.350040393449737e+000	 1.207898082203779e+001
 2.112987320739501e+000	 1.373194685482595e+000	 1.205766021344081e+001
 2.097849432295178e+000	 1.396211525483370e+000	 1.203880862047467e+001
 2.082443959545315e+000	 1.419086277711884e+000	 1.202300726835601e+001
 2.066772851573099e+000	 1.441814337872990e+000	 1.201080852298468e+001
 2.050838162035976e+000	 1.464391136072466e+000	 1.200273244211034e+001
 2.221361057863212e+000	 1.245412869094703e+000	 1.205349460060070e+001
 2.207720846895866e+000	 1.269435551618553e+000	 1.208356130973303e+001
 2.193800649284738e+000	 1.293343123186194e+000	 1.209461247835886e+001
 2.179601790896790e+000	 1.317130785109783e+000	 1.208915577118350e+001
 2.165125705569764e+000	 1.340793755480339e+000	 1.207040146499548e+001
 2.150373934978783e+000	 1.364327272163235e+000	 1.204953033381947e+001
 2.135348128404301e+000	 1.387726595799625e+000	 1.203026484093502e+001
 2.120050042400781e+000	 1.410987012810021e+000	 1.201317397971923e+001
 2.104481540365684e+000	 1.434103838396246e+000	 1.199880448856462e+001
 2.088644592008472e+000	 1.457072419537926e+000	 1.198767755901615e+001
 2.072541272719534e+000	 1.479888137979660e+000	 1.198028523942508e+001
 2.244622570450384e+000	 1.258454507248503e+000	 1.202156242369466e+001
 2.230839522757925e+000	 1.282728749027127e+000	 1.205128700474426e+001
 2.216773556474716e+000	 1.306886674437748e+000	 1.206033622194462e+001
 2.202426011351853e+000	 1.330923434541904e+000	 1.205124449304628e+001
 2.187798336241849e+000	 1.354834197355695e+000	 1.203263241181649e+001
 2.172892088963843e+000	 1.378614150876649e+000	 1.201461726287663e+001
 2.157708936069120e+000	 1.402258506116577e+000	 1.199781043957686e+001
 2.142250652506323e+000	 1.425762500136603e+000	 1.198273210288474e+001
 2.126519121185921e+000	 1.449121399080551e+000	 1.196988449391804e+001
 2.110516332443655e+000	 1.472330501202817e+000	 1.195974853401869e+001
 2.094244383402860e+000	 1.495385139886820e+000	 1.195278008769278e+001
 2.267884083038025e+000	 1.271496145402371e+000	 1.198030729249311e+001
 2.253958198620401e+000	 1.296021946435735e+000	 1.200858847909358e+001
 2.239746463665040e+000	 1.320430225689309e+000	 1.201444752933329e+001
 2.225250231807174e+000	 1.344716083974012e+000	 1.200238682650676e+001
 2.210470966914092e+000	 1.368874639231026e+000	 1.198748447891117e+001
 2.195410242948957e+000	 1.392901029590033e+000	 1.197279366193558e+001
 2.180069743733891e+000	 1.416790416433498e+000	 1.195878466187324e+001
 2.164451262611717e+000	 1.440537987463155e+000	 1.194591819156495e+001
 2.148556702005920e+000	 1.464138959764830e+000	 1.193464228633474e+001
 2.132388072878528e+000	 1.487588582867686e+000	 1.192538880459371e+001
 2.115947494085821e+000	 1.510882141793964e+000	 1.191856955584355e+001
 1.898916387255753e+000	 1.355912122719749e+000	 1.220482931027265e+001
 1.883920047133223e+000	 1.376672225183124e+000	 1.219275323770591e+001
 1.868683738580113e+000	 1.397283911780662e+000	 1.217472569748979e+001
 1.853209646065358e+000	 1.417743060129417e+000	 1.215138670885355e+001
 1.837500047710095e+000	 1.438045590410163e+000	 1.212337162769732e+001
 1.821557314259136e+000	 1.458187468011342e+000	 1.209131304193253e+001
 1.805383907963363e+000	 1.478164706143358e+000	 1.205584277727244e+001
 1.788982381374034e+000	 1.497973368419745e+000	 1.201759400252970e+001
 1.772355376050134e+000	 1.517609571401743e+000	 1.197720342220534e+001
 1.755505621180099e+000	 1.537069487102882e+000	 1.193531354292675e+001
 1.738435932119337e+000	 1.556349345450221e+000	 1.189257499912008e+001
 1.920619497937211e+000	 1.371409124627651e+000	 1.215589518204744e+001
 1.905451761521779e+000	 1.392406498623549e+000	 1.214599304592255e+001
 1.890041314026554e+000	 1.413253760477749e+000	 1.213116887230801e+001
 1.874390364887229e+000	 1.433946740691739e+000	 1.211179593546081e+001
 1.858501218262075e+000	 1.454481312817197e+000	 1.208823656375644e+001
 1.842376271991649e+000	 1.474853396130154e+000	 1.206084464306343e+001
 1.826018016468425e+000	 1.495058958275174e+000	 1.202996825468907e+001
 1.809429033417307e+000	 1.515094017876017e+000	 1.199595243553725e+001
 1.792611994588221e+000	 1.534954647109299e+000	 1.195914204670310e+001
 1.775569660362075e+000	 1.554636974237704e+000	 1.191988473535832e+001
 1.758304878271573e+000	 1.574137186099347e+000	 1.187853397347425e+001
 1.942322608619367e+000	 1.386906126535401e+000	 1.211583373571867e+001
 1.926983475911071e+000	 1.408140772063864e+000	 1.210718067191564e+001
 1.911398889473760e+000	 1.429223609174760e+000	 1.209436828055402e+001
 1.895571083709891e+000	 1.450150421254014e+000	 1.207757041810149e+001
 1.879502388814862e+000	 1.470917035224207e+000	 1.205694512053675e+001
 1.863195229724980e+000	 1.491519324248966e+000	 1.203263760686086e+001
 1.846652124974304e+000	 1.511953210407013e+000	 1.200478343914964e+001
 1.829875685461390e+000	 1.532214667332336e+000	 1.197351182559457e+001
 1.812868613127101e+000	 1.552299722816931e+000	 1.193894905141912e+001
 1.795633699544820e+000	 1.572204461372635e+000	 1.190122202104750e+001
 1.778173824424543e+000	 1.591925026748623e+000	 1.186046189345579e+001
 1.964025719302089e+000	 1.402403128443017e+000	 1.208372148348646e+001
 1.948515190300958e+000	 1.423875045504080e+000	 1.207538478750889e+001
 1.932756464921588e+000	 1.445193457871702e+000	 1.206341835619424e+001
 1.916751802533197e+000	 1.466354101816246e+000	 1.204786168693785e+001
 1.900503559368311e+000	 1.487352757631197e+000	 1.202873494639784e+001
 1.884014187458984e+000	 1.508185252367777e+000	 1.200604236833284e+001
 1.867286233480865e+000	 1.528847462538872e+000	 1.197977582790996e+001
 1.850322337506154e+000	 1.549335316788698e+000	 1.194991857795810e+001
 1.833125231666656e+000	 1.569644798524630e+000	 1.191644913093680e+001
 1.815697738728223e+000	 1.589771948507662e+000	 1.187934526873963e+001
 1.798042770578147e+000	 1.609712867398032e+000	 1.183858816086737e+001
 1.985728829985244e+000	 1.417900130350513e+000	 1.205867232143718e+001
 1.970046904691298e+000	 1.439609318944210e+000	 1.204971250001284e+001
 1.954114040369892e+000	 1.461163306568586e+000	 1.203745168221954e+001
 1.937932521356998e+000	 1.482557782378439e+000	 1.202185789727590e+001
 1.921504729922277e+000	 1.503788480038169e+000	 1.200287765527524e+001
 1.904833145193523e+000	 1.524851180486588e+000	 1.198043963551793e+001
 1.887920341987970e+000	 1.545741714670747e+000	 1.195445856931652e+001
 1.870768989551473e+000	 1.566455966245095e+000	 1.192483930199188e+001
 1.853381850206766e+000	 1.586989874232388e+000	 1.189148101693211e+001
 1.835761777912175e+000	 1.607339435642774e+000	 1.185428160279318e+001
 1.817911716732283e+000	 1.627500708047558e+000	 1.181314214319777e+001
 2.007431940668699e+000	 1.433397132257910e+000	 1.203956264428989e+001
 1.991578619081951e+000	 1.455343592384267e+000	 1.202930379082402e+001
 1.975471615818524e+000	 1.477133155265418e+000	 1.201563340101968e+001
 1.959113240181150e+000	 1.498761462940601e+000	 1.199877828727007e+001
 1.942505900476613e+000	 1.520224202445124e+000	 1.197867340195295e+001
 1.925652102928453e+000	 1.541517108605399e+000	 1.195523514716206e+001
 1.908554450495487e+000	 1.562635966802639e+000	 1.192836546224085e+001
 1.891215641597215e+000	 1.583576615701524e+000	 1.189795610615222e+001
 1.873638468747310e+000	 1.604334949940195e+000	 1.186389311687185e+001
 1.855825817096565e+000	 1.624906922777959e+000	 1.182606142805859e+001
 1.837780662886852e+000	 1.645288548697183e+000	 1.178434962139224e+001
 2.029135051352321e+000	 1.448894134165222e+000	 1.202187258521569e+001
 2.013110333472775e+000	 1.471077865824262e+000	 1.201239277553938e+001
 1.996829191267340e+000	 1.493103003962208e+000	 1.199715576997961e+001
 1.980293959005503e+000	 1.514965143502737e+000	 1.197786777568037e+001
 1.963507071031173e+000	 1.536659924852068e+000	 1.195544558794420e+001
 1.946471060663631e+000	 1.558183036724210e+000	 1.192985454763403e+001
 1.929188559003277e+000	 1.579530218934542e+000	 1.190104605581371e+001
 1.911662293643256e+000	 1.600697265157980e+000	 1.186896197312541e+001
 1.893895087288171e+000	 1.621680025648045e+000	 1.183353920987254e+001
 1.875889856281284e+000	 1.642474409913206e+000	 1.179471448644735e+001
 1.857649609041756e+000	 1.663076389346893e+000	 1.175242924173646e+001
 2.050838162035976e+000	 1.464391136072466e+000	 1.200273244211034e+001
 2.034642047863630e+000	 1.486812139264209e+000	 1.199397297543652e+001
 2.018186766716196e+000	 1.509072852658963e+000	 1.197926406797304e+001
 2.001474677829912e+000	 1.531168824064851e+000	 1.195837846986950e+001
 1.984508241585813e+000	 1.553095647259001e+000	 1.193253568830578e+001
 1.967290018398917e+000	 1.574848964843020e+000	 1.190373837039529e+001
 1.949822667511205e+000	 1.596424471066456e+000	 1.187206084202926e+001
 1.932108945689464e+000	 1.617817914614457e+000	 1.183755620917930e+001
 1.914151705829226e+000	 1.639025101355928e+000	 1.180027419548375e+001
 1.895953895466220e+000	 1.660041897048499e+000	 1.176026594284370e+001
 1.877518555196891e+000	 1.680864229996668e+000	 1.171758897155040e+001
 2.072541272719534e+000	 1.479888137979660e+000	 1.198028523942508e+001
 2.056173762254373e+000	 1.502546412704118e+000	 1.197183519242753e+001
 2.039544342164942e+000	 1.525042701355693e+000	 1.195720086542965e+001
 2.022655396654229e+000	 1.547372504626949e+000	 1.193632183594787e+001
 2.005509412140386e+000	 1.569531369665925e+000	 1.190909873052488e+001
 1.988108976134170e+000	 1.591514892961831e+000	 1.187633712206616e+001
 1.970456776019136e+000	 1.613318723198377e+000	 1.184097653441173e+001
 1.952555597735713e+000	 1.634938564070948e+000	 1.180343996229060e+001
 1.934408324370359e+000	 1.656370177063837e+000	 1.176394989151870e+001
 1.916017934651266e+000	 1.677609384183830e+000	 1.172273249820820e+001
 1.897387501352160e+000	 1.698652070646494e+000	 1.168002255841187e+001
 2.094244383402860e+000	 1.495385139886820e+000	 1.195278008769278e+001
 2.077705476644865e+000	 1.518280686144002e+000	 1.194423196721898e+001
 2.060901917613437e+000	 1.541012550052406e+000	 1.192918961351686e+001
 2.043836115478306e+000	 1.563576185189036e+000	 1.190781468871289e+001
 2.026510582694747e+000	 1.585967092072845e+000	 1.188023607759224e+001
 2.008927933869246e+000	 1.608180821080641e+000	 1.184654535013648e+001
 1.991090884526934e+000	 1.630212975330304e+000	 1.180736142650154e+001
 1.973002249781874e+000	 1.652059213527451e+000	 1.176631180405726e+001
 1.954664942911448e+000	 1.673715252771762e+000	 1.172441087737180e+001
 1.936081973836309e+000	 1.695176871319186e+000	 1.168211852790031e+001
 1.917256447507461e+000	 1.716439911296353e+000	 1.163990599265443e+001
 2.115947494085821e+000	 1.510882141793964e+000	 1.191856955584355e+001
 2.099237191034965e+000	 1.534014959583876e+000	 1.190951926289151e+001
 2.082259493061532e+000	 1.556982398749111e+000	 1.189361194943742e+001
 2.065016834301999e+000	 1.579779865751119e+000	 1.187128507036497e+001
 2.047511753248752e+000	 1.602402814479762e+000	 1.184295090921794e+001
 2.029746891604005e+000	 1.624846749199451e+000	 1.180899121591977e+001
 2.011724993034462e+000	 1.647107227462233e+000	 1.176975166187261e+001
 1.993448901827818e+000	 1.669179862983960e+000	 1.172586337081697e+001
 1.974921561452375e+000	 1.691060328479696e+000	 1.168149037955935e+001
 1.956146013021240e+000	 1.712744358454553e+000	 1.163841224340963e+001
 1.937125393662695e+000	 1.734227751946229e+000	 1.159739397290387e+001
 1.738435932119337e+000	 1.556349345450221e+000	 1.189257499912008e+001
 1.721151818107034e+000	 1.575442586637167e+000	 1.184659527339809e+001
 1.703653718137051e+000	 1.594348471918019e+000	 1.179496771852664e+001
 1.685944696578731e+000	 1.613063422360952e+000	 1.173837245741190e+001
 1.668027897230322e+000	 1.631583926286766e+000	 1.167752325664783e+001
 1.649906541462032e+000	 1.649906541462032e+000	 1.161316979041497e+001
 1.631583926286766e+000	 1.668027897230322e+000	 1.154609982964288e+001
 1.613063422360952e+000	 1.685944696578732e+000	 1.147714133652394e+001
 1.594348471918019e+000	 1.703653718137051e+000	 1.140716444422480e+001
 1.575442586637168e+000	 1.721151818107034e+000	 1.133708330154572e+001
 1.556349345450221e+000	 1.738435932119336e+000	 1.126785776233636e+001
 1.758304878271573e+000	 1.574137186099347e+000	 1.187853397347425e+001
 1.740823220522151e+000	 1.593448647914248e+000	 1.183269341097722e+001
 1.723125131125022e+000	 1.612570612493426e+000	 1.178030675988381e+001
 1.705213709472846e+000	 1.631499460000704e+000	 1.172229276968823e+001
 1.687092135294994e+000	 1.650231638621166e+000	 1.165961178450777e+001
 1.668763666779384e+000	 1.668763666779383e+000	 1.159326778462366e+001
 1.650231638621165e+000	 1.687092135294993e+000	 1.152431034416916e+001
 1.631499460000704e+000	 1.705213709472847e+000	 1.145383648460835e+001
 1.612570612493427e+000	 1.723125131125022e+000	 1.138299240337225e+001
 1.593448647914248e+000	 1.740823220522151e+000	 1.131297505690135e+001
 1.574137186099347e+000	 1.758304878271573e+000	 1.124503357738041e+001
 1.778173824424543e+000	 1.591925026748623e+000	 1.186046189345579e+001
 1.760494622937957e+000	 1.611454709191528e+000	 1.181440071824068e+001
 1.742596544113631e+000	 1.630792753069090e+000	 1.176135837144059e+001
 1.724482722367539e+000	 1.649935497640772e+000	 1.170240648206779e+001
 1.706156373360178e+000	 1.668879350955947e+000	 1.163866406825362e+001
 1.687620792097182e+000	 1.687620792097182e+000	 1.157129951987778e+001
 1.668879350955947e+000	 1.706156373360178e+000	 1.150153249254613e+001
 1.649935497640772e+000	 1.724482722367539e+000	 1.143063569171591e+001
 1.630792753069090e+000	 1.742596544113631e+000	 1.135993652544963e+001
 1.611454709191528e+000	 1.760494622937957e+000	 1.129081860411832e+001
 1.591925026748623e+000	 1.778173824424543e+000	 1.122472306538591e+001
 1.798042770578147e+000	 1.609712867398032e+000	 1.183858816086737e+001
 1.780166025354362e+000	 1.629460770468984e+000	 1.179213636149811e+001
 1.762067957102794e+000	 1.649014893644979e+000	 1.173868114124406e+001
 1.743751735262737e+000	 1.668371535281121e+000	 1.167936397914841e+001
 1.725220611425817e+000	 1.687527063291067e+000	 1.161537742125167e+001
 1.706477917415377e+000	 1.706477917415377e+000	 1.154796716537773e+001
 1.687527063291067e+000	 1.725220611425817e+000	 1.147843405677148e+001
 1.668371535281121e+000	 1.743751735262737e+000	 1.140813597215320e+001
 1.649014893644979e+000	 1.762067957102794e+000	 1.133848956937366e+001
 1.629460770468984e+000	 1.780166025354362e+000	 1.127097187964383e+001
 1.609712867398033e+000	 1.798042770578147e+000	 1.120712171928270e+001
 1.817911716732283e+000	 1.627500708047558e+000	 1.181314214319777e+001
 1.799837427771275e+000	 1.647466831746595e+000	 1.176631316081856e+001
 1.781539370092433e+000	 1.667237034221067e+000	 1.171282330805558e+001
 1.763020748158372e+000	 1.686807572921716e+000	 1.165380347644992e+001
 1.744284849491846e+000	 1.706174775626481e+000	 1.159043722312729e+001
 1.725335042733917e+000	 1.725335042733916e+000	 1.152396311656544e+001
 1.706174775626482e+000	 1.744284849491846e+000	 1.145567699701255e+001
 1.686807572921716e+000	 1.763020748158372e+000	 1.138693412749664e+001
 1.667237034221068e+000	 1.781539370092433e+000	 1.131915121090788e+001
 1.647466831746596e+000	 1.799837427771275e+000	 1.125380824836125e+001
 1.627500708047558e+000	 1.817911716732282e+000	 1.119245021396398e+001
 1.837780662886852e+000	 1.645288548697183e+000	 1.178434962139225e+001
 1.819508830188606e+000	 1.665472893024340e+000	 1.173733441698277e+001
 1.801010783082467e+000	 1.685459174797326e+000	 1.168431985174089e+001
 1.782289761054373e+000	 1.705243610562522e+000	 1.162634826515718e+001
 1.763349087558206e+000	 1.724822487962146e+000	 1.156451421653594e+001
 1.744192168052747e+000	 1.744192168052746e+000	 1.149996724845398e+001
 1.724822487962147e+000	 1.763349087558206e+000	 1.143391457296418e+001
 1.705243610562521e+000	 1.782289761054373e+000	 1.136762365446954e+001
 1.685459174797326e+000	 1.801010783082468e+000	 1.130242466264313e+001
 1.665472893024339e+000	 1.819508830188606e+000	 1.123971276841826e+001
 1.645288548697184e+000	 1.837780662886852e+000	 1.118095025592320e+001
 1.857649609041756e+000	 1.663076389346893e+000	 1.175242924173646e+001
 1.839180232606266e+000	 1.683478954302194e+000	 1.170559071802913e+001
 1.820482196072817e+000	 1.703681315373725e+000	 1.165368954641073e+001
 1.801558773950668e+000	 1.723679648203500e+000	 1.159760391002128e+001
 1.782413325624835e+000	 1.743470200298019e+000	 1.153826175431585e+001
 1.763049293371817e+000	 1.763049293371817e+000	 1.147664412293395e+001
 1.743470200298020e+000	 1.782413325624836e+000	 1.141378842870468e+001
 1.723679648203500e+000	 1.801558773950668e+000	 1.135079163131014e+001
 1.703681315373725e+000	 1.820482196072818e+000	 1.128881329247488e+001
 1.683478954302193e+000	 1.839180232606266e+000	 1.122907847910525e+001
 1.663076389346893e+000	 1.857649609041755e+000	 1.117288048457626e+001
 1.877518555196891e+000	 1.680864229996668e+000	 1.171758897155040e+001
 1.858851635024165e+000	 1.701485015580136e+000	 1.167145672690436e+001
 1.839953609063402e+000	 1.721903455950237e+000	 1.162143197907168e+001
 1.820827786847187e+000	 1.742115685844617e+000	 1.156815540388895e+001
 1.801477563691672e+000	 1.762117912634056e+000	 1.151231300069668e+001
 1.781906418691073e+000	 1.781906418691073e+000	 1.145464015346597e+001
 1.762117912634056e+000	 1.801477563691672e+000	 1.139592564375423e+001
 1.742115685844617e+000	 1.820827786847188e+000	 1.133701558422459e+001
 1.721903455950237e+000	 1.839953609063402e+000	 1.127881724068839e+001
 1.701485015580136e+000	 1.858851635024165e+000	 1.122230271007727e+001
 1.680864229996669e+000	 1.877518555196891e+000	 1.116851242143960e+001
 1.897387501352160e+000	 1.698652070646494e+000	 1.168002255841188e+001
 1.878523037442211e+000	 1.719491076858146e+000	 1.163528795160442e+001
 1.859425022054142e+000	 1.740125596526834e+000	 1.158802453631530e+001
 1.840096799743861e+000	 1.760551723485837e+000	 1.153856428203945e+001
 1.820541801758657e+000	 1.780765624970212e+000	 1.148727808993326e+001
 1.800763544010466e+000	 1.800763544010466e+000	 1.143458073028351e+001
 1.780765624970212e+000	 1.820541801758657e+000	 1.138093575281267e+001
 1.760551723485837e+000	 1.840096799743862e+000	 1.132686033538377e+001
 1.740125596526833e+000	 1.859425022054142e+000	 1.127293003575386e+001
 1.719491076858146e+000	 1.878523037442211e+000	 1.121978341035408e+001
 1.698652070646494e+000	 1.897387501352160e+000	 1.116812646365685e+001
 1.917256447507461e+000	 1.716439911296353e+000	 1.163990599265443e+001
 1.898194439860316e+000	 1.737497138136198e+000	 1.159741749907563e+001
 1.878896435044956e+000	 1.758347737103486e+000	 1.155391936136416e+001
 1.859365812640619e+000	 1.778987761127123e+000	 1.150936569924476e+001
 1.839606039825727e+000	 1.799413337306444e+000	 1.146374124545167e+001
 1.819620669329943e+000	 1.819620669329943e+000	 1.141706730896981e+001
 1.799413337306444e+000	 1.839606039825727e+000	 1.136940773644957e+001
 1.778987761127123e+000	 1.859365812640619e+000	 1.132087483380354e+001
 1.758347737103485e+000	 1.878896435044956e+000	 1.127163520892537e+001
 1.737497138136199e+000	 1.898194439860315e+000	 1.122191549566409e+001
 1.716439911296353e+000	 1.917256447507461e+000	 1.117200791865631e+001
 1.937125393662695e+000	 1.734227751946229e+000	 1.159739397290387e+001
 1.917865842278389e+000	 1.755503199414275e+000	 1.155815281404219e+001
 1.898367848035766e+000	 1.776569877680164e+000	 1.151954028360292e+001
 1.878634825537390e+000	 1.797423798768443e+000	 1.148106547222922e+001
 1.858670277892823e+000	 1.818061049642710e+000	 1.144225786234382e+001
 1.838477794649450e+000	 1.838477794649450e+000	 1.140267446503959e+001
 1.818061049642710e+000	 1.858670277892823e+000	 1.136190698483103e+001
 1.797423798768442e+000	 1.878634825537390e+000	 1.131958897033714e+001
 1.776569877680166e+000	 1.898367848035766e+000	 1.127540290772882e+001
 1.755503199414274e+000	 1.917865842278389e+000	 1.122908721281529e+001
 1.734227751946229e+000	 1.937125393662695e+000	 1.118044307698664e+001
 1.556349345450221e+000	 1.738435932119336e+000	 1.126785776233636e+001
 1.537069487102882e+000	 1.755505621180099e+000	 1.119591029880006e+001
 1.517609571401743e+000	 1.772355376050134e+000	 1.111773287829158e+001
 1.497973368419745e+000	 1.788982381374034e+000	 1.103443626355473e+001
 1.478164706143358e+000	 1.805383907963363e+000	 1.094718832403030e+001
 1.458187468011342e+000	 1.821557314259135e+000	 1.085721474721028e+001
 1.438045590410163e+000	 1.837500047710095e+000	 1.076579947481342e+001
 1.417743060129417e+000	 1.853209646065358e+000	 1.067428484823241e+001
 1.397283911780661e+000	 1.868683738580113e+000	 1.058407144903339e+001
 1.376672225183124e+000	 1.883920047133223e+000	 1.049661762175920e+001
 1.355912122719749e+000	 1.898916387255753e+000	 1.041343866788818e+001
 1.574137186099347e+000	 1.758304878271573e+000	 1.124503357738041e+001
 1.554636974237704e+000	 1.775569660362075e+000	 1.117574096143075e+001
 1.534954647109299e+000	 1.792611994588220e+000	 1.110138719387904e+001
 1.515094017876017e+000	 1.809429033417307e+000	 1.102284494997162e+001
 1.495058958275174e+000	 1.826018016468425e+000	 1.094103899865814e+001
 1.474853396130154e+000	 1.842376271991649e+000	 1.085694762506423e+001
 1.454481312817197e+000	 1.858501218262075e+000	 1.077160377698707e+001
 1.433946740691739e+000	 1.874390364887230e+000	 1.068609591713497e+001
 1.413253760477749e+000	 1.890041314026554e+000	 1.060156856419262e+001
 1.392406498623549e+000	 1.905451761521779e+000	 1.051922250731558e+001
 1.371409124627651e+000	 1.920619497937210e+000	 1.044031468032042e+001
 1.591925026748623e+000	 1.778173824424543e+000	 1.122472306538591e+001
 1.572204461372635e+000	 1.795633699544820e+000	 1.115817218764521e+001
 1.552299722816932e+000	 1.812868613127101e+000	 1.108716541182345e+001
 1.532214667332336e+000	 1.829875685461390e+000	 1.101241018147691e+001
 1.511953210407012e+000	 1.846652124974303e+000	 1.093466313653343e+001
 1.491519324248966e+000	 1.863195229724980e+000	 1.085473212244879e+001
 1.470917035224207e+000	 1.879502388814862e+000	 1.077347791964685e+001
 1.450150421254014e+000	 1.895571083709891e+000	 1.069181567244026e+001
 1.429223609174760e+000	 1.911398889473761e+000	 1.061071599803234e+001
 1.408140772063863e+000	 1.926983475911071e+000	 1.053120575777219e+001
 1.386906126535401e+000	 1.942322608619366e+000	 1.045436847457040e+001
 1.609712867398033e+000	 1.798042770578147e+000	 1.120712171928270e+001
 1.589771948507662e+000	 1.815697738728223e+000	 1.114325037399903e+001
 1.569644798524630e+000	 1.833125231666656e+000	 1.107501545773444e+001
 1.549335316788698e+000	 1.850322337506154e+000	 1.100302935390832e+001
 1.528847462538872e+000	 1.867286233480864e+000	 1.092795281791103e+001
 1.508185252367777e+000	 1.884014187458984e+000	 1.085049745208962e+001
 1.487352757631197e+000	 1.900503559368311e+000	 1.077142789439075e+001
 1.466354101816245e+000	 1.916751802533197e+000	 1.069156369753581e+001
 1.445193457871702e+000	 1.932756464921588e+000	 1.061178087704978e+001
 1.423875045504080e+000	 1.948515190300959e+000	 1.053301310809487e+001
 1.402403128443016e+000	 1.964025719302089e+000	 1.045625255286819e+001
 1.627500708047558e+000	 1.817911716732282e+000	 1.119245021396398e+001
 1.607339435642774e+000	 1.835761777912175e+000	 1.113105629209831e+001
 1.586989874232388e+000	 1.853381850206765e+000	 1.106492662266832e+001
 1.566455966245095e+000	 1.870768989551473e+000	 1.099464612116123e+001
 1.545741714670747e+000	 1.887920341987970e+000	 1.092084928244150e+001
 1.524851180486588e+000	 1.904833145193523e+000	 1.084422300419667e+001
 1.503788480038169e+000	 1.921504729922276e+000	 1.076550911458560e+001
 1.482557782378439e+000	 1.937932521356998e+000	 1.068550657883092e+001
 1.461163306568586e+000	 1.954114040369892e+000	 1.060507336099155e+001
 1.439609318944210e+000	 1.970046904691297e+000	 1.052512791884504e+001
 1.417900130350514e+000	 1.985728829985244e+000	 1.044665031169393e+001
 1.645288548697184e+000	 1.837780662886852e+000	 1.118095025592320e+001
 1.624906922777959e+000	 1.855825817096565e+000	 1.112170056007605e+001
 1.604334949940195e+000	 1.873638468747310e+000	 1.105692478182534e+001
 1.583576615701524e+000	 1.891215641597216e+000	 1.098724548038910e+001
 1.562635966802639e+000	 1.908554450495487e+000	 1.091333799394571e+001
 1.541517108605399e+000	 1.925652102928452e+000	 1.083593349757403e+001
 1.520224202445124e+000	 1.942505900476613e+000	 1.075582175316751e+001
 1.498761462940601e+000	 1.959113240181150e+000	 1.067385352410963e+001
 1.477133155265418e+000	 1.975471615818524e+000	 1.059094262904750e+001
 1.455343592384267e+000	 1.991578619081951e+000	 1.050806761085826e+001
 1.433397132257910e+000	 2.007431940668699e+000	 1.042695790638409e+001
 1.663076389346893e+000	 1.857649609041755e+000	 1.117288048457626e+001
 1.642474409913205e+000	 1.875889856281284e+000	 1.111531919223304e+001
 1.621680025648045e+000	 1.893895087288170e+000	 1.105106771006166e+001
 1.600697265157980e+000	 1.911662293643256e+000	 1.098084896522090e+001
 1.579530218934542e+000	 1.929188559003277e+000	 1.090544381735556e+001
 1.558183036724210e+000	 1.946471060663631e+000	 1.082569424038786e+001
 1.536659924852067e+000	 1.963507071031173e+000	 1.074250618133702e+001
 1.514965143502737e+000	 1.980293959005503e+000	 1.065685206716917e+001
 1.493103003962208e+000	 1.996829191267341e+000	 1.056977293228798e+001
 1.471077865824262e+000	 2.013110333472775e+000	 1.048471568854226e+001
 1.448894134165222e+000	 2.029135051352321e+000	 1.040687946033541e+001
 1.680864229996669e+000	 1.877518555196891e+000	 1.116851242143960e+001
 1.660041897048500e+000	 1.895953895466221e+000	 1.111206922105375e+001
 1.639025101355929e+000	 1.914151705829226e+000	 1.104744048704351e+001
 1.617817914614456e+000	 1.932108945689464e+000	 1.097550993899555e+001
 1.596424471066456e+000	 1.949822667511206e+000	 1.089722629951295e+001
 1.574848964843020e+000	 1.967290018398917e+000	 1.081360649246861e+001
 1.553095647259001e+000	 1.984508241585813e+000	 1.072573850067507e+001
 1.531168824064851e+000	 2.001474677829911e+000	 1.063481670160020e+001
 1.509072852658963e+000	 2.018186766716196e+000	 1.054681750355632e+001
 1.486812139264208e+000	 2.034642047863629e+000	 1.046556655455242e+001
 1.464391136072466e+000	 2.050838162035976e+000	 1.039114167261722e+001
 1.698652070646494e+000	 1.897387501352160e+000	 1.116812646365685e+001
 1.677609384183830e+000	 1.916017934651266e+000	 1.111212438629173e+001
 1.656370177063837e+000	 1.934408324370359e+000	 1.104615098547329e+001
 1.634938564070948e+000	 1.952555597735713e+000	 1.097130898067998e+001
 1.613318723198377e+000	 1.970456776019136e+000	 1.088877504621292e+001
 1.591514892961830e+000	 1.988108976134169e+000	 1.079980292170584e+001
 1.569531369665925e+000	 2.005509412140386e+000	 1.070620981333331e+001
 1.547372504626950e+000	 2.022655396654229e+000	 1.061592857343488e+001
 1.525042701355693e+000	 2.039544342164943e+000	 1.053158109199100e+001
 1.502546412704118e+000	 2.056173762254373e+000	 1.045347362701507e+001
 1.479888137979660e+000	 2.072541272719535e+000	 1.038189519634468e+001
 1.716439911296353e+000	 1.917256447507461e+000	 1.117200791865631e+001
 1.695176871319185e+000	 1.936081973836309e+000	 1.111567088625896e+001
 1.673715252771762e+000	 1.954664942911448e+000	 1.104732543636075e+001
 1.652059213527451e+000	 1.973002249781873e+000	 1.096834935674928e+001
 1.630212975330304e+000	 1.991090884526934e+000	 1.088020518850932e+001
 1.608180821080641e+000	 2.008927933869245e+000	 1.078576942236657e+001
 1.585967092072845e+000	 2.026510582694747e+000	 1.069415386072488e+001
 1.563576185189036e+000	 2.043836115478306e+000	 1.060729446993470e+001
 1.541012550052406e+000	 2.060901917613437e+000	 1.052578264201462e+001
 1.518280686144002e+000	 2.077705476644866e+000	 1.045020191055827e+001
 1.495385139886820e+000	 2.094244383402859e+000	 1.038111924257460e+001
 1.734227751946229e+000	 1.937125393662695e+000	 1.118044307698665e+001
 1.712744358454553e+000	 1.956146013021241e+000	 1.112290318685316e+001
 1.691060328479696e+000	 1.974921561452375e+000	 1.105110406580794e+001
 1.669179862983960e+000	 1.993448901827818e+000	 1.096675257285556e+001
 1.647107227462233e+000	 2.011724993034462e+000	 1.087402196095474e+001
 1.624846749199452e+000	 2.029746891604005e+000	 1.078269968953529e+001
 1.602402814479762e+000	 2.047511753248752e+000	 1.069444562858378e+001
 1.579779865751119e+000	 2.065016834301999e+000	 1.061018473962827e+001
 1.556982398749111e+000	 2.082259493061532e+000	 1.053084725054028e+001
 1.534014959583875e+000	 2.099237191034965e+000	 1.045735818602249e+001
 1.510882141793964e+000	 2.115947494085821e+000	 1.039062733465023e+001
 1.355912122719749e+000	 1.898916387255753e+000	 1.041343866788818e+001
 1.335007766215312e+000	 1.913670668530300e+000	 1.032864160281353e+001
 1.313963352917359e+000	 1.928180893807915e+000	 1.023761455824556e+001
 1.292783114191905e+000	 1.942445161561669e+000	 1.014324559998505e+001
 1.271471313257540e+000	 1.956461667092249e+000	 1.004625677678582e+001
 1.250032242448504e+000	 1.970228703106179e+000	 9.947286692262907e+000
 1.228470220469227e+000	 1.983744660202318e+000	 9.846901420835776e+000
 1.206789589643861e+000	 1.997008027266777e+000	 9.745593911251536e+000
 1.184994713164319e+000	 2.010017391776478e+000	 9.643822117960005e+000
 1.163089972340300e+000	 2.022771440011767e+000	 9.541340882031232e+000
 1.141079763854727e+000	 2.035268957178629e+000	 9.437146370839837e+000
 1.371409124627651e+000	 1.920619497937210e+000	 1.044031468032042e+001
 1.350265847881186e+000	 1.935542408963624e+000	 1.035875219483494e+001
 1.328980913602921e+000	 1.950218474626249e+000	 1.026860620435341e+001
 1.307558601520036e+000	 1.964645771665227e+000	 1.017408092644945e+001
 1.286003223576339e+000	 1.978822474754980e+000	 1.007740342822479e+001
 1.264319121164056e+000	 1.992746857089031e+000	 9.979258965873038e+000
 1.242510662346993e+000	 2.006417290872079e+000	 9.880421052405717e+000
 1.220582239078634e+000	 2.019832247719414e+000	 9.781999205595952e+000
 1.198538264418724e+000	 2.032990298963953e+000	 9.683359388339058e+000
 1.176383169751866e+000	 2.045890115871281e+000	 9.583532676263479e+000
 1.154121402011593e+000	 2.058530469763273e+000	 9.481489440296981e+000
 1.386906126535401e+000	 1.942322608619366e+000	 1.045436847457040e+001
 1.365523929546859e+000	 1.957414149397602e+000	 1.037409017918371e+001
 1.343998474288224e+000	 1.972256055445191e+000	 1.028443463096770e+001
 1.322334088847847e+000	 1.986846381769343e+000	 1.018754528794480e+001
 1.300535133894753e+000	 2.001183282418213e+000	 1.008873049648405e+001
 1.278605999879158e+000	 2.015265011072332e+000	 9.990749868193651e+000
 1.256551104224244e+000	 2.029089921542232e+000	 9.894230441288213e+000
 1.234374888512827e+000	 2.042656468172388e+000	 9.798334690020850e+000
 1.212081815672489e+000	 2.055963206151714e+000	 9.702136610883837e+000
 1.189676367162741e+000	 2.069008791731038e+000	 9.604638657910135e+000
 1.167163040167724e+000	 2.081791982348114e+000	 9.504788153172665e+000
 1.402403128443016e+000	 1.964025719302089e+000	 1.045625255286819e+001
 1.380782011212353e+000	 1.979285889832116e+000	 1.037551101263930e+001
 1.359016034973300e+000	 1.994293636264635e+000	 1.028502831402067e+001
 1.337109576175375e+000	 2.009046991873925e+000	 1.018695479100460e+001
 1.315067044212827e+000	 2.023544090081880e+000	 1.008719312606701e+001
 1.292892878593861e+000	 2.037783165056030e+000	 9.989929839246408e+000
 1.270591546101038e+000	 2.051762552212749e+000	 9.894489971713833e+000
 1.248167537946512e+000	 2.065480688625692e+000	 9.799990836932057e+000
 1.225625366925698e+000	 2.078936113339772e+000	 9.705462806565878e+000
 1.202969564573016e+000	 2.092127467591057e+000	 9.609867898302031e+000
 1.180204678323221e+000	 2.105053494933187e+000	 9.512117770681236e+000
 1.417900130350514e+000	 1.985728829985244e+000	 1.044665031169393e+001
 1.396040092877691e+000	 2.001157630267043e+000	 1.036390918922904e+001
 1.374033595658175e+000	 2.016331217084475e+000	 1.027407994664383e+001
 1.351885063502655e+000	 2.031247601978889e+000	 1.017963066280585e+001
 1.329598954530604e+000	 2.045904897745910e+000	 1.008073996218515e+001
 1.307179757308217e+000	 2.060301319040078e+000	 9.982355462073850e+000
 1.284631987977439e+000	 2.074435182883600e+000	 9.886505877648359e+000
 1.261960187379758e+000	 2.088304909079315e+000	 9.792252670639632e+000
 1.239168918178429e+000	 2.101909020528132e+000	 9.698570844800798e+000
 1.216262761982781e+000	 2.115246143451361e+000	 9.604369340055280e+000
 1.193246316478183e+000	 2.128315007518526e+000	 9.508510762623727e+000
 1.433397132257910e+000	 2.007431940668699e+000	 1.042695790638409e+001
 1.411298174542895e+000	 2.023029370702263e+000	 1.034635258595586e+001
 1.389051156342877e+000	 2.038368797904605e+000	 1.026057459852027e+001
 1.366660550829724e+000	 2.053448212084144e+000	 1.016959868553330e+001
 1.344130864848129e+000	 2.068265705410237e+000	 1.007339754216724e+001
 1.321466636022281e+000	 2.082819473024427e+000	 9.973186866906229e+000
 1.298672429853509e+000	 2.097107813554756e+000	 9.875459541827249e+000
 1.275752836812638e+000	 2.111129129533246e+000	 9.780294225555508e+000
 1.252712469430764e+000	 2.124881927716801e+000	 9.686597864320662e+000
 1.229555959392127e+000	 2.138364819311972e+000	 9.593212777238293e+000
 1.206287954632712e+000	 2.151576520104164e+000	 9.498938280124397e+000
 1.448894134165222e+000	 2.029135051352321e+000	 1.040687946033541e+001
 1.426556256207987e+000	 2.044901111137655e+000	 1.033003527845082e+001
 1.404068717027438e+000	 2.060406378724921e+000	 1.024778612532227e+001
 1.381436038156617e+000	 2.075648822189604e+000	 1.016001083975222e+001
 1.358662775165444e+000	 2.090626513074790e+000	 1.006658227938590e+001
 1.335753514736103e+000	 2.105337627009026e+000	 9.967363774653483e+000
 1.312712871729308e+000	 2.119780444226189e+000	 9.866386508451905e+000
 1.289545486245221e+000	 2.133953349987476e+000	 9.769158247596298e+000
 1.266256020682782e+000	 2.147854834905787e+000	 9.674565603317740e+000
 1.242849156801144e+000	 2.161483495172912e+000	 9.581369753178901e+000
 1.219329592786908e+000	 2.174838032690134e+000	 9.488291558978251e+000
 1.464391136072466e+000	 2.050838162035976e+000	 1.039114167261722e+001
 1.441814337872990e+000	 2.066772851573099e+000	 1.031751600057860e+001
 1.419086277711884e+000	 2.082443959545315e+000	 1.023848040195616e+001
 1.396211525483370e+000	 2.097849432295178e+000	 1.015381650640193e+001
 1.373194685482595e+000	 2.112987320739501e+000	 1.006329444464209e+001
 1.350040393449737e+000	 2.127855780993828e+000	 9.966669158939357e+000
 1.326753313604898e+000	 2.142453074897868e+000	 9.864155409299180e+000
 1.303338135677579e+000	 2.156777570441995e+000	 9.763735808127571e+000
 1.279799571934565e+000	 2.170827742095097e+000	 9.667360645582779e+000
 1.256142354209923e+000	 2.184602171034203e+000	 9.573694382012841e+000
 1.232371230940871e+000	 2.198099545276473e+000	 9.481363258748603e+000
 1.479888137979660e+000	 2.072541272719535e+000	 1.038189519634468e+001
 1.457072419537926e+000	 2.088644592008472e+000	 1.031116865343187e+001
 1.434103838396246e+000	 2.104481540365685e+000	 1.023523203443791e+001
 1.410987012810020e+000	 2.120050042400781e+000	 1.015376858334392e+001
 1.387726595799625e+000	 2.135348128404301e+000	 1.006644294633299e+001
 1.364327272163235e+000	 2.150373934978783e+000	 9.972897323610832e+000
 1.340793755480339e+000	 2.165125705569764e+000	 9.872748327795410e+000
 1.317130785109784e+000	 2.179601790896790e+000	 9.768745836861976e+000
 1.293343123186193e+000	 2.193800649284738e+000	 9.669714588796488e+000
 1.269435551618554e+000	 2.207720846895866e+000	 9.574904099566535e+000
 1.245412869094703e+000	 2.221361057863212e+000	 9.482828742328032e+000
 1.495385139886820e+000	 2.094244383402859e+000	 1.038111924257460e+001
 1.472330501202817e+000	 2.110516332443655e+000	 1.031318821749665e+001
 1.449121399080551e+000	 2.126519121185920e+000	 1.024043037888945e+001
 1.425762500136603e+000	 2.142250652506322e+000	 1.016242955225139e+001
 1.402258506116577e+000	 2.157708936069120e+000	 1.007874228561289e+001
 1.378614150876650e+000	 2.172892088963843e+000	 9.988893825363274e+000
 1.354834197355695e+000	 2.187798336241849e+000	 9.892374864487458e+000
 1.330923434541905e+000	 2.202426011351853e+000	 9.788714579592737e+000
 1.306886674437748e+000	 2.216773556474716e+000	 9.686184140623693e+000
 1.282728749027127e+000	 2.230839522757924e+000	 9.589560348700218e+000
 1.258454507248502e+000	 2.244622570450384e+000	 9.497227300281695e+000
 1.510882141793964e+000	 2.115947494085821e+000	 1.039062733465023e+001
 1.487588582867686e+000	 2.132388072878528e+000	 1.032559665160090e+001
 1.464138959764830e+000	 2.148556702005919e+000	 1.025628552911732e+001
 1.440537987463155e+000	 2.164451262611717e+000	 1.018217749940465e+001
 1.416790416433498e+000	 2.180069743733891e+000	 1.010271855559752e+001
 1.392901029590033e+000	 2.195410242948957e+000	 1.001731293197216e+001
 1.368874639231026e+000	 2.210470966914093e+000	 9.925319727957168e+000
 1.344716083974012e+000	 2.225250231807173e+000	 9.826050419768333e+000
 1.320430225689309e+000	 2.239746463665041e+000	 9.721131147796079e+000
 1.296021946435735e+000	 2.253958198620401e+000	 9.622049203820698e+000
 1.271496145402372e+000	 2.267884083038025e+000	 9.528943323939100e+000
 1.141079763854727e+000	 2.035268957178629e+000	 9.437146370839837e+000
 1.118971821116124e+000	 2.047507011200339e+000	 9.331659544486556e+000
 1.096767268820617e+000	 2.059486480776334e+000	 9.226082175891195e+000
 1.074470532596845e+000	 2.071206449790665e+000	 9.120526421826506e+000
 1.052086042539205e+000	 2.082666100602788e+000	 9.015049817308944e+000
 1.029618230541540e+000	 2.093864713729079e+000	 8.909662290423196e+000
 1.007071527655773e+000	 2.104801667440268e+000	 8.804324528964623e+000
 9.844503614784818e-001	 2.115476437276296e+000	 8.698981989792305e+000
 9.617591535682968e-001	 2.125888595480185e+000	 8.593528549353804e+000
 9.390023168969391e-001	 2.136037810352666e+000	 8.487834952467170e+000
 9.161842533366131e-001	 2.145923845529372e+000	 8.381744867093071e+000
 1.154121402011593e+000	 2.058530469763273e+000	 9.481489440296981e+000
 1.131760782993169e+000	 2.070908395051891e+000	 9.377420976261650e+000
 1.109302450247109e+000	 2.083024780479415e+000	 9.272400837041348e+000
 1.086750879983489e+000	 2.094878699459406e+000	 9.166691553660868e+000
 1.064110552929180e+000	 2.106469325006327e+000	 9.060507747932856e+000
 1.041385951631065e+000	 2.117795929413422e+000	 8.954023736373461e+000
 1.018581557784487e+000	 2.128857883845541e+000	 8.847380127175955e+000
 9.957018495899491e-001	 2.139654657848452e+000	 8.740680020381754e+000
 9.727512991410008e-001	 2.150185818776249e+000	 8.634028213773650e+000
 9.497343698461394e-001	 2.160451031138595e+000	 8.527485529149196e+000
 9.266555138874860e-001	 2.170450055869658e+000	 8.421101534038021e+000
 1.167163040167724e+000	 2.081791982348114e+000	 9.504788153172667e+000
 1.144549744869445e+000	 2.094309778903606e+000	 9.402503284606468e+000
 1.121837631672807e+000	 2.106563080182627e+000	 9.298666651229205e+000
 1.099031227369319e+000	 2.118550949128249e+000	 9.193650182959996e+000
 1.076135063318328e+000	 2.130272549409948e+000	 9.087785444045366e+000
 1.053153672719756e+000	 2.141727145097828e+000	 8.981371969241547e+000
 1.030091587912363e+000	 2.152914100250859e+000	 8.874684479096366e+000
 1.006953337700580e+000	 2.163832878420640e+000	 8.767970187634134e+000
 9.837434447128693e-001	 2.174483042072332e+000	 8.661485992076626e+000
 9.604664227945058e-001	 2.184864251924533e+000	 8.555456548366090e+000
 9.371267744375259e-001	 2.194976266209944e+000	 8.450104835466092e+000
 1.180204678323221e+000	 2.105053494933187e+000	 9.512117770681233e+000
 1.157338706745061e+000	 2.117711162755524e+000	 9.411824944464215e+000
 1.134372813097828e+000	 2.130101379886014e+000	 9.309629842624469e+000
 1.111311574754465e+000	 2.142223198797243e+000	 9.205973205483398e+000
 1.088159573706788e+000	 2.154075773813694e+000	 9.101263831737015e+000
 1.064921393807760e+000	 2.165658360782337e+000	 8.995887794521799e+000
 1.041601618039557e+000	 2.176970316656258e+000	 8.890216413095935e+000
 1.018204825810532e+000	 2.188011098992888e+000	 8.784612903487560e+000
 9.947355902840654e-001	 2.198780265368455e+000	 8.679427195282488e+000
 9.711984757422031e-001	 2.209277472710488e+000	 8.575038709396090e+000
 9.475980349868981e-001	 2.219502476550226e+000	 8.471804095296459e+000
 1.193246316478183e+000	 2.128315007518526e+000	 9.508510762623727e+000
 1.170127668620127e+000	 2.141112546607686e+000	 9.410279711441792e+000
 1.146907994522294e+000	 2.153639679589622e+000	 9.310034122396186e+000
 1.123591922139055e+000	 2.165895448466434e+000	 9.208243232369549e+000
 1.100184084094699e+000	 2.177878998217611e+000	 9.105353692715612e+000
 1.076689114895224e+000	 2.189589576466989e+000	 9.001799817547067e+000
 1.053111648166220e+000	 2.201026533061774e+000	 8.898012454216604e+000
 1.029456313919965e+000	 2.212189319565223e+000	 8.794426392527448e+000
 1.005727735854752e+000	 2.223077488664634e+000	 8.691476554107608e+000
 9.819305286893987e-001	 2.233690693496472e+000	 8.589638267780197e+000
 9.580692955357707e-001	 2.244028686890507e+000	 8.489379638353029e+000
 1.206287954632712e+000	 2.151576520104164e+000	 9.498938280124397e+000
 1.182916630494756e+000	 2.164513930460135e+000	 9.402718546570945e+000
 1.159443175946325e+000	 2.177177979293498e+000	 9.304599052783969e+000
 1.135872269523220e+000	 2.189567698135869e+000	 9.205037382138899e+000
 1.112208594482198e+000	 2.201682222621746e+000	 9.104478874218618e+000
 1.088456835982293e+000	 2.213520792151826e+000	 9.003368062669754e+000
 1.064621678292507e+000	 2.225082749467440e+000	 8.902158591461463e+000
 1.040707802029039e+000	 2.236367540137672e+000	 8.801321518663748e+000
 1.016719881425092e+000	 2.247374711960891e+000	 8.701351934625725e+000
 9.926625816362568e-001	 2.258103914282494e+000	 8.602762233753431e+000
 9.685405560843093e-001	 2.268554897230786e+000	 8.506128376514807e+000
 1.219329592786908e+000	 2.174838032690134e+000	 9.488291558978252e+000
 1.195705592369057e+000	 2.187915314312910e+000	 9.393931487465091e+000
 1.171978357370042e+000	 2.200716278997688e+000	 9.298002374288343e+000
 1.148152616907090e+000	 2.213239947805595e+000	 9.200910053292644e+000
 1.124233104869425e+000	 2.225485447026141e+000	 9.103059497570500e+000
 1.100224557069113e+000	 2.237452007836891e+000	 9.004867609526317e+000
 1.076131708418570e+000	 2.249138965873294e+000	 8.906774334739882e+000
 1.051959290137910e+000	 2.260545760710265e+000	 8.809252000698992e+000
 1.027712026995249e+000	 2.271671935257245e+000	 8.712812800642876e+000
 1.003394634582944e+000	 2.282517135068562e+000	 8.618003661786537e+000
 9.790118166326809e-001	 2.293081107571061e+000	 8.525449503672339e+000
 1.232371230940871e+000	 2.198099545276473e+000	 9.481363258748599e+000
 1.208494554243141e+000	 2.211316698166054e+000	 9.388629469843794e+000
 1.184513538793563e+000	 2.224254578702237e+000	 9.294862298712181e+000
 1.160432964290793e+000	 2.236912197475659e+000	 9.200375678945045e+000
 1.136257615256517e+000	 2.249288671430844e+000	 9.105495165485436e+000
 1.111992278155832e+000	 2.261383223522224e+000	 9.010572245119818e+000
 1.087641738544563e+000	 2.273195182279368e+000	 8.915996804896668e+000
 1.063210778246740e+000	 2.284723981283027e+000	 8.822207650838546e+000
 1.038704172565387e+000	 2.295969158553711e+000	 8.729700989983618e+000
 1.014126687529626e+000	 2.306930355854685e+000	 8.639036809779150e+000
 9.894830771810521e-001	 2.317607317911332e+000	 8.550830291431367e+000
 1.245412869094703e+000	 2.221361057863212e+000	 9.482828742328032e+000
 1.221283516117117e+000	 2.234718082019610e+000	 9.391426103063953e+000
 1.197048720217010e+000	 2.247792878407190e+000	 9.299719770557815e+000
 1.172713311674459e+000	 2.260584447146108e+000	 9.207891464807490e+000
 1.148282125643612e+000	 2.273091895835900e+000	 9.116148168207888e+000
 1.123759999242596e+000	 2.285314439207865e+000	 9.024738130561818e+000
 1.099151768670638e+000	 2.297251398685700e+000	 8.933964854401925e+000
 1.074462266355686e+000	 2.308902201855987e+000	 8.844198943604555e+000
 1.049696318135667e+000	 2.320266381850311e+000	 8.755887720537830e+000
 1.024858740476468e+000	 2.331343576640874e+000	 8.669562539584558e+000
 9.999543377295893e-001	 2.342133528251598e+000	 8.585831978176531e+000
 1.258454507248502e+000	 2.244622570450384e+000	 9.497227300281695e+000
 1.234072477991097e+000	 2.258119465873619e+000	 9.406819402995806e+000
 1.209583901640504e+000	 2.271331178112595e+000	 9.317020699076592e+000
 1.184993659058219e+000	 2.284256696816990e+000	 9.227840111732752e+000
 1.160306636030851e+000	 2.296895120241353e+000	 9.139326688576404e+000
 1.135527720329550e+000	 2.309245654893858e+000	 9.051587481410746e+000
 1.110661798796949e+000	 2.321307615092325e+000	 8.964803216476486e+000
 1.085713754464907e+000	 2.333080422429172e+000	 8.879241628049689e+000
 1.060688463706254e+000	 2.344563605147063e+000	 8.795268352223088e+000
 1.035590793423637e+000	 2.355756797427138e+000	 8.713355302014088e+000
 1.010425598278460e+000	 2.366659738591860e+000	 8.634086469399295e+000
 1.271496145402372e+000	 2.267884083038025e+000	 9.528943323939100e+000
 1.246861439865192e+000	 2.281520849728122e+000	 9.439173485307373e+000
 1.222119083064165e+000	 2.294869477818497e+000	 9.351098163079115e+000
 1.197274006442202e+000	 2.307928946488350e+000	 9.264512523928511e+000
 1.172331146418369e+000	 2.320698344647250e+000	 9.179268006089069e+000
 1.147295441416841e+000	 2.333176870580241e+000	 9.095292260631286e+000
 1.122171828923650e+000	 2.345363831499277e+000	 9.012606680612258e+000
 1.096965242574563e+000	 2.357258643002612e+000	 8.931341380160337e+000
 1.071680609277310e+000	 2.368860828443987e+000	 8.851747511280838e+000
 1.046322846371299e+000	 2.380170018213485e+000	 8.774206832290691e+000
 1.020896858827830e+000	 2.391185948932115e+000	 8.699238468076231e+000
 9.161842533366131e-001	 2.145923845529372e+000	 8.381744867093071e+000
 8.933059157493626e-001	 2.155547983255453e+000	 8.275218196799976e+000
 8.703750978801976e-001	 2.164908673947971e+000	 8.168699184296511e+000
 8.473961566412123e-001	 2.174005963882928e+000	 8.062676270570938e+000
 8.243734281452965e-001	 2.182839991099376e+000	 7.957615396029250e+000
 8.013112254104073e-001	 2.191410984317160e+000	 7.853954800193787e+000
 7.782138361143608e-001	 2.199719261790046e+000	 7.752098885316394e+000
 7.550855204020774e-001	 2.207765230096631e+000	 7.652411201831774e+000
 7.319305087471113e-001	 2.215549382871506e+000	 7.555206622365051e+000
 7.087529998691573e-001	 2.223072299479171e+000	 7.460742779021552e+000
 6.855571587091146e-001	 2.230334643633273e+000	 7.369210845876311e+000
 9.266555138874860e-001	 2.170450055869658e+000	 8.421101534038019e+000
 9.035156950175441e-001	 2.180184189869629e+000	 8.315154040392839e+000
 8.803227960576489e-001	 2.189651865845055e+000	 8.210068759979949e+000
 8.570812237159355e-001	 2.198853130600830e+000	 8.106047133595300e+000
 8.337953636636191e-001	 2.207788123753673e+000	 8.003275555944883e+000
 8.104695782130246e-001	 2.216457076637510e+000	 7.901920484624514e+000
 7.871082040467171e-001	 2.224860311143484e+000	 7.802122486067330e+000
 7.637155499996888e-001	 2.232998238497061e+000	 7.703989279671538e+000
 7.402958948964443e-001	 2.240871357974673e+000	 7.607587850983624e+000
 7.168534854447088e-001	 2.248480255562493e+000	 7.512935713642556e+000
 6.933925341873450e-001	 2.255825602559878e+000	 7.419991407734963e+000
 9.371267744375259e-001	 2.194976266209944e+000	 8.450104835466092e+000
 9.137254742848916e-001	 2.204820396483794e+000	 8.345936318519341e+000
 8.902704942342629e-001	 2.214395057742118e+000	 8.243309711559549e+000
 8.667662907898178e-001	 2.223700297318701e+000	 8.142172976504380e+000
 8.432172991810966e-001	 2.232736256407930e+000	 8.042468488636148e+000
 8.196279310147911e-001	 2.241503168957810e+000	 7.944128394462090e+000
 7.960025719782182e-001	 2.250001360496865e+000	 7.847068769818971e+000
 7.723455795964405e-001	 2.258231246897425e+000	 7.751182643064309e+000
 7.486612810449145e-001	 2.266193333077768e+000	 7.656331958787536e+000
 7.249539710193939e-001	 2.273888211645735e+000	 7.562338567173983e+000
 7.012279096647085e-001	 2.281316561486399e+000	 7.468974332896811e+000
 9.475980349868981e-001	 2.219502476550226e+000	 8.471804095296459e+000
 9.239352535515701e-001	 2.229456603097937e+000	 8.370378122940391e+000
 9.002181924102023e-001	 2.239138249639140e+000	 8.271014730812521e+000
 8.764513578630181e-001	 2.248547464036511e+000	 8.173440904038019e+000
 8.526392346978823e-001	 2.257684389062107e+000	 8.077389576803592e+000
 8.287862838158566e-001	 2.266549261278012e+000	 7.982595180536366e+000
 8.048969399090081e-001	 2.275142409850134e+000	 7.888787845319967e+000
 7.809756091924724e-001	 2.283464255297661e+000	 7.795686323365434e+000
 7.570266671926571e-001	 2.291515308180720e+000	 7.702989714935632e+000
 7.330544565933475e-001	 2.299296167728821e+000	 7.610368087739825e+000
 7.090632851413385e-001	 2.306807520412753e+000	 7.517452090415618e+000
 9.580692955357707e-001	 2.244028686890507e+000	 8.489379638353029e+000
 9.341450328177451e-001	 2.254092809712048e+000	 8.391437728686160e+000
 9.101658905856305e-001	 2.263881441536101e+000	 8.295934101461326e+000
 8.861364249356952e-001	 2.273394630754231e+000	 8.202406256345357e+000
 8.620611702141319e-001	 2.282632521716167e+000	 8.110411329525888e+000
 8.379446366163711e-001	 2.291595353598070e+000	 8.019521775511347e+000
 8.137913078392323e-001	 2.300283459203229e+000	 7.929319544347328e+000
 7.896056387879250e-001	 2.308697263697702e+000	 7.839388827398248e+000
 7.653920533398095e-001	 2.316837283283455e+000	 7.749307457470450e+000
 7.411549421667035e-001	 2.324704123811672e+000	 7.658637060653907e+000
 7.168986606173690e-001	 2.332298479338855e+000	 7.566912067759353e+000
 9.685405560843093e-001	 2.268554897230786e+000	 8.506128376514804e+000
 9.443548120835819e-001	 2.278729016326116e+000	 8.412204594329248e+000
 9.201135887607101e-001	 2.288624633432979e+000	 8.320962164409423e+000
 8.958214920080091e-001	 2.298241797471829e+000	 8.231779586784841e+000
 8.714831057299987e-001	 2.307580654370066e+000	 8.144070917014341e+000
 8.471029894164829e-001	 2.316641445917933e+000	 8.057281526798940e+000
 8.226856757690345e-001	 2.325424508556098e+000	 7.970882190831996e+000
 7.982356683829376e-001	 2.333930272097482e+000	 7.884361577726950e+000
 7.737574394865078e-001	 2.342159258385901e+000	 7.797217236602577e+000
 7.492554277395961e-001	 2.350112079894209e+000	 7.708945183543704e+000
 7.247340360929326e-001	 2.357789438264623e+000	 7.619028203616786e+000
 9.790118166326809e-001	 2.293081107571061e+000	 8.525449503672341e+000
 9.545645913492464e-001	 2.303365222940131e+000	 8.435885486409337e+000
 9.300612869356041e-001	 2.313367825329754e+000	 8.349123918474064e+000
 9.055065590801177e-001	 2.323088964189277e+000	 8.264413782708912e+000
 8.809050412456383e-001	 2.332528787023769e+000	 8.181057852122770e+000
 8.562613422163421e-001	 2.341687538237552e+000	 8.098408476428435e+000
 8.315800436985597e-001	 2.350565557908681e+000	 8.015861513716907e+000
 8.068656979776513e-001	 2.359163280496939e+000	 7.932848490167061e+000
 7.821228256328890e-001	 2.367481233487989e+000	 7.848827085609121e+000
 7.573559133121597e-001	 2.375520035976356e+000	 7.763270056494835e+000
 7.325694115681635e-001	 2.383280397189971e+000	 7.675652720315418e+000
 9.894830771810521e-001	 2.317607317911332e+000	 8.550830291431369e+000
 9.647743706149043e-001	 2.328001429554083e+000	 8.465790718810926e+000
 9.400089851104753e-001	 2.338111017226406e+000	 8.383561746576744e+000
 9.151916261521811e-001	 2.347936130906542e+000	 8.303291318639381e+000
 8.903269767612044e-001	 2.357476919677232e+000	 8.224201807741439e+000
 8.654196950160987e-001	 2.366733630556880e+000	 8.145585776986582e+000
 8.404744116279526e-001	 2.375706607260921e+000	 8.066799692901562e+000
 8.154957275722060e-001	 2.384396288896006e+000	 7.987255678364321e+000
 7.904882117790896e-001	 2.392803208589645e+000	 7.906411409892468e+000
 7.654563988845279e-001	 2.400927992058032e+000	 7.823758278697633e+000
 7.404047870431946e-001	 2.408771356114817e+000	 7.738807948471187e+000
 9.999543377295893e-001	 2.342133528251598e+000	 8.585831978176529e+000
 9.749841498807206e-001	 2.352637636167958e+000	 8.505320498667857e+000
 9.499566832854869e-001	 2.362854209122914e+000	 8.427522258195737e+000
 9.248766932243571e-001	 2.372783297623596e+000	 8.351511632129041e+000
 8.997489122768516e-001	 2.382425052330420e+000	 8.276460560112405e+000
 8.745780478159022e-001	 2.391779722875868e+000	 8.201634233650143e+000
 8.493687795573580e-001	 2.400847656612761e+000	 8.126384528514604e+000
 8.241257571667413e-001	 2.409629297294619e+000	 8.050141276126716e+000
 7.988535979252458e-001	 2.418125183690795e+000	 7.972401485537025e+000
 7.735568844568355e-001	 2.426335948139160e+000	 7.892716643783804e+000
 7.482401625181595e-001	 2.434262315039077e+000	 7.810678237107375e+000
 1.010425598278460e+000	 2.366659738591860e+000	 8.634086469399293e+000
 9.851939291468612e-001	 2.377273842781749e+000	 8.557951371066054e+000
 9.599043814608010e-001	 2.387597401019256e+000	 8.484343239645735e+000
 9.345617602968062e-001	 2.397630464340408e+000	 8.412278613407542e+000
 9.091708477927346e-001	 2.407373184983288e+000	 8.340908048930777e+000
 8.837364006159016e-001	 2.416825815194467e+000	 8.269500963165751e+000
 8.582631474869203e-001	 2.425988705964147e+000	 8.197438724566920e+000
 8.327557867613982e-001	 2.434862305692712e+000	 8.124205368966388e+000
 8.072189840714941e-001	 2.443447158791370e+000	 8.049376059418389e+000
 7.816573700292160e-001	 2.451743904219661e+000	 7.972603426696245e+000
 7.560755379931917e-001	 2.459753273962668e+000	 7.893601943040637e+000
 1.020896858827830e+000	 2.391185948932115e+000	 8.699238468076231e+000
 9.954037084134920e-001	 2.401910049395444e+000	 8.627222755451218e+000
 9.698520796365818e-001	 2.412340592915415e+000	 8.557440704441222e+000
 9.442468273696867e-001	 2.422477631056949e+000	 8.488888200643208e+000
 9.185927833090082e-001	 2.432321317635803e+000	 8.420722545846898e+000
 8.928947534162468e-001	 2.441871907512629e+000	 8.352248161377158e+000
 8.671575154167843e-001	 2.451129755315018e+000	 8.282909278772765e+000
 8.413858163563170e-001	 2.460095314090223e+000	 8.212280027010001e+000
 8.155843702179720e-001	 2.468769133891297e+000	 8.140052043573597e+000
 7.897578556018043e-001	 2.477151860299458e+000	 8.066019755516193e+000
 7.639109134684247e-001	 2.485244232885506e+000	 7.990063493843554e+000
 6.855571587091146e-001	 2.230334643633273e+000	 7.369210845876311e+000
 6.623471141318938e-001	 2.237337161406804e+000	 7.278052762795800e+000
 6.391269560606028e-001	 2.244080678083104e+000	 7.190359944368060e+000
 6.159007346850257e-001	 2.250566098306568e+000	 7.108484044928364e+000
 5.926724590196567e-001	 2.256794405071064e+000	 7.032164553094473e+000
 5.694460951855147e-001	 2.262766658109031e+000	 6.960893166240022e+000
 5.462255647562676e-001	 2.268483992241738e+000	 6.893938249341185e+000
 5.230147431693810e-001	 2.273947615693367e+000	 6.830362739023389e+000
 4.998174582029119e-001	 2.279158808371665e+000	 6.769036104382280e+000
 4.766374885184339e-001	 2.284118920117789e+000	 6.708641000000132e+000
 4.534785622704716e-001	 2.288829368928065e+000	 6.647675263385294e+000
 6.933925341873450e-001	 2.255825602559878e+000	 7.419991407734963e+000
 6.699172171789138e-001	 2.262908153566841e+000	 7.326479710920139e+000
 6.464316710871189e-001	 2.269728743299059e+000	 7.235321059132619e+000
 6.229399923922244e-001	 2.276288286740297e+000	 7.151250245081647e+000
 5.994462359286032e-001	 2.282587778119269e+000	 7.073754139631014e+000
 5.759544131469153e-001	 2.288628289280320e+000	 7.002053147966111e+000
 5.524684904413270e-001	 2.294410968014828e+000	 6.935182181394514e+000
 5.289923875425029e-001	 2.299937036356029e+000	 6.872004783607088e+000
 5.055299759769889e-001	 2.305207788840002e+000	 6.811220795943880e+000
 4.820850775934855e-001	 2.310224590735523e+000	 6.751368263263587e+000
 4.586614631563876e-001	 2.314988876245497e+000	 6.690820299654123e+000
 7.012279096647085e-001	 2.281316561486399e+000	 7.468974332896811e+000
 6.774873202250681e-001	 2.288479145726790e+000	 7.374399437138573e+000
 6.537363861127734e-001	 2.295376808514921e+000	 7.281074588095037e+000
 6.299792500985683e-001	 2.302010475173931e+000	 7.195721653214998e+000
 6.062200128367057e-001	 2.308381151167378e+000	 7.118148634144554e+000
 5.824627311074861e-001	 2.314489920451514e+000	 7.047243296127903e+000
 5.587114161255758e-001	 2.320337943787829e+000	 6.981752592061589e+000
 5.349700319148383e-001	 2.325926457018605e+000	 6.920292672771783e+000
 5.112424937503095e-001	 2.331256769308258e+000	 6.861351877747791e+000
 4.875326666678159e-001	 2.336330261353183e+000	 6.803287478651664e+000
 4.638443640416252e-001	 2.341148383562864e+000	 6.744316966450165e+000
 7.090632851413385e-001	 2.306807520412753e+000	 7.517452090415618e+000
 6.850574232704915e-001	 2.314050137886563e+000	 7.422874619042529e+000
 6.610411011377029e-001	 2.321024873730600e+000	 7.328819246671207e+000
 6.370185078041978e-001	 2.327732663607379e+000	 7.242803487787397e+000
 6.129937897441081e-001	 2.334174524215300e+000	 7.165906876007138e+000
 5.889710490673755e-001	 2.340351551622521e+000	 7.096631175043711e+000
 5.649543418091654e-001	 2.346264919560645e+000	 7.033389309648176e+000
 5.409476762865411e-001	 2.351915877681005e+000	 6.974510886949506e+000
 5.169550115230276e-001	 2.357305749776349e+000	 6.918240097208958e+000
 4.929802557415790e-001	 2.362435931970693e+000	 6.862726841807636e+000
 4.690272649263334e-001	 2.367307890880099e+000	 6.806011955761728e+000
 7.168986606173690e-001	 2.332298479338855e+000	 7.566912067759353e+000
 6.926275263153182e-001	 2.339621130046071e+000	 7.473255843652709e+000
 6.683458161620449e-001	 2.346672938946006e+000	 7.379959229014559e+000
 6.440577655092538e-001	 2.353454852040546e+000	 7.293648816527496e+000
 6.197675666509556e-001	 2.359967897262938e+000	 7.217856481312038e+000
 5.954793670267321e-001	 2.366213182793248e+000	 7.150670059837648e+000
 5.711972674922478e-001	 2.372191895333188e+000	 7.090130792264874e+000
 5.469253206577651e-001	 2.377905298343142e+000	 7.034251439817405e+000
 5.226675292952985e-001	 2.383354730244194e+000	 6.981008642642304e+000
 4.984278448149279e-001	 2.388541602587979e+000	 6.928327940107631e+000
 4.742101658106621e-001	 2.393467398197139e+000	 6.874062402362238e+000
 7.247340360929326e-001	 2.357789438264623e+000	 7.619028203616786e+000
 7.001976293596834e-001	 2.365192122205227e+000	 7.527079195204411e+000
 6.756505311859367e-001	 2.372321004161045e+000	 7.435588738157419e+000
 6.510970232138765e-001	 2.379177040473339e+000	 7.349637159625811e+000
 6.265413435573920e-001	 2.385761270310199e+000	 7.275074570260552e+000
 6.019876849857038e-001	 2.392074813963600e+000	 7.210081643453466e+000
 5.774401931749748e-001	 2.398118871105365e+000	 7.152298680654567e+000
 5.529029650286649e-001	 2.403894719004927e+000	 7.099400154192250e+000
 5.283800470672764e-001	 2.409403710711710e+000	 7.049081030832122e+000
 5.038754338880155e-001	 2.414647273204967e+000	 6.999035152131606e+000
 4.793930666947601e-001	 2.419626905513915e+000	 6.946926707264379e+000
 7.325694115681635e-001	 2.383280397189971e+000	 7.675652720315418e+000
 7.077677324037210e-001	 2.390763114363942e+000	 7.586058705739149e+000
 6.829552462095150e-001	 2.397969069375628e+000	 7.497075293847501e+000
 6.581362809182069e-001	 2.404899228905663e+000	 7.412353156105742e+000
 6.333151204635621e-001	 2.411554643356989e+000	 7.338868550138203e+000
 6.084960029444394e-001	 2.417936445133482e+000	 7.275838792955867e+000
 5.836831188574980e-001	 2.424045846877084e+000	 7.220482394706957e+000
 5.588806093993937e-001	 2.429884139666275e+000	 7.170122976131202e+000
 5.340925648391162e-001	 2.435452691178814e+000	 7.122169026874042e+000
 5.093230229609952e-001	 2.440752943821578e+000	 7.074085072445303e+000
 4.845759675787774e-001	 2.445786412830363e+000	 7.023355377935301e+000
 7.404047870431946e-001	 2.408771356114817e+000	 7.738807948471187e+000
 7.153378354475657e-001	 2.416334106522127e+000	 7.652078884009867e+000
 6.902599612329170e-001	 2.423617134589662e+000	 7.566137813027863e+000
 6.651755386223857e-001	 2.430621417337429e+000	 7.483565288685722e+000
 6.400888973696106e-001	 2.437348016403214e+000	 7.410756949758168e+000
 6.150043209030871e-001	 2.443798076302805e+000	 7.349148351466488e+000
 5.899260445399690e-001	 2.449972822648255e+000	 7.295523770423228e+000
 5.648582537701060e-001	 2.455873560327097e+000	 7.246852324411105e+000
 5.398050826109726e-001	 2.461501671645427e+000	 7.200260593898087e+000
 5.147706120340209e-001	 2.466858614437742e+000	 7.152995959821006e+000
 4.897588684628631e-001	 2.471945920146419e+000	 7.102381884035093e+000
 7.482401625181595e-001	 2.434262315039077e+000	 7.810678237107375e+000
 7.229079384913520e-001	 2.441905098679697e+000	 7.727187316957186e+000
 6.975646762562796e-001	 2.449265199803056e+000	 7.644659209498268e+000
 6.722147963265527e-001	 2.456343605768539e+000	 7.564964568954040e+000
 6.468626742756821e-001	 2.463141389448778e+000	 7.492450301594843e+000
 6.215126388617955e-001	 2.469659707471471e+000	 7.431433982385518e+000
 5.961689702225396e-001	 2.475899798418785e+000	 7.378501734364034e+000
 5.708358981409558e-001	 2.481862980987305e+000	 7.330273472789521e+000
 5.455176003830004e-001	 2.487550652111466e+000	 7.283607870484574e+000
 5.202182011072450e-001	 2.492964285053382e+000	 7.235557207178380e+000
 4.949417693471666e-001	 2.498105427462015e+000	 7.183313527539681e+000
 7.560755379931917e-001	 2.459753273962668e+000	 7.893601943040637e+000
 7.304780415352139e-001	 2.467476090836561e+000	 7.813587338491387e+000
 7.048693912797398e-001	 2.474913265015718e+000	 7.734679686192258e+000
 6.792540540308489e-001	 2.482065794198899e+000	 7.657988386252290e+000
 6.536364511819208e-001	 2.488934762493587e+000	 7.585832068140015e+000
 6.280209568207131e-001	 2.495521338639388e+000	 7.524319052828177e+000
 6.024118959053617e-001	 2.501826774188583e+000	 7.470717012859569e+000
 5.768135425120966e-001	 2.507852401646812e+000	 7.421310962671742e+000
 5.512301181553538e-001	 2.513599632576846e+000	 7.372715173763958e+000
 5.256657901808214e-001	 2.519069955668422e+000	 7.321818831673337e+000
 5.001246702318374e-001	 2.524264934777087e+000	 7.265722326209757e+000
 7.639109134684247e-001	 2.485244232885506e+000	 7.990063493843554e+000
 7.380481445792873e-001	 2.493047082992633e+000	 7.913630760746178e+000
 7.121741063034353e-001	 2.500561330227558e+000	 7.838390081092555e+000
 6.862933117354153e-001	 2.507787982628420e+000	 7.764625420525179e+000
 6.604102280884718e-001	 2.514728135537550e+000	 7.692939609301600e+000
 6.345292747799888e-001	 2.521382969806464e+000	 7.629609553456172e+000
 6.086548215885872e-001	 2.527753749957561e+000	 7.573676873484359e+000
 5.827911868836834e-001	 2.533841822305532e+000	 7.521115043997604e+000
 5.569426359281881e-001	 2.539648613041488e+000	 7.468327026357300e+000
 5.311133792549037e-001	 2.545175626282792e+000	 7.412080983486668e+000
 5.053075711170251e-001	 2.550424442091569e+000	 7.349435909445976e+000
 4.534785622704716e-001	 2.288829368928065e+000	 6.647675263385296e+000
 4.303478228187894e-001	 2.293290988703301e+000	 6.589660354358044e+000
 4.072454120468742e-001	 2.297506054455230e+000	 6.539283903052545e+000
 3.841748921516889e-001	 2.301476178916054e+000	 6.496502193065110e+000
 3.611397700823948e-001	 2.305203035563035e+000	 6.461022372811324e+000
 3.381434964856022e-001	 2.308688356741214e+000	 6.432288671521055e+000
 3.151894647169172e-001	 2.311933931773511e+000	 6.409467989461827e+000
 2.922810099184495e-001	 2.314941605060654e+000	 6.391435458125309e+000
 2.694214081618384e-001	 2.317713274173349e+000	 6.376760537216990e+000
 2.466138756562645e-001	 2.320250887939014e+000	 6.363694182593943e+000
 2.238615680208486e-001	 2.322556444525402e+000	 6.350157583293382e+000
 4.586614631563876e-001	 2.314988876245497e+000	 6.690820299654123e+000
 4.352663576684167e-001	 2.319501488801562e+000	 6.632996458636909e+000
 4.118999046346665e-001	 2.323764729417043e+000	 6.582704177149648e+000
 3.885657069651761e-001	 2.327780229256406e+000	 6.540118353937842e+000
 3.652673116907450e-001	 2.331549680923443e+000	 6.505158517564604e+000
 3.420082088961280e-001	 2.335074836562539e+000	 6.477468492917261e+000
 3.187918307202851e-001	 2.338357505947168e+000	 6.456395467057659e+000
 2.956215504233459e-001	 2.341399554558111e+000	 6.440969109504742e+000
 2.725006815198411e-001	 2.344202901653812e+000	 6.429881370335354e+000
 2.494324769776624e-001	 2.346769518335254e+000	 6.421467543687376e+000
 2.264201284821455e-001	 2.349101425607677e+000	 6.413689144872401e+000
 4.638443640416252e-001	 2.341148383562864e+000	 6.744316966450163e+000
 4.401848925174144e-001	 2.345711988899768e+000	 6.687741770602960e+000
 4.165543972218820e-001	 2.350023404378815e+000	 6.638440180876033e+000
 3.929565217781408e-001	 2.354084279596734e+000	 6.596731245686567e+000
 3.693948532986258e-001	 2.357896326283851e+000	 6.562675224551790e+000
 3.458729213062330e-001	 2.361461316383892e+000	 6.536046265367845e+000
 3.223941967232739e-001	 2.364781080120888e+000	 6.516304499719865e+000
 2.989620909278954e-001	 2.367857504055670e+000	 6.502568274661792e+000
 2.755799548775170e-001	 2.370692529134423e+000	 6.493587204728709e+000
 2.522510782987388e-001	 2.373288148731701e+000	 6.487716688863263e+000
 2.289786889431087e-001	 2.375646406690224e+000	 6.482894493987589e+000
 4.690272649263334e-001	 2.367307890880099e+000	 6.806011955761726e+000
 4.451034273659250e-001	 2.371922488997865e+000	 6.751255383105041e+000
 4.212088898086547e-001	 2.376282079340507e+000	 6.703351544732585e+000
 3.973473365907070e-001	 2.380388329937013e+000	 6.662701652540255e+000
 3.735223949061499e-001	 2.384242971644242e+000	 6.629447668552714e+000
 3.497376337160195e-001	 2.387847796205267e+000	 6.603437509447704e+000
 3.259965627259769e-001	 2.391204654294674e+000	 6.584189681529270e+000
 3.023026314321841e-001	 2.394315453553343e+000	 6.570858132132106e+000
 2.786592282349474e-001	 2.397182156615205e+000	 6.562198065635409e+000
 2.550696796195737e-001	 2.399806779128375e+000	 6.556533429705401e+000
 2.315372494038215e-001	 2.402191387773061e+000	 6.551726730673416e+000
 4.742101658106621e-001	 2.393467398197139e+000	 6.874062402362238e+000
 4.500219622140912e-001	 2.398132989095801e+000	 6.821200816383191e+000
 4.258633823951184e-001	 2.402540754302073e+000	 6.774594035376031e+000
 4.017381514029981e-001	 2.406692380277210e+000	 6.734675946274803e+000
 3.776499365134305e-001	 2.410589617004602e+000	 6.701623837383959e+000
 3.536023461255908e-001	 2.414234276026661e+000	 6.675315601658848e+000
 3.295989287284878e-001	 2.417628228468532e+000	 6.655286376716056e+000
 3.056431719362983e-001	 2.420773403051146e+000	 6.640685479519077e+000
 2.817385015922140e-001	 2.423671784096174e+000	 6.630234452570288e+000
 2.578882809402479e-001	 2.426325409525293e+000	 6.622186992206776e+000
 2.340958098643675e-001	 2.428736368856203e+000	 6.614291478913357e+000
 4.793930666947601e-001	 2.419626905513915e+000	 6.946926707264379e+000
 4.549404970620559e-001	 2.424343489193518e+000	 6.895538148478063e+000
 4.305178749814069e-001	 2.428799429263473e+000	 6.849612850524871e+000
 4.061289662151379e-001	 2.432996430617297e+000	 6.809580420189469e+000
 3.817774781205808e-001	 2.436936262364910e+000	 6.775619796704581e+000
 3.574670585350495e-001	 2.440620755848070e+000	 6.747607879114982e+000
 3.332012947309002e-001	 2.444051802642469e+000	 6.725067590649014e+000
 3.089837124403241e-001	 2.447231352549091e+000	 6.707116314640855e+000
 2.848177749493984e-001	 2.450161411577347e+000	 6.692415591930923e+000
 2.607068822608414e-001	 2.452844039922479e+000	 6.679122919572706e+000
 2.366543703248299e-001	 2.455281349939667e+000	 6.664846435776150e+000
 4.845759675787774e-001	 2.445786412830363e+000	 7.023355377935301e+000
 4.598590319099618e-001	 2.450553989290962e+000	 6.972516154338281e+000
 4.351723675676542e-001	 2.455058104224664e+000	 6.926135916860521e+000
 4.105197810272501e-001	 2.459300480957246e+000	 6.884615621904450e+000
 3.859050197277137e-001	 2.463282907725154e+000	 6.848114950155369e+000
 3.613317709444980e-001	 2.467007235669486e+000	 6.816491735936096e+000
 3.368036607333075e-001	 2.470475376816489e+000	 6.789240827957699e+000
 3.123242529443478e-001	 2.473689302047192e+000	 6.765433397465432e+000
 2.878970483065824e-001	 2.476651039058744e+000	 6.743657661477990e+000
 2.635254835814349e-001	 2.479362670319949e+000	 6.721961934624421e+000
 2.392129307852924e-001	 2.481826331023470e+000	 6.697800863739380e+000
 4.897588684628631e-001	 2.471945920146419e+000	 7.102381884035095e+000
 4.647775667579517e-001	 2.476764489388081e+000	 7.050664452980642e+000
 4.398268601539943e-001	 2.481316779185606e+000	 7.002167190706353e+000
 4.149105958394587e-001	 2.485604531297026e+000	 6.957250685068780e+000
 3.900325613349427e-001	 2.489629553085316e+000	 6.916047295181723e+000
 3.651964833540393e-001	 2.493393715490908e+000	 6.878390711973476e+000
 3.404060267358032e-001	 2.496898950990598e+000	 6.843744938741652e+000
 3.156647934484556e-001	 2.500147251545462e+000	 6.811133794256746e+000
 2.909763216638470e-001	 2.503140666540383e+000	 6.779071988773501e+000
 2.663440849021088e-001	 2.505881300717724e+000	 6.745498764796046e+000
 2.417714912458383e-001	 2.508371312107629e+000	 6.707715030405806e+000
 4.949417693471666e-001	 2.498105427462015e+000	 7.183313527539681e+000
 4.696961016061681e-001	 2.502974989484819e+000	 7.128785662118470e+000
 4.444813527405609e-001	 2.507575454146253e+000	 7.075979961283132e+000
 4.193014106518871e-001	 2.511908581636609e+000	 7.025217660061091e+000
 3.941601029423804e-001	 2.515976198445378e+000	 6.976608674856556e+000
 3.690611957637762e-001	 2.519780195312328e+000	 6.929970574423704e+000
 3.440083927384809e-001	 2.523322525164801e+000	 6.884746953742408e+000
 3.190053339527335e-001	 2.526605201043914e+000	 6.839926405238879e+000
 2.940555950212743e-001	 2.529630294022282e+000	 6.793963225487376e+000
 2.691626862229433e-001	 2.532399931115825e+000	 6.744700932470282e+000
 2.443300517065510e-001	 2.534916293192159e+000	 6.689299599475346e+000
 5.001246702318374e-001	 2.524264934777087e+000	 7.265722326209757e+000
 4.746146364547537e-001	 2.529185489581120e+000	 7.205947559715870e+000
 4.491358453274879e-001	 2.533834129106566e+000	 7.146110156353524e+000
 4.236922254646594e-001	 2.538212631975964e+000	 7.086505843756810e+000
 3.982876445501403e-001	 2.542322843805324e+000	 7.027240025996834e+000
 3.729259081738113e-001	 2.546166675133743e+000	 6.968135392853634e+000
 3.476107587414339e-001	 2.549746099339105e+000	 6.908638909280462e+000
 3.223458744572680e-001	 2.553063150542563e+000	 6.847729476973045e+000
 2.971348683789456e-001	 2.556119921504460e+000	 6.783827499323542e+000
 2.719812875440190e-001	 2.558918561514268e+000	 6.714707513164294e+000
 2.468886121675140e-001	 2.561461274277079e+000	 6.637414976503525e+000
 5.053075711170251e-001	 2.550424442091569e+000	 7.349435909445973e+000
 4.795331713038518e-001	 2.555395989676932e+000	 7.281475251973300e+000
 4.537903379149098e-001	 2.560092804066504e+000	 7.211349650089833e+000
 4.280830402778991e-001	 2.564516682315065e+000	 7.139356108433750e+000
 4.024151861583350e-001	 2.568669489165140e+000	 7.065626623841411e+000
 3.767906205842475e-001	 2.572553154955150e+000	 6.990023608109376e+000
 3.512131247447561e-001	 2.576169673513514e+000	 6.912034662691371e+000
 3.256864149621451e-001	 2.579521100041421e+000	 6.830668100549144e+000
 3.002141417369426e-001	 2.582609548986935e+000	 6.744350545175609e+000
 2.747998888654161e-001	 2.585437191913076e+000	 6.650827863878837e+000
 2.494471726288109e-001	 2.588006255362404e+000	 6.547070612697064e+000
 2.238615680208486e-001	 2.322556444525402e+000	 6.350157583293377e+000
 2.011641876059516e-001	 2.324632283812556e+000	 6.341444541088122e+000
 1.785282247002906e-001	 2.326480135022100e+000	 6.343920185398093e+000
 1.559566963524342e-001	 2.328102134340242e+000	 6.356560113036928e+000
 1.334525552926767e-001	 2.329500459691833e+000	 6.377948246156194e+000
 1.110186895228712e-001	 2.330677328820791e+000	 6.406278428684521e+000
 8.865792196686122e-002	 2.331634997380677e+000	 6.439359776395267e+000
 6.637301018034868e-002	 2.332375757037283e+000	 6.474625972303891e+000
 4.416664611898429e-002	 2.332901933585021e+000	 6.509148652850508e+000
 2.204145596341870e-002	 2.333215885078842e+000	 6.539654984718423e+000
 0.000000000000000e+000	 2.333319999983334e+000	 6.562549464190805e+000
 2.264201284821455e-001	 2.349101425607677e+000	 6.413689144872405e+000
 2.034633349817422e-001	 2.351200990094103e+000	 6.411778213552299e+000
 1.805686609440350e-001	 2.353069960779786e+000	 6.422204103579224e+000
 1.577391579000761e-001	 2.354710498265832e+000	 6.444148088188066e+000
 1.349778123275369e-001	 2.356124805369036e+000	 6.476329158602886e+000
 1.122875452358524e-001	 2.357315125180360e+000	 6.517001229065072e+000
 8.967121181265779e-002	 2.358283739133688e+000	 6.563954583239278e+000
 6.713160113034059e-002	 2.359032965086723e+000	 6.614521775958472e+000
 4.467143591148018e-002	 2.359565155415852e+000	 6.665588153775000e+000
 2.229337235189973e-002	 2.359882695126717e+000	 6.713607107990592e+000
 0.000000000000000e+000	 2.359987999982150e+000	 6.754620100704621e+000
 2.289786889431087e-001	 2.375646406690224e+000	 6.482894493987593e+000
 2.057624823571691e-001	 2.377769696375999e+000	 6.484222347624082e+000
 1.826090971873753e-001	 2.379659786537899e+000	 6.498232948669489e+000
 1.595216194472727e-001	 2.381318862191933e+000	 6.524287703058477e+000
 1.365030693619190e-001	 2.382749151046835e+000	 6.561212906688900e+000
 1.135564009483399e-001	 2.383952921540606e+000	 6.607292159894674e+000
 9.068450165797164e-002	 2.384932480887448e+000	 6.660263538700956e+000
 6.789019207989593e-002	 2.385690173136972e+000	 6.717321760912272e+000
 4.517622570362967e-002	 2.386228377247542e+000	 6.775125530094393e+000
 2.254528874017709e-002	 2.386549505175481e+000	 6.829810186243797e+000
 0.000000000000000e+000	 2.386655999981866e+000	 6.877005713449982e+000
 2.315372494038215e-001	 2.402191387773061e+000	 6.551726730673421e+000
 2.080616297323233e-001	 2.404338402658252e+000	 6.552692396427460e+000
 1.846495334304126e-001	 2.406249612296440e+000	 6.565996083891718e+000
 1.613040809941353e-001	 2.407927226118531e+000	 6.591164428921560e+000
 1.380283263959423e-001	 2.409373496725197e+000	 6.627113660064723e+000
 1.148252566604571e-001	 2.410590717901478e+000	 6.672136789943058e+000
 9.169779150292333e-002	 2.411581222641891e+000	 6.723896108199068e+000
 6.864878302912381e-002	 2.412347381187954e+000	 6.779421240093759e+000
 4.568101549551938e-002	 2.412891599079999e+000	 6.835112975053088e+000
 2.279720512830171e-002	 2.413216315225037e+000	 6.886753010479413e+000
 0.000000000000000e+000	 2.413323999982383e+000	 6.929519672043582e+000
 2.340958098643675e-001	 2.428736368856203e+000	 6.614291478913360e+000
 2.103607771072956e-001	 2.430907108940868e+000	 6.611229738103638e+000
 1.866899696732478e-001	 2.432839438055403e+000	 6.619580663190412e+000
 1.630865425407753e-001	 2.434535590045608e+000	 6.639032012204551e+000
 1.395535834297265e-001	 2.435997842404091e+000	 6.668583121275574e+000
 1.160941123723274e-001	 2.437228514262929e+000	 6.706526405884419e+000
 9.271108134763365e-002	 2.438229964396952e+000	 6.750434739628966e+000
 6.940737397813342e-002	 2.439004589239588e+000	 6.797155002644059e+000
 4.618580528723588e-002	 2.439554820913136e+000	 6.842808026962761e+000
 2.304912151632448e-002	 2.439883125275287e+000	 6.882795102109461e+000
 0.000000000000000e+000	 2.439991999983599e+000	 6.911811114279120e+000
 2.366543703248299e-001	 2.455281349939667e+000	 6.664846435776148e+000
 2.126599244821769e-001	 2.457475815223860e+000	 6.654001882846228e+000
 1.887304059159820e-001	 2.459429263814787e+000	 6.653172520726730e+000
 1.648690040873040e-001	 2.461143953973148e+000	 6.662214084944308e+000
 1.410788404633911e-001	 2.462622188083482e+000	 6.680212909503066e+000
 1.173629680840743e-001	 2.463866310624908e+000	 6.705461235358686e+000
 9.372437119222328e-002	 2.464878706152569e+000	 6.735439005323834e+000
 7.016596492703386e-002	 2.465661797291797e+000	 6.766802467738858e+000
 4.669059507886578e-002	 2.466218042746861e+000	 6.795379841019315e+000
 2.330103790429633e-002	 2.466549935326134e+000	 6.816174221877277e+000
 0.000000000000000e+000	 2.466659999985416e+000	 6.823373823990284e+000
 2.392129307852924e-001	 2.481826331023470e+000	 6.697800863739380e+000
 2.149590718570580e-001	 2.484044521507234e+000	 6.675302601919280e+000
 1.907708421587163e-001	 2.486019089574589e+000	 6.661056955877325e+000
 1.666514656338326e-001	 2.487752317901131e+000	 6.655105638439720e+000
 1.426040974970557e-001	 2.489246533763340e+000	 6.656636768844374e+000
 1.186318237958212e-001	 2.490504106987368e+000	 6.663953449021790e+000
 9.473766103681285e-002	 2.491527447908676e+000	 6.674449470056185e+000
 7.092455587593428e-002	 2.492319005344500e+000	 6.684592503592186e+000
 4.719538487049566e-002	 2.492881264581084e+000	 6.689915057048278e+000
 2.355295429226817e-002	 2.493216745377481e+000	 6.685013396558316e+000
 0.000000000000000e+000	 2.493327999987733e+000	 6.663554539179048e+000
 2.417714912458383e-001	 2.508371312107629e+000	 6.707715030405803e+000
 2.172582192320302e-001	 2.510613227791001e+000	 6.669551984440393e+000
 1.928112784015514e-001	 2.512608915334807e+000	 6.637619421478063e+000
 1.684339271804726e-001	 2.514360681829545e+000	 6.612174370239352e+000
 1.441293545308398e-001	 2.515870879443632e+000	 6.592532614123820e+000
 1.199006795076914e-001	 2.517141903350260e+000	 6.577029957955094e+000
 9.575095088152311e-002	 2.518176189665208e+000	 6.562991305376309e+000
 7.168314682494381e-002	 2.518976213397623e+000	 6.546707936451736e+000
 4.770017466221212e-002	 2.519544486415716e+000	 6.523423293108620e+000
 2.380487068029092e-002	 2.519883555429232e+000	 6.487327499161281e+000
 0.000000000000000e+000	 2.519995999990449e+000	 6.431560732618309e+000
 2.443300517065510e-001	 2.534916293192159e+000	 6.689299599475346e+000
 2.195573666071843e-001	 2.537181934075167e+000	 6.631296427224529e+000
 1.948517146445887e-001	 2.539198741095438e+000	 6.577346122406438e+000
 1.702163887273351e-001	 2.540969045758370e+000	 6.527961913747364e+000
 1.456546115648630e-001	 2.542495225124322e+000	 6.482624426151448e+000
 1.211695352198084e-001	 2.543779699713533e+000	 6.439735021439976e+000
 9.676424072647473e-002	 2.544824931422101e+000	 6.396577668877558e+000
 7.244173777417159e-002	 2.545633421451083e+000	 6.349289772301127e+000
 4.820496445410175e-002	 2.546207708250668e+000	 6.292842292381764e+000
 2.405678706841549e-002	 2.546550365481287e+000	 6.221029415360843e+000
 0.000000000000000e+000	 2.546663999993466e+000	 6.126467903594738e+000
 2.468886121675140e-001	 2.561461274277079e+000	 6.637414976503525e+000
 2.218565139826111e-001	 2.563750640359744e+000	 6.555208562543426e+000
 1.968921508879288e-001	 2.565788566856479e+000	 6.474824531004345e+000
 1.719988502745316e-001	 2.567577409687589e+000	 6.397084958962513e+000
 1.471798685992448e-001	 2.569119570805381e+000	 6.321684007345036e+000
 1.224383909322958e-001	 2.570417496077141e+000	 6.247132678848573e+000
 9.777753057178837e-002	 2.571473673179289e+000	 6.170712865445415e+000
 7.320032872372678e-002	 2.572290629504803e+000	 6.088441152121108e+000
 4.870975424625112e-002	 2.572870930085848e+000	 5.995042748499844e+000
 2.430870345669278e-002	 2.573217175533550e+000	 5.883935826177313e+000
 0.000000000000000e+000	 2.573331999996683e+000	 5.747226416256342e+000
 2.494471726288109e-001	 2.588006255362404e+000	 6.547070612697067e+000
 2.241556613584017e-001	 2.590319346644739e+000	 6.436087128258247e+000
 1.989325871316730e-001	 2.592378392617928e+000	 6.324743825315890e+000
 1.737813118221734e-001	 2.594185773617187e+000	 6.214236272170985e+000
 1.487051256341049e-001	 2.595743916486777e+000	 6.104532607742543e+000
 1.237072466452768e-001	 2.597055292441034e+000	 5.994309018280212e+000
 9.879082041758477e-002	 2.598122414936711e+000	 5.880895306141827e+000
 7.395891967371854e-002	 2.598947837558706e+000	 5.760231059830052e+000
 4.921454403874689e-002	 2.599534151921171e+000	 5.626832832394219e+000
 2.456061984517374e-002	 2.599883985585925e+000	 5.473772634454375e+000
 0.000000000000000e+000	 2.600000000000000e+000	 5.292667917117211e+000
 2.600000000000000e+000	 0.000000000000000e+000	 1.161117310291912e+001
 2.599883985585924e+000	 2.456061984517381e-002	 1.155696098147150e+001
 2.599534151921172e+000	 4.921454403874706e-002	 1.152082284803409e+001
 2.598947837558706e+000	 7.395891967371834e-002	 1.149801482887179e+001
 2.598122414936712e+000	 9.879082041758469e-002	 1.148430907493565e+001
 2.597055292441034e+000	 1.237072466452768e-001	 1.147599363615690e+001
 2.595743916486777e+000	 1.487051256341049e-001	 1.146986936564067e+001
 2.594185773617187e+000	 1.737813118221734e-001	 1.146324392212553e+001
 2.592378392617928e+000	 1.989325871316728e-001	 1.145392297430670e+001
 2.590319346644739e+000	 2.241556613584015e-001	 1.144019873672007e+001
 2.588006255362404e+000	 2.494471726288108e-001	 1.142083599302353e+001
 2.626668000003317e+000	 0.000000000000000e+000	 1.162072575762294e+001
 2.626550795638311e+000	 2.481253623389235e-002	 1.156570839067410e+001
 2.626197373756539e+000	 4.971933383164689e-002	 1.152809250043267e+001
 2.625605045612707e+000	 7.471751062421944e-002	 1.150315287458643e+001
 2.624771156694291e+000	 9.980411026394442e-002	 1.148672523067496e+001
 2.623693088805149e+000	 1.249761023588340e-001	 1.147520430044541e+001
 2.622368262168459e+000	 1.502303826695234e-001	 1.146553868944905e+001
 2.620794137547128e+000	 1.755637733703355e-001	 1.145522258937466e+001
 2.618968218379761e+000	 2.009730233758896e-001	 1.144228445745888e+001
 2.616888052930141e+000	 2.264548087346183e-001	 1.142527280534880e+001
 2.614551236448130e+000	 2.520057330904997e-001	 1.140323926787202e+001
 2.653336000006534e+000	 0.000000000000000e+000	 1.149154861481142e+001
 2.653217605690610e+000	 2.506445262281456e-002	 1.144928818601447e+001
 2.652860595591853e+000	 5.022412362489322e-002	 1.142309259191684e+001
 2.652262253666700e+000	 7.547610157515745e-002	 1.140825711117309e+001
 2.651419898451922e+000	 1.008174001107879e-001	 1.140068347796527e+001
 2.650330885169382e+000	 1.262449580728870e-001	 1.139687599214984e+001
 2.648992607850320e+000	 1.517556397054235e-001	 1.139393413813479e+001
 2.647402501477304e+000	 1.773462349189483e-001	 1.138954179986783e+001
 2.645558044141876e+000	 2.030134596205188e-001	 1.138195319786180e+001
 2.643456759215848e+000	 2.287539561112104e-001	 1.136997570426108e+001
 2.641096217534166e+000	 2.545642935525384e-001	 1.135294972207019e+001
 2.680004000009550e+000	 0.000000000000000e+000	 1.125297650667184e+001
 2.679884415742721e+000	 2.531636901188953e-002	 1.123439814383615e+001
 2.679523817427007e+000	 5.072891341839956e-002	 1.122935810043702e+001
 2.678919461720578e+000	 7.623469252642372e-002	 1.123342680590381e+001
 2.678068640209494e+000	 1.018306899579955e-001	 1.124280989923460e+001
 2.676968681533611e+000	 1.275138137873141e-001	 1.125432978875082e+001
 2.675616953532235e+000	 1.532808967416889e-001	 1.126540672777579e+001
 2.674010865407591e+000	 1.791286964679060e-001	 1.127403935529125e+001
 2.672147869904146e+000	 2.050538958654672e-001	 1.127878464568491e+001
 2.670025465501747e+000	 2.310531034880989e-001	 1.127873719864808e+001
 2.667641198620404e+000	 2.571228540148596e-001	 1.127350778718025e+001
 2.706672000012267e+000	 0.000000000000000e+000	 1.105140976338678e+001
 2.706551225794539e+000	 2.556828540106636e-002	 1.105326831712022e+001
 2.706187039261895e+000	 5.123370321207944e-002	 1.106578443019049e+001
 2.705576669774231e+000	 7.699328347790951e-002	 1.108495502094016e+001
 2.704717381966886e+000	 1.028439798054474e-001	 1.110739987108824e+001
 2.703606477897717e+000	 1.287826695019940e-001	 1.113034276478215e+001
 2.702241299214084e+000	 1.548061537782039e-001	 1.115159227559493e+001
 2.700619229337863e+000	 1.809111580171026e-001	 1.116952214923816e+001
 2.698737695666448e+000	 2.070943321106422e-001	 1.118305122225028e+001
 2.696594171787714e+000	 2.333522508652042e-001	 1.119162280248734e+001
 2.694186179706736e+000	 2.596814144773962e-001	 1.119518342275137e+001
 2.733340000014584e+000	 0.000000000000000e+000	 1.090808951057003e+001
 2.733218035845967e+000	 2.582020179029416e-002	 1.092506733584997e+001
 2.732850261096416e+000	 5.173849300584640e-002	 1.095027039302611e+001
 2.732233877827550e+000	 7.775187442950614e-002	 1.098010700398749e+001
 2.731366123723988e+000	 1.038572696530241e-001	 1.101159198823390e+001
 2.730244274261579e+000	 1.300515252168051e-001	 1.104232743559648e+001
 2.728865644895743e+000	 1.563314108148520e-001	 1.107048327414794e+001
 2.727227593267996e+000	 1.826936195664325e-001	 1.109477757961764e+001
 2.725327521428660e+000	 2.091347683559510e-001	 1.111445656248849e+001
 2.723162878073631e+000	 2.356513982424473e-001	 1.112927415305400e+001
 2.720731160793048e+000	 2.622399749400806e-001	 1.113947108873607e+001
 2.760008000016400e+000	 0.000000000000000e+000	 1.081973286912503e+001
 2.759884845896901e+000	 2.607211817952203e-002	 1.084640906995624e+001
 2.759513482930462e+000	 5.224328279961397e-002	 1.087932820834285e+001
 2.758891085880423e+000	 7.851046538110483e-002	 1.091529474789686e+001
 2.758014865480682e+000	 1.048705595006057e-001	 1.095169918958658e+001
 2.756882070625080e+000	 1.313203809316261e-001	 1.098649853821858e+001
 2.755489990577086e+000	 1.578566678515173e-001	 1.101819672712192e+001
 2.753835957197865e+000	 1.844760811157896e-001	 1.104582494571238e+001
 2.751917347190656e+000	 2.111752046013007e-001	 1.106892180178354e+001
 2.749731584359378e+000	 2.379505456197489e-001	 1.108751323291252e+001
 2.747276141879232e+000	 2.647985354028454e-001	 1.110209206380689e+001
 2.786676000017617e+000	 0.000000000000000e+000	 1.078304538233921e+001
 2.786551655947241e+000	 2.632403456869907e-002	 1.081389079192132e+001
 2.786176704763929e+000	 5.274807259329568e-002	 1.084945085874059e+001
 2.785548293932743e+000	 7.926905633259697e-002	 1.088691064838355e+001
 2.784663607236856e+000	 1.058838493480727e-001	 1.092401662987952e+001
 2.783519866988098e+000	 1.325892366463356e-001	 1.095905690197879e+001
 2.782114336257991e+000	 1.593819248880836e-001	 1.099084155698628e+001
 2.780444321127344e+000	 1.862585426650683e-001	 1.101868312498528e+001
 2.778507172952311e+000	 2.132156408465986e-001	 1.104237702570538e+001
 2.776300290644838e+000	 2.402496929970298e-001	 1.106218193616379e+001
 2.773821122965178e+000	 2.673570958656236e-001	 1.107879996296750e+001
 2.813344000018133e+000	 0.000000000000000e+000	 1.079472156460880e+001
 2.813218465996884e+000	 2.657595095777438e-002	 1.082409420037439e+001
 2.812839926596714e+000	 5.325286238680507e-002	 1.085711351788160e+001
 2.812205501984400e+000	 8.002764728387371e-002	 1.089132926579059e+001
 2.811312348992394e+000	 1.068971391953054e-001	 1.092482370524362e+001
 2.810157663350513e+000	 1.338580923608121e-001	 1.095619166815561e+001
 2.808738681938335e+000	 1.609071819244348e-001	 1.098452094933054e+001
 2.807052685056305e+000	 1.880410042141626e-001	 1.100937297318723e+001
 2.805096998713504e+000	 2.152560770917517e-001	 1.103076365746616e+001
 2.802868996929889e+000	 2.425488403742108e-001	 1.104914437540074e+001
 2.800366104050776e+000	 2.699156563283477e-001	 1.106538289680050e+001
 2.840012000017850e+000	 0.000000000000000e+000	 1.085144541924851e+001
 2.839885276045730e+000	 2.682786734669706e-002	 1.087358638602590e+001
 2.839503148428710e+000	 5.375765218005565e-002	 1.089877489789922e+001
 2.838862710035285e+000	 8.078623823482643e-002	 1.092490898746722e+001
 2.837961090747182e+000	 1.079104290421840e-001	 1.095038596424643e+001
 2.836795459712210e+000	 1.351269480749341e-001	 1.097408238360092e+001
 2.835363027617994e+000	 1.624324389604548e-001	 1.099533456328845e+001
 2.833661048984628e+000	 1.898234657629666e-001	 1.101391958613271e+001
 2.831686824474109e+000	 2.172965133366674e-001	 1.103003670600051e+001
 2.829437703214413e+000	 2.448479877512126e-001	 1.104428905150605e+001
 2.826911085135918e+000	 2.724742167909504e-001	 1.105766549892461e+001
 2.866680000016666e+000	 0.000000000000000e+000	 1.094989092739814e+001
 2.866552086093679e+000	 2.707978373541622e-002	 1.095892074369768e+001
 2.866166370259814e+000	 5.426244197296101e-002	 1.097087852159158e+001
 2.865519918085286e+000	 8.154482918534640e-002	 1.098399359723648e+001
 2.864609832501105e+000	 1.089237188885890e-001	 1.099695691185009e+001
 2.863433256073065e+000	 1.363958037885802e-001	 1.100890097655368e+001
 2.861987373296846e+000	 1.639576959960276e-001	 1.101938061676816e+001
 2.860269412912185e+000	 1.916059273113747e-001	 1.102835443215249e+001
 2.858276650234000e+000	 2.193369495812528e-001	 1.103616688374516e+001
 2.856006409498290e+000	 2.471471351279561e-001	 1.104353089522298e+001
 2.853456066220490e+000	 2.750327772533643e-001	 1.105151083024304e+001
 2.588006255362404e+000	 2.494471726288108e-001	 1.142083599302352e+001
 2.585437191913076e+000	 2.747998888654162e-001	 1.140339994332703e+001
 2.582609548986936e+000	 3.002141417369426e-001	 1.139459118638402e+001
 2.579521100041420e+000	 3.256864149621451e-001	 1.139247461710528e+001
 2.576169673513514e+000	 3.512131247447558e-001	 1.139542079865595e+001
 2.572553154955151e+000	 3.767906205842475e-001	 1.140208369612047e+001
 2.568669489165140e+000	 4.024151861583352e-001	 1.141137752476472e+001
 2.564516682315065e+000	 4.280830402778990e-001	 1.142245303572528e+001
 2.560092804066504e+000	 4.537903379149099e-001	 1.143467357991309e+001
 2.555395989676932e+000	 4.795331713038518e-001	 1.144759130681208e+001
 2.550424442091569e+000	 5.053075711170251e-001	 1.146092386844399e+001
 2.614551236448130e+000	 2.520057330904997e-001	 1.140323926787202e+001
 2.611955822312248e+000	 2.776184901871920e-001	 1.138324455262255e+001
 2.609099176469710e+000	 3.032934150953239e-001	 1.137139669494642e+001
 2.605979049540490e+000	 3.290269554674278e-001	 1.136594709396728e+001
 2.602593247688028e+000	 3.548154907485161e-001	 1.136546295761756e+001
 2.598939634776541e+000	 3.806553329951613e-001	 1.136880147879714e+001
 2.595016134524813e+000	 4.065427277670499e-001	 1.137508306104569e+001
 2.590820732653894e+000	 4.324738550916992e-001	 1.138366394337811e+001
 2.586351479026042e+000	 4.584448305029269e-001	 1.139410859321013e+001
 2.581606489772227e+000	 4.844517061535696e-001	 1.140616225337128e+001
 2.576583949405427e+000	 5.104904720028427e-001	 1.141972404380775e+001
 2.641096217534166e+000	 2.545642935525384e-001	 1.135294972207018e+001
 2.638474452711707e+000	 2.804370915093107e-001	 1.133738384912764e+001
 2.635588803952722e+000	 3.063726884540587e-001	 1.132877832354392e+001
 2.632436999039727e+000	 3.323674959730879e-001	 1.132561764894194e+001
 2.629016821862626e+000	 3.584178567526872e-001	 1.132671210907835e+001
 2.625326114597917e+000	 3.845200454065251e-001	 1.133116809078998e+001
 2.621362779884366e+000	 4.106702693762562e-001	 1.133835738803185e+001
 2.617124782992493e+000	 4.368646699060307e-001	 1.134788586511307e+001
 2.612610153985244e+000	 4.630993230915091e-001	 1.135956187791106e+001
 2.607816989867085e+000	 4.893702410038771e-001	 1.137336487015169e+001
 2.602743456718762e+000	 5.156733728892600e-001	 1.138941457752310e+001
 2.667641198620404e+000	 2.571228540148596e-001	 1.127350778718025e+001
 2.664993083111360e+000	 2.832556928317136e-001	 1.126886307787886e+001
 2.662078431435898e+000	 3.094519618130928e-001	 1.126930808640728e+001
 2.658894948539081e+000	 3.357080364790731e-001	 1.127357681175706e+001
 2.655440396037278e+000	 3.620202227572167e-001	 1.128077207851525e+001
 2.651712594419278e+000	 3.883847578182854e-001	 1.129029842955905e+001
 2.647709425243826e+000	 4.147978109858976e-001	 1.130182719511364e+001
 2.643428833330921e+000	 4.412554847208339e-001	 1.131526087929128e+001
 2.638868828944195e+000	 4.677538156805937e-001	 1.133069729452454e+001
 2.634027489961617e+000	 4.942887758547080e-001	 1.134839389392272e+001
 2.628902964031701e+000	 5.208562737762097e-001	 1.136873276839154e+001
 2.694186179706736e+000	 2.596814144773962e-001	 1.119518342275137e+001
 2.691511713511108e+000	 2.860742941543416e-001	 1.119898778557043e+001
 2.688568058919160e+000	 3.125312351723725e-001	 1.120719218213314e+001
 2.685352898038497e+000	 3.390485769853321e-001	 1.121869944043118e+001
 2.681863970211957e+000	 3.656225887620534e-001	 1.123271343316973e+001
 2.678099074240624e+000	 3.922494702303885e-001	 1.124871427606619e+001
 2.674056070603223e+000	 4.189253525959177e-001	 1.126643229373699e+001
 2.669732883669233e+000	 4.456462995360488e-001	 1.128582057792843e+001
 2.665127503902978e+000	 4.724083082701173e-001	 1.130701674543133e+001
 2.660237990055931e+000	 4.992073107059976e-001	 1.133028879079277e+001
 2.655062471344379e+000	 5.260391746636258e-001	 1.135626911947620e+001
 2.720731160793048e+000	 2.622399749400806e-001	 1.113947108873607e+001
 2.718030343910860e+000	 2.888928954771356e-001	 1.114964081991606e+001
 2.715057686402431e+000	 3.156105085318434e-001	 1.116327370949914e+001
 2.711810847537922e+000	 3.423891174918127e-001	 1.117953280661446e+001
 2.708287544386637e+000	 3.692249547671451e-001	 1.119786707277574e+001
 2.704485554061953e+000	 3.961141826427811e-001	 1.121798739292694e+001
 2.700402715962583e+000	 4.230528942062603e-001	 1.123984141282623e+001
 2.696036934007484e+000	 4.500371143516156e-001	 1.126358701070162e+001
 2.691386178861675e+000	 4.770628008600171e-001	 1.128956420078436e+001
 2.686448490150135e+000	 5.041258455576796e-001	 1.131826525766621e+001
 2.681221978656926e+000	 5.312220755514417e-001	 1.135030284365121e+001
 2.747276141879232e+000	 2.647985354028454e-001	 1.110209206380689e+001
 2.744548974310516e+000	 2.917114968000369e-001	 1.111654359523784e+001
 2.741547313885638e+000	 3.186897818914522e-001	 1.113366953098636e+001
 2.738268797037303e+000	 3.457296579984634e-001	 1.115288451486890e+001
 2.734711118561289e+000	 3.728273207724399e-001	 1.117387250358921e+001
 2.730872033883267e+000	 3.999788950554091e-001	 1.119656375188587e+001
 2.726749361321934e+000	 4.271804358168683e-001	 1.122111068940922e+001
 2.722340984345731e+000	 4.544279291674743e-001	 1.124786247931807e+001
 2.717644853820373e+000	 4.817172934502300e-001	 1.127733803699226e+001
 2.712658990244341e+000	 5.090443804096893e-001	 1.131019727743746e+001
 2.707381485969473e+000	 5.364049764395906e-001	 1.134721035214163e+001
 2.773821122965178e+000	 2.673570958656236e-001	 1.107879996296749e+001
 2.771067604709985e+000	 2.945300981229868e-001	 1.109537104929819e+001
 2.768036941368701e+000	 3.217690552511445e-001	 1.111399440517691e+001
 2.764726746536587e+000	 3.490701985052323e-001	 1.113432575825249e+001
 2.761134692735884e+000	 3.764296867778861e-001	 1.115627205736671e+001
 2.757258513704563e+000	 4.038436074682190e-001	 1.117996960403770e+001
 2.753096006681305e+000	 4.313079774276856e-001	 1.120576114798120e+001
 2.748645034684032e+000	 4.588187439835653e-001	 1.123417171754246e+001
 2.743903528779152e+000	 4.863717860406929e-001	 1.126588294296930e+001
 2.738869490338654e+000	 5.139629152619604e-001	 1.130170561939961e+001
 2.733540993282150e+000	 5.415878773280060e-001	 1.134255024751139e+001
 2.800366104050776e+000	 2.699156563283477e-001	 1.106538289680051e+001
 2.797586235109169e+000	 2.973486994459259e-001	 1.108184576518471e+001
 2.794526568851548e+000	 3.248483286108667e-001	 1.109992426529026e+001
 2.791184696035717e+000	 3.524107390120678e-001	 1.111950272597906e+001
 2.787558266910396e+000	 3.800320527834318e-001	 1.114069708829401e+001
 2.783644993525842e+000	 4.077083198811574e-001	 1.116383436674785e+001
 2.779442652040724e+000	 4.354355190386557e-001	 1.118943115416119e+001
 2.774949085022441e+000	 4.632095587998287e-001	 1.121817092057477e+001
 2.770162203738096e+000	 4.910262786313429e-001	 1.125087984238360e+001
 2.765079990433185e+000	 5.188814501144279e-001	 1.128850088547482e+001
 2.759700500595092e+000	 5.467707782166210e-001	 1.133206585603604e+001
 2.826911085135918e+000	 2.724742167909504e-001	 1.105766549892461e+001
 2.824104865507971e+000	 3.001673007687956e-001	 1.107173981150134e+001
 2.821016196334098e+000	 3.279276019705644e-001	 1.108719784500423e+001
 2.817642645534646e+000	 3.557512795189181e-001	 1.110413798648232e+001
 2.813981841084797e+000	 3.836344187890252e-001	 1.112286908365524e+001
 2.810031473347105e+000	 4.115730322941703e-001	 1.114389143108004e+001
 2.805789297400218e+000	 4.395630606497219e-001	 1.116787688687070e+001
 2.801253135361017e+000	 4.676003736162049e-001	 1.119564784886044e+001
 2.796420878697291e+000	 4.956807712221167e-001	 1.122815480320172e+001
 2.791290490528042e+000	 5.237999849670262e-001	 1.126645214463384e+001
 2.785860007908426e+000	 5.519536791053696e-001	 1.131167195627705e+001
 2.853456066220490e+000	 2.750327772533643e-001	 1.105151083024304e+001
 2.850623495906301e+000	 3.029859020915370e-001	 1.106087646616898e+001
 2.847505823816279e+000	 3.310068753301843e-001	 1.107161819543364e+001
 2.844100595033316e+000	 3.590918200257314e-001	 1.108403176990888e+001
 2.840405415259059e+000	 3.872367847946143e-001	 1.109860068292546e+001
 2.836417953168350e+000	 4.154377447072045e-001	 1.111597888736070e+001
 2.832135942759817e+000	 4.436906022608281e-001	 1.113697273907230e+001
 2.827557185699815e+000	 4.719911884326337e-001	 1.116252187159062e+001
 2.822679553656821e+000	 5.003352638129518e-001	 1.119367869047592e+001
 2.817500990623338e+000	 5.287185198196899e-001	 1.123158616049889e+001
 2.812019515222285e+000	 5.571365799941846e-001	 1.127745354609731e+001
 2.550424442091569e+000	 5.053075711170251e-001	 1.146092386844399e+001
 2.545175626282793e+000	 5.311133792549038e-001	 1.147481962531930e+001
 2.539648613041488e+000	 5.569426359281883e-001	 1.148877464998479e+001
 2.533841822305532e+000	 5.827911868836830e-001	 1.150164430339016e+001
 2.527753749957560e+000	 6.086548215885872e-001	 1.151226964988221e+001
 2.521382969806465e+000	 6.345292747799887e-001	 1.151946265192536e+001
 2.514728135537550e+000	 6.604102280884717e-001	 1.152199439875601e+001
 2.507787982628420e+000	 6.862933117354155e-001	 1.152318229328842e+001
 2.500561330227559e+000	 7.121741063034355e-001	 1.153329841670082e+001
 2.493047082992633e+000	 7.380481445792869e-001	 1.155272800511407e+001
 2.485244232885506e+000	 7.639109134684247e-001	 1.158145247040355e+001
 2.576583949405427e+000	 5.104904720028427e-001	 1.141972404380775e+001
 2.571281296896450e+000	 5.365609683296080e-001	 1.143397632885631e+001
 2.565697593505349e+000	 5.626551537016215e-001	 1.144742969652348e+001
 2.559831242963416e+000	 5.887688312558329e-001	 1.145905657302925e+001
 2.553680725725668e+000	 6.148977472723327e-001	 1.146777953532557e+001
 2.547244600972649e+000	 6.410375927397363e-001	 1.147245342645772e+001
 2.540521508580615e+000	 6.671840049954465e-001	 1.147185364033244e+001
 2.533510171057051e+000	 6.933325694403609e-001	 1.147345270308364e+001
 2.526209395438530e+000	 7.194788213274720e-001	 1.148477077480113e+001
 2.518618075147866e+000	 7.456182476236749e-001	 1.150552708612586e+001
 2.510735191807548e+000	 7.717462889439608e-001	 1.153547911364122e+001
 2.602743456718762e+000	 5.156733728892600e-001	 1.138941457752310e+001
 2.597386967509508e+000	 5.420085574049052e-001	 1.140584848124056e+001
 2.591746573968552e+000	 5.683676714756258e-001	 1.142012997612937e+001
 2.585820663620601e+000	 5.947464756285220e-001	 1.143141160952012e+001
 2.579607701493043e+000	 6.211406729565766e-001	 1.143875875573309e+001
 2.573106232138085e+000	 6.475459106999375e-001	 1.144112837621625e+001
 2.566314881622926e+000	 6.739577819028286e-001	 1.143801640974184e+001
 2.559232359484934e+000	 7.003718271456700e-001	 1.144067315520984e+001
 2.551857460648768e+000	 7.267835363518348e-001	 1.145317982676308e+001
 2.544189067302395e+000	 7.531883506683609e-001	 1.147508167318245e+001
 2.536226150728920e+000	 7.795816644197814e-001	 1.150594260546589e+001
 2.628902964031701e+000	 5.208562737762097e-001	 1.136873276839154e+001
 2.623492638122118e+000	 5.474561464807289e-001	 1.138874297207202e+001
 2.617795554431263e+000	 5.740801892501384e-001	 1.140479377710212e+001
 2.611810084277259e+000	 6.007241200016894e-001	 1.141628222374365e+001
 2.605534677259869e+000	 6.273835986412624e-001	 1.142247889230518e+001
 2.598967863302959e+000	 6.540542286605391e-001	 1.142250302044192e+001
 2.592108254664672e+000	 6.807315588105687e-001	 1.141787692769797e+001
 2.584954547912257e+000	 7.074110848512966e-001	 1.142159301285994e+001
 2.577505525858459e+000	 7.340882513764790e-001	 1.143511962216544e+001
 2.569760059456394e+000	 7.607584537132994e-001	 1.145785746447218e+001
 2.561717109649789e+000	 7.874170398958366e-001	 1.148920599408070e+001
 2.655062471344379e+000	 5.260391746636258e-001	 1.135626911947620e+001
 2.649598308734428e+000	 5.529037355570140e-001	 1.138082970958348e+001
 2.643844534893646e+000	 5.797927070250948e-001	 1.139921312564754e+001
 2.637799504933566e+000	 6.067017643752749e-001	 1.141112667088843e+001
 2.631461653026330e+000	 6.336265243263336e-001	 1.141610974080495e+001
 2.624829494467459e+000	 6.605625466214887e-001	 1.141350499792057e+001
 2.617901627706041e+000	 6.875053357186183e-001	 1.140828929731127e+001
 2.610676736339205e+000	 7.144503425571936e-001	 1.141289103368685e+001
 2.603153591067784e+000	 7.413929664013583e-001	 1.142712182552575e+001
 2.595331051610041e+000	 7.683285567584446e-001	 1.145026610946374e+001
 2.587208068570322e+000	 7.952524153720765e-001	 1.148158673724186e+001
 2.681221978656926e+000	 5.312220755514417e-001	 1.135030284365121e+001
 2.675703979346590e+000	 5.583513246336942e-001	 1.137997034052748e+001
 2.669893515355863e+000	 5.855052248004324e-001	 1.140102486847266e+001
 2.663788925589698e+000	 6.126794087492185e-001	 1.141329374054194e+001
 2.657388628792607e+000	 6.398694500117333e-001	 1.141672479493934e+001
 2.650691125631771e+000	 6.670708645827341e-001	 1.141098195302674e+001
 2.643695000747222e+000	 6.942791126269274e-001	 1.140603275246945e+001
 2.636398924765966e+000	 7.214896002633147e-001	 1.141117945450418e+001
 2.628801656276926e+000	 7.486976814264279e-001	 1.142566007091729e+001
 2.620902043763512e+000	 7.758986598037490e-001	 1.144866986481467e+001
 2.612699027490689e+000	 8.030877908484521e-001	 1.147936168849479e+001
 2.707381485969473e+000	 5.364049764395906e-001	 1.134721035214163e+001
 2.701809649958751e+000	 5.637989137107040e-001	 1.138123153231202e+001
 2.695942495818080e+000	 5.912177425760865e-001	 1.140466467918181e+001
 2.689778346245831e+000	 6.186570531234596e-001	 1.141757456836977e+001
 2.683315604558885e+000	 6.461123756974059e-001	 1.141984375545268e+001
 2.676552756796084e+000	 6.735791825442223e-001	 1.141180903344682e+001
 2.669488373788400e+000	 7.010528895354475e-001	 1.140776585627216e+001
 2.662121113192726e+000	 7.285288579696132e-001	 1.141300812554202e+001
 2.654449721486068e+000	 7.560023964516416e-001	 1.142715437107646e+001
 2.646473035916982e+000	 7.834687628491664e-001	 1.144938630837760e+001
 2.638189986411056e+000	 8.109231663249131e-001	 1.147877214388034e+001
 2.733540993282150e+000	 5.415878773280060e-001	 1.134255024751139e+001
 2.727915320571063e+000	 5.692465027879770e-001	 1.137975828445347e+001
 2.721991476280464e+000	 5.969302603519942e-001	 1.140432469369174e+001
 2.715767766902137e+000	 6.246346974979377e-001	 1.141659800818200e+001
 2.709242580325347e+000	 6.523553013832940e-001	 1.141673535078519e+001
 2.702414387960584e+000	 6.800875005059013e-001	 1.140732524709758e+001
 2.695281746829769e+000	 7.078266664441295e-001	 1.140499652276161e+001
 2.687843301619676e+000	 7.355681156760430e-001	 1.141181594446764e+001
 2.680097786695394e+000	 7.633071114769547e-001	 1.142669558130401e+001
 2.672044028070629e+000	 7.910388658946514e-001	 1.144848240064135e+001
 2.663680945331590e+000	 8.187585418014102e-001	 1.147602894506156e+001
 2.759700500595092e+000	 5.467707782166210e-001	 1.133206585603604e+001
 2.754020991183672e+000	 5.746940918654475e-001	 1.137133847730871e+001
 2.748040456743174e+000	 6.026427781280914e-001	 1.139585755617046e+001
 2.741757187558796e+000	 6.306123418725927e-001	 1.140626331970200e+001
 2.735169556092172e+000	 6.585982270693414e-001	 1.140299700911276e+001
 2.728276019125458e+000	 6.865958184677176e-001	 1.139233065523630e+001
 2.721075119871516e+000	 7.146004433529241e-001	 1.139076548725254e+001
 2.713565490046998e+000	 7.426073733825569e-001	 1.139827755023583e+001
 2.705745851905085e+000	 7.706118265023212e-001	 1.141374091579683e+001
 2.697615020224629e+000	 7.986089689401570e-001	 1.143594821666316e+001
 2.689171904252460e+000	 8.265939172778939e-001	 1.146361261128603e+001
 2.785860007908426e+000	 5.519536791053696e-001	 1.131167195627705e+001
 2.780126661796730e+000	 5.801416809430494e-001	 1.135194361539795e+001
 2.774089437206379e+000	 6.083552959043150e-001	 1.137531043409286e+001
 2.767746608215981e+000	 6.365899862473640e-001	 1.138270981639502e+001
 2.761096531859549e+000	 6.648411527554916e-001	 1.137487429214455e+001
 2.754137650290895e+000	 6.931041364296191e-001	 1.136329733231239e+001
 2.746868492913828e+000	 7.213742202617819e-001	 1.136165609029775e+001
 2.739287678474881e+000	 7.496466310891085e-001	 1.136895687896081e+001
 2.731393917115323e+000	 7.779165415276959e-001	 1.138405180199671e+001
 2.723186012379159e+000	 8.061790719856368e-001	 1.140569572725068e+001
 2.714662863173830e+000	 8.344292927543137e-001	 1.143254858425516e+001
 2.812019515222285e+000	 5.571365799941846e-001	 1.127745354609731e+001
 2.806232332410390e+000	 5.855892700207178e-001	 1.131772711605879e+001
 2.800138417670241e+000	 6.140678136806009e-001	 1.133892282779920e+001
 2.793736028873866e+000	 6.425676306221915e-001	 1.134227824362049e+001
 2.787023507627656e+000	 6.710840784416882e-001	 1.132914003296327e+001
 2.779999281457081e+000	 6.996124543915534e-001	 1.131690561128002e+001
 2.772661865956895e+000	 7.281479971706544e-001	 1.131446575692192e+001
 2.765009866903514e+000	 7.566858887956516e-001	 1.132078016840181e+001
 2.757041982326296e+000	 7.852212565530333e-001	 1.133469403956169e+001
 2.748757004534392e+000	 8.137491750310452e-001	 1.135494008818914e+001
 2.740153822095873e+000	 8.422646682306209e-001	 1.138014118178956e+001
 2.485244232885506e+000	 7.639109134684247e-001	 1.158145247040355e+001
 2.477151860299458e+000	 7.897578556018046e-001	 1.161391792187995e+001
 2.468769133891298e+000	 8.155843702179724e-001	 1.164455497016456e+001
 2.460095314090223e+000	 8.413858163563166e-001	 1.167341871282457e+001
 2.451129755315018e+000	 8.671575154167841e-001	 1.170063775017760e+001
 2.441871907512629e+000	 8.928947534162470e-001	 1.172641636317490e+001
 2.432321317635803e+000	 9.185927833090084e-001	 1.175103707854823e+001
 2.422477631056948e+000	 9.442468273696871e-001	 1.177486357675811e+001
 2.412340592915415e+000	 9.698520796365817e-001	 1.179834389088531e+001
 2.401910049395445e+000	 9.954037084134922e-001	 1.182201383745115e+001
 2.391185948932115e+000	 1.020896858827830e+000	 1.184648848581630e+001
 2.510735191807548e+000	 7.717462889439608e-001	 1.153547911364122e+001
 2.502559816378509e+000	 7.978583411747027e-001	 1.156900249890808e+001
 2.494091108990538e+000	 8.239497563647817e-001	 1.160063519114446e+001
 2.485328322487116e+000	 8.500158459516010e-001	 1.163044988532184e+001
 2.476270804665347e+000	 8.760518833470556e-001	 1.165857845878190e+001
 2.466917999830329e+000	 9.020531062170464e-001	 1.168521447818932e+001
 2.457269450287938e+000	 9.280147188257830e-001	 1.171061617759093e+001
 2.447324797773200e+000	 9.539318944431129e-001	 1.173510985993633e+001
 2.437083784811378e+000	 9.797997778129441e-001	 1.175909366632011e+001
 2.426546256009037e+000	 1.005613487680731e+000	 1.178304164936754e+001
 2.415712159272363e+000	 1.031368119377818e+000	 1.180749732579254e+001
 2.536226150728920e+000	 7.795816644197814e-001	 1.150594260546589e+001
 2.527967772456935e+000	 8.059588267478867e-001	 1.154010696646133e+001
 2.519413084089206e+000	 8.323151425118924e-001	 1.157224670745686e+001
 2.510561330883490e+000	 8.586458755472128e-001	 1.160246365324254e+001
 2.501411854015220e+000	 8.849462512776898e-001	 1.163090467789368e+001
 2.491964092147640e+000	 9.112114590182462e-001	 1.165776458021837e+001
 2.482217582939757e+000	 9.374366543429982e-001	 1.168328951799797e+001
 2.472171964489210e+000	 9.636169615170172e-001	 1.170778094992600e+001
 2.461826976707175e+000	 9.897474759898183e-001	 1.173160002532355e+001
 2.451182462622545e+000	 1.015823266948505e+000	 1.175515931362869e+001
 2.440238369612606e+000	 1.041839379928356e+000	 1.177898359677177e+001
 2.561717109649789e+000	 7.874170398958366e-001	 1.148920599408070e+001
 2.553375728534892e+000	 8.140593123213009e-001	 1.152352263415743e+001
 2.544735059187441e+000	 8.406805286592410e-001	 1.155564552888286e+001
 2.535794339279474e+000	 8.672759051430786e-001	 1.158571626429450e+001
 2.526552903364751e+000	 8.938406192086001e-001	 1.161390745445271e+001
 2.517010184464659e+000	 9.203698118197515e-001	 1.164042602775953e+001
 2.507165715591338e+000	 9.468585898605495e-001	 1.166551716391635e+001
 2.497019131205037e+000	 9.733020285912878e-001	 1.168946882670194e+001
 2.486570168602850e+000	 9.996951741670863e-001	 1.171261682814982e+001
 2.475818669235987e+000	 1.026033046216697e+000	 1.173533876735701e+001
 2.464764579952845e+000	 1.052310640479326e+000	 1.175810954554444e+001
 2.587208068570322e+000	 7.952524153720765e-001	 1.148158673724186e+001
 2.578783684612534e+000	 8.221597978948896e-001	 1.151550354801126e+001
 2.570057034285386e+000	 8.490459148067618e-001	 1.154705832690383e+001
 2.561027347675200e+000	 8.759059347391240e-001	 1.157644213081853e+001
 2.551693952714053e+000	 9.027349871397038e-001	 1.160386305888270e+001
 2.542056276781484e+000	 9.295281646214674e-001	 1.162954999508045e+001
 2.532113848242760e+000	 9.562805253783324e-001	 1.165375709784920e+001
 2.521866297920744e+000	 9.829870956658126e-001	 1.167676897781597e+001
 2.511313360498441e+000	 1.009642872344632e+000	 1.169890649442362e+001
 2.500454875849389e+000	 1.036242825485187e+000	 1.172052286340296e+001
 2.489290790293080e+000	 1.062781901030612e+000	 1.174205437313820e+001
 2.612699027490689e+000	 8.030877908484521e-001	 1.147936168849479e+001
 2.604191640690019e+000	 8.302602834685960e-001	 1.151227184621799e+001
 2.595379009383188e+000	 8.574113009543917e-001	 1.154268821012655e+001
 2.586260356070796e+000	 8.845359643352752e-001	 1.157086007354592e+001
 2.576835002063240e+000	 9.116293550709154e-001	 1.159703974439819e+001
 2.567102369098211e+000	 9.386865174232990e-001	 1.162148679275107e+001
 2.557061980894103e+000	 9.657024608962423e-001	 1.164447314648055e+001
 2.546713464636391e+000	 9.926721627404799e-001	 1.166628897191130e+001
 2.536056552393992e+000	 1.019590570522337e+000	 1.168723669976122e+001
 2.525091082462769e+000	 1.046452604753855e+000	 1.170769209109562e+001
 2.513817000633315e+000	 1.073253161582096e+000	 1.172802498812208e+001
 2.638189986411056e+000	 8.109231663249131e-001	 1.147877214388034e+001
 2.629599596767505e+000	 8.383607690423659e-001	 1.151002317591602e+001
 2.620700984480991e+000	 8.657766871020663e-001	 1.153872055866089e+001
 2.611493364466391e+000	 8.931659939314580e-001	 1.156517961978315e+001
 2.601976051412428e+000	 9.205237230021509e-001	 1.158970455375418e+001
 2.592148461414938e+000	 9.478448702251517e-001	 1.161259322621646e+001
 2.582010113545447e+000	 9.751243964141759e-001	 1.163414293276858e+001
 2.571560631352037e+000	 1.002357229815177e+000	 1.165465704440998e+001
 2.560799744289543e+000	 1.029538268700084e+000	 1.167444133828976e+001
 2.549727289076148e+000	 1.056662384022583e+000	 1.169385994553439e+001
 2.538343210973550e+000	 1.083724422133662e+000	 1.171326671635930e+001
 2.663680945331590e+000	 8.187585418014102e-001	 1.147602894506156e+001
 2.655007552845147e+000	 8.464612546161422e-001	 1.150493216684498e+001
 2.646022959578938e+000	 8.741420732497217e-001	 1.153132891350205e+001
 2.636726372862116e+000	 9.017960235275986e-001	 1.155560735237847e+001
 2.627117100761730e+000	 9.294180909333258e-001	 1.157813017026022e+001
 2.617194553731764e+000	 9.570032230269308e-001	 1.159923998986340e+001
 2.606958246196869e+000	 9.845463319320279e-001	 1.161926585254819e+001
 2.596407798067744e+000	 1.012042296889793e+000	 1.163851697936288e+001
 2.585542936185135e+000	 1.039485966877756e+000	 1.165734994541411e+001
 2.574363495689549e+000	 1.066872163291252e+000	 1.167608287257705e+001
 2.562869421313786e+000	 1.094195682685192e+000	 1.169507397012606e+001
 2.689171904252460e+000	 8.265939172778939e-001	 1.146361261128603e+001
 2.680415508923102e+000	 8.545617401898698e-001	 1.149176028892882e+001
 2.671344934677172e+000	 8.825074593972931e-001	 1.151651936965504e+001
 2.661959381258101e+000	 9.104260531236234e-001	 1.153835330610061e+001
 2.652258150111261e+000	 9.383124588643561e-001	 1.155860181012251e+001
 2.642240646048783e+000	 9.661615758285405e-001	 1.157781909422427e+001
 2.631906378848450e+000	 9.939682674496944e-001	 1.159637107401638e+001
 2.621254964783572e+000	 1.021727363964215e+000	 1.161459312516116e+001
 2.610286128080809e+000	 1.049433665055237e+000	 1.163285175734905e+001
 2.598999702302992e+000	 1.077081942559741e+000	 1.165147019396955e+001
 2.587395631654025e+000	 1.104666943236571e+000	 1.167080087929157e+001
 2.714662863173830e+000	 8.344292927543137e-001	 1.143254858425516e+001
 2.705823465001528e+000	 8.626622257634926e-001	 1.145998287582405e+001
 2.696666909775837e+000	 8.908728455447167e-001	 1.148456682862690e+001
 2.687192389654475e+000	 9.190560827194575e-001	 1.150666521151298e+001
 2.677399199461134e+000	 9.472068267951564e-001	 1.152661914979994e+001
 2.667286738366093e+000	 9.753199286298869e-001	 1.154474892463224e+001
 2.656854511500270e+000	 1.003390202967071e+000	 1.156202555859540e+001
 2.646102131499581e+000	 1.031412431038331e+000	 1.157961196501680e+001
 2.635029319976607e+000	 1.059381363232407e+000	 1.159789084061313e+001
 2.623635908916500e+000	 1.087291721827933e+000	 1.161719401392277e+001
 2.611921841994267e+000	 1.115138203787681e+000	 1.163787188705157e+001
 2.740153822095873e+000	 8.422646682306209e-001	 1.138014118178956e+001
 2.731231421080580e+000	 8.707627113369549e-001	 1.140608772339231e+001
 2.721988884875082e+000	 8.992382316919291e-001	 1.142985066823856e+001
 2.712425398051369e+000	 9.276861123150280e-001	 1.145186878664312e+001
 2.702540248811464e+000	 9.561011947256431e-001	 1.147255041638642e+001
 2.692332830683795e+000	 9.844782814308750e-001	 1.149227642091060e+001
 2.681802644152406e+000	 1.012812138484053e+000	 1.151139015458416e+001
 2.670949298215834e+000	 1.041097498112028e+000	 1.153025867855687e+001
 2.659772511872570e+000	 1.069329061409152e+000	 1.154947533544389e+001
 2.648272115530094e+000	 1.097501501095708e+000	 1.157049910834366e+001
 2.636448052334516e+000	 1.125609464338406e+000	 1.159379231252356e+001
 2.391185948932115e+000	 1.020896858827830e+000	 1.184648848581630e+001
 2.380170018213486e+000	 1.046322846371298e+000	 1.186742765651589e+001
 2.368860828443987e+000	 1.071680609277310e+000	 1.188114820771950e+001
 2.357258643002612e+000	 1.096965242574563e+000	 1.188948746627659e+001
 2.345363831499277e+000	 1.122171828923650e+000	 1.189441752400390e+001
 2.333176870580242e+000	 1.147295441416840e+000	 1.189804754427917e+001
 2.320698344647250e+000	 1.172331146418369e+000	 1.190262566630463e+001
 2.307928946488350e+000	 1.197274006442202e+000	 1.191054041026993e+001
 2.294869477818497e+000	 1.222119083064165e+000	 1.192432148536452e+001
 2.281520849728123e+000	 1.246861439865192e+000	 1.194663990227472e+001
 2.267884083038025e+000	 1.271496145402371e+000	 1.198030729249311e+001
 2.415712159272363e+000	 1.031368119377818e+000	 1.180749732579254e+001
 2.404583238999920e+000	 1.057054899319571e+000	 1.182827801588368e+001
 2.393158051741089e+000	 1.082672754848955e+000	 1.184188748016280e+001
 2.381436863576317e+000	 1.108216730684771e+000	 1.185011530807450e+001
 2.369420047906573e+000	 1.133681859050856e+000	 1.185488107260682e+001
 2.357108086267037e+000	 1.159063162504583e+000	 1.185823751352318e+001
 2.344501569053610e+000	 1.184355656806279e+000	 1.186237333518774e+001
 2.331601196160210e+000	 1.209554353826513e+000	 1.186961551344465e+001
 2.318407777524915e+000	 1.234654264488092e+000	 1.188243100445288e+001
 2.304922233583135e+000	 1.259650401739496e+000	 1.190342774785791e+001
 2.291145595626142e+000	 1.284537783556398e+000	 1.193535485723862e+001
 2.440238369612606e+000	 1.041839379928356e+000	 1.177898359677177e+001
 2.428996459786430e+000	 1.067786952268393e+000	 1.179903155466109e+001
 2.417455275038343e+000	 1.093664900421135e+000	 1.181199872038370e+001
 2.405615084150245e+000	 1.119468218795488e+000	 1.181959349505911e+001
 2.393476264314157e+000	 1.145191889178536e+000	 1.182364738686968e+001
 2.381039301954177e+000	 1.170830883592758e+000	 1.182611918032161e+001
 2.368304793460358e+000	 1.196380167194577e+000	 1.182909874233007e+001
 2.355273445832485e+000	 1.221834701211166e+000	 1.183481035023297e+001
 2.341946077231757e+000	 1.247189445912312e+000	 1.184561542497460e+001
 2.328323617438561e+000	 1.272439363614045e+000	 1.186401455194591e+001
 2.314407108214644e+000	 1.297579421710628e+000	 1.189264867237180e+001
 2.464764579952845e+000	 1.052310640479326e+000	 1.175810954554444e+001
 2.453409680572995e+000	 1.078519005217651e+000	 1.177706660220552e+001
 2.441752498335712e+000	 1.104657045993749e+000	 1.178904637695743e+001
 2.429793304724341e+000	 1.130719706906630e+000	 1.179564245544493e+001
 2.417532480721959e+000	 1.156701919306625e+000	 1.179856258345678e+001
 2.404970517641571e+000	 1.182598604681319e+000	 1.179963393629943e+001
 2.392108017867391e+000	 1.208404677583234e+000	 1.180080805257104e+001
 2.378945695505065e+000	 1.234115048596146e+000	 1.180416530747159e+001
 2.365484376938910e+000	 1.259724627336829e+000	 1.181191879858790e+001
 2.351725001294287e+000	 1.285228325488860e+000	 1.182641751607737e+001
 2.337668620803414e+000	 1.310621059865093e+000	 1.185014866940327e+001
 2.489290790293080e+000	 1.062781901030612e+000	 1.174205437313820e+001
 2.477822901359597e+000	 1.089251058167239e+000	 1.175978282357467e+001
 2.466049721633156e+000	 1.115649191566700e+000	 1.177062212519179e+001
 2.453971525298550e+000	 1.141971195018112e+000	 1.177601716926827e+001
 2.441588697129901e+000	 1.168211949435054e+000	 1.177751601270604e+001
 2.428901733329134e+000	 1.194366325770216e+000	 1.177677636648509e+001
 2.415911242274610e+000	 1.220429187972218e+000	 1.177557178148262e+001
 2.402617945177838e+000	 1.246395395981444e+000	 1.177579739618467e+001
 2.389022676646253e+000	 1.272259808761648e+000	 1.177947510825415e+001
 2.375126385150191e+000	 1.298017287363961e+000	 1.178875803062015e+001
 2.360930133392335e+000	 1.323662698019824e+000	 1.180593409278202e+001
 2.513817000633315e+000	 1.073253161582096e+000	 1.172802498812208e+001
 2.502236122146217e+000	 1.099983111117045e+000	 1.174461271898546e+001
 2.490346944930636e+000	 1.126641337139889e+000	 1.175435704132292e+001
 2.478149745872810e+000	 1.153222683129850e+000	 1.175851994642872e+001
 2.465644913537911e+000	 1.179721979563755e+000	 1.175845357022331e+001
 2.452832949016774e+000	 1.206134046859399e+000	 1.175560802483347e+001
 2.439714466681911e+000	 1.232453698361500e+000	 1.175153896593817e+001
 2.426290194850694e+000	 1.258675743367047e+000	 1.174791474913179e+001
 2.412560976353672e+000	 1.284794990186778e+000	 1.174652302559196e+001
 2.398527769006154e+000	 1.310806249239369e+000	 1.174927662573036e+001
 2.384191645981290e+000	 1.336704336174856e+000	 1.175849111630982e+001
 2.538343210973550e+000	 1.083724422133662e+000	 1.171326671635930e+001
 2.526649342932838e+000	 1.110715164066960e+000	 1.172903305994032e+001
 2.514644168228117e+000	 1.137633482713217e+000	 1.173793369761109e+001
 2.502327966447069e+000	 1.164474171241759e+000	 1.174101311379626e+001
 2.489701129945919e+000	 1.191232009692661e+000	 1.173939090955174e+001
 2.476764164704405e+000	 1.217901767948820e+000	 1.173427110658449e+001
 2.463517691089194e+000	 1.244478208751050e+000	 1.172695123093261e+001
 2.449962444523521e+000	 1.270956090752944e+000	 1.171883101757813e+001
 2.436099276061050e+000	 1.297330171612221e+000	 1.171142057387463e+001
 2.421929152862056e+000	 1.323595211115106e+000	 1.170634783771886e+001
 2.407453158570164e+000	 1.349745974330221e+000	 1.171206248858807e+001
 2.562869421313786e+000	 1.094195682685192e+000	 1.169507397012606e+001
 2.551062563719440e+000	 1.121447217016874e+000	 1.171057626626186e+001
 2.538941391525559e+000	 1.148625628286586e+000	 1.171909818363464e+001
 2.526506187021271e+000	 1.175725659353757e+000	 1.172143161747465e+001
 2.513757346353844e+000	 1.202742039821704e+000	 1.171842656254106e+001
 2.500695380391937e+000	 1.229669489038429e+000	 1.171100202436602e+001
 2.487320915496360e+000	 1.256502719140836e+000	 1.170015675960133e+001
 2.473634694196210e+000	 1.283236438139122e+000	 1.168697967403519e+001
 2.459637575768267e+000	 1.309865353037983e+000	 1.167265970298993e+001
 2.445330536717780e+000	 1.336384172991190e+000	 1.165874588843076e+001
 2.430714671158838e+000	 1.362787612485952e+000	 1.166846488754086e+001
 2.587395631654025e+000	 1.104666943236571e+000	 1.167080087929157e+001
 2.575475784506004e+000	 1.132179269966677e+000	 1.168684172795579e+001
 2.563238614822923e+000	 1.159617773859896e+000	 1.169567205867809e+001
 2.550684407595356e+000	 1.186977147465758e+000	 1.169779554584869e+001
 2.537813562761619e+000	 1.214252069950818e+000	 1.169375497354031e+001
 2.524626596079279e+000	 1.241437210128177e+000	 1.168414489442651e+001
 2.511124139903305e+000	 1.268527229530830e+000	 1.166962417285988e+001
 2.497306943868649e+000	 1.295516785525570e+000	 1.165092822720910e+001
 2.483175875475209e+000	 1.322400534464070e+000	 1.162888078220039e+001
 2.468731920573206e+000	 1.349173134867645e+000	 1.161133008671325e+001
 2.453976183747196e+000	 1.375829250642081e+000	 1.162750488005688e+001
 2.611921841994267e+000	 1.115138203787681e+000	 1.163787188705157e+001
 2.599889005292512e+000	 1.142911322916259e+000	 1.165550707552800e+001
 2.587535838120173e+000	 1.170609919433050e+000	 1.166556423974155e+001
 2.574862628169269e+000	 1.198228635577678e+000	 1.166822257862148e+001
 2.561869779169168e+000	 1.225762100079934e+000	 1.166367945307546e+001
 2.548557811766347e+000	 1.253204931218014e+000	 1.165216493890203e+001
 2.534927364309929e+000	 1.280551739920999e+000	 1.163395632460147e+001
 2.520979193540728e+000	 1.307797132912276e+000	 1.160939235492416e+001
 2.506714175181758e+000	 1.334935715890488e+000	 1.157896435654496e+001
 2.492133304428215e+000	 1.361962096744488e+000	 1.156637741671727e+001
 2.477237696335122e+000	 1.388870888798642e+000	 1.158904269495614e+001
 2.636448052334516e+000	 1.125609464338406e+000	 1.159379231252356e+001
 2.624302226078947e+000	 1.153643375865511e+000	 1.161433940211051e+001
 2.611833061417271e+000	 1.181602065005949e+000	 1.162678282936319e+001
 2.599040848742955e+000	 1.209480123689433e+000	 1.163094036665900e+001
 2.585925995576417e+000	 1.237272130208986e+000	 1.162662505625441e+001
 2.572489027453051e+000	 1.264972652307893e+000	 1.161366180958347e+001
 2.558730588716130e+000	 1.292576250311315e+000	 1.159190401794965e+001
 2.544651443212335e+000	 1.320077480299228e+000	 1.156124996036046e+001
 2.530252474887798e+000	 1.347470897317242e+000	 1.152765393774768e+001
 2.515534688282688e+000	 1.374751058621742e+000	 1.152384213371983e+001
 2.500499208922499e+000	 1.401912526955667e+000	 1.155299257360661e+001
 2.267884083038025e+000	 1.271496145402371e+000	 1.198030729249311e+001
 2.253958198620401e+000	 1.296021946435735e+000	 1.200858847909358e+001
 2.239746463665040e+000	 1.320430225689309e+000	 1.201444752933329e+001
 2.225250231807174e+000	 1.344716083974012e+000	 1.200238682650676e+001
 2.210470966914092e+000	 1.368874639231026e+000	 1.198748447891117e+001
 2.195410242948957e+000	 1.392901029590033e+000	 1.197279366193558e+001
 2.180069743733891e+000	 1.416790416433498e+000	 1.195878466187324e+001
 2.164451262611717e+000	 1.440537987463155e+000	 1.194591819156496e+001
 2.148556702005920e+000	 1.464138959764830e+000	 1.193464228633474e+001
 2.132388072878528e+000	 1.487588582867686e+000	 1.192538880459371e+001
 2.115947494085821e+000	 1.510882141793964e+000	 1.191856955584355e+001
 2.291145595626142e+000	 1.284537783556398e+000	 1.193535485723862e+001
 2.277076874483293e+000	 1.309315143844457e+000	 1.196073751823093e+001
 2.262719370855698e+000	 1.333973776940951e+000	 1.196185079321447e+001
 2.248074452262729e+000	 1.358508733406175e+000	 1.195171461843903e+001
 2.233143597586459e+000	 1.382915081106391e+000	 1.194083073417629e+001
 2.217928396934077e+000	 1.407187908303436e+000	 1.192961210857590e+001
 2.202430551398550e+000	 1.431322326750428e+000	 1.191847113673302e+001
 2.186651872716886e+000	 1.455313474789711e+000	 1.190781690712981e+001
 2.170594282825593e+000	 1.479156520449109e+000	 1.189805201319689e+001
 2.154259813312990e+000	 1.502846664532555e+000	 1.188956892968793e+001
 2.137650604768313e+000	 1.526379143701107e+000	 1.188274597780510e+001
 2.314407108214644e+000	 1.297579421710628e+000	 1.189264867237180e+001
 2.300195550346515e+000	 1.322608341253345e+000	 1.191335669503091e+001
 2.285692278046610e+000	 1.347517328192726e+000	 1.191153899764967e+001
 2.270898672718448e+000	 1.372301382838444e+000	 1.190588342806373e+001
 2.255816228258888e+000	 1.396955522981840e+000	 1.189892278994222e+001
 2.240446550919154e+000	 1.421474787016904e+000	 1.189102929244990e+001
 2.224791359063059e+000	 1.445854237067408e+000	 1.188258195777100e+001
 2.208852482821807e+000	 1.470088962116305e+000	 1.187396379407467e+001
 2.192631863644929e+000	 1.494174081133418e+000	 1.186555846898211e+001
 2.176131553747041e+000	 1.518104746197447e+000	 1.185774650429540e+001
 2.159353715450340e+000	 1.541876145608267e+000	 1.185090101729121e+001
 2.337668620803414e+000	 1.310621059865093e+000	 1.185014866940327e+001
 2.323314226209956e+000	 1.335901538662437e+000	 1.186447769235428e+001
 2.308665185237677e+000	 1.361060879444680e+000	 1.186549367514401e+001
 2.293722893174245e+000	 1.386094032270866e+000	 1.186424589576614e+001
 2.278488858931313e+000	 1.410995964857420e+000	 1.186107080633363e+001
 2.262964704904139e+000	 1.435761665730482e+000	 1.185632254061869e+001
 2.247152166727390e+000	 1.460386147384479e+000	 1.185037050883362e+001
 2.231053092926468e+000	 1.484864449442972e+000	 1.184359642739161e+001
 2.214669444463933e+000	 1.509191641817784e+000	 1.183639080065538e+001
 2.198003294180702e+000	 1.533362827862384e+000	 1.182914887664113e+001
 2.181056826131934e+000	 1.557373147515461e+000	 1.182226610350661e+001
 2.360930133392335e+000	 1.323662698019824e+000	 1.180593409278202e+001
 2.346432902073507e+000	 1.349194736071776e+000	 1.181720710043727e+001
 2.331638092428801e+000	 1.374604430696857e+000	 1.182318005717388e+001
 2.316547113630038e+000	 1.399886681703489e+000	 1.182621770597343e+001
 2.301161489603666e+000	 1.425036406733176e+000	 1.182665069982570e+001
 2.285482858888984e+000	 1.450048544444212e+000	 1.182483705620458e+001
 2.269512974391514e+000	 1.474918057701679e+000	 1.182115961250623e+001
 2.253253703030859e+000	 1.499639936769747e+000	 1.181602286298638e+001
 2.236707025282611e+000	 1.524209202502237e+000	 1.180984919521095e+001
 2.219875034613992e+000	 1.548620909527387e+000	 1.180307454933866e+001
 2.202759936813130e+000	 1.572870149422705e+000	 1.179614352875437e+001
 2.384191645981290e+000	 1.336704336174856e+000	 1.175849111630982e+001
 2.369551577937059e+000	 1.362487933481405e+000	 1.177329601140747e+001
 2.354610999619883e+000	 1.388147981949305e+000	 1.178412321094212e+001
 2.339371334085742e+000	 1.413679331136361e+000	 1.179127749111613e+001
 2.323834120275880e+000	 1.439076848609157e+000	 1.179510384437574e+001
 2.308001012873640e+000	 1.464335423158140e+000	 1.179598543964702e+001
 2.291873782055399e+000	 1.489449968019049e+000	 1.179434089302676e+001
 2.275454313134966e+000	 1.514415424096662e+000	 1.179062086233885e+001
 2.258744606100967e+000	 1.539226763186804e+000	 1.178530398470247e+001
 2.241746775046933e+000	 1.563878991192479e+000	 1.177889218192825e+001
 2.224463047493960e+000	 1.588367151330018e+000	 1.177190536411664e+001
 2.407453158570164e+000	 1.349745974330221e+000	 1.171206248858807e+001
 2.392670253800501e+000	 1.375781130891361e+000	 1.173238221319916e+001
 2.377583906810825e+000	 1.401691533202069e+000	 1.174790812478477e+001
 2.362195554541274e+000	 1.427471980569528e+000	 1.175896670041026e+001
 2.346506750947888e+000	 1.453117290485408e+000	 1.176593674647401e+001
 2.330519166858057e+000	 1.478622301872309e+000	 1.176924719160451e+001
 2.314234589719017e+000	 1.503981878336627e+000	 1.176937412728670e+001
 2.297654923238780e+000	 1.529190911423754e+000	 1.176683711049673e+001
 2.280782186919011e+000	 1.554244323871514e+000	 1.176219474875031e+001
 2.263618515479547e+000	 1.579137072857684e+000	 1.175603959402607e+001
 2.246166158174458e+000	 1.603864153237414e+000	 1.174899237796409e+001
 2.430714671158838e+000	 1.362787612485952e+000	 1.166846488754086e+001
 2.415788929663723e+000	 1.389074328301687e+000	 1.169416018073434e+001
 2.400556814001531e+000	 1.415235084455195e+000	 1.171417975090217e+001
 2.385019774996549e+000	 1.441264630003040e+000	 1.172888943581621e+001
 2.369179381619623e+000	 1.467157732361976e+000	 1.173872069586203e+001
 2.353037320842188e+000	 1.492909180586763e+000	 1.174416819873201e+001
 2.336595397382336e+000	 1.518513788654454e+000	 1.174578658471678e+001
 2.319855533342289e+000	 1.543966398751055e+000	 1.174418642784937e+001
 2.302819767736746e+000	 1.569261884556395e+000	 1.174002941469451e+001
 2.285490255911854e+000	 1.594395154523023e+000	 1.173402276904263e+001
 2.267869268854655e+000	 1.619361155144911e+000	 1.172691295710417e+001
 2.453976183747196e+000	 1.375829250642081e+000	 1.162750488005688e+001
 2.438907605526619e+000	 1.402367525712424e+000	 1.165838129777808e+001
 2.423529721191897e+000	 1.428778635708728e+000	 1.168264300824627e+001
 2.407843995451483e+000	 1.455057279436942e+000	 1.170071225735292e+001
 2.391852012291019e+000	 1.481198174238908e+000	 1.171309139353206e+001
 2.375555474825982e+000	 1.507196059301545e+000	 1.172036020346970e+001
 2.358956205045328e+000	 1.533045698972568e+000	 1.172317235679550e+001
 2.342056143445480e+000	 1.558741886078600e+000	 1.172225097609432e+001
 2.324857348554177e+000	 1.584279445241475e+000	 1.171838335555062e+001
 2.307361996343875e+000	 1.609653236188518e+000	 1.171241485843347e+001
 2.289572379534585e+000	 1.634858157052527e+000	 1.170524203039328e+001
 2.477237696335122e+000	 1.388870888798642e+000	 1.158904269495615e+001
 2.462026281389074e+000	 1.415660723123613e+000	 1.162485403171655e+001
 2.446502628381830e+000	 1.442322186962715e+000	 1.165306274818313e+001
 2.430668215905994e+000	 1.468849928871283e+000	 1.167416395978114e+001
 2.414524642962007e+000	 1.495238616116251e+000	 1.168874855850162e+001
 2.398073628809393e+000	 1.521482938016701e+000	 1.169750025889478e+001
 2.381317012707962e+000	 1.547577609291011e+000	 1.170119167686213e+001
 2.364256753548344e+000	 1.573517373406423e+000	 1.170067945877895e+001
 2.346894929371312e+000	 1.599297005926782e+000	 1.169689848591167e+001
 2.329233736775630e+000	 1.624911317854192e+000	 1.169085518644669e+001
 2.311275490214280e+000	 1.650355158960276e+000	 1.168361999465100e+001
 2.500499208922499e+000	 1.401912526955667e+000	 1.155299257360661e+001
 2.485144957250983e+000	 1.428953920535294e+000	 1.159344406432373e+001
 2.469475535571229e+000	 1.455865738217200e+000	 1.162526368535411e+001
 2.453492436359996e+000	 1.482642578306111e+000	 1.164903532252031e+001
 2.437197273632522e+000	 1.509279057994052e+000	 1.166545551474495e+001
 2.420591782792370e+000	 1.535769816732273e+000	 1.167533016960808e+001
 2.403677820370210e+000	 1.562109519609821e+000	 1.167957023086609e+001
 2.386457363650868e+000	 1.588292860734559e+000	 1.167918631676905e+001
 2.368932510188156e+000	 1.614314566612345e+000	 1.167528235593112e+001
 2.351105477207142e+000	 1.640169399520067e+000	 1.166904825533487e+001
 2.332978600893775e+000	 1.665852160868178e+000	 1.166175164272607e+001
 2.115947494085821e+000	 1.510882141793964e+000	 1.191856955584355e+001
 2.099237191034965e+000	 1.534014959583876e+000	 1.190951926289151e+001
 2.082259493061532e+000	 1.556982398749111e+000	 1.189361194943742e+001
 2.065016834301999e+000	 1.579779865751119e+000	 1.187128507036497e+001
 2.047511753248752e+000	 1.602402814479762e+000	 1.184295090921794e+001
 2.029746891604005e+000	 1.624846749199451e+000	 1.180899121591977e+001
 2.011724993034462e+000	 1.647107227462233e+000	 1.176975166187261e+001
 1.993448901827818e+000	 1.669179862983960e+000	 1.172586337081697e+001
 1.974921561452375e+000	 1.691060328479696e+000	 1.168149037955934e+001
 1.956146013021240e+000	 1.712744358454553e+000	 1.163841224340963e+001
 1.937125393662695e+000	 1.734227751946229e+000	 1.159739397290387e+001
 2.137650604768313e+000	 1.526379143701107e+000	 1.188274597780510e+001
 2.120768905424560e+000	 1.549749233023748e+000	 1.187304610916201e+001
 2.103617068509114e+000	 1.572952247445816e+000	 1.185617449318998e+001
 2.086197553125190e+000	 1.595983546313200e+000	 1.183285024518992e+001
 2.068512923802284e+000	 1.618838536886680e+000	 1.180377526781780e+001
 2.050565849338336e+000	 1.641512677318262e+000	 1.176962802556859e+001
 2.032359101541615e+000	 1.664001479594162e+000	 1.173105710243432e+001
 2.013895553873444e+000	 1.686300512440469e+000	 1.168867459205357e+001
 1.995178179993043e+000	 1.708405404187631e+000	 1.164323673777408e+001
 1.976210052205971e+000	 1.730311845589922e+000	 1.159935107132700e+001
 1.956994339817781e+000	 1.752015592596107e+000	 1.155960779402502e+001
 2.159353715450340e+000	 1.541876145608267e+000	 1.185090101729120e+001
 2.142300619813662e+000	 1.565483506463633e+000	 1.184065625312146e+001
 2.124974643956197e+000	 1.588922096142529e+000	 1.182304598111591e+001
 2.107378271947896e+000	 1.612187226875289e+000	 1.179903090107811e+001
 2.089514094355360e+000	 1.635274259293601e+000	 1.176956176203729e+001
 2.071384807072250e+000	 1.658178605437074e+000	 1.173557231364399e+001
 2.052993210048401e+000	 1.680895731726092e+000	 1.169797200712502e+001
 2.034342205918758e+000	 1.703421161896978e+000	 1.165763849911729e+001
 2.015434798533458e+000	 1.725750479895566e+000	 1.161541001424467e+001
 1.996274091390502e+000	 1.747879332725291e+000	 1.157219533789382e+001
 1.976863285972716e+000	 1.769803433245986e+000	 1.153300776503670e+001
 2.181056826131934e+000	 1.557373147515461e+000	 1.182226610350661e+001
 2.163832334202313e+000	 1.581217779903542e+000	 1.181157746270157e+001
 2.146332219402827e+000	 1.604891944839259e+000	 1.179343051921844e+001
 2.128558990770164e+000	 1.628390907437387e+000	 1.176898880183243e+001
 2.110515264908027e+000	 1.651709981700529e+000	 1.173941248272350e+001
 2.092203764805794e+000	 1.674844533555892e+000	 1.170585054368434e+001
 2.073627318554861e+000	 1.697789983858026e+000	 1.166943265878538e+001
 2.054788857963797e+000	 1.720541811353488e+000	 1.163126085086191e+001
 2.035691417073644e+000	 1.743095555603501e+000	 1.159240098193504e+001
 2.016338130574856e+000	 1.765446819860659e+000	 1.155387413998888e+001
 1.996732232127518e+000	 1.787591273895864e+000	 1.151674290793804e+001
 2.202759936813130e+000	 1.572870149422705e+000	 1.179614352875437e+001
 2.185364048590552e+000	 1.596952053343488e+000	 1.178510821923053e+001
 2.167689794849050e+000	 1.620861793536015e+000	 1.176660341303577e+001
 2.149739709592041e+000	 1.644594587999505e+000	 1.174195799255413e+001
 2.131516435460329e+000	 1.668145704107467e+000	 1.171250343865625e+001
 2.113022722539009e+000	 1.691510461674715e+000	 1.167956524738535e+001
 2.094261427061033e+000	 1.714684235989961e+000	 1.164445403043105e+001
 2.075235510008592e+000	 1.737662460810000e+000	 1.160845636085659e+001
 2.055948035613634e+000	 1.760440631311437e+000	 1.157282542849180e+001
 2.036402169759054e+000	 1.783014306996029e+000	 1.153877157189459e+001
 2.016601178282201e+000	 1.805379114545742e+000	 1.150745275578507e+001
 2.224463047493960e+000	 1.588367151330018e+000	 1.177190536411664e+001
 2.206895762978422e+000	 1.612686326783483e+000	 1.176061653561724e+001
 2.189047370294912e+000	 1.636831642232806e+000	 1.174190985401696e+001
 2.170920428413575e+000	 1.660798268561644e+000	 1.171724332231436e+001
 2.152517606012314e+000	 1.684581426514421e+000	 1.168808288607385e+001
 2.133841680271940e+000	 1.708176389793547e+000	 1.165589313402787e+001
 2.114895535566959e+000	 1.731578488121902e+000	 1.162212765015551e+001
 2.095682162053178e+000	 1.754783110266514e+000	 1.158821908286035e+001
 2.076204654153453e+000	 1.777785707019373e+000	 1.155556900002959e+001
 2.056466208943119e+000	 1.800581794131398e+000	 1.152553760142297e+001
 2.036470124436785e+000	 1.823166955195621e+000	 1.149943336199188e+001
 2.246166158174458e+000	 1.603864153237414e+000	 1.174899237796409e+001
 2.228427477365963e+000	 1.628420600223541e+000	 1.173753878019632e+001
 2.210404945740458e+000	 1.652801490929641e+000	 1.171876361638599e+001
 2.192101147234814e+000	 1.677001949123813e+000	 1.169421898400322e+001
 2.173518776564031e+000	 1.701017148921394e+000	 1.166546968379188e+001
 2.154660638004631e+000	 1.724842317912389e+000	 1.163408323550695e+001
 2.135529644072676e+000	 1.748472740253847e+000	 1.160161951309328e+001
 2.116128814097590e+000	 1.771903759723029e+000	 1.156962006915826e+001
 2.096461272693131e+000	 1.795130782727311e+000	 1.153959722196225e+001
 2.076530248127072e+000	 1.818149281266767e+000	 1.151302298099866e+001
 2.056339070591284e+000	 1.840954795845499e+000	 1.149131788954041e+001
 2.267869268854655e+000	 1.619361155144911e+000	 1.172691295710417e+001
 2.249959191753217e+000	 1.644154873663671e+000	 1.171537850585516e+001
 2.231762521185734e+000	 1.668771339626526e+000	 1.169664576379152e+001
 2.213281866055804e+000	 1.693205629686017e+000	 1.167232707020533e+001
 2.194519947115524e+000	 1.717452871328388e+000	 1.164405167220255e+001
 2.175479595737126e+000	 1.741508246031245e+000	 1.161345508457706e+001
 2.156163752578225e+000	 1.765366992385799e+000	 1.158216803729070e+001
 2.136575466141861e+000	 1.789024409179548e+000	 1.155180508472056e+001
 2.116717891232695e+000	 1.812475858435248e+000	 1.152395295442073e+001
 2.096594287310937e+000	 1.835716768402137e+000	 1.150015871618281e+001
 2.076208016745718e+000	 1.858742636495377e+000	 1.148191785463571e+001
 2.289572379534585e+000	 1.634858157052527e+000	 1.170524203039328e+001
 2.271490906140224e+000	 1.659889147103888e+000	 1.169370528409252e+001
 2.253120096630787e+000	 1.684741188323473e+000	 1.167510336509301e+001
 2.234462584876594e+000	 1.709409310248261e+000	 1.165107614403894e+001
 2.215521117666840e+000	 1.733888593735408e+000	 1.162328407456820e+001
 2.196298553469467e+000	 1.758174174150114e+000	 1.159339692410960e+001
 2.176797861083645e+000	 1.782261244517759e+000	 1.156308206057183e+001
 2.157022118186025e+000	 1.806145058636070e+000	 1.153399237348132e+001
 2.136974509772173e+000	 1.829820934143187e+000	 1.150775391193361e+001
 2.116658326494735e+000	 1.853284255537506e+000	 1.148595332494930e+001
 2.096076962900100e+000	 1.876530477145256e+000	 1.147012519243967e+001
 2.311275490214280e+000	 1.650355158960276e+000	 1.168361999465100e+001
 2.293022620527026e+000	 1.675623420544203e+000	 1.167215354368371e+001
 2.274477672075661e+000	 1.700711037020488e+000	 1.165374821868258e+001
 2.255643303697231e+000	 1.725612990810552e+000	 1.163003982397468e+001
 2.236522288218026e+000	 1.750324316142456e+000	 1.160268791914471e+001
 2.217117511201701e+000	 1.774840102269001e+000	 1.157336394532443e+001
 2.197431969588975e+000	 1.799155496649727e+000	 1.154373887570348e+001
 2.177468770230118e+000	 1.823265708092595e+000	 1.151547047331021e+001
 2.157231128311593e+000	 1.847166009851127e+000	 1.149019024314650e+001
 2.136722365678489e+000	 1.870851742672875e+000	 1.146949016918072e+001
 2.115945909054448e+000	 1.894318317795134e+000	 1.145490932947705e+001
 2.332978600893775e+000	 1.665852160868178e+000	 1.166175164272607e+001
 2.314554334913666e+000	 1.691357693984630e+000	 1.165042141365404e+001
 2.295835247520404e+000	 1.716680885717582e+000	 1.163225558478662e+001
 2.276824022517764e+000	 1.741816671372895e+000	 1.160885538172366e+001
 2.257523458769130e+000	 1.766760038549538e+000	 1.158184848077801e+001
 2.237936468933869e+000	 1.791506030387907e+000	 1.155287655310839e+001
 2.218066078094256e+000	 1.816049748781706e+000	 1.152358230136662e+001
 2.197915422274171e+000	 1.840386357549125e+000	 1.149559607650679e+001
 2.177487746850984e+000	 1.864511085559069e+000	 1.147052216667019e+001
 2.156786404862220e+000	 1.888419229808245e+000	 1.144992485367986e+001
 2.135814855208781e+000	 1.912106158445013e+000	 1.143531433561468e+001
 1.937125393662695e+000	 1.734227751946229e+000	 1.159739397290387e+001
 1.917865842278389e+000	 1.755503199414275e+000	 1.155815281404219e+001
 1.898367848035766e+000	 1.776569877680164e+000	 1.151954028360292e+001
 1.878634825537390e+000	 1.797423798768443e+000	 1.148106547222922e+001
 1.858670277892823e+000	 1.818061049642710e+000	 1.144225786234382e+001
 1.838477794649450e+000	 1.838477794649450e+000	 1.140267446503959e+001
 1.818061049642710e+000	 1.858670277892823e+000	 1.136190698483103e+001
 1.797423798768442e+000	 1.878634825537390e+000	 1.131958897033715e+001
 1.776569877680166e+000	 1.898367848035766e+000	 1.127540290772882e+001
 1.755503199414274e+000	 1.917865842278389e+000	 1.122908721281529e+001
 1.734227751946229e+000	 1.937125393662695e+000	 1.118044307698664e+001
 1.956994339817781e+000	 1.752015592596107e+000	 1.155960779402502e+001
 1.937537244696356e+000	 1.773509260692354e+000	 1.152364516262240e+001
 1.917839261026503e+000	 1.794792018256848e+000	 1.148974829201868e+001
 1.897903838434115e+000	 1.815859836409762e+000	 1.145698508803371e+001
 1.877734515959893e+000	 1.836708761978973e+000	 1.142443354562132e+001
 1.857334919968946e+000	 1.857334919968946e+000	 1.139119007669918e+001
 1.836708761978973e+000	 1.877734515959894e+000	 1.135637789676717e+001
 1.815859836409761e+000	 1.897903838434115e+000	 1.131915542434543e+001
 1.794792018256848e+000	 1.917839261026503e+000	 1.127872464584498e+001
 1.773509260692353e+000	 1.937537244696356e+000	 1.123433939736987e+001
 1.752015592596108e+000	 1.956994339817781e+000	 1.118531351415182e+001
 1.976863285972716e+000	 1.769803433245986e+000	 1.153300776503670e+001
 1.957208647114214e+000	 1.791515321970432e+000	 1.149922236600591e+001
 1.937310674017164e+000	 1.813014158833529e+000	 1.146846990550525e+001
 1.917172851330790e+000	 1.834295874051076e+000	 1.143944906599174e+001
 1.896798754026930e+000	 1.855356474315226e+000	 1.141086000810579e+001
 1.876192045288421e+000	 1.876192045288421e+000	 1.138141377911398e+001
 1.855356474315226e+000	 1.896798754026930e+000	 1.134984180926277e+001
 1.834295874051076e+000	 1.917172851330789e+000	 1.131490544620992e+001
 1.813014158833529e+000	 1.937310674017163e+000	 1.127540547609802e+001
 1.791515321970433e+000	 1.957208647114214e+000	 1.123019157856005e+001
 1.769803433245986e+000	 1.976863285972716e+000	 1.117817166200990e+001
 1.996732232127518e+000	 1.787591273895864e+000	 1.151674290793804e+001
 1.976880049531974e+000	 1.809521383248510e+000	 1.148394378047910e+001
 1.956782087007755e+000	 1.831236299410209e+000	 1.145471572951367e+001
 1.936441864227417e+000	 1.852731911692388e+000	 1.142745778225019e+001
 1.915862992093939e+000	 1.874004186651469e+000	 1.140056347624794e+001
 1.895049170607881e+000	 1.895049170607881e+000	 1.137243124105726e+001
 1.874004186651470e+000	 1.915862992093939e+000	 1.134147489521276e+001
 1.852731911692388e+000	 1.936441864227417e+000	 1.130613420504622e+001
 1.831236299410209e+000	 1.956782087007756e+000	 1.126488544999988e+001
 1.809521383248510e+000	 1.976880049531974e+000	 1.121625193767962e+001
 1.787591273895864e+000	 1.996732232127518e+000	 1.115881441081043e+001
 2.016601178282201e+000	 1.805379114545742e+000	 1.150745275578507e+001
 1.996551451949648e+000	 1.827527444526589e+000	 1.147687530238943e+001
 1.976253499998287e+000	 1.849458439986889e+000	 1.144750714830565e+001
 1.955710877124004e+000	 1.871167949333697e+000	 1.142002529533304e+001
 1.934927230160922e+000	 1.892651898987706e+000	 1.139258551510603e+001
 1.913906295927326e+000	 1.913906295927326e+000	 1.136334396746438e+001
 1.892651898987707e+000	 1.934927230160922e+000	 1.133046859194612e+001
 1.871167949333697e+000	 1.955710877124005e+000	 1.129215058344182e+001
 1.849458439986889e+000	 1.976253499998287e+000	 1.124661589296376e+001
 1.827527444526589e+000	 1.996551451949648e+000	 1.119213669287081e+001
 1.805379114545742e+000	 2.016601178282202e+000	 1.113220508410379e+001
 2.036470124436785e+000	 1.823166955195621e+000	 1.149943336199188e+001
 2.016222854367249e+000	 1.845533505804667e+000	 1.147458649298592e+001
 1.995724912988767e+000	 1.867680580563567e+000	 1.144587062548180e+001
 1.974979890020558e+000	 1.889603986975002e+000	 1.141617355840016e+001
 1.953991468227883e+000	 1.911299611323936e+000	 1.138597722336413e+001
 1.932763421246759e+000	 1.932763421246759e+000	 1.135326354371735e+001
 1.911299611323936e+000	 1.953991468227883e+000	 1.131602395668875e+001
 1.889603986975003e+000	 1.974979890020558e+000	 1.127227170134798e+001
 1.867680580563567e+000	 1.995724912988767e+000	 1.122005414915300e+001
 1.845533505804666e+000	 2.016222854367249e+000	 1.116245357862126e+001
 1.823166955195621e+000	 2.036470124436785e+000	 1.110769347793747e+001
 2.056339070591284e+000	 1.840954795845499e+000	 1.149131788954041e+001
 2.035894256784788e+000	 1.863539567082745e+000	 1.147117828322480e+001
 2.015196325979205e+000	 1.885902721140246e+000	 1.144655372501262e+001
 1.994248902917082e+000	 1.908040024616306e+000	 1.141492676499485e+001
 1.973055706294826e+000	 1.929947323660161e+000	 1.137979356334665e+001
 1.951620546566180e+000	 1.951620546566180e+000	 1.134130601279868e+001
 1.929947323660161e+000	 1.973055706294827e+000	 1.129734614940036e+001
 1.908040024616306e+000	 1.994248902917082e+000	 1.124581755874934e+001
 1.885902721140245e+000	 2.015196325979205e+000	 1.118907973441210e+001
 1.863539567082745e+000	 2.035894256784789e+000	 1.113636266652190e+001
 1.840954795845499e+000	 2.056339070591284e+000	 1.108544063967173e+001
 2.076208016745718e+000	 1.858742636495377e+000	 1.148191785463571e+001
 2.055565659202280e+000	 1.881545628360823e+000	 1.146524602642421e+001
 2.034667738969607e+000	 1.904124861716922e+000	 1.144336751258311e+001
 2.013517915813583e+000	 1.926476062257608e+000	 1.141343380818987e+001
 1.992119944361754e+000	 1.948595035996382e+000	 1.137308781698434e+001
 1.970477671885594e+000	 1.970477671885594e+000	 1.132658637641421e+001
 1.948595035996382e+000	 1.992119944361754e+000	 1.127363903445364e+001
 1.926476062257608e+000	 2.013517915813584e+000	 1.121563627729022e+001
 1.904124861716923e+000	 2.034667738969607e+000	 1.116295304384831e+001
 1.881545628360823e+000	 2.055565659202280e+000	 1.111381541509106e+001
 1.858742636495377e+000	 2.076208016745717e+000	 1.106533058347549e+001
 2.096076962900100e+000	 1.876530477145256e+000	 1.147012519243967e+001
 2.075237061619735e+000	 1.899551689638900e+000	 1.145557835350765e+001
 2.054139151959984e+000	 1.922347002293599e+000	 1.143485217447885e+001
 2.032786928710067e+000	 1.944912099898908e+000	 1.140516620511395e+001
 2.011184182428673e+000	 1.967242748332599e+000	 1.136357677846042e+001
 1.989334797205001e+000	 1.989334797205000e+000	 1.130821321185855e+001
 1.967242748332600e+000	 2.011184182428673e+000	 1.124653831429843e+001
 1.944912099898908e+000	 2.032786928710067e+000	 1.119125753048766e+001
 1.922347002293599e+000	 2.054139151959985e+000	 1.114155145765701e+001
 1.899551689638900e+000	 2.075237061619735e+000	 1.109447402455296e+001
 1.876530477145256e+000	 2.096076962900100e+000	 1.104717555580553e+001
 2.115945909054448e+000	 1.894318317795134e+000	 1.145490932947705e+001
 2.094908464037164e+000	 1.917557750916978e+000	 1.144104351213194e+001
 2.073610564950345e+000	 1.940569142870276e+000	 1.141980553734904e+001
 2.052055941606541e+000	 1.963348137540208e+000	 1.138854684184651e+001
 2.030248420495583e+000	 1.985890460668814e+000	 1.134445401109741e+001
 2.008191922524404e+000	 2.008191922524404e+000	 1.128586468748379e+001
 1.985890460668814e+000	 2.030248420495583e+000	 1.122578313609734e+001
 1.963348137540208e+000	 2.052055941606541e+000	 1.117268469499478e+001
 1.940569142870276e+000	 2.073610564950345e+000	 1.112435119067940e+001
 1.917557750916979e+000	 2.094908464037165e+000	 1.107794226434108e+001
 1.894318317795134e+000	 2.115945909054448e+000	 1.103072251459693e+001
 2.135814855208781e+000	 1.912106158445013e+000	 1.143531433561468e+001
 2.114579866454582e+000	 1.935563812195057e+000	 1.142058629730112e+001
 2.093081977940697e+000	 1.958791283446953e+000	 1.139710272907743e+001
 2.071324954503008e+000	 1.981784175181508e+000	 1.136240929068583e+001
 2.049312658562491e+000	 2.004538173005029e+000	 1.131429636700024e+001
 2.027049047843805e+000	 2.027049047843805e+000	 1.126317364709295e+001
 2.004538173005029e+000	 2.049312658562490e+000	 1.121158399129168e+001
 1.981784175181508e+000	 2.071324954503008e+000	 1.115924286001161e+001
 1.958791283446953e+000	 2.093081977940697e+000	 1.111078248960783e+001
 1.935563812195057e+000	 2.114579866454582e+000	 1.106377193391840e+001
 1.912106158445013e+000	 2.135814855208781e+000	 1.101565966711204e+001
 1.734227751946229e+000	 1.937125393662695e+000	 1.118044307698665e+001
 1.712744358454553e+000	 1.956146013021241e+000	 1.112290318685316e+001
 1.691060328479696e+000	 1.974921561452375e+000	 1.105110406580794e+001
 1.669179862983960e+000	 1.993448901827818e+000	 1.096675257285557e+001
 1.647107227462233e+000	 2.011724993034462e+000	 1.087402196095474e+001
 1.624846749199452e+000	 2.029746891604005e+000	 1.078269968953529e+001
 1.602402814479762e+000	 2.047511753248752e+000	 1.069444562858378e+001
 1.579779865751119e+000	 2.065016834301999e+000	 1.061018473962827e+001
 1.556982398749111e+000	 2.082259493061532e+000	 1.053084725054028e+001
 1.534014959583875e+000	 2.099237191034965e+000	 1.045735818602249e+001
 1.510882141793964e+000	 2.115947494085821e+000	 1.039062733465023e+001
 1.752015592596108e+000	 1.956994339817781e+000	 1.118531351415182e+001
 1.730311845589922e+000	 1.976210052205971e+000	 1.112491194012497e+001
 1.708405404187631e+000	 1.995178179993043e+000	 1.104813905015642e+001
 1.686300512440468e+000	 2.013895553873444e+000	 1.096044800680274e+001
 1.664001479594162e+000	 2.032359101541615e+000	 1.087201715564787e+001
 1.641512677318262e+000	 2.050565849338336e+000	 1.078446617350549e+001
 1.618838536886680e+000	 2.068512923802285e+000	 1.069903136702524e+001
 1.595983546313200e+000	 2.086197553125190e+000	 1.061697047815582e+001
 1.572952247445815e+000	 2.103617068509114e+000	 1.053955044215934e+001
 1.549749233023748e+000	 2.120768905424560e+000	 1.046803550860023e+001
 1.526379143701107e+000	 2.137650604768313e+000	 1.040367582873991e+001
 1.769803433245986e+000	 1.976863285972716e+000	 1.117817166200990e+001
 1.747879332725290e+000	 1.996274091390502e+000	 1.111263870764341e+001
 1.725750479895566e+000	 2.015434798533457e+000	 1.103338532627740e+001
 1.703421161896978e+000	 2.034342205918758e+000	 1.095088873175813e+001
 1.680895731726092e+000	 2.052993210048401e+000	 1.086681132198535e+001
 1.658178605437075e+000	 2.071384807072250e+000	 1.078261470227107e+001
 1.635274259293601e+000	 2.089514094355360e+000	 1.069979995385179e+001
 1.612187226875288e+000	 2.107378271947896e+000	 1.061989374860722e+001
 1.588922096142529e+000	 2.124974643956197e+000	 1.054443473439895e+001
 1.565483506463633e+000	 2.142300619813663e+000	 1.047496030738735e+001
 1.541876145608268e+000	 2.159353715450340e+000	 1.041299388330416e+001
 1.787591273895864e+000	 1.996732232127518e+000	 1.115881441081043e+001
 1.765446819860660e+000	 2.016338130574856e+000	 1.109098911491218e+001
 1.743095555603502e+000	 2.035691417073645e+000	 1.101730892862671e+001
 1.720541811353488e+000	 2.054788857963797e+000	 1.093950054317785e+001
 1.697789983858025e+000	 2.073627318554860e+000	 1.085916637366972e+001
 1.674844533555892e+000	 2.092203764805794e+000	 1.077796799903632e+001
 1.651709981700529e+000	 2.110515264908027e+000	 1.069761078062461e+001
 1.628390907437388e+000	 2.128558990770164e+000	 1.061982863996007e+001
 1.604891944839259e+000	 2.146332219402827e+000	 1.054636912467701e+001
 1.581217779903542e+000	 2.163832334202313e+000	 1.047897888798185e+001
 1.557373147515461e+000	 2.181056826131934e+000	 1.041938970236856e+001
 1.805379114545742e+000	 2.016601178282202e+000	 1.113220508410379e+001
 1.783014306996028e+000	 2.036402169759053e+000	 1.106978365907335e+001
 1.760440631311437e+000	 2.055948035613634e+000	 1.100077614616709e+001
 1.737662460810000e+000	 2.075235510008592e+000	 1.092684309270310e+001
 1.714684235989961e+000	 2.094261427061034e+000	 1.084972531375245e+001
 1.691510461674715e+000	 2.113022722539008e+000	 1.077122718068711e+001
 1.668145704107468e+000	 2.131516435460329e+000	 1.069319993823627e+001
 1.644594587999504e+000	 2.149739709592041e+000	 1.061752519115989e+001
 1.620861793536015e+000	 2.167689794849050e+000	 1.054609869897593e+001
 1.596952053343488e+000	 2.185364048590552e+000	 1.048081461335296e+001
 1.572870149422705e+000	 2.202759936813131e+000	 1.042355028784950e+001
 1.823166955195621e+000	 2.036470124436785e+000	 1.110769347793747e+001
 1.800581794131398e+000	 2.056466208943119e+000	 1.104948766474328e+001
 1.777785707019373e+000	 2.076204654153453e+000	 1.098413205272374e+001
 1.754783110266514e+000	 2.095682162053179e+000	 1.091336724283794e+001
 1.731578488121901e+000	 2.114895535566959e+000	 1.083901852814012e+001
 1.708176389793547e+000	 2.133841680271940e+000	 1.076297791683458e+001
 1.684581426514422e+000	 2.152517606012314e+000	 1.068718618648571e+001
 1.660798268561644e+000	 2.170920428413575e+000	 1.061361512036187e+001
 1.636831642232806e+000	 2.189047370294912e+000	 1.054425007407003e+001
 1.612686326783484e+000	 2.206895762978422e+000	 1.048107301659476e+001
 1.588367151330017e+000	 2.224463047493960e+000	 1.042604618462720e+001
 1.840954795845499e+000	 2.056339070591284e+000	 1.108544063967173e+001
 1.818149281266767e+000	 2.076530248127072e+000	 1.103022060366801e+001
 1.795130782727311e+000	 2.096461272693131e+000	 1.096762424098404e+001
 1.771903759723029e+000	 2.116128814097590e+000	 1.089942147772366e+001
 1.748472740253847e+000	 2.135529644072676e+000	 1.082747011618759e+001
 1.724842317912389e+000	 2.154660638004631e+000	 1.075369662423739e+001
 1.701017148921394e+000	 2.173518776564031e+000	 1.068007696022282e+001
 1.677001949123814e+000	 2.192101147234814e+000	 1.060861759461941e+001
 1.652801490929640e+000	 2.210404945740458e+000	 1.054133688654928e+001
 1.628420600223541e+000	 2.228427477365963e+000	 1.048024696907977e+001
 1.603864153237414e+000	 2.246166158174458e+000	 1.042733629165800e+001
 1.858742636495377e+000	 2.076208016745717e+000	 1.106533058347549e+001
 1.835716768402137e+000	 2.096594287310937e+000	 1.101201684483777e+001
 1.812475858435249e+000	 2.116717891232694e+000	 1.095140930032397e+001
 1.789024409179548e+000	 2.136575466141861e+000	 1.088525835301170e+001
 1.765366992385799e+000	 2.156163752578225e+000	 1.081540425589298e+001
 1.741508246031244e+000	 2.175479595737126e+000	 1.074375669423256e+001
 1.717452871328388e+000	 2.194519947115523e+000	 1.067227440961338e+001
 1.693205629686017e+000	 2.213281866055804e+000	 1.060294503731149e+001
 1.668771339626526e+000	 2.231762521185735e+000	 1.053776532550555e+001
 1.644154873663671e+000	 2.249959191753217e+000	 1.047872190030235e+001
 1.619361155144911e+000	 2.267869268854655e+000	 1.042777273470239e+001
 1.876530477145256e+000	 2.096076962900100e+000	 1.104717555580553e+001
 1.853284255537506e+000	 2.116658326494735e+000	 1.099483215371260e+001
 1.829820934143187e+000	 2.136974509772172e+000	 1.093555933822774e+001
 1.806145058636069e+000	 2.157022118186025e+000	 1.087104098224081e+001
 1.782261244517759e+000	 2.176797861083645e+000	 1.080305160139974e+001
 1.758174174150114e+000	 2.196298553469467e+000	 1.073343475098401e+001
 1.733888593735408e+000	 2.215521117666840e+000	 1.066408147225948e+001
 1.709409310248261e+000	 2.234462584876594e+000	 1.059690897080399e+001
 1.684741188323472e+000	 2.253120096630787e+000	 1.053383970598371e+001
 1.659889147103889e+000	 2.271490906140225e+000	 1.047678106598128e+001
 1.634858157052526e+000	 2.289572379534584e+000	 1.042760579657978e+001
 1.894318317795134e+000	 2.115945909054448e+000	 1.103072251459693e+001
 1.870851742672876e+000	 2.136722365678489e+000	 1.097855024166683e+001
 1.847166009851127e+000	 2.157231128311593e+000	 1.092006854243563e+001
 1.823265708092595e+000	 2.177468770230117e+000	 1.085684955731900e+001
 1.799155496649727e+000	 2.197431969588976e+000	 1.079055571068081e+001
 1.774840102269001e+000	 2.217117511201700e+000	 1.072291693852390e+001
 1.750324316142456e+000	 2.236522288218026e+000	 1.065570797508239e+001
 1.725612990810552e+000	 2.255643303697231e+000	 1.059072589202874e+001
 1.700711037020488e+000	 2.274477672075662e+000	 1.052976808051824e+001
 1.675623420544203e+000	 2.293022620527026e+000	 1.047461086125001e+001
 1.650355158960276e+000	 2.311275490214281e+000	 1.042698890116951e+001
 1.912106158445013e+000	 2.135814855208781e+000	 1.101565966711204e+001
 1.888419229808245e+000	 2.156786404862220e+000	 1.096298936238316e+001
 1.864511085559069e+000	 2.177487746850984e+000	 1.090485978116696e+001
 1.840386357549125e+000	 2.197915422274170e+000	 1.084268790088956e+001
 1.816049748781705e+000	 2.218066078094255e+000	 1.077797950144079e+001
 1.791506030387908e+000	 2.237936468933869e+000	 1.071230523471123e+001
 1.766760038549538e+000	 2.257523458769129e+000	 1.064727676402913e+001
 1.741816671372895e+000	 2.276824022517764e+000	 1.058452317883757e+001
 1.716680885717582e+000	 2.295835247520404e+000	 1.052566788627521e+001
 1.691357693984630e+000	 2.314554334913665e+000	 1.047230617599788e+001
 1.665852160868179e+000	 2.332978600893775e+000	 1.042598364765751e+001
 1.510882141793964e+000	 2.115947494085821e+000	 1.039062733465023e+001
 1.487588582867686e+000	 2.132388072878528e+000	 1.032559665160090e+001
 1.464138959764830e+000	 2.148556702005919e+000	 1.025628552911732e+001
 1.440537987463155e+000	 2.164451262611717e+000	 1.018217749940465e+001
 1.416790416433498e+000	 2.180069743733891e+000	 1.010271855559752e+001
 1.392901029590033e+000	 2.195410242948957e+000	 1.001731293197216e+001
 1.368874639231026e+000	 2.210470966914093e+000	 9.925319727957168e+000
 1.344716083974012e+000	 2.225250231807173e+000	 9.826050419768333e+000
 1.320430225689309e+000	 2.239746463665041e+000	 9.721131147796079e+000
 1.296021946435735e+000	 2.253958198620401e+000	 9.622049203820698e+000
 1.271496145402372e+000	 2.267884083038025e+000	 9.528943323939100e+000
 1.526379143701107e+000	 2.137650604768313e+000	 1.040367582873991e+001
 1.502846664532555e+000	 2.154259813312990e+000	 1.034159376888458e+001
 1.479156520449109e+000	 2.170594282825592e+000	 1.027572025756011e+001
 1.455313474789710e+000	 2.186651872716886e+000	 1.020546796378352e+001
 1.431322326750428e+000	 2.202430551398550e+000	 1.013020113296507e+001
 1.407187908303436e+000	 2.217928396934077e+000	 1.004923108470050e+001
 1.382915081106392e+000	 2.233143597586459e+000	 9.961812630415846e+000
 1.358508733406175e+000	 2.248074452262729e+000	 9.867141458065285e+000
 1.333973776940951e+000	 2.262719370855698e+000	 9.764352521982005e+000
 1.309315143844457e+000	 2.277076874483293e+000	 9.661244214878398e+000
 1.284537783556399e+000	 2.291145595626142e+000	 9.565958037117971e+000
 1.541876145608268e+000	 2.159353715450340e+000	 1.041299388330416e+001
 1.518104746197447e+000	 2.176131553747041e+000	 1.035369539587222e+001
 1.494174081133418e+000	 2.192631863644929e+000	 1.029084843712703e+001
 1.470088962116304e+000	 2.208852482821807e+000	 1.022385327275650e+001
 1.445854237067409e+000	 2.224791359063059e+000	 1.015205117210800e+001
 1.421474787016904e+000	 2.240446550919154e+000	 1.007471947094692e+001
 1.396955522981841e+000	 2.255816228258888e+000	 9.991067633927827e+000
 1.372301382838444e+000	 2.270898672718448e+000	 9.900234367861248e+000
 1.347517328192726e+000	 2.285692278046610e+000	 9.801285827120523e+000
 1.322608341253345e+000	 2.300195550346515e+000	 9.695085193786849e+000
 1.297579421710628e+000	 2.314407108214644e+000	 9.595420600268009e+000
 1.557373147515461e+000	 2.181056826131934e+000	 1.041938970236856e+001
 1.533362827862384e+000	 2.198003294180702e+000	 1.036267901807558e+001
 1.509191641817784e+000	 2.214669444463932e+000	 1.030244445457691e+001
 1.484864449442972e+000	 2.231053092926468e+000	 1.023813066023446e+001
 1.460386147384479e+000	 2.247152166727390e+000	 1.016911298758890e+001
 1.435761665730482e+000	 2.262964704904139e+000	 1.009469196807886e+001
 1.410995964857420e+000	 2.278488858931313e+000	 1.001408887030382e+001
 1.386094032270866e+000	 2.293722893174245e+000	 9.926442397311655e+000
 1.361060879444679e+000	 2.308665185237677e+000	 9.830806567980421e+000
 1.335901538662437e+000	 2.323314226209955e+000	 9.726149816824359e+000
 1.310621059865092e+000	 2.337668620803414e+000	 9.620206859647096e+000
 1.572870149422705e+000	 2.202759936813131e+000	 1.042355028784950e+001
 1.548620909527387e+000	 2.219875034613992e+000	 1.036920255978860e+001
 1.524209202502237e+000	 2.236707025282611e+000	 1.031116390500991e+001
 1.499639936769747e+000	 2.253253703030858e+000	 1.024897855720200e+001
 1.474918057701679e+000	 2.269512974391513e+000	 1.018211138947562e+001
 1.450048544444212e+000	 2.285482858888984e+000	 1.010994164747835e+001
 1.425036406733176e+000	 2.301161489603666e+000	 1.003175785402230e+001
 1.399886681703489e+000	 2.316547113630037e+000	 9.946753945628629e+000
 1.374604430696857e+000	 2.331638092428801e+000	 9.854026690274937e+000
 1.349194736071777e+000	 2.346432902073507e+000	 9.752574424154112e+000
 1.323662698019824e+000	 2.360930133392335e+000	 9.642998679585299e+000
 1.588367151330017e+000	 2.224463047493960e+000	 1.042604618462720e+001
 1.563878991192479e+000	 2.241746775046933e+000	 1.037380876716649e+001
 1.539226763186804e+000	 2.258744606100968e+000	 1.031754765765375e+001
 1.514415424096663e+000	 2.275454313134967e+000	 1.025696038183870e+001
 1.489449968019049e+000	 2.291873782055399e+000	 1.019165523632200e+001
 1.464335423158140e+000	 2.308001012873640e+000	 1.012114412577228e+001
 1.439076848609157e+000	 2.323834120275879e+000	 1.004483666393497e+001
 1.413679331136361e+000	 2.339371334085742e+000	 9.962035604297499e+000
 1.388147981949305e+000	 2.354610999619884e+000	 9.871933654410814e+000
 1.362487933481405e+000	 2.369551577937059e+000	 9.773611715613535e+000
 1.336704336174856e+000	 2.384191645981290e+000	 9.666038577374932e+000
 1.603864153237414e+000	 2.246166158174458e+000	 1.042733629165800e+001
 1.579137072857684e+000	 2.263618515479547e+000	 1.037692966750151e+001
 1.554244323871514e+000	 2.280782186919011e+000	 1.032202600528821e+001
 1.529190911423754e+000	 2.297654923238781e+000	 1.026252841821201e+001
 1.503981878336627e+000	 2.314234589719017e+000	 1.019824107935067e+001
 1.478622301872309e+000	 2.330519166858057e+000	 1.012886100779973e+001
 1.453117290485408e+000	 2.346506750947888e+000	 1.005397121536175e+001
 1.427471980569528e+000	 2.362195554541273e+000	 9.973035285664400e+000
 1.401691533202069e+000	 2.377583906810825e+000	 9.885393444930688e+000
 1.375781130891361e+000	 2.392670253800501e+000	 9.790260170554063e+000
 1.349745974330221e+000	 2.407453158570164e+000	 9.686723370257861e+000
 1.619361155144911e+000	 2.267869268854655e+000	 1.042777273470239e+001
 1.594395154523023e+000	 2.285490255911854e+000	 1.037889109959179e+001
 1.569261884556395e+000	 2.302819767736746e+000	 1.032492289170638e+001
 1.543966398751055e+000	 2.319855533342289e+000	 1.026602777760765e+001
 1.518513788654454e+000	 2.336595397382336e+000	 1.020225689172668e+001
 1.492909180586763e+000	 2.353037320842188e+000	 1.013354341517211e+001
 1.467157732361976e+000	 2.369179381619624e+000	 1.005969461652224e+001
 1.441264630003040e+000	 2.385019774996548e+000	 9.980385433042329e+000
 1.415235084455194e+000	 2.400556814001531e+000	 9.895153657295065e+000
 1.389074328301687e+000	 2.415788929663724e+000	 9.803396780179090e+000
 1.362787612485953e+000	 2.430714671158838e+000	 9.704370527171154e+000
 1.634858157052526e+000	 2.289572379534584e+000	 1.042760579657978e+001
 1.609653236188518e+000	 2.307361996343875e+000	 1.037991731048498e+001
 1.584279445241475e+000	 2.324857348554177e+000	 1.032646021203318e+001
 1.558741886078600e+000	 2.342056143445480e+000	 1.026770043701477e+001
 1.533045698972569e+000	 2.358956205045327e+000	 1.020398587727709e+001
 1.507196059301545e+000	 2.375555474825982e+000	 1.013553559474579e+001
 1.481198174238908e+000	 2.391852012291019e+000	 1.006243060370588e+001
 1.455057279436942e+000	 2.407843995451483e+000	 9.984606306926750e+000
 1.428778635708728e+000	 2.423529721191897e+000	 9.901846656871332e+000
 1.402367525712424e+000	 2.438907605526619e+000	 9.813780098395469e+000
 1.375829250642081e+000	 2.453976183747196e+000	 9.719877334149942e+000
 1.650355158960276e+000	 2.311275490214281e+000	 1.042698890116951e+001
 1.624911317854192e+000	 2.329233736775629e+000	 1.038013561423457e+001
 1.599297005926782e+000	 2.346894929371312e+000	 1.032676218111354e+001
 1.573517373406423e+000	 2.364256753548344e+000	 1.026768934969418e+001
 1.547577609291011e+000	 2.381317012707963e+000	 1.020361035343412e+001
 1.521482938016701e+000	 2.398073628809392e+000	 1.013507860175484e+001
 1.495238616116251e+000	 2.414524642962007e+000	 1.006249705000681e+001
 1.468849928871284e+000	 2.430668215905993e+000	 9.986109342318105e+000
 1.442322186962715e+000	 2.446502628381830e+000	 9.905992805383166e+000
 1.415660723123613e+000	 2.462026281389075e+000	 9.822053355464234e+000
 1.388870888798642e+000	 2.477237696335122e+000	 9.734022364704909e+000
 1.665852160868179e+000	 2.332978600893775e+000	 1.042598364765751e+001
 1.640169399520067e+000	 2.351105477207141e+000	 1.037958110863025e+001
 1.614314566612346e+000	 2.368932510188156e+000	 1.032585976553655e+001
 1.588292860734558e+000	 2.386457363650868e+000	 1.026604262313572e+001
 1.562109519609820e+000	 2.403677820370209e+000	 1.020121570356825e+001
 1.535769816732273e+000	 2.420591782792370e+000	 1.013231405274241e+001
 1.509279057994052e+000	 2.437197273632522e+000	 1.006010954283146e+001
 1.482642578306111e+000	 2.453492436359996e+000	 9.985200572520144e+000
 1.455865738217200e+000	 2.469475535571230e+000	 9.908003750428513e+000
 1.428953920535294e+000	 2.485144957250983e+000	 9.828747630361811e+000
 1.401912526955667e+000	 2.500499208922499e+000	 9.747468549828557e+000
 1.271496145402372e+000	 2.267884083038025e+000	 9.528943323939100e+000
 1.246861439865192e+000	 2.281520849728122e+000	 9.439173485307373e+000
 1.222119083064165e+000	 2.294869477818497e+000	 9.351098163079115e+000
 1.197274006442202e+000	 2.307928946488350e+000	 9.264512523928511e+000
 1.172331146418369e+000	 2.320698344647250e+000	 9.179268006089069e+000
 1.147295441416841e+000	 2.333176870580241e+000	 9.095292260631288e+000
 1.122171828923650e+000	 2.345363831499277e+000	 9.012606680612258e+000
 1.096965242574563e+000	 2.357258643002612e+000	 8.931341380160337e+000
 1.071680609277310e+000	 2.368860828443987e+000	 8.851747511280840e+000
 1.046322846371299e+000	 2.380170018213485e+000	 8.774206832290693e+000
 1.020896858827830e+000	 2.391185948932115e+000	 8.699238468076231e+000
 1.284537783556399e+000	 2.291145595626142e+000	 9.565958037117973e+000
 1.259650401739495e+000	 2.304922233583134e+000	 9.475648546699674e+000
 1.234654264488093e+000	 2.318407777524915e+000	 9.388365433167291e+000
 1.209554353826513e+000	 2.331601196160211e+000	 9.303638643645995e+000
 1.184355656806279e+000	 2.344501569053610e+000	 9.221072084372819e+000
 1.159063162504583e+000	 2.357108086267037e+000	 9.140365833535384e+000
 1.133681859050856e+000	 2.369420047906573e+000	 9.061335725522772e+000
 1.108216730684771e+000	 2.381436863576317e+000	 8.983930157032606e+000
 1.082672754848956e+000	 2.393158051741090e+000	 8.908243993088471e+000
 1.057054899319571e+000	 2.404583238999920e+000	 8.834529479060954e+000
 1.031368119377818e+000	 2.415712159272363e+000	 8.763204093008154e+000
 1.297579421710628e+000	 2.314407108214644e+000	 9.595420600268010e+000
 1.272439363614045e+000	 2.328323617438562e+000	 9.502685967634184e+000
 1.247189445912312e+000	 2.341946077231757e+000	 9.414633730742759e+000
 1.221834701211165e+000	 2.355273445832486e+000	 9.330466989549677e+000
 1.196380167194577e+000	 2.368304793460358e+000	 9.249482282112256e+000
 1.170830883592758e+000	 2.381039301954176e+000	 9.171094302342732e+000
 1.145191889178537e+000	 2.393476264314158e+000	 9.094857757705920e+000
 1.119468218795488e+000	 2.405615084150246e+000	 9.020486204840404e+000
 1.093664900421135e+000	 2.417455275038343e+000	 8.947867730690158e+000
 1.067786952268393e+000	 2.428996459786429e+000	 8.877077376804230e+000
 1.041839379928356e+000	 2.440238369612607e+000	 8.808386234736000e+000
 1.310621059865092e+000	 2.337668620803414e+000	 9.620206859647094e+000
 1.285228325488860e+000	 2.351725001294286e+000	 9.523340222786022e+000
 1.259724627336829e+000	 2.365484376938910e+000	 9.433130605900438e+000
 1.234115048596146e+000	 2.378945695505065e+000	 9.348392586630371e+000
 1.208404677583233e+000	 2.392108017867391e+000	 9.268055512627884e+000
 1.182598604681320e+000	 2.404970517641572e+000	 9.191190964398585e+000
 1.156701919306625e+000	 2.417532480721959e+000	 9.117037111077757e+000
 1.130719706906629e+000	 2.429793304724341e+000	 9.045019783780074e+000
 1.104657045993749e+000	 2.441752498335712e+000	 8.974770122881765e+000
 1.078519005217652e+000	 2.453409680572995e+000	 8.906138687814131e+000
 1.052310640479326e+000	 2.464764579952846e+000	 8.839205950386292e+000
 1.323662698019824e+000	 2.360930133392335e+000	 9.642998679585299e+000
 1.298017287363962e+000	 2.375126385150190e+000	 9.540489756621213e+000
 1.272259808761648e+000	 2.389022676646254e+000	 9.446925373600509e+000
 1.246395395981444e+000	 2.402617945177838e+000	 9.360669731989802e+000
 1.220429187972218e+000	 2.415911242274609e+000	 9.280225052219127e+000
 1.194366325770216e+000	 2.428901733329134e+000	 9.204262028929131e+000
 1.168211949435054e+000	 2.441588697129901e+000	 9.131646916053317e+000
 1.141971195018111e+000	 2.453971525298550e+000	 9.061465052126691e+000
 1.115649191566700e+000	 2.466049721633156e+000	 8.993040670162069e+000
 1.089251058167239e+000	 2.477822901359597e+000	 8.925952870926047e+000
 1.062781901030611e+000	 2.489290790293080e+000	 8.860047673176769e+000
 1.336704336174856e+000	 2.384191645981290e+000	 9.666038577374930e+000
 1.310806249239370e+000	 2.398527769006154e+000	 9.556816983001049e+000
 1.284794990186778e+000	 2.412560976353672e+000	 9.458909939490130e+000
 1.258675743367047e+000	 2.426290194850694e+000	 9.370393651947063e+000
 1.232453698361500e+000	 2.439714466681910e+000	 9.289283034872959e+000
 1.206134046859400e+000	 2.452832949016774e+000	 9.213789956929524e+000
 1.179721979563755e+000	 2.465644913537913e+000	 9.142353293463133e+000
 1.153222683129849e+000	 2.478149745872810e+000	 9.073665124311356e+000
 1.126641337139889e+000	 2.490346944930636e+000	 9.006692908398994e+000
 1.099983111117046e+000	 2.502236122146217e+000	 8.940697503516478e+000
 1.073253161582096e+000	 2.513817000633315e+000	 8.875246936821077e+000
 1.349745974330221e+000	 2.407453158570164e+000	 9.686723370257861e+000
 1.323595211115106e+000	 2.421929152862056e+000	 9.574788347984553e+000
 1.297330171612221e+000	 2.436099276061050e+000	 9.471779681598278e+000
 1.270956090752944e+000	 2.449962444523522e+000	 9.380482207420808e+000
 1.244478208751050e+000	 2.463517691089195e+000	 9.298362987220354e+000
 1.217901767948820e+000	 2.476764164704405e+000	 9.223116832684429e+000
 1.191232009692661e+000	 2.489701129945918e+000	 9.152699570742328e+000
 1.164474171241759e+000	 2.502327966447070e+000	 9.085357141013375e+000
 1.137633482713217e+000	 2.514644168228116e+000	 9.019650343206571e+000
 1.110715164066960e+000	 2.526649342932837e+000	 8.954475091706920e+000
 1.083724422133662e+000	 2.538343210973550e+000	 8.889078074283077e+000
 1.362787612485953e+000	 2.430714671158838e+000	 9.704370527171154e+000
 1.336384172991191e+000	 2.445330536717780e+000	 9.596434245502895e+000
 1.309865353037983e+000	 2.459637575768267e+000	 9.488014384163048e+000
 1.283236438139122e+000	 2.473634694196211e+000	 9.393657644355459e+000
 1.256502719140836e+000	 2.487320915496360e+000	 9.310422401046672e+000
 1.229669489038429e+000	 2.500695380391936e+000	 9.235427764803491e+000
 1.202742039821704e+000	 2.513757346353843e+000	 9.166090518902543e+000
 1.175725659353757e+000	 2.526506187021271e+000	 9.100157350466121e+000
 1.148625628286586e+000	 2.538941391525559e+000	 9.035732384984781e+000
 1.121447217016874e+000	 2.551062563719440e+000	 8.971299869561170e+000
 1.094195682685192e+000	 2.562869421313786e+000	 8.905741892599298e+000
 1.375829250642081e+000	 2.453976183747196e+000	 9.719877334149940e+000
 1.349173134867645e+000	 2.468731920573207e+000	 9.618811762070534e+000
 1.322400534464071e+000	 2.483175875475210e+000	 9.509859220133302e+000
 1.295516785525570e+000	 2.497306943868649e+000	 9.412428386203750e+000
 1.268527229530830e+000	 2.511124139903305e+000	 9.328225340864753e+000
 1.241437210128177e+000	 2.524626596079280e+000	 9.253734314813965e+000
 1.214252069950818e+000	 2.537813562761620e+000	 9.185776608907824e+000
 1.186977147465758e+000	 2.550684407595357e+000	 9.121546200231693e+000
 1.159617773859896e+000	 2.563238614822923e+000	 9.058640284579450e+000
 1.132179269966677e+000	 2.575475784506003e+000	 8.995084588009370e+000
 1.104666943236571e+000	 2.587395631654025e+000	 8.929353325358051e+000
 1.388870888798642e+000	 2.477237696335122e+000	 9.734022364704911e+000
 1.361962096744488e+000	 2.492133304428215e+000	 9.640948580361107e+000
 1.334935715890488e+000	 2.506714175181758e+000	 9.539245569694291e+000
 1.307797132912276e+000	 2.520979193540728e+000	 9.439070865703330e+000
 1.280551739921000e+000	 2.534927364309929e+000	 9.354325084248007e+000
 1.253204931218015e+000	 2.548557811766348e+000	 9.280857951501345e+000
 1.225762100079934e+000	 2.561869779169168e+000	 9.214838286181353e+000
 1.198228635577678e+000	 2.574862628169270e+000	 9.152853438758109e+000
 1.170609919433050e+000	 2.587535838120172e+000	 9.091943069522475e+000
 1.142911322916260e+000	 2.599889005292512e+000	 9.029627294172697e+000
 1.115138203787681e+000	 2.611921841994268e+000	 8.963929064304807e+000
 1.401912526955667e+000	 2.500499208922499e+000	 9.747468549828557e+000
 1.374751058621742e+000	 2.515534688282688e+000	 9.663647893252293e+000
 1.347470897317242e+000	 2.530252474887798e+000	 9.573414343079680e+000
 1.320077480299228e+000	 2.544651443212336e+000	 9.475611393390709e+000
 1.292576250311316e+000	 2.558730588716131e+000	 9.391046792792380e+000
 1.264972652307893e+000	 2.572489027453051e+000	 9.319413529322548e+000
 1.237272130208986e+000	 2.585925995576417e+000	 9.256170262062300e+000
 1.209480123689433e+000	 2.599040848742956e+000	 9.197243226082604e+000
 1.181602065005949e+000	 2.611833061417270e+000	 9.139063480815430e+000
 1.153643375865511e+000	 2.624302226078947e+000	 9.078598101716020e+000
 1.125609464338406e+000	 2.636448052334516e+000	 9.013375171433546e+000
 1.020896858827830e+000	 2.391185948932115e+000	 8.699238468076231e+000
 9.954037084134920e-001	 2.401910049395444e+000	 8.627222755451218e+000
 9.698520796365818e-001	 2.412340592915415e+000	 8.557440704441220e+000
 9.442468273696867e-001	 2.422477631056949e+000	 8.488888200643208e+000
 9.185927833090082e-001	 2.432321317635803e+000	 8.420722545846896e+000
 8.928947534162468e-001	 2.441871907512629e+000	 8.352248161377158e+000
 8.671575154167843e-001	 2.451129755315018e+000	 8.282909278772765e+000
 8.413858163563170e-001	 2.460095314090223e+000	 8.212280027010001e+000
 8.155843702179720e-001	 2.468769133891297e+000	 8.140052043573601e+000
 7.897578556018043e-001	 2.477151860299458e+000	 8.066019755516187e+000
 7.639109134684247e-001	 2.485244232885506e+000	 7.990063493843554e+000
 1.031368119377818e+000	 2.415712159272363e+000	 8.763204093008156e+000
 1.005613487680731e+000	 2.426546256009037e+000	 8.694528140935166e+000
 9.797997778129447e-001	 2.437083784811378e+000	 8.627700812227678e+000
 9.539318944431129e-001	 2.447324797773200e+000	 8.561725603799424e+000
 9.280147188257829e-001	 2.457269450287938e+000	 8.495796992633888e+000
 9.020531062170464e-001	 2.466917999830329e+000	 8.429286934817762e+000
 8.760518833470560e-001	 2.476270804665348e+000	 8.361737105651875e+000
 8.500158459516012e-001	 2.485328322487115e+000	 8.292848294470195e+000
 8.239497563647820e-001	 2.494091108990540e+000	 8.222467089996746e+000
 7.978583411747026e-001	 2.502559816378510e+000	 8.150570012365252e+000
 7.717462889439609e-001	 2.510735191807548e+000	 8.077245266473549e+000
 1.041839379928356e+000	 2.440238369612607e+000	 8.808386234735997e+000
 1.015823266948505e+000	 2.451182462622545e+000	 8.741920108245779e+000
 9.897474759898185e-001	 2.461826976707176e+000	 8.676788138211245e+000
 9.636169615170168e-001	 2.472171964489210e+000	 8.612064272825675e+000
 9.374366543429982e-001	 2.482217582939757e+000	 8.547002247898650e+000
 9.112114590182460e-001	 2.491964092147640e+000	 8.481075808512854e+000
 8.849462512776898e-001	 2.501411854015221e+000	 8.413959858581597e+000
 8.586458755472132e-001	 2.510561330883490e+000	 8.345519108697960e+000
 8.323151425118923e-001	 2.519413084089207e+000	 8.275793768287189e+000
 8.059588267478868e-001	 2.527967772456936e+000	 8.204982448677017e+000
 7.795816644197812e-001	 2.536226150728919e+000	 8.133422463673524e+000
 1.052310640479326e+000	 2.464764579952846e+000	 8.839205950386292e+000
 1.026033046216697e+000	 2.475818669235988e+000	 8.773915462755804e+000
 9.996951741670866e-001	 2.486570168602849e+000	 8.709332799342057e+000
 9.733020285912875e-001	 2.497019131205038e+000	 8.644597129370641e+000
 9.468585898605494e-001	 2.507165715591338e+000	 8.579064827558460e+000
 9.203698118197512e-001	 2.517010184464658e+000	 8.512344816308975e+000
 8.938406192086004e-001	 2.526552903364751e+000	 8.444280290557371e+000
 8.672759051430791e-001	 2.535794339279474e+000	 8.374936564620063e+000
 8.406805286592407e-001	 2.544735059187440e+000	 8.304585703485346e+000
 8.140593123213008e-001	 2.553375728534892e+000	 8.233688116170157e+000
 7.874170398958365e-001	 2.561717109649788e+000	 8.162871310241181e+000
 1.062781901030611e+000	 2.489290790293080e+000	 8.860047673176769e+000
 1.036242825485187e+000	 2.500454875849389e+000	 8.795039768156604e+000
 1.009642872344632e+000	 2.511313360498441e+000	 8.729950581570982e+000
 9.829870956658121e-001	 2.521866297920744e+000	 8.664013369723659e+000
 9.562805253783321e-001	 2.532113848242760e+000	 8.596717750875266e+000
 9.295281646214674e-001	 2.542056276781485e+000	 8.527840339001084e+000
 9.027349871397038e-001	 2.551693952714053e+000	 8.457426955564278e+000
 8.759059347391242e-001	 2.561027347675200e+000	 8.385779621905741e+000
 8.490459148067616e-001	 2.570057034285387e+000	 8.313440061862748e+000
 8.221597978948889e-001	 2.578783684612533e+000	 8.241169903784872e+000
 7.952524153720766e-001	 2.587208068570322e+000	 8.169927794178092e+000
 1.073253161582096e+000	 2.513817000633315e+000	 8.875246936821077e+000
 1.046452604753855e+000	 2.525091082462769e+000	 8.809770158240498e+000
 1.019590570522337e+000	 2.536056552393992e+000	 8.743242795572174e+000
 9.926721627404798e-001	 2.546713464636391e+000	 8.674988783008452e+000
 9.657024608962423e-001	 2.557061980894103e+000	 8.604691656441711e+000
 9.386865174232991e-001	 2.567102369098211e+000	 8.532316980968771e+000
 9.116293550709155e-001	 2.576835002063241e+000	 8.458146806627333e+000
 8.845359643352754e-001	 2.586260356070796e+000	 8.382755383198056e+000
 8.574113009543914e-001	 2.595379009383189e+000	 8.306991466201781e+000
 8.302602834685960e-001	 2.604191640690019e+000	 8.231957045085203e+000
 8.030877908484519e-001	 2.612699027490689e+000	 8.158982719593912e+000
 1.083724422133662e+000	 2.538343210973550e+000	 8.889078074283077e+000
 1.056662384022583e+000	 2.549727289076148e+000	 8.822535663780997e+000
 1.029538268700084e+000	 2.560799744289543e+000	 8.753743063342380e+000
 1.002357229815177e+000	 2.571560631352037e+000	 8.682176004886552e+000
 9.751243964141757e-001	 2.582010113545447e+000	 8.607705843120238e+000
 9.478448702251516e-001	 2.592148461414938e+000	 8.530529362524954e+000
 9.205237230021511e-001	 2.601976051412428e+000	 8.451197701721330e+000
 8.931659939314584e-001	 2.611493364466390e+000	 8.370592273809226e+000
 8.657766871020662e-001	 2.620700984480991e+000	 8.289905807673387e+000
 8.383607690423656e-001	 2.629599596767504e+000	 8.210619518983091e+000
 8.109231663249130e-001	 2.638189986411056e+000	 8.134476651309827e+000
 1.094195682685192e+000	 2.562869421313786e+000	 8.905741892599297e+000
 1.066872163291252e+000	 2.574363495689549e+000	 8.837705755867981e+000
 1.039485966877756e+000	 2.585542936185134e+000	 8.765972484989108e+000
 1.012042296889793e+000	 2.596407798067745e+000	 8.690206060483924e+000
 9.845463319320278e-001	 2.606958246196870e+000	 8.610459240962058e+000
 9.570032230269305e-001	 2.617194553731764e+000	 8.527223833623667e+000
 9.294180909333261e-001	 2.627117100761730e+000	 8.441340823714342e+000
 9.017960235275987e-001	 2.636726372862115e+000	 8.354033129484421e+000
 8.741420732497214e-001	 2.646022959578938e+000	 8.266873961239341e+000
 8.464612546161421e-001	 2.655007552845147e+000	 8.181762350929025e+000
 8.187585418014102e-001	 2.663680945331590e+000	 8.100894758418081e+000
 1.104666943236571e+000	 2.587395631654025e+000	 8.929353325358052e+000
 1.077081942559741e+000	 2.598999702302993e+000	 8.859578854651499e+000
 1.049433665055237e+000	 2.610286128080809e+000	 8.784383872553383e+000
 1.021727363964214e+000	 2.621254964783572e+000	 8.703631819714083e+000
 9.939682674496941e-001	 2.631906378848451e+000	 8.617621316752176e+000
 9.661615758285405e-001	 2.642240646048783e+000	 8.527130114144759e+000
 9.383124588643562e-001	 2.652258150111261e+000	 8.433333020047119e+000
 9.104260531236235e-001	 2.661959381258100e+000	 8.337828198331490e+000
 8.825074593972930e-001	 2.671344934677172e+000	 8.243337877898478e+000
 8.545617401898695e-001	 2.680415508923102e+000	 8.156405243061279e+000
 8.265939172778938e-001	 2.689171904252460e+000	 8.079752449199379e+000
 1.115138203787681e+000	 2.611921841994268e+000	 8.963929064304807e+000
 1.087291721827932e+000	 2.623635908916500e+000	 8.892370805769293e+000
 1.059381363232407e+000	 2.635029319976607e+000	 8.813362639928020e+000
 1.031412431038330e+000	 2.646102131499581e+000	 8.726990107548913e+000
 1.003390202967071e+000	 2.656854511500270e+000	 8.633822918478318e+000
 9.753199286298868e-001	 2.667286738366093e+000	 8.534963826624795e+000
 9.472068267951563e-001	 2.677399199461133e+000	 8.435656829385637e+000
 9.190560827194577e-001	 2.687192389654475e+000	 8.340694025013240e+000
 8.908728455447166e-001	 2.696666909775838e+000	 8.252020319203391e+000
 8.626622257634922e-001	 2.705823465001527e+000	 8.171689622832480e+000
 8.344292927543137e-001	 2.714662863173830e+000	 8.101833748874640e+000
 1.125609464338406e+000	 2.636448052334516e+000	 9.013375171433548e+000
 1.097501501095708e+000	 2.648272115530094e+000	 8.940203326563353e+000
 1.069329061409152e+000	 2.659772511872570e+000	 8.857216057681496e+000
 1.041097498112028e+000	 2.670949298215834e+000	 8.765263568629813e+000
 1.012812138484053e+000	 2.681802644152406e+000	 8.670521988489304e+000
 9.844782814308749e-001	 2.692332830683794e+000	 8.575845493203850e+000
 9.561011947256430e-001	 2.702540248811464e+000	 8.483032388493923e+000
 9.276861123150281e-001	 2.712425398051369e+000	 8.394028818062260e+000
 8.992382316919289e-001	 2.721988884875083e+000	 8.310939099022789e+000
 8.707627113369547e-001	 2.731231421080581e+000	 8.235980647498810e+000
 8.422646682306207e-001	 2.740153822095873e+000	 8.171452867322214e+000
 7.639109134684247e-001	 2.485244232885506e+000	 7.990063493843554e+000
 7.380481445792873e-001	 2.493047082992633e+000	 7.913630760746178e+000
 7.121741063034353e-001	 2.500561330227558e+000	 7.838390081092560e+000
 6.862933117354153e-001	 2.507787982628420e+000	 7.764625420525179e+000
 6.604102280884718e-001	 2.514728135537550e+000	 7.692939609301600e+000
 6.345292747799888e-001	 2.521382969806464e+000	 7.629609553456170e+000
 6.086548215885872e-001	 2.527753749957561e+000	 7.573676873484359e+000
 5.827911868836834e-001	 2.533841822305532e+000	 7.521115043997604e+000
 5.569426359281881e-001	 2.539648613041488e+000	 7.468327026357300e+000
 5.311133792549037e-001	 2.545175626282792e+000	 7.412080983486668e+000
 5.053075711170251e-001	 2.550424442091569e+000	 7.349435909445976e+000
 7.717462889439609e-001	 2.510735191807548e+000	 8.077245266473549e+000
 7.456182476236746e-001	 2.518618075147865e+000	 8.004095974622821e+000
 7.194788213274722e-001	 2.526209395438529e+000	 7.932259769681980e+000
 6.933325694403606e-001	 2.533510171057052e+000	 7.861234755313809e+000
 6.671840049954464e-001	 2.540521508580616e+000	 7.790547022328156e+000
 6.410375927397362e-001	 2.547244600972648e+000	 7.724699394843249e+000
 6.148977472723328e-001	 2.553680725725668e+000	 7.665840576087052e+000
 5.887688312558331e-001	 2.559831242963416e+000	 7.609763715174498e+000
 5.626551537016211e-001	 2.565697593505348e+000	 7.552798659451931e+000
 5.365609683296077e-001	 2.571281296896450e+000	 7.491738840472051e+000
 5.104904720028426e-001	 2.576583949405427e+000	 7.423755268247973e+000
 7.795816644197812e-001	 2.536226150728919e+000	 8.133422463673524e+000
 7.531883506683611e-001	 2.544189067302395e+000	 8.062823679704046e+000
 7.267835363518351e-001	 2.551857460648769e+000	 7.993808078722871e+000
 7.003718271456699e-001	 2.559232359484935e+000	 7.925227006419930e+000
 6.739577819028284e-001	 2.566314881622927e+000	 7.855983866796829e+000
 6.475459106999372e-001	 2.573106232138085e+000	 7.788066450380951e+000
 6.211406729565766e-001	 2.579607701493043e+000	 7.726796360242269e+000
 5.947464756285221e-001	 2.585820663620601e+000	 7.668502199192778e+000
 5.683676714756254e-001	 2.591746573968552e+000	 7.609680136460187e+000
 5.420085574049048e-001	 2.597386967509508e+000	 7.547395578782361e+000
 5.156733728892596e-001	 2.602743456718761e+000	 7.479184374537025e+000
 7.874170398958365e-001	 2.561717109649788e+000	 8.162871310241181e+000
 7.607584537132998e-001	 2.569760059456395e+000	 8.093918804325483e+000
 7.340882513764792e-001	 2.577505525858459e+000	 8.026966166254132e+000
 7.074110848512961e-001	 2.584954547912257e+000	 7.960354458994282e+000
 6.807315588105687e-001	 2.592108254664673e+000	 7.892501887074132e+000
 6.540542286605390e-001	 2.598967863302960e+000	 7.823323641894558e+000
 6.273835986412624e-001	 2.605534677259869e+000	 7.759966489213163e+000
 6.007241200016894e-001	 2.611810084277258e+000	 7.700486235842979e+000
 5.740801892501380e-001	 2.617795554431263e+000	 7.641788917949783e+000
 5.474561464807286e-001	 2.623492638122118e+000	 7.581463334477560e+000
 5.208562737762096e-001	 2.628902964031701e+000	 7.517668259250058e+000
 7.952524153720766e-001	 2.587208068570322e+000	 8.169927794178092e+000
 7.683285567584447e-001	 2.595331051610042e+000	 8.101552987683098e+000
 7.413929664013588e-001	 2.603153591067784e+000	 8.035737341668348e+000
 7.144503425571933e-001	 2.610676736339205e+000	 7.970445618014746e+000
 6.875053357186182e-001	 2.617901627706041e+000	 7.903745949949191e+000
 6.605625466214887e-001	 2.624829494467460e+000	 7.834144862679233e+000
 6.336265243263337e-001	 2.631461653026330e+000	 7.768864364497692e+000
 6.067017643752751e-001	 2.637799504933566e+000	 7.708987733275407e+000
 5.797927070250946e-001	 2.643844534893646e+000	 7.652078865421592e+000
 5.529037355570139e-001	 2.649598308734429e+000	 7.596506438426654e+000
 5.260391746636258e-001	 2.655062471344380e+000	 7.541315880414854e+000
 8.030877908484519e-001	 2.612699027490689e+000	 8.158982719593912e+000
 7.758986598037490e-001	 2.620902043763512e+000	 8.089960160390490e+000
 7.486976814264280e-001	 2.628801656276926e+000	 8.024193181253942e+000
 7.214896002633143e-001	 2.636398924765966e+000	 7.959401859207505e+000
 6.942791126269274e-001	 2.643695000747222e+000	 7.893437156885140e+000
 6.670708645827340e-001	 2.650691125631771e+000	 7.824249231320836e+000
 6.398694500117332e-001	 2.657388628792607e+000	 7.757082063528300e+000
 6.126794087492188e-001	 2.663788925589698e+000	 7.697384032693287e+000
 5.855052248004320e-001	 2.669893515355864e+000	 7.643773135320153e+000
 5.583513246336941e-001	 2.675703979346590e+000	 7.595936869547534e+000
 5.312220755514417e-001	 2.681221978656926e+000	 7.552895456015881e+000
 8.109231663249130e-001	 2.638189986411056e+000	 8.134476651309827e+000
 7.834687628491668e-001	 2.646473035916982e+000	 8.063432015074479e+000
 7.560023964516420e-001	 2.654449721486068e+000	 7.996469530585037e+000
 7.285288579696130e-001	 2.662121113192726e+000	 7.931193962476971e+000
 7.010528895354476e-001	 2.669488373788401e+000	 7.865587775099344e+000
 6.735791825442224e-001	 2.676552756796084e+000	 7.799373593831351e+000
 6.461123756974059e-001	 2.683315604558885e+000	 7.734551262557305e+000
 6.186570531234599e-001	 2.689778346245831e+000	 7.679411029227119e+000
 5.912177425760863e-001	 2.695942495818081e+000	 7.632550689732605e+000
 5.637989137107039e-001	 2.701809649958751e+000	 7.592861555363789e+000
 5.364049764395906e-001	 2.707381485969473e+000	 7.559855744150362e+000
 8.187585418014102e-001	 2.663680945331590e+000	 8.100894758418081e+000
 7.910388658946517e-001	 2.672044028070630e+000	 8.027254347359495e+000
 7.633071114769551e-001	 2.680097786695394e+000	 7.962481177431561e+000
 7.355681156760424e-001	 2.687843301619675e+000	 7.903446394293268e+000
 7.078266664441294e-001	 2.695281746829770e+000	 7.846715973373487e+000
 6.800875005059012e-001	 2.702414387960583e+000	 7.788844328358669e+000
 6.523553013832940e-001	 2.709242580325346e+000	 7.728684950001111e+000
 6.246346974979380e-001	 2.715767766902138e+000	 7.676465189095877e+000
 5.969302603519940e-001	 2.721991476280464e+000	 7.632950925538772e+000
 5.692465027879767e-001	 2.727915320571062e+000	 7.597736200212546e+000
 5.415878773280060e-001	 2.733540993282151e+000	 7.571039504534414e+000
 8.265939172778938e-001	 2.689171904252460e+000	 8.079752449199379e+000
 7.986089689401570e-001	 2.697615020224630e+000	 8.014564144812612e+000
 7.706118265023212e-001	 2.705745851905084e+000	 7.958208903245242e+000
 7.426073733825566e-001	 2.713565490046997e+000	 7.906984469500859e+000
 7.146004433529239e-001	 2.721075119871516e+000	 7.857204724646636e+000
 6.865958184677173e-001	 2.728276019125458e+000	 7.805187681666865e+000
 6.585982270693412e-001	 2.735169556092173e+000	 7.748015496729648e+000
 6.306123418725927e-001	 2.741757187558796e+000	 7.695787327829626e+000
 6.026427781280914e-001	 2.748040456743174e+000	 7.652507072614467e+000
 5.746940918654472e-001	 2.754020991183672e+000	 7.618528265657006e+000
 5.467707782166210e-001	 2.759700500595091e+000	 7.594826751828699e+000
 8.344292927543137e-001	 2.714662863173830e+000	 8.101833748874640e+000
 8.061790719856369e-001	 2.723186012379159e+000	 8.043412992225077e+000
 7.779165415276959e-001	 2.731393917115324e+000	 7.993323714643828e+000
 7.496466310891083e-001	 2.739287678474881e+000	 7.947672030662778e+000
 7.213742202617817e-001	 2.746868492913827e+000	 7.902593307997700e+000
 6.931041364296190e-001	 2.754137650290895e+000	 7.854241611527421e+000
 6.648411527554916e-001	 2.761096531859548e+000	 7.798822366824065e+000
 6.365899862473644e-001	 2.767746608215980e+000	 7.744104088850120e+000
 6.083552959043146e-001	 2.774089437206379e+000	 7.698391690789161e+000
 5.801416809430494e-001	 2.780126661796730e+000	 7.662846669076503e+000
 5.519536791053693e-001	 2.785860007908425e+000	 7.639244538122270e+000
 8.422646682306207e-001	 2.740153822095873e+000	 8.171452867322214e+000
 8.137491750310451e-001	 2.748757004534392e+000	 8.118110205627263e+000
 7.852212565530335e-001	 2.757041982326296e+000	 8.072443409446125e+000
 7.566858887956514e-001	 2.765009866903514e+000	 8.030437835680429e+000
 7.281479971706540e-001	 2.772661865956894e+000	 7.988120010228364e+000
 6.996124543915533e-001	 2.779999281457081e+000	 7.941548521161487e+000
 6.710840784416883e-001	 2.787023507627656e+000	 7.886806549136239e+000
 6.425676306221918e-001	 2.793736028873866e+000	 7.827795077426730e+000
 6.140678136806004e-001	 2.800138417670240e+000	 7.777427599991635e+000
 5.855892700207175e-001	 2.806232332410390e+000	 7.737951574369047e+000
 5.571365799941845e-001	 2.812019515222284e+000	 7.711975689559298e+000
 5.053075711170251e-001	 2.550424442091569e+000	 7.349435909445979e+000
 4.795331713038518e-001	 2.555395989676932e+000	 7.281475251973300e+000
 4.537903379149098e-001	 2.560092804066504e+000	 7.211349650089828e+000
 4.280830402778991e-001	 2.564516682315065e+000	 7.139356108433750e+000
 4.024151861583350e-001	 2.568669489165140e+000	 7.065626623841416e+000
 3.767906205842475e-001	 2.572553154955150e+000	 6.990023608109376e+000
 3.512131247447561e-001	 2.576169673513514e+000	 6.912034662691371e+000
 3.256864149621451e-001	 2.579521100041421e+000	 6.830668100549144e+000
 3.002141417369426e-001	 2.582609548986935e+000	 6.744350545175609e+000
 2.747998888654161e-001	 2.585437191913076e+000	 6.650827863878837e+000
 2.494471726288109e-001	 2.588006255362404e+000	 6.547070612697064e+000
 5.104904720028426e-001	 2.576583949405427e+000	 7.423755268247973e+000
 4.844517061535697e-001	 2.581606489772226e+000	 7.349526853023883e+000
 4.584448305029267e-001	 2.586351479026043e+000	 7.271728957997007e+000
 4.324738550916993e-001	 2.590820732653894e+000	 7.190754259560067e+000
 4.065427277670497e-001	 2.595016134524814e+000	 7.106859351136911e+000
 3.806553329951613e-001	 2.598939634776542e+000	 7.020047024999879e+000
 3.548154907485164e-001	 2.602593247688027e+000	 6.929947875703167e+000
 3.290269554674278e-001	 2.605979049540489e+000	 6.835702729802237e+000
 3.032934150953240e-001	 2.609099176469709e+000	 6.735847336512589e+000
 2.776184901871918e-001	 2.611955822312248e+000	 6.628200675685195e+000
 2.520057330904998e-001	 2.614551236448130e+000	 6.509758153949441e+000
 5.156733728892596e-001	 2.602743456718761e+000	 7.479184374537025e+000
 4.893702410038772e-001	 2.607816989867085e+000	 7.405446237663115e+000
 4.630993230915090e-001	 2.612610153985244e+000	 7.328441801767508e+000
 4.368646699060309e-001	 2.617124782992494e+000	 7.248819092991607e+000
 4.106702693762561e-001	 2.621362779884366e+000	 7.167121914441442e+000
 3.845200454065251e-001	 2.625326114597917e+000	 7.083657903373407e+000
 3.584178567526873e-001	 2.629016821862626e+000	 6.998365881020194e+000
 3.323674959730879e-001	 2.632436999039727e+000	 6.910684115641376e+000
 3.063726884540590e-001	 2.635588803952722e+000	 6.819421044274991e+000
 2.804370915093106e-001	 2.638474452711707e+000	 6.722629914742227e+000
 2.545642935525385e-001	 2.641096217534166e+000	 6.617488717798639e+000
 5.208562737762096e-001	 2.628902964031701e+000	 7.517668259250058e+000
 4.942887758547083e-001	 2.634027489961617e+000	 7.450657406588724e+000
 4.677538156805934e-001	 2.638868828944194e+000	 7.382347494340279e+000
 4.412554847208340e-001	 2.643428833330921e+000	 7.313811335956818e+000
 4.147978109858974e-001	 2.647709425243827e+000	 7.246052629577445e+000
 3.883847578182855e-001	 2.651712594419279e+000	 7.179858652564298e+000
 3.620202227572169e-001	 2.655440396037277e+000	 7.115652220976445e+000
 3.357080364790732e-001	 2.658894948539082e+000	 7.053344657216237e+000
 3.094519618130930e-001	 2.662078431435898e+000	 6.992191428598718e+000
 2.832556928317134e-001	 2.664993083111359e+000	 6.930652029707914e+000
 2.571228540148597e-001	 2.667641198620404e+000	 6.866117947867152e+000
 5.260391746636258e-001	 2.655062471344380e+000	 7.541315880414850e+000
 4.992073107059977e-001	 2.660237990055931e+000	 7.486756272165182e+000
 4.724083082701172e-001	 2.665127503902978e+000	 7.434481745930207e+000
 4.456462995360489e-001	 2.669732883669232e+000	 7.385926031279162e+000
 4.189253525959176e-001	 2.674056070603222e+000	 7.341379964171968e+000
 3.922494702303885e-001	 2.678099074240623e+000	 7.301018083379396e+000
 3.656225887620537e-001	 2.681863970211957e+000	 7.264684242753406e+000
 3.390485769853320e-001	 2.685352898038498e+000	 7.231737808913358e+000
 3.125312351723726e-001	 2.688568058919159e+000	 7.200946009326262e+000
 2.860742941543414e-001	 2.691511713511108e+000	 7.170382213243527e+000
 2.596814144773963e-001	 2.694186179706736e+000	 7.137329443980031e+000
 5.312220755514417e-001	 2.681221978656926e+000	 7.552895456015882e+000
 5.041258455576798e-001	 2.686448490150136e+000	 7.513516783303086e+000
 4.770628008600168e-001	 2.691386178861674e+000	 7.477578261371261e+000
 4.500371143516156e-001	 2.696036934007483e+000	 7.445693451661291e+000
 4.230528942062600e-001	 2.700402715962583e+000	 7.418380355164908e+000
 3.961141826427810e-001	 2.704485554061952e+000	 7.395935470182947e+000
 3.692249547671452e-001	 2.708287544386637e+000	 7.378316189124885e+000
 3.423891174918126e-001	 2.711810847537922e+000	 7.365030685226589e+000
 3.156105085318437e-001	 2.715057686402432e+000	 7.355034458533223e+000
 2.888928954771354e-001	 2.718030343910860e+000	 7.346632736815121e+000
 2.622399749400806e-001	 2.720731160793048e+000	 7.337387960456968e+000
 5.364049764395906e-001	 2.707381485969473e+000	 7.559855744150360e+000
 5.090443804096894e-001	 2.712658990244341e+000	 7.531828125882950e+000
 4.817172934502299e-001	 2.717644853820371e+000	 7.507538188054039e+000
 4.544279291674744e-001	 2.722340984345731e+000	 7.487595306584941e+000
 4.271804358168682e-001	 2.726749361321934e+000	 7.472534777664035e+000
 3.999788950554091e-001	 2.730872033883266e+000	 7.462696558757864e+000
 3.728273207724401e-001	 2.734711118561287e+000	 7.458112504666213e+000
 3.457296579984633e-001	 2.738268797037303e+000	 7.458401163296794e+000
 3.186897818914524e-001	 2.741547313885638e+000	 7.462669217845108e+000
 2.917114968000368e-001	 2.744548974310516e+000	 7.469418692431151e+000
 2.647985354028455e-001	 2.747276141879232e+000	 7.476459076107155e+000
 5.415878773280060e-001	 2.733540993282151e+000	 7.571039504534414e+000
 5.139629152619605e-001	 2.738869490338654e+000	 7.550515878867094e+000
 4.863717860406928e-001	 2.743903528779151e+000	 7.533774119713208e+000
 4.588187439835655e-001	 2.748645034684032e+000	 7.521376207766035e+000
 4.313079774276855e-001	 2.753096006681305e+000	 7.513829855417678e+000
 4.038436074682189e-001	 2.757258513704562e+000	 7.511472683135252e+000
 3.764296867778863e-001	 2.761134692735884e+000	 7.514365048946237e+000
 3.490701985052323e-001	 2.764726746536587e+000	 7.522190503823349e+000
 3.217690552511447e-001	 2.768036941368701e+000	 7.534162871543743e+000
 2.945300981229865e-001	 2.771067604709985e+000	 7.548938986276609e+000
 2.673570958656238e-001	 2.773821122965178e+000	 7.564536163806110e+000
 5.467707782166210e-001	 2.759700500595091e+000	 7.594826751828699e+000
 5.188814501144281e-001	 2.765079990433186e+000	 7.578343691017923e+000
 4.910262786313429e-001	 2.770162203738097e+000	 7.565398772884293e+000
 4.632095587998288e-001	 2.774949085022442e+000	 7.556456646114470e+000
 4.354355190386554e-001	 2.779442652040723e+000	 7.551945634323272e+000
 4.077083198811573e-001	 2.783644993525843e+000	 7.552148145253743e+000
 3.800320527834320e-001	 2.787558266910397e+000	 7.557099893236817e+000
 3.524107390120677e-001	 2.791184696035717e+000	 7.566496809862620e+000
 3.248483286108669e-001	 2.794526568851548e+000	 7.579608547646751e+000
 2.973486994459259e-001	 2.797586235109167e+000	 7.595197520735995e+000
 2.699156563283478e-001	 2.800366104050776e+000	 7.611442474453840e+000
 5.519536791053693e-001	 2.785860007908425e+000	 7.639244538122266e+000
 5.237999849670263e-001	 2.791290490528043e+000	 7.623731067046298e+000
 4.956807712221167e-001	 2.796420878697292e+000	 7.611192478780108e+000
 4.676003736162050e-001	 2.801253135361017e+000	 7.601939145340788e+000
 4.395630606497217e-001	 2.805789297400218e+000	 7.596260978732536e+000
 4.115730322941702e-001	 2.810031473347105e+000	 7.594324917277882e+000
 3.836344187890254e-001	 2.813981841084797e+000	 7.596081387452626e+000
 3.557512795189180e-001	 2.817642645534646e+000	 7.601178512143504e+000
 3.279276019705646e-001	 2.821016196334099e+000	 7.608882870374038e+000
 3.001673007687956e-001	 2.824104865507973e+000	 7.618005657700138e+000
 2.724742167909505e-001	 2.826911085135917e+000	 7.626833149633553e+000
 5.571365799941845e-001	 2.812019515222284e+000	 7.711975689559300e+000
 5.287185198196900e-001	 2.817500990623337e+000	 7.694761130299941e+000
 5.003352638129517e-001	 2.822679553656821e+000	 7.679610049464597e+000
 4.719911884326337e-001	 2.827557185699814e+000	 7.666614304906563e+000
 4.436906022608280e-001	 2.832135942759818e+000	 7.655858860126169e+000
 4.154377447072045e-001	 2.836417953168350e+000	 7.647327240403267e+000
 3.872367847946145e-001	 2.840405415259060e+000	 7.640816128787907e+000
 3.590918200257314e-001	 2.844100595033316e+000	 7.635857762376985e+000
 3.310068753301844e-001	 2.847505823816278e+000	 7.631648827987076e+000
 3.029859020915368e-001	 2.850623495906301e+000	 7.626984605694283e+000
 2.750327772533645e-001	 2.853456066220491e+000	 7.620197167611753e+000
 2.494471726288109e-001	 2.588006255362404e+000	 6.547070612697067e+000
 2.241556613584017e-001	 2.590319346644739e+000	 6.436087128258247e+000
 1.989325871316730e-001	 2.592378392617928e+000	 6.324743825315890e+000
 1.737813118221734e-001	 2.594185773617187e+000	 6.214236272170989e+000
 1.487051256341049e-001	 2.595743916486777e+000	 6.104532607742543e+000
 1.237072466452768e-001	 2.597055292441034e+000	 5.994309018280212e+000
 9.879082041758477e-002	 2.598122414936711e+000	 5.880895306141827e+000
 7.395891967371854e-002	 2.598947837558706e+000	 5.760231059830057e+000
 4.921454403874689e-002	 2.599534151921171e+000	 5.626832832394219e+000
 2.456061984517374e-002	 2.599883985585925e+000	 5.473772634454375e+000
 0.000000000000000e+000	 2.600000000000000e+000	 5.292667917117211e+000
 2.520057330904998e-001	 2.614551236448130e+000	 6.509758153949445e+000
 2.264548087346185e-001	 2.616888052930142e+000	 6.383349581616450e+000
 2.009730233758899e-001	 2.618968218379762e+000	 6.255987302957507e+000
 1.755637733703354e-001	 2.620794137547128e+000	 6.129256933284070e+000
 1.502303826695234e-001	 2.622368262168459e+000	 6.003412927291532e+000
 1.249761023588341e-001	 2.623693088805149e+000	 5.877304107605739e+000
 9.980411026394451e-002	 2.624771156694291e+000	 5.748310129890920e+000
 7.471751062421959e-002	 2.625605045612707e+000	 5.612289439046936e+000
 4.971933383164673e-002	 2.626197373756539e+000	 5.463539161481140e+000
 2.481253623389227e-002	 2.626550795638311e+000	 5.294767270172145e+000
 0.000000000000000e+000	 2.626668000003317e+000	 5.097077220237281e+000
 2.545642935525385e-001	 2.641096217534166e+000	 6.617488717798639e+000
 2.287539561112106e-001	 2.643456759215848e+000	 6.506764025161638e+000
 2.030134596205190e-001	 2.645558044141875e+000	 6.397599803081842e+000
 1.773462349189482e-001	 2.647402501477304e+000	 6.291942401104633e+000
 1.517556397054234e-001	 2.648992607850319e+000	 6.190299023426615e+000
 1.262449580728870e-001	 2.650330885169382e+000	 6.091652671158780e+000
 1.008174001107880e-001	 2.651419898451923e+000	 5.993388907090567e+000
 7.547610157515765e-002	 2.652262253666700e+000	 5.891235045715378e+000
 5.022412362489306e-002	 2.652860595591853e+000	 5.779212253867927e+000
 2.506445262281448e-002	 2.653217605690610e+000	 5.649600931272190e+000
 0.000000000000000e+000	 2.653336000006534e+000	 5.492919592875713e+000
 2.571228540148597e-001	 2.667641198620404e+000	 6.866117947867156e+000
 2.310531034880990e-001	 2.670025465501747e+000	 6.799817635813210e+000
 2.050538958654675e-001	 2.672147869904146e+000	 6.738378460293267e+000
 1.791286964679059e-001	 2.674010865407591e+000	 6.684002807902556e+000
 1.532808967416889e-001	 2.675616953532234e+000	 6.637534056977920e+000
 1.275138137873141e-001	 2.676968681533611e+000	 6.598366456493408e+000
 1.018306899579956e-001	 2.678068640209493e+000	 6.564357887332808e+000
 7.623469252642391e-002	 2.678919461720579e+000	 6.531745161710841e+000
 5.072891341839939e-002	 2.679523817427006e+000	 6.495061565289888e+000
 2.531636901188944e-002	 2.679884415742720e+000	 6.447056395635306e+000
 0.000000000000000e+000	 2.680004000009550e+000	 6.378616267084164e+000
 2.596814144773963e-001	 2.694186179706736e+000	 7.137329443980031e+000
 2.333522508652044e-001	 2.696594171787714e+000	 7.104289894109827e+000
 2.070943321106425e-001	 2.698737695666449e+000	 7.078464223007128e+000
 1.809111580171025e-001	 2.700619229337863e+000	 7.062593552261092e+000
 1.548061537782039e-001	 2.702241299214085e+000	 7.058112560800287e+000
 1.287826695019940e-001	 2.703606477897717e+000	 7.065061024333774e+000
 1.028439798054475e-001	 2.704717381966886e+000	 7.081997829624052e+000
 7.699328347790971e-002	 2.705576669774232e+000	 7.105917088848770e+000
 5.123370321207928e-002	 2.706187039261896e+000	 7.132166033394955e+000
 2.556828540106627e-002	 2.706551225794539e+000	 7.154364420810366e+000
 0.000000000000000e+000	 2.706672000012267e+000	 7.164325213230988e+000
 2.622399749400806e-001	 2.720731160793048e+000	 7.337387960456971e+000
 2.356513982424475e-001	 2.723162878073632e+000	 7.329837063169919e+000
 2.091347683559512e-001	 2.725327521428659e+000	 7.331212829993008e+000
 1.826936195664324e-001	 2.727227593267997e+000	 7.344624474588422e+000
 1.563314108148519e-001	 2.728865644895742e+000	 7.371934923262336e+000
 1.300515252168052e-001	 2.730244274261580e+000	 7.413674671752516e+000
 1.038572696530242e-001	 2.731366123723988e+000	 7.468957662033885e+000
 7.775187442950630e-002	 2.732233877827550e+000	 7.535398771656429e+000
 5.173849300584624e-002	 2.732850261096415e+000	 7.609032567898577e+000
 2.582020179029408e-002	 2.733218035845966e+000	 7.684233039037875e+000
 0.000000000000000e+000	 2.733340000014584e+000	 7.753634048075285e+000
 2.647985354028455e-001	 2.747276141879232e+000	 7.476459076107160e+000
 2.379505456197491e-001	 2.749731584359379e+000	 7.486297054144821e+000
 2.111752046013010e-001	 2.751917347190656e+000	 7.506036479787916e+000
 1.844760811157895e-001	 2.753835957197865e+000	 7.538982469100057e+000
 1.578566678515173e-001	 2.755489990577085e+000	 7.587261756059225e+000
 1.313203809316262e-001	 2.756882070625080e+000	 7.651739554171041e+000
 1.048705595006058e-001	 2.758014865480682e+000	 7.731937934313284e+000
 7.851046538110504e-002	 2.758891085880423e+000	 7.825955276246031e+000
 5.224328279961380e-002	 2.759513482930462e+000	 7.930386417053959e+000
 2.607211817952194e-002	 2.759884845896900e+000	 8.040243185811589e+000
 0.000000000000000e+000	 2.760008000016400e+000	 8.148875055552683e+000
 2.673570958656238e-001	 2.773821122965178e+000	 7.564536163806105e+000
 2.402496929970300e-001	 2.776300290644838e+000	 7.583360919328706e+000
 2.132156408465988e-001	 2.778507172952312e+000	 7.612225351854312e+000
 1.862585426650682e-001	 2.780444321127342e+000	 7.654456254849473e+000
 1.593819248880836e-001	 2.782114336257992e+000	 7.712277860834554e+000
 1.325892366463357e-001	 2.783519866988098e+000	 7.786732427298450e+000
 1.058838493480728e-001	 2.784663607236856e+000	 7.877601784324038e+000
 7.926905633259714e-002	 2.785548293932743e+000	 7.983329363825641e+000
 5.274807259329551e-002	 2.786176704763929e+000	 8.100942302589905e+000
 2.632403456869898e-002	 2.786551655947240e+000	 8.225973283739613e+000
 0.000000000000000e+000	 2.786676000017617e+000	 8.352381832103594e+000
 2.699156563283478e-001	 2.800366104050776e+000	 7.611442474453845e+000
 2.425488403742109e-001	 2.802868996929889e+000	 7.630574510876300e+000
 2.152560770917520e-001	 2.805096998713504e+000	 7.658948879508344e+000
 1.880410042141624e-001	 2.807052685056305e+000	 7.699737305252567e+000
 1.609071819244348e-001	 2.808738681938335e+000	 7.755092860505037e+000
 1.338580923608121e-001	 2.810157663350514e+000	 7.826075028177571e+000
 1.068971391953055e-001	 2.811312348992394e+000	 7.912575119351077e+000
 8.002764728387389e-002	 2.812205501984400e+000	 8.013241525364407e+000
 5.325286238680489e-002	 2.812839926596714e+000	 8.125404363298051e+000
 2.657595095777430e-002	 2.813218465996884e+000	 8.244999153045734e+000
 0.000000000000000e+000	 2.813344000018133e+000	 8.366489224466889e+000
 2.724742167909505e-001	 2.826911085135917e+000	 7.626833149633553e+000
 2.448479877512127e-001	 2.829437703214412e+000	 7.637340079344566e+000
 2.172965133366677e-001	 2.831686824474107e+000	 7.655256974214085e+000
 1.898234657629665e-001	 2.833661048984628e+000	 7.683420740467477e+000
 1.624324389604548e-001	 2.835363027617995e+000	 7.723741804415237e+000
 1.351269480749341e-001	 2.836795459712210e+000	 7.777134440057167e+000
 1.079104290421841e-001	 2.837961090747182e+000	 7.843446789802784e+000
 8.078623823482663e-002	 2.838862710035284e+000	 7.921390015332065e+000
 5.375765218005548e-002	 2.839503148428710e+000	 8.008466102060877e+000
 2.682786734669698e-002	 2.839885276045730e+000	 8.100893927133292e+000
 0.000000000000000e+000	 2.840012000017850e+000	 8.193533270982517e+000
 2.750327772533645e-001	 2.853456066220491e+000	 7.620197167611753e+000
 2.471471351279563e-001	 2.856006409498290e+000	 7.612917815975025e+000
 2.193369495812531e-001	 2.858276650234000e+000	 7.610081204407504e+000
 1.916059273113746e-001	 2.860269412912185e+000	 7.614006185048608e+000
 1.639576959960275e-001	 2.861987373296846e+000	 7.626185749025337e+000
 1.363958037885802e-001	 2.863433256073065e+000	 7.647223442139977e+000
 1.089237188885891e-001	 2.864609832501104e+000	 7.676768755793242e+000
 8.154482918534663e-002	 2.865519918085287e+000	 7.713450884572072e+000
 5.426244197296083e-002	 2.866166370259814e+000	 7.754810336099498e+000
 2.707978373541613e-002	 2.866552086093679e+000	 7.797227972877681e+000
 0.000000000000000e+000	 2.866680000016666e+000	 7.835851146166071e+000
 2.866680000016666e+000	 0.000000000000000e+000	 1.094989092739814e+001
 2.866552086093679e+000	 2.707978373541622e-002	 1.095892074369767e+001
 2.866166370259814e+000	 5.426244197296101e-002	 1.097087852159158e+001
 2.865519918085286e+000	 8.154482918534640e-002	 1.098399359723648e+001
 2.864609832501105e+000	 1.089237188885890e-001	 1.099695691185009e+001
 2.863433256073065e+000	 1.363958037885802e-001	 1.100890097655368e+001
 2.861987373296846e+000	 1.639576959960276e-001	 1.101938061676816e+001
 2.860269412912185e+000	 1.916059273113747e-001	 1.102835443215249e+001
 2.858276650234000e+000	 2.193369495812528e-001	 1.103616688374517e+001
 2.856006409498290e+000	 2.471471351279561e-001	 1.104353089522299e+001
 2.853456066220490e+000	 2.750327772533643e-001	 1.105151083024304e+001
 2.893344000014533e+000	 0.000000000000000e+000	 1.105279140528928e+001
 2.893214896319162e+000	 2.733166233832871e-002	 1.104840945605393e+001
 2.892825592806659e+000	 5.476715605077943e-002	 1.104679232285613e+001
 2.892173127753058e+000	 8.230330635240593e-002	 1.104651139001976e+001
 2.891254577142689e+000	 1.099368567485596e-001	 1.104655879030516e+001
 2.890067056963325e+000	 1.376644691828235e-001	 1.104632744238272e+001
 2.888607725522634e+000	 1.654827242539523e-001	 1.104559211598326e+001
 2.886873785783859e+000	 1.933881215034428e-001	 1.104449145788597e+001
 2.884862487718648e+000	 2.213770797753011e-001	 1.104351088448660e+001
 2.882571130674752e+000	 2.494459376495117e-001	 1.104346621984552e+001
 2.879997065756335e+000	 2.775909539506485e-001	 1.104548793103679e+001
 2.920008000011599e+000	 0.000000000000000e+000	 1.112590926055042e+001
 2.919877706543843e+000	 2.758354094103635e-002	 1.111315469287123e+001
 2.919484815352702e+000	 5.527187012824735e-002	 1.110246667991350e+001
 2.918826337420027e+000	 8.306178351902126e-002	 1.109279596088643e+001
 2.917899321783473e+000	 1.109499946080370e-001	 1.108347118459017e+001
 2.916700857852796e+000	 1.389331345765616e-001	 1.107417908822857e+001
 2.915228077747647e+000	 1.670077525113894e-001	 1.106494596638999e+001
 2.913478158654786e+000	 1.951703156950627e-001	 1.105612036015190e+001
 2.911448325202586e+000	 2.234172099689541e-001	 1.104835686566704e+001
 2.909135851850560e+000	 2.517447401707311e-001	 1.104260093253489e+001
 2.906538065291594e+000	 2.801491306476535e-001	 1.104007449294111e+001
 2.946672000008066e+000	 0.000000000000000e+000	 1.117027298982533e+001
 2.946540516767922e+000	 2.783541954358862e-002	 1.115371800874857e+001
 2.946144037898134e+000	 5.577658420544583e-002	 1.113805610500745e+001
 2.945479547086380e+000	 8.382026068528942e-002	 1.112265210421223e+001
 2.944544066423636e+000	 1.119631324671209e-001	 1.110720376854228e+001
 2.943334658741643e+000	 1.402017999698862e-001	 1.109172219341709e+001
 2.941848429972040e+000	 1.685327807684142e-001	 1.107651377193856e+001
 2.940082531525107e+000	 1.969525098862874e-001	 1.106216365346544e+001
 2.938034162685941e+000	 2.254573401622396e-001	 1.104952058880084e+001
 2.935700573025822e+000	 2.540435426916158e-001	 1.103968302309260e+001
 2.933079064826362e+000	 2.827073073443561e-001	 1.103398626586646e+001
 2.973336000004133e+000	 0.000000000000000e+000	 1.118674564589090e+001
 2.973203326991598e+000	 2.808729814603502e-002	 1.117050542871079e+001
 2.972803260443157e+000	 5.628129828245599e-002	 1.115356991245101e+001
 2.972132756752305e+000	 8.457873785130762e-002	 1.113575012471090e+001
 2.971188811063356e+000	 1.129762703259114e-001	 1.111714276822148e+001
 2.969968459630034e+000	 1.414704653628895e-001	 1.109811091993974e+001
 2.968468782195969e+000	 1.700578090251025e-001	 1.107926659139677e+001
 2.966686904394960e+000	 1.987347040771702e-001	 1.106145507265249e+001
 2.964620000168841e+000	 2.274974703551854e-001	 1.104574094494650e+001
 2.962265294200649e+000	 2.563423452121671e-001	 1.103339561330558e+001
 2.959620064360733e+000	 2.852654840407330e-001	 1.102588617621011e+001
 3.000000000000000e+000	 0.000000000000000e+000	 1.117603218998507e+001
 2.999866137215068e+000	 2.833917674842506e-002	 1.116377458205347e+001
 2.999462482987958e+000	 5.678601235935887e-002	 1.114887915482407e+001
 2.998785966417990e+000	 8.533721501717292e-002	 1.113163259386283e+001
 2.997833555702814e+000	 1.139894081845084e-001	 1.111255755343277e+001
 2.996602260518139e+000	 1.427391307556632e-001	 1.109239375087062e+001
 2.995089134419591e+000	 1.715828372815295e-001	 1.107208123235650e+001
 2.993291277264493e+000	 2.005168982677645e-001	 1.105274572799350e+001
 2.991205837651412e+000	 2.295376005478191e-001	 1.103568597335434e+001
 2.988830015375152e+000	 2.586411477323863e-001	 1.102236283825812e+001
 2.986161063894799e+000	 2.878236607367614e-001	 1.101439006676077e+001
 3.026663999995867e+000	 0.000000000000000e+000	 1.113868645550409e+001
 3.026528947438530e+000	 2.859105535080819e-002	 1.113364145911526e+001
 3.026121705532733e+000	 5.729072643623559e-002	 1.112372319253130e+001
 3.025439176083625e+000	 8.609569218298241e-002	 1.110972074909465e+001
 3.024478300342188e+000	 1.150025460430116e-001	 1.109260688044204e+001
 3.023236061406126e+000	 1.440077961482992e-001	 1.107351958756047e+001
 3.021709486643062e+000	 1.731078655377712e-001	 1.105374621083350e+001
 3.019895650133845e+000	 2.022990924581237e-001	 1.103470993210330e+001
 3.017791675133779e+000	 2.315777307401684e-001	 1.101795855741962e+001
 3.015394736549442e+000	 2.609399502522750e-001	 1.100515541003569e+001
 3.012702063428655e+000	 2.903818374324178e-001	 1.099807212370017e+001
 3.053327999991933e+000	 0.000000000000000e+000	 1.107511774682541e+001
 3.053191757662185e+000	 2.884293395323394e-002	 1.108008681402798e+001
 3.052780928077679e+000	 5.779544051316723e-002	 1.107771591912912e+001
 3.052092385749396e+000	 8.685416934883318e-002	 1.106932055754667e+001
 3.051123044981657e+000	 1.160156839015211e-001	 1.105634480720535e+001
 3.049869862294164e+000	 1.452764615408896e-001	 1.104034352646440e+001
 3.048329838866539e+000	 1.746328937939028e-001	 1.102296739690019e+001
 3.046500023003159e+000	 2.040812866483011e-001	 1.100595071861588e+001
 3.044377512616071e+000	 2.336178609322612e-001	 1.099110181766546e+001
 3.041959457723628e+000	 2.632387527718343e-001	 1.098029588323583e+001
 3.039243062962394e+000	 2.929400141276791e-001	 1.097547000982845e+001
 3.079991999988400e+000	 0.000000000000000e+000	 1.098559709536756e+001
 3.079854567886232e+000	 2.909481255575181e-002	 1.100296223489739e+001
 3.079440150622987e+000	 5.830015459023485e-002	 1.101035166328598e+001
 3.078745595415490e+000	 8.761264651482240e-002	 1.100962846475573e+001
 3.077767789621402e+000	 1.170288217601367e-001	 1.100272630095978e+001
 3.076503663182423e+000	 1.465451269335261e-001	 1.099163233501753e+001
 3.074950191090176e+000	 1.761579220499999e-001	 1.097837336538103e+001
 3.073104395872575e+000	 2.058634808383499e-001	 1.096500507134767e+001
 3.070963350098414e+000	 2.356579911241252e-001	 1.095360422011703e+001
 3.068524178897822e+000	 2.655375552910657e-001	 1.094626364035629e+001
 3.065784062496109e+000	 2.954981908225221e-001	 1.094508972181841e+001
 3.106655999985466e+000	 0.000000000000000e+000	 1.087026319348130e+001
 3.106517378110865e+000	 2.934669115841125e-002	 1.090199590139636e+001
 3.106099373168855e+000	 5.880486866751958e-002	 1.092101078679987e+001
 3.105398805082099e+000	 8.837112368104710e-002	 1.092973684718342e+001
 3.104412534261600e+000	 1.180419596189583e-001	 1.093061255665661e+001
 3.103137464071066e+000	 1.478137923263007e-001	 1.092606964464162e+001
 3.101570543314130e+000	 1.776829503061382e-001	 1.091852046932798e+001
 3.099708768742238e+000	 2.076456750283234e-001	 1.091034888133795e+001
 3.097549187580935e+000	 2.376981213157881e-001	 1.090390441716625e+001
 3.095088900072133e+000	 2.678363578099707e-001	 1.090149961389255e+001
 3.092325062029892e+000	 2.980563675169238e-001	 1.090541018807667e+001
 3.133319999983334e+000	 0.000000000000000e+000	 1.072912802536102e+001
 3.133180188336287e+000	 2.959856976126182e-002	 1.077679804839162e+001
 3.132758595715477e+000	 5.930958274510247e-002	 1.080896499678272e+001
 3.132052014749406e+000	 8.912960084760442e-002	 1.082863918622916e+001
 3.131057278902433e+000	 1.190550974780861e-001	 1.083877604346360e+001
 3.129771264960267e+000	 1.490824577193053e-001	 1.084226087773139e+001
 3.128190895538556e+000	 1.792079785623932e-001	 1.084189765279078e+001
 3.126313141612289e+000	 2.094278692182753e-001	 1.084040164797173e+001
 3.124135025063762e+000	 2.397382515072778e-001	 1.084039583686140e+001
 3.121653621246674e+000	 2.701351603285506e-001	 1.084441076082523e+001
 3.118866061563838e+000	 3.006145442108607e-001	 1.085488762266600e+001
 2.853456066220490e+000	 2.750327772533643e-001	 1.105151083024304e+001
 2.850623495906301e+000	 3.029859020915370e-001	 1.106087646616898e+001
 2.847505823816279e+000	 3.310068753301843e-001	 1.107161819543365e+001
 2.844100595033316e+000	 3.590918200257314e-001	 1.108403176990888e+001
 2.840405415259059e+000	 3.872367847946143e-001	 1.109860068292546e+001
 2.836417953168350e+000	 4.154377447072045e-001	 1.111597888736070e+001
 2.832135942759817e+000	 4.436906022608281e-001	 1.113697273907230e+001
 2.827557185699815e+000	 4.719911884326337e-001	 1.116252187159062e+001
 2.822679553656821e+000	 5.003352638129518e-001	 1.119367869047592e+001
 2.817500990623338e+000	 5.287185198196899e-001	 1.123158616049889e+001
 2.812019515222285e+000	 5.571365799941846e-001	 1.127745354609731e+001
 2.879997065756335e+000	 2.775909539506485e-001	 1.104548793103679e+001
 2.877138148708408e+000	 3.058040806450335e-001	 1.104957072455508e+001
 2.873991478052574e+000	 3.340856868217606e-001	 1.105504821413193e+001
 2.870554576037689e+000	 3.624318594764292e-001	 1.106241603814694e+001
 2.866825026095203e+000	 3.908386104722579e-001	 1.107233333898165e+001
 2.862800475215494e+000	 4.193018774423222e-001	 1.108560739629505e+001
 2.858478636320326e+000	 4.478175247716250e-001	 1.110317758750134e+001
 2.853857290628595e+000	 4.763813446597570e-001	 1.112609835702657e+001
 2.848934290012431e+000	 5.049890582647982e-001	 1.115552085671543e+001
 2.843707559340701e+000	 5.336363169290087e-001	 1.119267290294297e+001
 2.838175098806853e+000	 5.623187034867332e-001	 1.123883688186820e+001
 2.906538065291594e+000	 2.801491306476535e-001	 1.104007449294111e+001
 2.903652801510020e+000	 3.086222591982991e-001	 1.104005228087281e+001
 2.900477132288479e+000	 3.371644983131445e-001	 1.104126502055526e+001
 2.897008557041791e+000	 3.657718989269653e-001	 1.104442907411722e+001
 2.893244636931203e+000	 3.944404361497634e-001	 1.105039859169639e+001
 2.889182997262623e+000	 4.231660101773192e-001	 1.106015222105946e+001
 2.884821329880951e+000	 4.519444472823136e-001	 1.107477925266907e+001
 2.880157395557621e+000	 4.807715008867808e-001	 1.109546485606249e+001
 2.875189026368409e+000	 5.096428527165516e-001	 1.112347404240615e+001
 2.869914128058541e+000	 5.385541140382391e-001	 1.116013396962386e+001
 2.864330682391995e+000	 5.675008269791980e-001	 1.120681419088717e+001
 2.933079064826362e+000	 2.827073073443561e-001	 1.103398626586647e+001
 2.930167454311211e+000	 3.114404377512897e-001	 1.103102766712022e+001
 2.926962786524052e+000	 3.402433098042759e-001	 1.102897633981428e+001
 2.923462538045659e+000	 3.691119383772669e-001	 1.102878651922600e+001
 2.919664247767075e+000	 3.980422618270483e-001	 1.103152300504575e+001
 2.915565519309738e+000	 4.270301429121071e-001	 1.103835012267672e+001
 2.911164023441680e+000	 4.560713697928024e-001	 1.105052023496546e+001
 2.906457500486859e+000	 4.851616571136128e-001	 1.106936143307208e+001
 2.901443762724703e+000	 5.142966471681204e-001	 1.109626401230328e+001
 2.896120696776793e+000	 5.434719111472925e-001	 1.113266531851970e+001
 2.890486265977629e+000	 5.726829504714953e-001	 1.118003253355480e+001
 2.959620064360733e+000	 2.852654840407330e-001	 1.102588617621012e+001
 2.956682107112062e+000	 3.142586163039617e-001	 1.102116294708017e+001
 2.953448440759354e+000	 3.433221212950945e-001	 1.101686236832739e+001
 2.949916519049338e+000	 3.724519778272608e-001	 1.101418996011928e+001
 2.946083858602846e+000	 4.016440875040307e-001	 1.101443304702075e+001
 2.941948041356847e+000	 4.308942756465978e-001	 1.101895216084184e+001
 2.937506717002493e+000	 4.601982923030001e-001	 1.102917211599196e+001
 2.932757605416278e+000	 4.895518133401607e-001	 1.104657235739002e+001
 2.927698499081266e+000	 5.189504416194138e-001	 1.107267615610195e+001
 2.922327265495393e+000	 5.483897082560816e-001	 1.110903820583848e+001
 2.916641849563674e+000	 5.778650739635413e-001	 1.115723015461274e+001
 2.986161063894799e+000	 2.878236607367614e-001	 1.101439006676077e+001
 2.983196759912645e+000	 3.170767948562714e-001	 1.100908929321336e+001
 2.979934094994438e+000	 3.464009327855402e-001	 1.100358114846878e+001
 2.976370500052862e+000	 3.757920172768744e-001	 1.099933205854164e+001
 2.972503469438535e+000	 4.052459131806286e-001	 1.099785992886838e+001
 2.968330563403949e+000	 4.347584083807031e-001	 1.100072819346238e+001
 2.963849410563380e+000	 4.643252148128150e-001	 1.100953966610649e+001
 2.959057710345845e+000	 4.939419695663320e-001	 1.102592976339718e+001
 2.953953235438047e+000	 5.236042360703407e-001	 1.105155864248689e+001
 2.948533834214270e+000	 5.533075053645180e-001	 1.108810177240413e+001
 2.942797433150047e+000	 5.830471974552515e-001	 1.113723843725526e+001
 3.012702063428655e+000	 2.903818374324178e-001	 1.099807212370016e+001
 3.009711412713035e+000	 3.198949734081749e-001	 1.099340825582620e+001
 3.006419749229365e+000	 3.494797442755525e-001	 1.098777364200107e+001
 3.002824481056273e+000	 3.791320567260345e-001	 1.098290138792622e+001
 2.998923080274163e+000	 4.088477388567596e-001	 1.098054416054976e+001
 2.994713085451048e+000	 4.386225411143345e-001	 1.098247110354756e+001
 2.990192104124325e+000	 4.684521373221555e-001	 1.099046469219368e+001
 2.985357815275526e+000	 4.983321257920344e-001	 1.100631706555978e+001
 2.980207971794994e+000	 5.282580305208098e-001	 1.103182534481607e+001
 2.974740402933362e+000	 5.582253024725133e-001	 1.106878542041068e+001
 2.968953016736668e+000	 5.882293209465432e-001	 1.111898366849823e+001
 3.039243062962394e+000	 2.929400141276791e-001	 1.097547000982845e+001
 3.036226065513310e+000	 3.227131519596282e-001	 1.097269674332399e+001
 3.032905403464191e+000	 3.525585557650713e-001	 1.096806852070525e+001
 3.029278462059609e+000	 3.824720961746682e-001	 1.096358699464265e+001
 3.025342691109753e+000	 4.124495645323417e-001	 1.096123983976426e+001
 3.021095607498148e+000	 4.424866738474040e-001	 1.096300077011265e+001
 3.016534797685311e+000	 4.725790598309302e-001	 1.097082964154156e+001
 3.011657920205290e+000	 5.027222820171755e-001	 1.098667214340236e+001
 3.006462708152062e+000	 5.329118249707301e-001	 1.101245855239927e+001
 3.000946971652601e+000	 5.631430995799793e-001	 1.105010099336035e+001
 2.995108600323453e+000	 5.934114444373319e-001	 1.110148862734296e+001
 3.065784062496109e+000	 2.954981908225221e-001	 1.094508972181841e+001
 3.062740718313545e+000	 3.255313305105880e-001	 1.094551173105842e+001
 3.059391057698973e+000	 3.556373672540363e-001	 1.094308669134688e+001
 3.055732443062912e+000	 3.858121356227027e-001	 1.094008270059040e+001
 3.051762301945324e+000	 4.160513902072927e-001	 1.093871869068459e+001
 3.047478129545251e+000	 4.463508065798235e-001	 1.094116779861207e+001
 3.042877491246323e+000	 4.767059823390475e-001	 1.094956097660570e+001
 3.037958025135103e+000	 5.071124382416631e-001	 1.096599031035827e+001
 3.032717444509198e+000	 5.375656194200105e-001	 1.099251148036543e+001
 3.027153540371921e+000	 5.680608966868282e-001	 1.103114477111424e+001
 3.021264183910321e+000	 5.985935679275342e-001	 1.108387400647755e+001
 3.092325062029892e+000	 2.980563675169238e-001	 1.090541018807667e+001
 3.089255371113814e+000	 3.283495090610101e-001	 1.091039471507543e+001
 3.085876711933771e+000	 3.587161787423873e-001	 1.091144557093992e+001
 3.082186424066219e+000	 3.891521750700648e-001	 1.091109116267604e+001
 3.078181912780898e+000	 4.196532158815303e-001	 1.091177386744212e+001
 3.073860651592361e+000	 4.502149393115046e-001	 1.091585702535051e+001
 3.069220184807347e+000	 4.808329048464161e-001	 1.092563233442677e+001
 3.064258130064935e+000	 5.115025944654049e-001	 1.094332707948302e+001
 3.058972180866352e+000	 5.422194138685597e-001	 1.097111059022181e+001
 3.053360109091255e+000	 5.729786937929715e-001	 1.101109929116471e+001
 3.047419767497192e+000	 6.037756914170658e-001	 1.106535967751660e+001
 3.118866061563838e+000	 3.006145442108607e-001	 1.085488762266600e+001
 3.115770023914197e+000	 3.311676876108510e-001	 1.086587592596086e+001
 3.112362366168643e+000	 3.617949902300638e-001	 1.087176312718240e+001
 3.108640405069572e+000	 3.924922145166819e-001	 1.087532770366000e+001
 3.104601523616499e+000	 4.232550415549727e-001	 1.087922353637704e+001
 3.100243173639482e+000	 4.540790720423593e-001	 1.088599080933559e+001
 3.095562878368369e+000	 4.849598273529443e-001	 1.089806748353012e+001
 3.090558234994752e+000	 5.158927506883083e-001	 1.091780073813257e+001
 3.085226917223479e+000	 5.468732083162871e-001	 1.094745773238211e+001
 3.079566677810541e+000	 5.778964908983216e-001	 1.098923500648384e+001
 3.073575351083983e+000	 6.089578149058433e-001	 1.104526580910171e+001
 2.812019515222285e+000	 5.571365799941846e-001	 1.127745354609731e+001
 2.806232332410390e+000	 5.855892700207178e-001	 1.131772711605879e+001
 2.800138417670241e+000	 6.140678136806009e-001	 1.133892282779920e+001
 2.793736028873866e+000	 6.425676306221915e-001	 1.134227824362049e+001
 2.787023507627656e+000	 6.710840784416882e-001	 1.132914003296326e+001
 2.779999281457081e+000	 6.996124543915534e-001	 1.131690561128002e+001
 2.772661865956895e+000	 7.281479971706544e-001	 1.131446575692192e+001
 2.765009866903514e+000	 7.566858887956516e-001	 1.132078016840181e+001
 2.757041982326296e+000	 7.852212565530333e-001	 1.133469403956169e+001
 2.748757004534392e+000	 8.137491750310452e-001	 1.135494008818914e+001
 2.740153822095873e+000	 8.422646682306209e-001	 1.138014118178957e+001
 2.838175098806853e+000	 5.623187034867332e-001	 1.123883688186820e+001
 2.832334087369945e+000	 5.910360420008765e-001	 1.127875415047738e+001
 2.826183490983165e+000	 6.197794746220591e-001	 1.129739357137427e+001
 2.819721551314392e+000	 6.485443783951878e-001	 1.129629283860235e+001
 2.812946594544702e+000	 6.773260677358409e-001	 1.127869867819663e+001
 2.805857033573426e+000	 7.061197961545839e-001	 1.126578595298993e+001
 2.798451370188331e+000	 7.349207580637585e-001	 1.126239236511325e+001
 2.790728197197666e+000	 7.637240906662786e-001	 1.126749919875774e+001
 2.782686200520693e+000	 7.925248759258216e-001	 1.127995819759960e+001
 2.774324161233401e+000	 8.213181426176583e-001	 1.129849391326049e+001
 2.765640957566033e+000	 8.500988684592170e-001	 1.132170665373220e+001
 2.864330682391995e+000	 5.675008269791980e-001	 1.120681419088717e+001
 2.858435842330151e+000	 5.964828139809569e-001	 1.124656147844752e+001
 2.852228564296800e+000	 6.254911355634441e-001	 1.126279579364260e+001
 2.845707073755671e+000	 6.545211261681152e-001	 1.125735192366052e+001
 2.838869681462532e+000	 6.835680570299278e-001	 1.123681896583222e+001
 2.831714785690566e+000	 7.126271379175480e-001	 1.122362755829325e+001
 2.824240874420563e+000	 7.416935189567915e-001	 1.121958687666622e+001
 2.816446527492603e+000	 7.707622925368255e-001	 1.122371114810292e+001
 2.808330418715852e+000	 7.998284952985153e-001	 1.123487051560028e+001
 2.799891317933140e+000	 8.288871102041546e-001	 1.125179370465888e+001
 2.791128093036881e+000	 8.579330686876658e-001	 1.127307128801890e+001
 2.890486265977629e+000	 5.726829504714953e-001	 1.118003253355480e+001
 2.884537597290914e+000	 6.019295859608803e-001	 1.121974365702167e+001
 2.878273637611040e+000	 6.312027965046843e-001	 1.123368394523929e+001
 2.871692596197584e+000	 6.604978739409091e-001	 1.122397952171382e+001
 2.864792768381011e+000	 6.898100463238917e-001	 1.120209624185694e+001
 2.857572537808359e+000	 7.191344796803980e-001	 1.118898826844798e+001
 2.850030378653443e+000	 7.484662798497171e-001	 1.118457825173303e+001
 2.842164857788168e+000	 7.778004944072670e-001	 1.118792374880810e+001
 2.833974636911618e+000	 8.071321146711009e-001	 1.119792420528023e+001
 2.825458474633451e+000	 8.364560777905349e-001	 1.121332393962700e+001
 2.816615228508264e+000	 8.657672689159827e-001	 1.123271571882642e+001
 2.916641849563674e+000	 5.778650739635413e-001	 1.115723015461274e+001
 2.910639352252136e+000	 6.073763579405682e-001	 1.119700180948619e+001
 2.904318710925769e+000	 6.369144574457069e-001	 1.120873318729474e+001
 2.897678118640007e+000	 6.664746217135051e-001	 1.119483322038217e+001
 2.890715855300007e+000	 6.960520356176770e-001	 1.117326083599969e+001
 2.883430289926667e+000	 7.256418214430882e-001	 1.116057162160890e+001
 2.875819882886823e+000	 7.552390407424989e-001	 1.115605112979969e+001
 2.867883188084215e+000	 7.848386962775789e-001	 1.115880969050292e+001
 2.859618855107833e+000	 8.144357340435661e-001	 1.116778603764854e+001
 2.851025631334183e+000	 8.440250453767995e-001	 1.118175061186491e+001
 2.842102363980034e+000	 8.736014691441837e-001	 1.119930944248252e+001
 2.942797433150047e+000	 5.830471974552515e-001	 1.113723843725526e+001
 2.936741107213719e+000	 6.128231299199427e-001	 1.117714490986918e+001
 2.930363784240882e+000	 6.426261183864404e-001	 1.118673999722645e+001
 2.923663641082820e+000	 6.724513694858384e-001	 1.116933951718058e+001
 2.916638942219389e+000	 7.022940249112274e-001	 1.114917663786278e+001
 2.909288042045350e+000	 7.321491632055713e-001	 1.113722477927295e+001
 2.901609387120556e+000	 7.620118016351007e-001	 1.113284310782090e+001
 2.893601518380587e+000	 7.918768981477353e-001	 1.113520325067870e+001
 2.885263073304349e+000	 8.217393534158990e-001	 1.114329232628284e+001
 2.876592788035182e+000	 8.515940129629497e-001	 1.115591656712958e+001
 2.867589499452040e+000	 8.814356693722830e-001	 1.117170550450801e+001
 2.968953016736668e+000	 5.882293209465432e-001	 1.111898366849823e+001
 2.962842862175569e+000	 6.182699018989246e-001	 1.115909090024977e+001
 2.956408857556267e+000	 6.483377793268121e-001	 1.116662262799356e+001
 2.949649163525900e+000	 6.784281172578441e-001	 1.114721080591992e+001
 2.942562029139025e+000	 7.085360142044866e-001	 1.112883956531780e+001
 2.935145794164261e+000	 7.386565049678002e-001	 1.111793636328615e+001
 2.927398891354493e+000	 7.687845625274863e-001	 1.111394194652671e+001
 2.919319848677137e+000	 7.989151000177122e-001	 1.111609687044012e+001
 2.910907291501007e+000	 8.290429727880865e-001	 1.112344487214710e+001
 2.902159944736293e+000	 8.591629805489864e-001	 1.113483681624301e+001
 2.893076634924131e+000	 8.892698696002971e-001	 1.114893517946115e+001
 2.995108600323453e+000	 5.934114444373319e-001	 1.110148862734296e+001
 2.988944617137589e+000	 6.237166738774360e-001	 1.114186765109272e+001
 2.982453930871814e+000	 6.540494402667511e-001	 1.114742142977672e+001
 2.975634685969126e+000	 6.844048650294583e-001	 1.112757941621538e+001
 2.968485116058780e+000	 7.147780034973984e-001	 1.111137593175079e+001
 2.961003546283265e+000	 7.451638467297289e-001	 1.110183420887829e+001
 2.953188395588489e+000	 7.755573234196188e-001	 1.109848270929084e+001
 2.945038178973707e+000	 8.059533018874843e-001	 1.110063767875564e+001
 2.936551509697654e+000	 8.363465921601163e-001	 1.110740687230235e+001
 2.927727101437364e+000	 8.667319481349110e-001	 1.111769382688909e+001
 2.918563770396158e+000	 8.971040698282408e-001	 1.113020264402189e+001
 3.021264183910321e+000	 5.985935679275342e-001	 1.108387400647755e+001
 3.015046372099683e+000	 6.291634458553986e-001	 1.112461377412190e+001
 3.008499004187416e+000	 6.597611012061848e-001	 1.112829904242013e+001
 3.001620208412377e+000	 6.903816128006163e-001	 1.110969644447054e+001
 2.994408202978528e+000	 7.210199927899073e-001	 1.109604071828646e+001
 2.986861298402219e+000	 7.516711884913101e-001	 1.108818303881337e+001
 2.978977899822394e+000	 7.823300843114627e-001	 1.108574483764678e+001
 2.970756509270149e+000	 8.129915037570266e-001	 1.108812396832922e+001
 2.962195727894137e+000	 8.436502115319760e-001	 1.109449879469647e+001
 2.953294258138242e+000	 8.743009157207239e-001	 1.110383279548356e+001
 2.944050905867969e+000	 9.049382700561296e-001	 1.111487964372554e+001
 3.047419767497192e+000	 6.037756914170658e-001	 1.106535967751660e+001
 3.041148127061755e+000	 6.346102178327341e-001	 1.110657929659451e+001
 3.034544077502959e+000	 6.654727621450411e-001	 1.110854046640325e+001
 3.027605730855529e+000	 6.963583605712530e-001	 1.109293144936908e+001
 3.020331289898130e+000	 7.272619820819563e-001	 1.108221575669798e+001
 3.012719050520982e+000	 7.581785302524974e-001	 1.107638206339396e+001
 3.004767404056063e+000	 7.891028452029806e-001	 1.107514916725694e+001
 2.996474839566311e+000	 8.200297056263144e-001	 1.107800162599738e+001
 2.987839946090303e+000	 8.509538309036530e-001	 1.108419422107052e+001
 2.978861414838772e+000	 8.818698833064261e-001	 1.109275690031340e+001
 2.969538041339417e+000	 9.127724702839788e-001	 1.110250015372645e+001
 3.073575351083983e+000	 6.089578149058433e-001	 1.104526580910171e+001
 3.067249882023707e+000	 6.400569898093638e-001	 1.108712620523298e+001
 3.060589150818339e+000	 6.711844230832489e-001	 1.108798413266482e+001
 3.053591253298464e+000	 7.023351083413045e-001	 1.107677111816014e+001
 3.046254376817458e+000	 7.335039713734894e-001	 1.106940782832426e+001
 3.038576802639415e+000	 7.646858720132437e-001	 1.106596251073669e+001
 3.030556908289346e+000	 7.958756060941377e-001	 1.106625488788153e+001
 3.022193169862039e+000	 8.270679074953229e-001	 1.106986052036047e+001
 3.013484164285995e+000	 8.582574502751353e-001	 1.107611565988029e+001
 3.004428571538802e+000	 8.894388508920191e-001	 1.108412253706080e+001
 2.995025176810348e+000	 9.206066705118045e-001	 1.109275503394600e+001
 2.740153822095873e+000	 8.422646682306209e-001	 1.138014118178957e+001
 2.731231421080580e+000	 8.707627113369549e-001	 1.140608772339231e+001
 2.721988884875082e+000	 8.992382316919291e-001	 1.142985066823856e+001
 2.712425398051369e+000	 9.276861123150280e-001	 1.145186878664312e+001
 2.702540248811464e+000	 9.561011947256431e-001	 1.147255041638642e+001
 2.692332830683795e+000	 9.844782814308750e-001	 1.149227642091060e+001
 2.681802644152406e+000	 1.012812138484053e+000	 1.151139015458416e+001
 2.670949298215834e+000	 1.041097498112028e+000	 1.153025867855687e+001
 2.659772511872570e+000	 1.069329061409152e+000	 1.154947533544389e+001
 2.648272115530094e+000	 1.097501501095708e+000	 1.157049910834366e+001
 2.636448052334516e+000	 1.125609464338406e+000	 1.159379231252356e+001
 2.765640957566033e+000	 8.500988684592170e-001	 1.132170665373220e+001
 2.756635566157504e+000	 8.788619818981299e-001	 1.134587486223655e+001
 2.747307061868638e+000	 9.076023630936984e-001	 1.136862390844301e+001
 2.737654621686848e+000	 9.363148474705652e-001	 1.139045386540740e+001
 2.727677527193472e+000	 9.649942285672722e-001	 1.141182772574582e+001
 2.717375166275937e+000	 9.936352605472042e-001	 1.143317453091870e+001
 2.706747034772116e+000	 1.022232660780905e+000	 1.145488102907947e+001
 2.695792738043704e+000	 1.050781112497805e+000	 1.147734652653557e+001
 2.684511992475504e+000	 1.079275267505267e+000	 1.150090428696672e+001
 2.672904626897554e+000	 1.107709748972663e+000	 1.152588640413165e+001
 2.660970583927155e+000	 1.136079154278113e+000	 1.155278154183354e+001
 2.791128093036881e+000	 8.579330686876658e-001	 1.127307128801890e+001
 2.782039711235067e+000	 8.869612524591196e-001	 1.129553025950990e+001
 2.772625238862780e+000	 9.159664944952385e-001	 1.131738330974070e+001
 2.762883845322852e+000	 9.449435826258268e-001	 1.133916312976156e+001
 2.752814805575939e+000	 9.738872624085790e-001	 1.136135808931620e+001
 2.742417501868467e+000	 1.002792239663169e+000	 1.138441556087972e+001
 2.731691425392141e+000	 1.031653183077356e+000	 1.140873516763385e+001
 2.720636177871811e+000	 1.060464726883158e+000	 1.143471779699948e+001
 2.709251473078593e+000	 1.089221473600946e+000	 1.146269664595120e+001
 2.697537138265090e+000	 1.117917996849190e+000	 1.149299547189131e+001
 2.685493115519782e+000	 1.146548844217417e+000	 1.152591892193780e+001
 2.816615228508264e+000	 8.657672689159827e-001	 1.123271571882642e+001
 2.807443856313126e+000	 8.950605230199543e-001	 1.125352730316931e+001
 2.797943415857370e+000	 9.243306258965954e-001	 1.127458408053428e+001
 2.788113068959254e+000	 9.535723177808729e-001	 1.129642298410815e+001
 2.777952083958753e+000	 9.827802962496398e-001	 1.131952884062419e+001
 2.767459837461291e+000	 1.011949218778858e+000	 1.134432478202870e+001
 2.756635816012398e+000	 1.041073705373506e+000	 1.137123263088616e+001
 2.745479617700091e+000	 1.070148341268192e+000	 1.140058529445589e+001
 2.733990953681790e+000	 1.099167679696300e+000	 1.143269800040638e+001
 2.722169649632665e+000	 1.128126244725396e+000	 1.146785481348059e+001
 2.710015647112380e+000	 1.157018534156420e+000	 1.150631385389655e+001
 2.842102363980034e+000	 8.736014691441837e-001	 1.119930944248252e+001
 2.832848001391535e+000	 9.031597935806651e-001	 1.121853527968261e+001
 2.823261592852275e+000	 9.326947572978150e-001	 1.123888433275600e+001
 2.813342292595934e+000	 9.622010529357664e-001	 1.126086971008152e+001
 2.803089362341806e+000	 9.916733300905299e-001	 1.128494413424906e+001
 2.792502173054308e+000	 1.021106197894358e+000	 1.131149211712673e+001
 2.781580206632806e+000	 1.050494227669454e+000	 1.134088411207271e+001
 2.770323057528475e+000	 1.079831955653012e+000	 1.137339933188430e+001
 2.758730434285045e+000	 1.109113885791435e+000	 1.140928989549092e+001
 2.746802161000247e+000	 1.138334492601386e+000	 1.144876940502276e+001
 2.734538178704933e+000	 1.167488224095222e+000	 1.149201827469068e+001
 2.867589499452040e+000	 8.814356693722830e-001	 1.117170550450801e+001
 2.858252146470148e+000	 9.112590641412822e-001	 1.118941339928445e+001
 2.848579769847359e+000	 9.410588886989445e-001	 1.120913842095556e+001
 2.838571516232765e+000	 9.708297880905689e-001	 1.123134209640748e+001
 2.828226640724981e+000	 1.000566363931325e+000	 1.125641684477114e+001
 2.817544508647426e+000	 1.030263177009759e+000	 1.128467980805185e+001
 2.806524597253285e+000	 1.059914749965296e+000	 1.131642131468890e+001
 2.795166497356901e+000	 1.089515570037725e+000	 1.135183732123863e+001
 2.783469914888307e+000	 1.119060091886461e+000	 1.139108703729296e+001
 2.771434672367803e+000	 1.148542740477269e+000	 1.143428342798682e+001
 2.759060710297422e+000	 1.177957914033924e+000	 1.148149865781510e+001
 2.893076634924131e+000	 8.892698696002971e-001	 1.114893517946115e+001
 2.883656291548827e+000	 9.193583347018371e-001	 1.116520482963403e+001
 2.873897946842486e+000	 9.494230201000297e-001	 1.118439030621754e+001
 2.863800739869623e+000	 9.794585232453412e-001	 1.120687411080981e+001
 2.853363919108170e+000	 1.009459397772102e+000	 1.123296052573657e+001
 2.842586844240541e+000	 1.039420156125150e+000	 1.126287099545569e+001
 2.831468987873751e+000	 1.069335272261134e+000	 1.129678742821474e+001
 2.820009937185299e+000	 1.099199184422435e+000	 1.133479348199303e+001
 2.808209395491529e+000	 1.129006297981486e+000	 1.137692621912224e+001
 2.796067183735300e+000	 1.158750988353152e+000	 1.142316839973239e+001
 2.783583241889829e+000	 1.188427603972625e+000	 1.147345404216952e+001
 2.918563770396158e+000	 8.971040698282408e-001	 1.113020264402189e+001
 2.909060436627422e+000	 9.274576052623600e-001	 1.114513073736010e+001
 2.899216123837521e+000	 9.577871515011176e-001	 1.116386694338981e+001
 2.889029963506384e+000	 9.880872584001460e-001	 1.118668761139422e+001
 2.878501197491262e+000	 1.018352431612936e+000	 1.121376995008683e+001
 2.867629179833561e+000	 1.048577135240618e+000	 1.124524623317124e+001
 2.856413378494124e+000	 1.078755794557065e+000	 1.128112769590836e+001
 2.844853377013607e+000	 1.108882798807248e+000	 1.132136866051445e+001
 2.832948876094660e+000	 1.138952504076619e+000	 1.136585537793865e+001
 2.820699695102703e+000	 1.168959236229142e+000	 1.141441145400857e+001
 2.808105773482136e+000	 1.198897293911427e+000	 1.146680352522201e+001
 2.944050905867969e+000	 9.049382700561296e-001	 1.111487964372554e+001
 2.934464581705792e+000	 9.355568758228819e-001	 1.112858433701468e+001
 2.924534300832328e+000	 9.661512829022541e-001	 1.114697169020942e+001
 2.914259187142924e+000	 9.967159935550441e-001	 1.117018509511417e+001
 2.903638475874143e+000	 1.027245465453903e+000	 1.119826045719742e+001
 2.892671515426388e+000	 1.057734114356252e+000	 1.123117485782947e+001
 2.881357769114322e+000	 1.088176316853187e+000	 1.126878006908932e+001
 2.869696816841759e+000	 1.118566413192270e+000	 1.131086025354712e+001
 2.857688356697652e+000	 1.148898710171969e+000	 1.135712277303023e+001
 2.845332206469981e+000	 1.179167484105347e+000	 1.140720376231931e+001
 2.832628305074325e+000	 1.209366983850430e+000	 1.146067391609501e+001
 2.969538041339417e+000	 9.127724702839788e-001	 1.110250015372645e+001
 2.959868726783792e+000	 9.436561463834332e-001	 1.111512494698893e+001
 2.949852477826773e+000	 9.745154143034851e-001	 1.113327773700941e+001
 2.939488410779118e+000	 1.005344728710098e+000	 1.115694248109191e+001
 2.928775754256706e+000	 1.036138499295079e+000	 1.118598695860992e+001
 2.917713851018922e+000	 1.066891093472140e+000	 1.122020642372696e+001
 2.906302159734261e+000	 1.097596839149599e+000	 1.125926594271330e+001
 2.894540256669687e+000	 1.128250027577606e+000	 1.130275222955154e+001
 2.882427837300455e+000	 1.158844916267644e+000	 1.135016627959559e+001
 2.869964717837100e+000	 1.189375731981873e+000	 1.140092908769178e+001
 2.857150836666380e+000	 1.219836673789734e+000	 1.145438753896488e+001
 2.995025176810348e+000	 9.206066705118045e-001	 1.109275503394600e+001
 2.985272871861278e+000	 9.517554169440450e-001	 1.110447205197606e+001
 2.975170654820722e+000	 9.828795457048585e-001	 1.112252155578003e+001
 2.964717634414846e+000	 1.013973463865370e+000	 1.114669048200387e+001
 2.953913032638836e+000	 1.045031533136540e+000	 1.117668639649047e+001
 2.942756186611073e+000	 1.076048072588372e+000	 1.121206219905545e+001
 2.931246550353865e+000	 1.107017361446401e+000	 1.125228096739697e+001
 2.919383696497328e+000	 1.137933641963363e+000	 1.129670524207039e+001
 2.907167317903020e+000	 1.168791122363753e+000	 1.134460279038654e+001
 2.894597229204027e+000	 1.199583979858828e+000	 1.139515246296068e+001
 2.881673368258283e+000	 1.230306363729441e+000	 1.144745017782173e+001
 2.636448052334516e+000	 1.125609464338406e+000	 1.159379231252356e+001
 2.624302226078947e+000	 1.153643375865511e+000	 1.161433940211052e+001
 2.611833061417271e+000	 1.181602065005949e+000	 1.162678282936319e+001
 2.599040848742955e+000	 1.209480123689433e+000	 1.163094036665900e+001
 2.585925995576417e+000	 1.237272130208986e+000	 1.162662505625441e+001
 2.572489027453051e+000	 1.264972652307893e+000	 1.161366180958347e+001
 2.558730588716130e+000	 1.292576250311315e+000	 1.159190401794965e+001
 2.544651443212335e+000	 1.320077480299228e+000	 1.156124996036046e+001
 2.530252474887798e+000	 1.347470897317242e+000	 1.152765393774768e+001
 2.515534688282688e+000	 1.374751058621742e+000	 1.152384213371983e+001
 2.500499208922499e+000	 1.401912526955667e+000	 1.155299257360661e+001
 2.660970583927155e+000	 1.136079154278113e+000	 1.155278154183354e+001
 2.648711785065264e+000	 1.164373819086899e+000	 1.157687481292681e+001
 2.636126640312910e+000	 1.192592561839123e+000	 1.159199198638469e+001
 2.623215442764610e+000	 1.220729924162126e+000	 1.159758447178902e+001
 2.609978603731262e+000	 1.248780433919723e+000	 1.159307657477599e+001
 2.596416653636446e+000	 1.276738608327862e+000	 1.157788427103636e+001
 2.582530242816688e+000	 1.304598957115368e+000	 1.155143405926246e+001
 2.568320142223471e+000	 1.332355985726398e+000	 1.151318166284068e+001
 2.553787244024815e+000	 1.360004198561121e+000	 1.148453907794377e+001
 2.538932562104461e+000	 1.387538102251040e+000	 1.148873221380996e+001
 2.523757232456807e+000	 1.414952208965249e+000	 1.152322815152070e+001
 2.685493115519782e+000	 1.146548844217417e+000	 1.152591892193780e+001
 2.673121344051483e+000	 1.175104262307936e+000	 1.155467307961023e+001
 2.660420219208369e+000	 1.203583058672014e+000	 1.157188939392857e+001
 2.647390036786003e+000	 1.231979724634620e+000	 1.157771335726770e+001
 2.634031211885770e+000	 1.260288737630354e+000	 1.157138775535467e+001
 2.620344279819432e+000	 1.288504564347824e+000	 1.155195126169719e+001
 2.606329896916778e+000	 1.316621663919515e+000	 1.151843823627907e+001
 2.591988841234089e+000	 1.344634491153756e+000	 1.147398668692034e+001
 2.577322013161276e+000	 1.372537499805272e+000	 1.145393270997630e+001
 2.562330435925657e+000	 1.400325145880683e+000	 1.146428967679545e+001
 2.547015255990533e+000	 1.427991890975229e+000	 1.150210268002117e+001
 2.710015647112380e+000	 1.157018534156420e+000	 1.150631385389655e+001
 2.697530903037604e+000	 1.185834705528708e+000	 1.154017683430357e+001
 2.684713798103659e+000	 1.214573555504691e+000	 1.156068130708053e+001
 2.671564630807157e+000	 1.243229525106964e+000	 1.156666741267316e+001
 2.658083820039975e+000	 1.271797041340906e+000	 1.155711864340290e+001
 2.644271906002056e+000	 1.300270520367780e+000	 1.153162060112253e+001
 2.630129551016453e+000	 1.328644370723730e+000	 1.148892902722960e+001
 2.615657540244252e+000	 1.356912996581256e+000	 1.144583702071074e+001
 2.600856782297251e+000	 1.385070801049629e+000	 1.143303588343543e+001
 2.585728309746352e+000	 1.413112189510584e+000	 1.144798961145405e+001
 2.570273279523759e+000	 1.441031572985507e+000	 1.148741099215293e+001
 2.734538178704933e+000	 1.167488224095222e+000	 1.149201827469068e+001
 2.721940462023623e+000	 1.196565148749303e+000	 1.152991519339302e+001
 2.709007376998789e+000	 1.225564052337229e+000	 1.155239532655951e+001
 2.695739224828096e+000	 1.254479325579208e+000	 1.155808239858203e+001
 2.682136428193909e+000	 1.283305345051404e+000	 1.154547394729422e+001
 2.668199532184363e+000	 1.312036476387733e+000	 1.151295014927581e+001
 2.653929205115769e+000	 1.340667077527991e+000	 1.146104547094531e+001
 2.639326239254022e+000	 1.369191502008848e+000	 1.142589642346949e+001
 2.624391551432814e+000	 1.397604102294122e+000	 1.141920498826297e+001
 2.609126183566625e+000	 1.425899233140657e+000	 1.143745413114546e+001
 2.593531303056567e+000	 1.454071254995983e+000	 1.147708471830733e+001
 2.759060710297422e+000	 1.177957914033924e+000	 1.148149865781510e+001
 2.746350021009535e+000	 1.207295591969811e+000	 1.152230158588516e+001
 2.733300955893769e+000	 1.236554549169694e+000	 1.154528015512016e+001
 2.719913818848843e+000	 1.265729126051403e+000	 1.154887657620640e+001
 2.706189036347608e+000	 1.294813648761876e+000	 1.153139400200670e+001
 2.692127158366396e+000	 1.323802432407684e+000	 1.149100543436573e+001
 2.677728859214780e+000	 1.352689784332276e+000	 1.143845278167729e+001
 2.662994938263464e+000	 1.381470007436487e+000	 1.141145821402994e+001
 2.647926320568034e+000	 1.410137403538683e+000	 1.140994753539949e+001
 2.632524057386552e+000	 1.438686276770816e+000	 1.143044846858988e+001
 2.616789326589044e+000	 1.467110937006559e+000	 1.146918877298036e+001
 2.783583241889829e+000	 1.188427603972625e+000	 1.147345404216952e+001
 2.770759579995339e+000	 1.218026035190319e+000	 1.151598613052345e+001
 2.757594534788612e+000	 1.247545046002160e+000	 1.153799028826233e+001
 2.744088412869419e+000	 1.276978926523597e+000	 1.153776126571502e+001
 2.730241644501109e+000	 1.306321952472349e+000	 1.151344491422267e+001
 2.716054784548201e+000	 1.335568388427635e+000	 1.146322350010434e+001
 2.701528513313543e+000	 1.364712491136561e+000	 1.141809097307892e+001
 2.686663637272640e+000	 1.393748512864127e+000	 1.139930754443946e+001
 2.671461089702981e+000	 1.422670704783245e+000	 1.140287637354968e+001
 2.655921931206211e+000	 1.451473320400976e+000	 1.142487724914513e+001
 2.640047350121268e+000	 1.480150619017134e+000	 1.146191799709357e+001
 2.808105773482136e+000	 1.198897293911427e+000	 1.146680352522202e+001
 2.795169138981031e+000	 1.228756478410914e+000	 1.150984237989520e+001
 2.781888113683326e+000	 1.258535542834697e+000	 1.152940496568814e+001
 2.768263006889848e+000	 1.288228726995841e+000	 1.152367184890754e+001
 2.754294252654443e+000	 1.317830256182848e+000	 1.149066785164529e+001
 2.739982410729826e+000	 1.347334344447589e+000	 1.143506761961586e+001
 2.725328167412110e+000	 1.376735197940822e+000	 1.139902955700415e+001
 2.710332336281615e+000	 1.406027018291719e+000	 1.138698425827893e+001
 2.694995858837728e+000	 1.435204006027737e+000	 1.139488972353306e+001
 2.679319805025680e+000	 1.464260364031049e+000	 1.141853891265218e+001
 2.663305373653324e+000	 1.493190301027610e+000	 1.145359394636754e+001
 2.832628305074325e+000	 1.209366983850430e+000	 1.146067391609501e+001
 2.819578697966607e+000	 1.239486921631686e+000	 1.150295424142233e+001
 2.806181692577922e+000	 1.269526039667374e+000	 1.151861444177073e+001
 2.792437600910154e+000	 1.299478527468185e+000	 1.150575346995975e+001
 2.778346860807648e+000	 1.329338559893400e+000	 1.146231065395241e+001
 2.763910036911314e+000	 1.359100300467545e+000	 1.140913338300486e+001
 2.749127821510537e+000	 1.388757904745037e+000	 1.138083397087293e+001
 2.734001035290451e+000	 1.418305523719218e+000	 1.137410191722602e+001
 2.718530627972343e+000	 1.447737307272093e+000	 1.138490281865192e+001
 2.702717678845036e+000	 1.477047407660950e+000	 1.140903696723530e+001
 2.686563397185296e+000	 1.506229983037888e+000	 1.144215332813466e+001
 2.857150836666380e+000	 1.219836673789734e+000	 1.145438753896488e+001
 2.843988256952065e+000	 1.250217364852722e+000	 1.149460306460718e+001
 2.830475271472410e+000	 1.280516536500265e+000	 1.150490643395549e+001
 2.816612194930361e+000	 1.310728327940679e+000	 1.148334692159819e+001
 2.802399468960757e+000	 1.340846863604030e+000	 1.142979465285827e+001
 2.787837663092711e+000	 1.370866256487507e+000	 1.138499331008584e+001
 2.772927475608878e+000	 1.400780611549183e+000	 1.136310808547668e+001
 2.757669734299212e+000	 1.430584029146576e+000	 1.136034009427457e+001
 2.742065397106900e+000	 1.460270608516245e+000	 1.137271406016334e+001
 2.726115552664357e+000	 1.489834451290593e+000	 1.139609154853875e+001
 2.709821420717266e+000	 1.519269665047867e+000	 1.142618524657011e+001
 2.881673368258283e+000	 1.230306363729441e+000	 1.144745017782173e+001
 2.868397815937404e+000	 1.260947808074110e+000	 1.148425488463135e+001
 2.854768850366804e+000	 1.291507033333439e+000	 1.148775273849526e+001
 2.840786788950488e+000	 1.321978128413373e+000	 1.145597470565951e+001
 2.826452077113804e+000	 1.352355167314767e+000	 1.139940253360233e+001
 2.811765289274062e+000	 1.382632212507475e+000	 1.136225747176566e+001
 2.796727129707190e+000	 1.412803318353237e+000	 1.134549143502854e+001
 2.781338433307961e+000	 1.442862534573747e+000	 1.134541072766042e+001
 2.765600166241469e+000	 1.472803909760124e+000	 1.135814954600924e+001
 2.749513426483720e+000	 1.502621494919891e+000	 1.137968342395204e+001
 2.733079444249319e+000	 1.532309347057451e+000	 1.140584376579267e+001
 2.500499208922499e+000	 1.401912526955667e+000	 1.155299257360661e+001
 2.485144957250983e+000	 1.428953920535294e+000	 1.159344406432373e+001
 2.469475535571229e+000	 1.455865738217200e+000	 1.162526368535411e+001
 2.453492436359996e+000	 1.482642578306111e+000	 1.164903532252031e+001
 2.437197273632522e+000	 1.509279057994052e+000	 1.166545551474495e+001
 2.420591782792370e+000	 1.535769816732273e+000	 1.167533016960808e+001
 2.403677820370210e+000	 1.562109519609821e+000	 1.167957023086609e+001
 2.386457363650868e+000	 1.588292860734559e+000	 1.167918631676905e+001
 2.368932510188156e+000	 1.614314566612345e+000	 1.167528235593112e+001
 2.351105477207142e+000	 1.640169399520067e+000	 1.166904825533487e+001
 2.332978600893775e+000	 1.665852160868178e+000	 1.166175164272607e+001
 2.523757232456807e+000	 1.414952208965249e+000	 1.152322815152070e+001
 2.508260165484269e+000	 1.442245124067567e+000	 1.156707240381436e+001
 2.492444996996238e+000	 1.469407258041089e+000	 1.160139864975493e+001
 2.476313233351541e+000	 1.496433158947471e+000	 1.162687930280817e+001
 2.459866503577958e+000	 1.523317393911350e+000	 1.164431643193089e+001
 2.443106559220670e+000	 1.550054552523622e+000	 1.165463812950267e+001
 2.426035274078606e+000	 1.576639250251452e+000	 1.165889374779639e+001
 2.408654643828038e+000	 1.603066131850734e+000	 1.165824802421378e+001
 2.390966785532879e+000	 1.629329874776702e+000	 1.165397412392823e+001
 2.372973937041403e+000	 1.655425192588333e+000	 1.164744563690280e+001
 2.354678456269270e+000	 1.681346838342176e+000	 1.164012757440900e+001
 2.547015255990533e+000	 1.427991890975229e+000	 1.150210268002117e+001
 2.531375373716986e+000	 1.455536327600267e+000	 1.154739478304492e+001
 2.515414458420706e+000	 1.482948777865413e+000	 1.158258359535107e+001
 2.499134030342586e+000	 1.510223739589257e+000	 1.160841439783467e+001
 2.482535733522948e+000	 1.537355729829050e+000	 1.162577821053838e+001
 2.465621335648581e+000	 1.564339288315340e+000	 1.163570781866028e+001
 2.448392727786678e+000	 1.591168980893409e+000	 1.163937258309590e+001
 2.430851924004946e+000	 1.617839402967187e+000	 1.163807205718022e+001
 2.413001060877399e+000	 1.644345182941285e+000	 1.163322844022918e+001
 2.394842396875518e+000	 1.670680985656779e+000	 1.162637790731291e+001
 2.376378311644662e+000	 1.696841515816308e+000	 1.161916086335023e+001
 2.570273279523759e+000	 1.441031572985507e+000	 1.148741099215293e+001
 2.554490581949220e+000	 1.468827531133287e+000	 1.153253209857231e+001
 2.538383919844723e+000	 1.496490297690064e+000	 1.156723375998454e+001
 2.521954827333227e+000	 1.524014320231365e+000	 1.159231895784755e+001
 2.505204963467584e+000	 1.551394065747053e+000	 1.160875162669213e+001
 2.488136112076197e+000	 1.578624024107333e+000	 1.161765234308866e+001
 2.470750181494516e+000	 1.605698711535611e+000	 1.162029271440638e+001
 2.453049204181680e+000	 1.632612674083848e+000	 1.161808849052892e+001
 2.435035336221801e+000	 1.659360491106038e+000	 1.161259143115231e+001
 2.416710856709561e+000	 1.685936778725359e+000	 1.160547997064651e+001
 2.398078167020021e+000	 1.712336193290541e+000	 1.159854873163285e+001
 2.593531303056567e+000	 1.454071254995983e+000	 1.147708471830733e+001
 2.577605790181059e+000	 1.482118734666520e+000	 1.152073132030855e+001
 2.561353381268382e+000	 1.510031817514932e+000	 1.155388060163327e+001
 2.544775624323555e+000	 1.537804900873685e+000	 1.157737855758894e+001
 2.527874193411962e+000	 1.565432401665257e+000	 1.159224652931421e+001
 2.510650888503613e+000	 1.592908759899511e+000	 1.159967655975653e+001
 2.493107635202212e+000	 1.620228442177975e+000	 1.160102536381330e+001
 2.475246484358327e+000	 1.647385945200647e+000	 1.159780693735512e+001
 2.457069611566164e+000	 1.674375799270905e+000	 1.159168383985906e+001
 2.438579316543607e+000	 1.701192571794027e+000	 1.158445719527125e+001
 2.419778022395412e+000	 1.727830870764843e+000	 1.157805546541558e+001
 2.616789326589044e+000	 1.467110937006559e+000	 1.146918877298036e+001
 2.600720998412591e+000	 1.495409938199861e+000	 1.151036238542329e+001
 2.584322842691773e+000	 1.523573337339909e+000	 1.154116905408622e+001
 2.567596421313664e+000	 1.551595481516112e+000	 1.156248356921807e+001
 2.550543423356176e+000	 1.579470737583562e+000	 1.157536968666075e+001
 2.533165664930922e+000	 1.607193495691781e+000	 1.158107515405288e+001
 2.515465088909857e+000	 1.634758172820419e+000	 1.158102526452397e+001
 2.497443764534976e+000	 1.662159216317515e+000	 1.157681496421635e+001
 2.479103886910575e+000	 1.689391107435829e+000	 1.157019955054108e+001
 2.460447776377734e+000	 1.716448364862740e+000	 1.156308400851926e+001
 2.441477877770901e+000	 1.743325548239177e+000	 1.155751104279993e+001
 2.640047350121268e+000	 1.480150619017134e+000	 1.146191799709357e+001
 2.623836206643904e+000	 1.508701141733200e+000	 1.149991522401269e+001
 2.607292304114989e+000	 1.537114857164887e+000	 1.152785489293371e+001
 2.590417218303648e+000	 1.565386062158538e+000	 1.154662682640051e+001
 2.573212653300319e+000	 1.593509073501868e+000	 1.155732270714019e+001
 2.555680441358219e+000	 1.621478231484052e+000	 1.156123077685998e+001
 2.537822542617543e+000	 1.649287903462864e+000	 1.155982897466292e+001
 2.519641044711714e+000	 1.676932487434384e+000	 1.155477654310289e+001
 2.501138162255115e+000	 1.704406415600752e+000	 1.154790414104582e+001
 2.482316236212016e+000	 1.731704157931453e+000	 1.154120251351940e+001
 2.463177733146556e+000	 1.758820225713511e+000	 1.153680977953000e+001
 2.663305373653324e+000	 1.493190301027610e+000	 1.145359394636754e+001
 2.646951414875084e+000	 1.521992345266434e+000	 1.148799690847993e+001
 2.630261765538118e+000	 1.550656376989756e+000	 1.151280220512880e+001
 2.613238015293598e+000	 1.579176642800859e+000	 1.152890137399186e+001
 2.595881883244487e+000	 1.607547409420072e+000	 1.153740002987183e+001
 2.578195217785595e+000	 1.635762967276229e+000	 1.153961223759544e+001
 2.560179996325362e+000	 1.663817634105228e+000	 1.153705323530335e+001
 2.541838324888631e+000	 1.691705758551183e+000	 1.153143053790385e+001
 2.523172437599868e+000	 1.719421723765620e+000	 1.152463346220338e+001
 2.504184696046531e+000	 1.746959951000122e+000	 1.151872112683005e+001
 2.484877588522445e+000	 1.774314903187812e+000	 1.151590899143573e+001
 2.686563397185296e+000	 1.506229983037888e+000	 1.144215332813465e+001
 2.670066623106221e+000	 1.535283548799453e+000	 1.147331077783557e+001
 2.653231226961252e+000	 1.564197896814407e+000	 1.149498095584336e+001
 2.636058812283610e+000	 1.592967223442966e+000	 1.150849829812814e+001
 2.618551113188773e+000	 1.621585745338075e+000	 1.151498698075909e+001
 2.600709994213145e+000	 1.650047703068222e+000	 1.151577274983202e+001
 2.582537450033408e+000	 1.678347364747429e+000	 1.151239337005423e+001
 2.564035605065816e+000	 1.706479029667844e+000	 1.150658922327929e+001
 2.545206712944915e+000	 1.734437031930372e+000	 1.150029224223610e+001
 2.526053155881353e+000	 1.762215744068701e+000	 1.149561323561169e+001
 2.506577443898632e+000	 1.789809580662045e+000	 1.149482767260473e+001
 2.709821420717266e+000	 1.519269665047867e+000	 1.142618524657011e+001
 2.693181831337400e+000	 1.548574752332153e+000	 1.145394300406693e+001
 2.676200688384482e+000	 1.577739416638730e+000	 1.147332974753741e+001
 2.658879609273776e+000	 1.606757804084753e+000	 1.148470463189251e+001
 2.641220343133271e+000	 1.635624081255775e+000	 1.148955789014033e+001
 2.623224770640963e+000	 1.664332438859940e+000	 1.148934822633572e+001
 2.604894903741769e+000	 1.692877095389386e+000	 1.148562172370671e+001
 2.586232885243353e+000	 1.721252300784296e+000	 1.148013683399083e+001
 2.567240988290342e+000	 1.749452340094955e+000	 1.147485271474328e+001
 2.547921615716559e+000	 1.777471537137146e+000	 1.147191587316561e+001
 2.528277299275187e+000	 1.805304258136177e+000	 1.147364518833739e+001
 2.733079444249319e+000	 1.532309347057451e+000	 1.140584376579267e+001
 2.716297039568712e+000	 1.561865955864427e+000	 1.142946160879335e+001
 2.699170149807901e+000	 1.591280936462619e+000	 1.144629497441860e+001
 2.681700406264190e+000	 1.620548384726113e+000	 1.145657287747298e+001
 2.663889573078078e+000	 1.649662417173072e+000	 1.146067426835045e+001
 2.645739547069145e+000	 1.678617174651290e+000	 1.146005562057950e+001
 2.627252357450537e+000	 1.707406826031018e+000	 1.145658613761248e+001
 2.608430165421335e+000	 1.736025571900473e+000	 1.145202814287700e+001
 2.589275263636230e+000	 1.764467648259312e+000	 1.144835326885791e+001
 2.569790075552226e+000	 1.792727330205414e+000	 1.144772841174377e+001
 2.549977154652176e+000	 1.820798935610175e+000	 1.145249998200469e+001
 2.332978600893775e+000	 1.665852160868178e+000	 1.166175164272607e+001
 2.314554334913666e+000	 1.691357693984630e+000	 1.165042141365404e+001
 2.295835247520404e+000	 1.716680885717582e+000	 1.163225558478662e+001
 2.276824022517764e+000	 1.741816671372895e+000	 1.160885538172366e+001
 2.257523458769130e+000	 1.766760038549538e+000	 1.158184848077801e+001
 2.237936468933869e+000	 1.791506030387907e+000	 1.155287655310839e+001
 2.218066078094256e+000	 1.816049748781706e+000	 1.152358230136662e+001
 2.197915422274171e+000	 1.840386357549125e+000	 1.149559607650679e+001
 2.177487746850984e+000	 1.864511085559069e+000	 1.147052216667019e+001
 2.156786404862220e+000	 1.888419229808245e+000	 1.144992485367986e+001
 2.135814855208781e+000	 1.912106158445013e+000	 1.143531433561468e+001
 2.354678456269270e+000	 1.681346838342176e+000	 1.164012757440900e+001
 2.336082819704505e+000	 1.707089607402158e+000	 1.162903821408114e+001
 2.317189619488916e+000	 1.732648339057221e+000	 1.161118350092902e+001
 2.298001564389259e+000	 1.758017921504730e+000	 1.158810162491053e+001
 2.278521479302110e+000	 1.783193295721556e+000	 1.156135942587727e+001
 2.258752303978483e+000	 1.808169458742603e+000	 1.153253937436553e+001
 2.238697091637989e+000	 1.832941466902575e+000	 1.150322601316188e+001
 2.218359007473745e+000	 1.857504439036639e+000	 1.147499195200534e+001
 2.197741327049500e+000	 1.881853559635735e+000	 1.144938351229429e+001
 2.176847434590536e+000	 1.905984081952293e+000	 1.142790612248872e+001
 2.155680821170189e+000	 1.929891331052193e+000	 1.141200956800159e+001
 2.376378311644662e+000	 1.696841515816308e+000	 1.161916086335023e+001
 2.357611304495278e+000	 1.722821520819784e+000	 1.160848915392217e+001
 2.338543991457385e+000	 1.748615792396929e+000	 1.159107856637642e+001
 2.319179106260727e+000	 1.774219171636611e+000	 1.156837779549228e+001
 2.299519499835069e+000	 1.799626552893600e+000	 1.154186587088831e+001
 2.279568139023079e+000	 1.824832887097314e+000	 1.151303858959673e+001
 2.259328105181699e+000	 1.849833185023448e+000	 1.148339437762919e+001
 2.238802592673292e+000	 1.874622520524149e+000	 1.145441967774072e+001
 2.217994907247979e+000	 1.899196033712393e+000	 1.142757396535116e+001
 2.196908464318808e+000	 1.923548934096329e+000	 1.140427449861286e+001
 2.175546787131546e+000	 1.947676503659357e+000	 1.138588091188688e+001
 2.398078167020021e+000	 1.712336193290541e+000	 1.159854873163285e+001
 2.379139789286039e+000	 1.738553434237483e+000	 1.158851215752862e+001
 2.359898363425856e+000	 1.764583245736689e+000	 1.157170271544257e+001
 2.340356648132197e+000	 1.790420421768526e+000	 1.154945413025365e+001
 2.320517520368025e+000	 1.816059810065665e+000	 1.152313165918491e+001
 2.300383974067660e+000	 1.841496315452034e+000	 1.149411798908043e+001
 2.279959118725377e+000	 1.866724903144321e+000	 1.146379853076514e+001
 2.259246177872786e+000	 1.891740602011651e+000	 1.143354621268082e+001
 2.238248487446389e+000	 1.916538507789036e+000	 1.140470588099348e+001
 2.216969494046992e+000	 1.941113786240340e+000	 1.137857841761096e+001
 2.195412753092805e+000	 1.965461676266488e+000	 1.135640469099794e+001
 2.419778022395412e+000	 1.727830870764843e+000	 1.157805546541558e+001
 2.400668274076846e+000	 1.754285347655232e+000	 1.156890940533470e+001
 2.381252735394372e+000	 1.780550699076482e+000	 1.155287976061618e+001
 2.361534190003698e+000	 1.806621671900462e+000	 1.153116077624208e+001
 2.341515540900994e+000	 1.832493067237742e+000	 1.150497896610927e+001
 2.321199809112225e+000	 1.858159743806755e+000	 1.147557848571086e+001
 2.300590132269011e+000	 1.883616621265188e+000	 1.144420586978473e+001
 2.279689763072207e+000	 1.908858683499138e+000	 1.141209424225975e+001
 2.258502067644693e+000	 1.933880981865654e+000	 1.138044711108682e+001
 2.237030523775047e+000	 1.958678638384314e+000	 1.135042186500700e+001
 2.215278719053913e+000	 1.983246848873568e+000	 1.132311309293260e+001
 2.441477877770901e+000	 1.743325548239177e+000	 1.155751104279993e+001
 2.422196758867754e+000	 1.770017261073006e+000	 1.154954596517859e+001
 2.402607107362975e+000	 1.796518152416293e+000	 1.153449400527464e+001
 2.382711731875265e+000	 1.822822922032409e+000	 1.151338636418597e+001
 2.362513561433991e+000	 1.848926324409821e+000	 1.148728681380804e+001
 2.342015644156779e+000	 1.874823172161472e+000	 1.145727655338854e+001
 2.321221145812591e+000	 1.900508339386042e+000	 1.142443839864721e+001
 2.300133348271529e+000	 1.925976764986603e+000	 1.138984041608422e+001
 2.278755647842860e+000	 1.951223455942238e+000	 1.135451912062593e+001
 2.257091553502927e+000	 1.976243490528240e+000	 1.131946235944424e+001
 2.235144685014823e+000	 2.001032021480582e+000	 1.128561436554979e+001
 2.463177733146556e+000	 1.758820225713511e+000	 1.153680977953000e+001
 2.443725243658819e+000	 1.785749174490779e+000	 1.153034843870508e+001
 2.423961479331708e+000	 1.812485605756102e+000	 1.151648886989799e+001
 2.403889273746923e+000	 1.839024172164353e+000	 1.149607659493930e+001
 2.383511581967032e+000	 1.865359581581895e+000	 1.146998959965781e+001
 2.362831479201324e+000	 1.891486600516179e+000	 1.143912268053273e+001
 2.341852159356105e+000	 1.917400057506879e+000	 1.140437109113686e+001
 2.320576933470728e+000	 1.943094846474039e+000	 1.136661360645928e+001
 2.299009228040850e+000	 1.968565930018779e+000	 1.132669512899243e+001
 2.277152583230591e+000	 1.993808342672106e+000	 1.128540896538951e+001
 2.255010650975482e+000	 2.018817194087512e+000	 1.125092765606542e+001
 2.484877588522445e+000	 1.774314903187812e+000	 1.151590899143573e+001
 2.465253728450097e+000	 1.801481087908528e+000	 1.151130362192809e+001
 2.445315851300619e+000	 1.828453059095895e+000	 1.149886553095998e+001
 2.425066815618706e+000	 1.855225422296282e+000	 1.147923283815595e+001
 2.404509602500136e+000	 1.881792838753954e+000	 1.145307563744900e+001
 2.383647314245862e+000	 1.908150028870870e+000	 1.142107983779109e+001
 2.362483172899539e+000	 1.934291775627691e+000	 1.138393027042624e+001
 2.341020518669781e+000	 1.960212927961440e+000	 1.134229318646008e+001
 2.319262808238635e+000	 1.985908404095269e+000	 1.129679827453536e+001
 2.297213612957994e+000	 2.011373194815898e+000	 1.125077726247251e+001
 2.274876616935843e+000	 2.036602366694342e+000	 1.122470062774051e+001
 2.506577443898632e+000	 1.789809580662045e+000	 1.149482767260473e+001
 2.486782213241644e+000	 1.817213001326228e+000	 1.149245717909521e+001
 2.466670223269748e+000	 1.844420512435651e+000	 1.148168157172618e+001
 2.446244357490642e+000	 1.871426672428186e+000	 1.146291074245243e+001
 2.425507623033317e+000	 1.898226095925993e+000	 1.143658571055487e+001
 2.404463149290395e+000	 1.924813457225536e+000	 1.140316195908736e+001
 2.383114186442888e+000	 1.951183493748474e+000	 1.136309200412318e+001
 2.361464103868667e+000	 1.977331009448800e+000	 1.131680732636613e+001
 2.339516388436177e+000	 2.003250878171699e+000	 1.126492791130150e+001
 2.317274642685093e+000	 2.028938046959606e+000	 1.122498375867045e+001
 2.294742582895855e+000	 2.054387539301056e+000	 1.120673867432488e+001
 2.528277299275187e+000	 1.805304258136177e+000	 1.147364518833739e+001
 2.508310698033515e+000	 1.832944914743853e+000	 1.147391232905439e+001
 2.488024595239138e+000	 1.860387965775353e+000	 1.146504964424461e+001
 2.467421899362762e+000	 1.887627922560051e+000	 1.144721885636978e+001
 2.446505643566593e+000	 1.914659353098001e+000	 1.142061163636566e+001
 2.425278984334927e+000	 1.941476885580175e+000	 1.138543243520414e+001
 2.403745199986136e+000	 1.968075211869223e+000	 1.134188051387042e+001
 2.381907689067360e+000	 1.994449090936112e+000	 1.129013130735328e+001
 2.359769968633441e+000	 2.020593352248060e+000	 1.123948524541958e+001
 2.337335672411845e+000	 2.046502899103217e+000	 1.120876061845561e+001
 2.314608548855468e+000	 2.072172711907637e+000	 1.119688127071359e+001
 2.549977154652176e+000	 1.820798935610175e+000	 1.145249998200469e+001
 2.529839182825770e+000	 1.848676828161380e+000	 1.145582854337876e+001
 2.509378967208837e+000	 1.876355419114987e+000	 1.144913614186254e+001
 2.488599441235097e+000	 1.903829172691866e+000	 1.143231725949019e+001
 2.467503664099979e+000	 1.931092610269970e+000	 1.140529484131716e+001
 2.446094819379461e+000	 1.958140313934778e+000	 1.136800261915543e+001
 2.424376213529276e+000	 1.984966929989930e+000	 1.132036659863221e+001
 2.402351274265837e+000	 2.011567172423368e+000	 1.126521185243797e+001
 2.380023548830396e+000	 2.037935826324343e+000	 1.122476679828329e+001
 2.357396702138207e+000	 2.064067751246718e+000	 1.120205573644051e+001
 2.334474514814633e+000	 2.089957884514068e+000	 1.119500047011992e+001
 2.135814855208781e+000	 1.912106158445013e+000	 1.143531433561468e+001
 2.114579866454582e+000	 1.935563812195057e+000	 1.142058629730112e+001
 2.093081977940697e+000	 1.958791283446953e+000	 1.139710272907743e+001
 2.071324954503008e+000	 1.981784175181508e+000	 1.136240929068584e+001
 2.049312658562491e+000	 2.004538173005029e+000	 1.131429636700023e+001
 2.027049047843805e+000	 2.027049047843805e+000	 1.126317364709295e+001
 2.004538173005029e+000	 2.049312658562490e+000	 1.121158399129168e+001
 1.981784175181508e+000	 2.071324954503008e+000	 1.115924286001161e+001
 1.958791283446953e+000	 2.093081977940697e+000	 1.111078248960783e+001
 1.935563812195057e+000	 2.114579866454582e+000	 1.106377193391840e+001
 1.912106158445013e+000	 2.135814855208781e+000	 1.101565966711204e+001
 2.155680821170189e+000	 1.929891331052193e+000	 1.141200956800159e+001
 2.134248318309155e+000	 1.953567172698978e+000	 1.139491936895815e+001
 2.112550470365117e+000	 1.977010690839198e+000	 1.136753311635815e+001
 2.090591077192041e+000	 2.000217447555418e+000	 1.132764605370559e+001
 2.068374037136654e+000	 2.023183088324236e+000	 1.128360256487818e+001
 2.045903344735822e+000	 2.045903344735822e+000	 1.124234644608251e+001
 2.023183088324237e+000	 2.068374037136653e+000	 1.119999760945711e+001
 2.000217447555417e+000	 2.090591077192041e+000	 1.115261366124537e+001
 1.977010690839198e+000	 2.112550470365117e+000	 1.110265234460225e+001
 1.953567172698978e+000	 2.134248318309155e+000	 1.105386228831961e+001
 1.929891331052193e+000	 2.155680821170189e+000	 1.100393566905741e+001
 2.175546787131546e+000	 1.947676503659357e+000	 1.138588091188688e+001
 2.153916770163675e+000	 1.971570533202878e+000	 1.136499041344667e+001
 2.132018962789484e+000	 1.995230098231415e+000	 1.133212854855517e+001
 2.109857199881020e+000	 2.018650719929294e+000	 1.129240536253338e+001
 2.087435415710766e+000	 2.041828003643404e+000	 1.125764667830134e+001
 2.064757641627792e+000	 2.064757641627792e+000	 1.122479523896154e+001
 2.041828003643404e+000	 2.087435415710766e+000	 1.119025999578354e+001
 2.018650719929294e+000	 2.109857199881021e+000	 1.115039130018588e+001
 1.995230098231415e+000	 2.132018962789484e+000	 1.110177153927818e+001
 1.971570533202878e+000	 2.153916770163674e+000	 1.105005829094410e+001
 1.947676503659357e+000	 2.175546787131546e+000	 1.099737860823906e+001
 2.195412753092805e+000	 1.965461676266488e+000	 1.135640469099794e+001
 2.173585222018087e+000	 1.989573893706733e+000	 1.133020650903270e+001
 2.151487455213741e+000	 2.013449505623575e+000	 1.129393691999773e+001
 2.129123322569894e+000	 2.037083992303101e+000	 1.126274994483186e+001
 2.106496794284778e+000	 2.060472918962490e+000	 1.123577728369954e+001
 2.083611938519672e+000	 2.083611938519672e+000	 1.120982827744373e+001
 2.060472918962490e+000	 2.106496794284777e+000	 1.118164682070497e+001
 2.037083992303101e+000	 2.129123322569894e+000	 1.114792236497245e+001
 2.013449505623575e+000	 2.151487455213741e+000	 1.110530108009854e+001
 1.989573893706733e+000	 2.173585222018087e+000	 1.105177848746870e+001
 1.965461676266487e+000	 2.195412753092805e+000	 1.099543703578752e+001
 2.215278719053913e+000	 1.983246848873568e+000	 1.132311309293260e+001
 2.193253673872338e+000	 2.007577254210522e+000	 1.129121999250624e+001
 2.170955947637836e+000	 2.031668913015651e+000	 1.126181859184198e+001
 2.148389445258608e+000	 2.055517264676805e+000	 1.123812315205403e+001
 2.125558172858639e+000	 2.079117834281456e+000	 1.121738883137925e+001
 2.102466235411413e+000	 2.102466235411413e+000	 1.119679975061501e+001
 2.079117834281456e+000	 2.125558172858639e+000	 1.117347947582646e+001
 2.055517264676805e+000	 2.148389445258608e+000	 1.114450172803560e+001
 2.031668913015651e+000	 2.170955947637836e+000	 1.110690124738832e+001
 2.007577254210522e+000	 2.193253673872338e+000	 1.105768473836487e+001
 1.983246848873568e+000	 2.215278719053913e+000	 1.099753114371960e+001
 2.235144685014823e+000	 2.001032021480582e+000	 1.128561436554979e+001
 2.212922125726377e+000	 2.025580614714222e+000	 1.125756416038928e+001
 2.190424440061712e+000	 2.049888320407614e+000	 1.123578259103963e+001
 2.167655567947108e+000	 2.073950537050373e+000	 1.121801207373203e+001
 2.144619551432299e+000	 2.097762749600260e+000	 1.120191989882207e+001
 2.121320532302972e+000	 2.121320532302971e+000	 1.118510806066318e+001
 2.097762749600260e+000	 2.144619551432299e+000	 1.116512338582844e+001
 2.073950537050372e+000	 2.167655567947108e+000	 1.113946788628146e+001
 2.049888320407614e+000	 2.190424440061712e+000	 1.110560926249660e+001
 2.025580614714222e+000	 2.212922125726376e+000	 1.106099148057124e+001
 2.001032021480582e+000	 2.235144685014823e+000	 1.100304534707181e+001
 2.255010650975482e+000	 2.018817194087512e+000	 1.125092765606542e+001
 2.232590577580147e+000	 2.043583975217812e+000	 1.123113900378775e+001
 2.209892932485317e+000	 2.068107727799438e+000	 1.121541529421399e+001
 2.186921690635343e+000	 2.092383809423768e+000	 1.120194583096696e+001
 2.163680930005709e+000	 2.116407664918862e+000	 1.118885149282250e+001
 2.140174829194301e+000	 2.140174829194301e+000	 1.117419414872134e+001
 2.116407664918862e+000	 2.163680930005709e+000	 1.115598637107920e+001
 2.092383809423768e+000	 2.186921690635343e+000	 1.113220137152708e+001
 2.068107727799437e+000	 2.209892932485317e+000	 1.110078308155466e+001
 2.043583975217812e+000	 2.232590577580147e+000	 1.105965629954670e+001
 2.018817194087512e+000	 2.255010650975482e+000	 1.100673682540766e+001
 2.274876616935843e+000	 2.036602366694342e+000	 1.122470062774051e+001
 2.252259029433597e+000	 2.061587335721270e+000	 1.121163697359449e+001
 2.229361424908593e+000	 2.086327135191092e+000	 1.120034273166391e+001
 2.206187813323257e+000	 2.110817081796956e+000	 1.118949391383849e+001
 2.182742308578817e+000	 2.135052580237221e+000	 1.117770539747986e+001
 2.159029126085356e+000	 2.159029126085355e+000	 1.116353986776316e+001
 2.135052580237221e+000	 2.182742308578817e+000	 1.114551705785601e+001
 2.110817081796957e+000	 2.206187813323258e+000	 1.112212320855866e+001
 2.086327135191092e+000	 2.229361424908593e+000	 1.109182066730959e+001
 2.061587335721269e+000	 2.252259029433597e+000	 1.105305754545306e+001
 2.036602366694342e+000	 2.274876616935843e+000	 1.100427735237469e+001
 2.294742582895855e+000	 2.054387539301056e+000	 1.120673867432489e+001
 2.271927481286673e+000	 2.079590696224573e+000	 1.119878752095728e+001
 2.248829917331490e+000	 2.104546542582549e+000	 1.119022896905474e+001
 2.225453936010800e+000	 2.129250354169905e+000	 1.118026456007383e+001
 2.201803687151573e+000	 2.153697495555299e+000	 1.116804256526553e+001
 2.177883422976089e+000	 2.177883422976089e+000	 1.115266639969733e+001
 2.153697495555299e+000	 2.201803687151573e+000	 1.113320333328903e+001
 2.129250354169905e+000	 2.225453936010800e+000	 1.110869341792720e+001
 2.104546542582549e+000	 2.248829917331490e+000	 1.107815854794330e+001
 2.079590696224572e+000	 2.271927481286673e+000	 1.104061157020546e+001
 2.054387539301056e+000	 2.294742582895855e+000	 1.099506535978963e+001
 2.314608548855468e+000	 2.072172711907637e+000	 1.119688127071359e+001
 2.291595933139321e+000	 2.097594056727699e+000	 1.119235553226234e+001
 2.268298409753951e+000	 2.122765949973781e+000	 1.118477452544625e+001
 2.244720058697916e+000	 2.147683626542579e+000	 1.117390317249626e+001
 2.220865065723928e+000	 2.172342410873053e+000	 1.115946154857756e+001
 2.196737719866457e+000	 2.196737719866457e+000	 1.114113271400655e+001
 2.172342410873052e+000	 2.220865065723928e+000	 1.111857084234145e+001
 2.147683626542579e+000	 2.244720058697916e+000	 1.109140956079344e+001
 2.122765949973781e+000	 2.268298409753950e+000	 1.105927041756216e+001
 2.097594056727699e+000	 2.291595933139321e+000	 1.102177138963527e+001
 2.072172711907637e+000	 2.314608548855468e+000	 1.097853534431580e+001
 2.334474514814633e+000	 2.089957884514068e+000	 1.119500047011992e+001
 2.311264384991488e+000	 2.115597417230627e+000	 1.119213979522166e+001
 2.287766902175922e+000	 2.140985357364761e+000	 1.118371482549327e+001
 2.263986181384554e+000	 2.166116898914944e+000	 1.117009077294344e+001
 2.239926444295830e+000	 2.190987326190443e+000	 1.115159696937064e+001
 2.215592016756413e+000	 2.215592016756412e+000	 1.112853406545600e+001
 2.190987326190444e+000	 2.239926444295831e+000	 1.110118152432225e+001
 2.166116898914944e+000	 2.263986181384554e+000	 1.106980532331777e+001
 2.140985357364762e+000	 2.287766902175922e+000	 1.103466577587480e+001
 2.115597417230626e+000	 2.311264384991489e+000	 1.099602538419740e+001
 2.089957884514069e+000	 2.334474514814633e+000	 1.095415663326628e+001
 1.912106158445013e+000	 2.135814855208781e+000	 1.101565966711204e+001
 1.888419229808245e+000	 2.156786404862220e+000	 1.096298936238316e+001
 1.864511085559069e+000	 2.177487746850984e+000	 1.090485978116696e+001
 1.840386357549125e+000	 2.197915422274170e+000	 1.084268790088956e+001
 1.816049748781705e+000	 2.218066078094255e+000	 1.077797950144079e+001
 1.791506030387908e+000	 2.237936468933869e+000	 1.071230523471123e+001
 1.766760038549538e+000	 2.257523458769129e+000	 1.064727676402913e+001
 1.741816671372895e+000	 2.276824022517764e+000	 1.058452317883757e+001
 1.716680885717582e+000	 2.295835247520404e+000	 1.052566788627521e+001
 1.691357693984630e+000	 2.314554334913665e+000	 1.047230617599788e+001
 1.665852160868179e+000	 2.332978600893775e+000	 1.042598364765751e+001
 1.929891331052193e+000	 2.155680821170189e+000	 1.100393566905741e+001
 1.905984081952293e+000	 2.176847434590535e+000	 1.095008195141371e+001
 1.881853559635735e+000	 2.197741327049500e+000	 1.089177791938616e+001
 1.857504439036638e+000	 2.218359007473745e+000	 1.083025749897522e+001
 1.832941466902574e+000	 2.238697091637989e+000	 1.076684150128062e+001
 1.808169458742604e+000	 2.258752303978484e+000	 1.070291251079316e+001
 1.783193295721556e+000	 2.278521479302110e+000	 1.063988985508808e+001
 1.758017921504730e+000	 2.298001564389258e+000	 1.057920487338500e+001
 1.732648339057221e+000	 2.317189619488917e+000	 1.052227669756850e+001
 1.707089607402157e+000	 2.336082819704504e+000	 1.047048875364732e+001
 1.681346838342176e+000	 2.354678456269270e+000	 1.042516618432375e+001
 1.947676503659357e+000	 2.175546787131546e+000	 1.099737860823906e+001
 1.923548934096329e+000	 2.196908464318807e+000	 1.094157906410253e+001
 1.899196033712393e+000	 2.217994907247979e+000	 1.088244406815101e+001
 1.874622520524149e+000	 2.238802592673292e+000	 1.082101154004701e+001
 1.849833185023448e+000	 2.259328105181699e+000	 1.075840460188019e+001
 1.824832887097314e+000	 2.279568139023080e+000	 1.069580522818393e+001
 1.799626552893600e+000	 2.299519499835069e+000	 1.063442798830486e+001
 1.774219171636611e+000	 2.319179106260727e+000	 1.057549411130740e+001
 1.748615792396929e+000	 2.338543991457386e+000	 1.052020609952865e+001
 1.722821520819784e+000	 2.357611304495278e+000	 1.046972311098189e+001
 1.696841515816308e+000	 2.376378311644662e+000	 1.042513732310454e+001
 1.965461676266487e+000	 2.195412753092805e+000	 1.099543703578752e+001
 1.941113786240340e+000	 2.216969494046992e+000	 1.093696069123362e+001
 1.916538507789037e+000	 2.238248487446389e+000	 1.087637186210118e+001
 1.891740602011651e+000	 2.259246177872786e+000	 1.081450042523462e+001
 1.866724903144321e+000	 2.279959118725377e+000	 1.075226001790050e+001
 1.841496315452034e+000	 2.300383974067659e+000	 1.069062038789506e+001
 1.816059810065665e+000	 2.320517520368025e+000	 1.063057984638169e+001
 1.790420421768526e+000	 2.340356648132197e+000	 1.057313806697992e+001
 1.764583245736689e+000	 2.359898363425857e+000	 1.051926947035627e+001
 1.738553434237483e+000	 2.379139789286039e+000	 1.046989742734408e+001
 1.712336193290541e+000	 2.398078167020021e+000	 1.042586950550383e+001
 1.983246848873568e+000	 2.215278719053913e+000	 1.099753114371960e+001
 1.958678638384314e+000	 2.237030523775047e+000	 1.093567471521178e+001
 1.933880981865654e+000	 2.258502067644693e+000	 1.087303881821260e+001
 1.908858683499138e+000	 2.279689763072207e+000	 1.081023417399194e+001
 1.883616621265188e+000	 2.300590132269012e+000	 1.074795406963531e+001
 1.858159743806755e+000	 2.321199809112224e+000	 1.068694534189939e+001
 1.832493067237741e+000	 2.341515540900993e+000	 1.062797947357681e+001
 1.806621671900462e+000	 2.361534190003698e+000	 1.057182405987822e+001
 1.780550699076482e+000	 2.381252735394371e+000	 1.051921489786099e+001
 1.754285347655232e+000	 2.400668274076846e+000	 1.047082894539301e+001
 1.727830870764843e+000	 2.419778022395412e+000	 1.042725838759812e+001
 2.001032021480582e+000	 2.235144685014823e+000	 1.100304534707181e+001
 1.976243490528240e+000	 2.257091553502927e+000	 1.093714340461475e+001
 1.951223455942238e+000	 2.278755647842859e+000	 1.087189271268983e+001
 1.925976764986603e+000	 2.300133348271529e+000	 1.080768868197401e+001
 1.900508339386043e+000	 2.321221145812591e+000	 1.074499432168778e+001
 1.874823172161473e+000	 2.342015644156779e+000	 1.068432381359791e+001
 1.848926324409820e+000	 2.362513561433990e+000	 1.062621218012703e+001
 1.822822922032408e+000	 2.382711731875264e+000	 1.057118534629765e+001
 1.796518152416293e+000	 2.402607107362974e+000	 1.051973086298930e+001
 1.770017261073006e+000	 2.422196758867754e+000	 1.047226955211905e+001
 1.743325548239177e+000	 2.441477877770901e+000	 1.042912832537360e+001
 2.018817194087512e+000	 2.255010650975482e+000	 1.100673682540766e+001
 1.993808342672107e+000	 2.277152583230591e+000	 1.094076995581443e+001
 1.968565930018780e+000	 2.299009228040851e+000	 1.087235800342041e+001
 1.943094846474039e+000	 2.320576933470728e+000	 1.080631202270754e+001
 1.917400057506879e+000	 2.341852159356104e+000	 1.074285576337097e+001
 1.891486600516179e+000	 2.362831479201324e+000	 1.068226195759966e+001
 1.865359581581894e+000	 2.383511581967032e+000	 1.062482048319529e+001
 1.839024172164352e+000	 2.403889273746924e+000	 1.057080694439385e+001
 1.812485605756102e+000	 2.423961479331709e+000	 1.052045195301781e+001
 1.785749174490779e+000	 2.443725243658818e+000	 1.047391138537877e+001
 1.758820225713511e+000	 2.463177733146556e+000	 1.043123788091379e+001
 2.036602366694342e+000	 2.274876616935843e+000	 1.100427735237468e+001
 2.011373194815899e+000	 2.297213612957994e+000	 1.094418640988962e+001
 1.985908404095269e+000	 2.319262808238634e+000	 1.087384229520761e+001
 1.960212927961440e+000	 2.341020518669781e+000	 1.080553079037826e+001
 1.934291775627691e+000	 2.362483172899540e+000	 1.074098702828110e+001
 1.908150028870870e+000	 2.383647314245862e+000	 1.068023445641222e+001
 1.881792838753955e+000	 2.404509602500136e+000	 1.062331008211080e+001
 1.855225422296282e+000	 2.425066815618706e+000	 1.057023149050747e+001
 1.828453059095894e+000	 2.445315851300618e+000	 1.052096460259797e+001
 1.801481087908528e+000	 2.465253728450097e+000	 1.047539246438994e+001
 1.774314903187812e+000	 2.484877588522445e+000	 1.043328534816214e+001
 2.054387539301056e+000	 2.294742582895855e+000	 1.099506535978963e+001
 2.028938046959606e+000	 2.317274642685093e+000	 1.094067411174881e+001
 2.003250878171699e+000	 2.339516388436176e+000	 1.087559487276227e+001
 1.977331009448800e+000	 2.361464103868666e+000	 1.080475648124334e+001
 1.951183493748474e+000	 2.383114186442888e+000	 1.073881665067001e+001
 1.924813457225537e+000	 2.404463149290396e+000	 1.067769065180475e+001
 1.898226095925993e+000	 2.425507623033317e+000	 1.062115586582307e+001
 1.871426672428187e+000	 2.446244357490643e+000	 1.056896512487804e+001
 1.844420512435650e+000	 2.466670223269748e+000	 1.052081286096515e+001
 1.817213001326227e+000	 2.486782213241644e+000	 1.047630234273423e+001
 1.789809580662045e+000	 2.506577443898633e+000	 1.043491429707411e+001
 2.072172711907637e+000	 2.314608548855468e+000	 1.097853534431580e+001
 2.046502899103217e+000	 2.337335672411845e+000	 1.092912938678719e+001
 2.020593352248060e+000	 2.359769968633441e+000	 1.087152237191649e+001
 1.994449090936111e+000	 2.381907689067359e+000	 1.080339191134843e+001
 1.968075211869222e+000	 2.403745199986136e+000	 1.073575935640559e+001
 1.941476885580175e+000	 2.425278984334927e+000	 1.067406070876186e+001
 1.914659353098001e+000	 2.446505643566593e+000	 1.061780795063509e+001
 1.887627922560051e+000	 2.467421899362762e+000	 1.056648340498077e+001
 1.860387965775354e+000	 2.488024595239140e+000	 1.051950418373993e+001
 1.832944914743853e+000	 2.508310698033516e+000	 1.047618778251616e+001
 1.805304258136177e+000	 2.528277299275187e+000	 1.043571913505329e+001
 2.089957884514069e+000	 2.334474514814633e+000	 1.095415663326628e+001
 2.064067751246718e+000	 2.357396702138207e+000	 1.090900391636756e+001
 2.037935826324343e+000	 2.380023548830395e+000	 1.085827849120682e+001
 2.011567172423368e+000	 2.402351274265837e+000	 1.079891536198264e+001
 1.984966929989930e+000	 2.424376213529276e+000	 1.073122238646029e+001
 1.958140313934778e+000	 2.446094819379461e+000	 1.066876181008581e+001
 1.931092610269970e+000	 2.467503664099979e+000	 1.061269774641125e+001
 1.903829172691866e+000	 2.488599441235097e+000	 1.056223724484052e+001
 1.876355419114987e+000	 2.509378967208838e+000	 1.051651524785615e+001
 1.848676828161380e+000	 2.529839182825770e+000	 1.047455844841760e+001
 1.820798935610176e+000	 2.549977154652176e+000	 1.043525068464247e+001
 1.665852160868179e+000	 2.332978600893775e+000	 1.042598364765751e+001
 1.640169399520067e+000	 2.351105477207141e+000	 1.037958110863026e+001
 1.614314566612346e+000	 2.368932510188156e+000	 1.032585976553655e+001
 1.588292860734558e+000	 2.386457363650868e+000	 1.026604262313572e+001
 1.562109519609820e+000	 2.403677820370209e+000	 1.020121570356825e+001
 1.535769816732273e+000	 2.420591782792370e+000	 1.013231405274241e+001
 1.509279057994052e+000	 2.437197273632522e+000	 1.006010954283146e+001
 1.482642578306111e+000	 2.453492436359996e+000	 9.985200572520144e+000
 1.455865738217200e+000	 2.469475535571230e+000	 9.908003750428511e+000
 1.428953920535294e+000	 2.485144957250983e+000	 9.828747630361811e+000
 1.401912526955667e+000	 2.500499208922499e+000	 9.747468549828561e+000
 1.681346838342176e+000	 2.354678456269270e+000	 1.042516618432375e+001
 1.655425192588333e+000	 2.372973937041403e+000	 1.037887484381178e+001
 1.629329874776701e+000	 2.390966785532879e+000	 1.032448185652456e+001
 1.603066131850734e+000	 2.408654643828039e+000	 1.026360788880236e+001
 1.576639250251452e+000	 2.426035274078607e+000	 1.019772691688458e+001
 1.550054552523622e+000	 2.443106559220670e+000	 1.012815048297209e+001
 1.523317393911349e+000	 2.459866503577958e+000	 1.005601386872982e+001
 1.496433158947471e+000	 2.476313233351541e+000	 9.982264296611284e+000
 1.469407258041088e+000	 2.492444996996238e+000	 9.907651252183205e+000
 1.442245124067568e+000	 2.508260165484270e+000	 9.832719002804796e+000
 1.414952208965249e+000	 2.523757232456807e+000	 9.757801369737127e+000
 1.696841515816308e+000	 2.376378311644662e+000	 1.042513732310454e+001
 1.670680985656779e+000	 2.394842396875518e+000	 1.037874344504059e+001
 1.644345182941285e+000	 2.413001060877398e+000	 1.032353063561626e+001
 1.617839402967188e+000	 2.430851924004947e+000	 1.026146269479829e+001
 1.591168980893409e+000	 2.448392727786678e+000	 1.019434654464114e+001
 1.564339288315340e+000	 2.465621335648581e+000	 1.012381476014336e+001
 1.537355729829050e+000	 2.482535733522948e+000	 1.005131014327884e+001
 1.510223739589258e+000	 2.499134030342586e+000	 9.978072459571420e+000
 1.482948777865412e+000	 2.515414458420706e+000	 9.905127438341362e+000
 1.455536327600267e+000	 2.531375373716986e+000	 9.833278118851711e+000
 1.427991890975229e+000	 2.547015255990533e+000	 9.763098605180842e+000
 1.712336193290541e+000	 2.398078167020021e+000	 1.042586950550383e+001
 1.685936778725359e+000	 2.416710856709561e+000	 1.037924927402655e+001
 1.659360491106039e+000	 2.435035336221800e+000	 1.032316095854880e+001
 1.632612674083848e+000	 2.453049204181680e+000	 1.025985886505760e+001
 1.605698711535610e+000	 2.470750181494515e+000	 1.019142971911523e+001
 1.578624024107333e+000	 2.488136112076197e+000	 1.011977349178686e+001
 1.551394065747053e+000	 2.505204963467584e+000	 1.004658639910221e+001
 1.524014320231365e+000	 2.521954827333227e+000	 9.973346203672120e+000
 1.496490297690064e+000	 2.538383919844724e+000	 9.901299927762409e+000
 1.468827531133287e+000	 2.554490581949219e+000	 9.831454067103550e+000
 1.441031572985507e+000	 2.570273279523760e+000	 9.764567374152248e+000
 1.727830870764843e+000	 2.419778022395412e+000	 1.042725838759812e+001
 1.701192571794027e+000	 2.438579316543607e+000	 1.038037203068423e+001
 1.674375799270905e+000	 2.457069611566164e+000	 1.032343926314541e+001
 1.647385945200647e+000	 2.475246484358327e+000	 1.025895413737812e+001
 1.620228442177975e+000	 2.493107635202212e+000	 1.018923187334383e+001
 1.592908759899511e+000	 2.510650888503613e+000	 1.011638799494407e+001
 1.565432401665257e+000	 2.527874193411962e+000	 1.004231977514349e+001
 1.537804900873685e+000	 2.544775624323555e+000	 9.968690127994531e+000
 1.510031817514932e+000	 2.561353381268382e+000	 9.896914065283387e+000
 1.482118734666520e+000	 2.577605790181060e+000	 9.828147814323044e+000
 1.454071254995983e+000	 2.593531303056567e+000	 9.763280671649785e+000
 1.743325548239177e+000	 2.441477877770901e+000	 1.042912832537360e+001
 1.716448364862740e+000	 2.460447776377734e+000	 1.038201414337798e+001
 1.689391107435829e+000	 2.479103886910575e+000	 1.032434885998138e+001
 1.662159216317515e+000	 2.497443764534976e+000	 1.025881735293913e+001
 1.634758172820419e+000	 2.515465088909857e+000	 1.018791383082406e+001
 1.607193495691781e+000	 2.533165664930923e+000	 1.011391929026947e+001
 1.579470737583563e+000	 2.550543423356175e+000	 1.003888142225654e+001
 1.551595481516112e+000	 2.567596421313664e+000	 9.964597115437572e+000
 1.523573337339909e+000	 2.584322842691774e+000	 9.892597682892383e+000
 1.495409938199861e+000	 2.600720998412591e+000	 9.824136916305635e+000
 1.467110937006559e+000	 2.616789326589043e+000	 9.760182048528996e+000
 1.758820225713511e+000	 2.463177733146556e+000	 1.043123788091379e+001
 1.731704157931453e+000	 2.482316236212016e+000	 1.038400617517736e+001
 1.704406415600752e+000	 2.501138162255115e+000	 1.032579523434670e+001
 1.676932487434383e+000	 2.519641044711714e+000	 1.025943365239444e+001
 1.649287903462864e+000	 2.537822542617543e+000	 1.018754689693578e+001
 1.621478231484051e+000	 2.555680441358218e+000	 1.011253309274031e+001
 1.593509073501868e+000	 2.573212653300319e+000	 1.003654139990077e+001
 1.565386062158539e+000	 2.590417218303647e+000	 9.961453144814577e+000
 1.537114857164887e+000	 2.607292304114989e+000	 9.888865839332240e+000
 1.508701141733201e+000	 2.623836206643904e+000	 9.820080199757179e+000
 1.480150619017134e+000	 2.640047350121267e+000	 9.756090253050017e+000
 1.774314903187812e+000	 2.484877588522445e+000	 1.043328534816214e+001
 1.746959951000122e+000	 2.504184696046531e+000	 1.038611224514451e+001
 1.719421723765620e+000	 2.523172437599867e+000	 1.032761135881309e+001
 1.691705758551183e+000	 2.541838324888631e+000	 1.026070967813894e+001
 1.663817634105228e+000	 2.560179996325362e+000	 1.018811795198108e+001
 1.635762967276229e+000	 2.578195217785595e+000	 1.011230479918207e+001
 1.607547409420072e+000	 2.595881883244487e+000	 1.003547356448599e+001
 1.579176642800859e+000	 2.613238015293599e+000	 9.959542088948926e+000
 1.550656376989755e+000	 2.630261765538118e+000	 9.886125539452550e+000
 1.521992345266434e+000	 2.646951414875085e+000	 9.816522416951809e+000
 1.493190301027610e+000	 2.663305373653324e+000	 9.751703837400649e+000
 1.789809580662045e+000	 2.506577443898633e+000	 1.043491429707411e+001
 1.762215744068701e+000	 2.526053155881353e+000	 1.038803546374274e+001
 1.734437031930373e+000	 2.545206712944916e+000	 1.032956301576309e+001
 1.706479029667844e+000	 2.564035605065815e+000	 1.026247878237411e+001
 1.678347364747429e+000	 2.582537450033407e+000	 1.018953454574304e+001
 1.650047703068223e+000	 2.600709994213145e+000	 1.011322447280235e+001
 1.621585745338075e+000	 2.618551113188773e+000	 1.003576044987196e+001
 1.592967223442966e+000	 2.636058812283610e+000	 9.959050499617929e+000
 1.564197896814406e+000	 2.653231226961252e+000	 9.884680434537438e+000
 1.535283548799454e+000	 2.670066623106221e+000	 9.813954399432571e+000
 1.506229983037888e+000	 2.686563397185296e+000	 9.749681720976804e+000
 1.805304258136177e+000	 2.528277299275187e+000	 1.043571913505329e+001
 1.777471537137146e+000	 2.547921615716559e+000	 1.038942338151707e+001
 1.749452340094956e+000	 2.567240988290342e+000	 1.033135412928326e+001
 1.721252300784296e+000	 2.586232885243353e+000	 1.026450624062547e+001
 1.692877095389386e+000	 2.604894903741769e+000	 1.019162999347187e+001
 1.664332438859940e+000	 2.623224770640964e+000	 1.011520182491254e+001
 1.635624081255775e+000	 2.641220343133271e+000	 1.003739814049467e+001
 1.606757804084753e+000	 2.658879609273776e+000	 9.960072380134102e+000
 1.577739416638730e+000	 2.676200688384482e+000	 9.885108746233223e+000
 1.548574752332153e+000	 2.693181831337400e+000	 9.815591075572506e+000
 1.519269665047867e+000	 2.709821420717266e+000	 9.752938443724029e+000
 1.820798935610176e+000	 2.549977154652176e+000	 1.043525068464247e+001
 1.792727330205413e+000	 2.569790075552224e+000	 1.038987345025740e+001
 1.764467648259313e+000	 2.589275263636230e+000	 1.033263210586309e+001
 1.736025571900472e+000	 2.608430165421335e+000	 1.026649447038513e+001
 1.707406826031018e+000	 2.627252357450538e+000	 1.019416847321432e+001
 1.678617174651289e+000	 2.645739547069144e+000	 1.011807119400524e+001
 1.649662417173072e+000	 2.663889573078078e+000	 1.004030113755805e+001
 1.620548384726113e+000	 2.681700406264190e+000	 9.963419257478547e+000
 1.591280936462618e+000	 2.699170149807902e+000	 9.890262962262650e+000
 1.561865955864427e+000	 2.716297039568712e+000	 9.822098379152434e+000
 1.532309347057451e+000	 2.733079444249318e+000	 9.760090015801261e+000
 1.401912526955667e+000	 2.500499208922499e+000	 9.747468549828561e+000
 1.374751058621742e+000	 2.515534688282688e+000	 9.663647893252291e+000
 1.347470897317242e+000	 2.530252474887798e+000	 9.573414343079680e+000
 1.320077480299228e+000	 2.544651443212336e+000	 9.475611393390709e+000
 1.292576250311316e+000	 2.558730588716131e+000	 9.391046792792380e+000
 1.264972652307893e+000	 2.572489027453051e+000	 9.319413529322549e+000
 1.237272130208986e+000	 2.585925995576417e+000	 9.256170262062302e+000
 1.209480123689433e+000	 2.599040848742956e+000	 9.197243226082604e+000
 1.181602065005949e+000	 2.611833061417270e+000	 9.139063480815430e+000
 1.153643375865511e+000	 2.624302226078947e+000	 9.078598101716020e+000
 1.125609464338406e+000	 2.636448052334516e+000	 9.013375171433548e+000
 1.414952208965249e+000	 2.523757232456807e+000	 9.757801369737129e+000
 1.387538102251041e+000	 2.538932562104462e+000	 9.682836856372127e+000
 1.360004198561121e+000	 2.553787244024815e+000	 9.603720894118377e+000
 1.332355985726399e+000	 2.568320142223472e+000	 9.514516383985702e+000
 1.304598957115369e+000	 2.582530242816688e+000	 9.428599836880206e+000
 1.276738608327862e+000	 2.596416653636446e+000	 9.357235858757658e+000
 1.248780433919723e+000	 2.609978603731262e+000	 9.295190174693765e+000
 1.220729924162126e+000	 2.623215442764610e+000	 9.237747358840995e+000
 1.192592561839122e+000	 2.636126640312910e+000	 9.180751677180094e+000
 1.164373819086900e+000	 2.648711785065263e+000	 9.120641429742930e+000
 1.136079154278112e+000	 2.660970583927155e+000	 9.054476636832009e+000
 1.427991890975229e+000	 2.547015255990533e+000	 9.763098605180842e+000
 1.400325145880683e+000	 2.562330435925657e+000	 9.694975180953577e+000
 1.372537499805272e+000	 2.577322013161275e+000	 9.624671404882724e+000
 1.344634491153757e+000	 2.591988841234090e+000	 9.545573954014325e+000
 1.316621663919515e+000	 2.606329896916777e+000	 9.457676498734607e+000
 1.288504564347824e+000	 2.620344279819433e+000	 9.382679333335574e+000
 1.260288737630354e+000	 2.634031211885770e+000	 9.317857778969284e+000
 1.231979724634620e+000	 2.647390036786003e+000	 9.257945148736901e+000
 1.203583058672014e+000	 2.660420219208370e+000	 9.198290649078324e+000
 1.175104262307936e+000	 2.673121344051484e+000	 9.135758466175115e+000
 1.146548844217417e+000	 2.685493115519782e+000	 9.072399333280917e+000
 1.441031572985507e+000	 2.570273279523760e+000	 9.764567374152245e+000
 1.413112189510584e+000	 2.585728309746352e+000	 9.701459121268638e+000
 1.385070801049629e+000	 2.600856782297251e+000	 9.637853891766115e+000
 1.356912996581255e+000	 2.615657540244252e+000	 9.566588198666327e+000
 1.328644370723730e+000	 2.630129551016453e+000	 9.480883333338076e+000
 1.300270520367781e+000	 2.644271906002056e+000	 9.398728257530047e+000
 1.271797041340905e+000	 2.658083820039974e+000	 9.327503302358142e+000
 1.243229525106963e+000	 2.671564630807158e+000	 9.261869675189397e+000
 1.214573555504692e+000	 2.684713798103659e+000	 9.201494506927817e+000
 1.185834705528708e+000	 2.697530903037604e+000	 9.144333498680462e+000
 1.157018534156420e+000	 2.710015647112380e+000	 9.087855447611117e+000
 1.454071254995983e+000	 2.593531303056567e+000	 9.763280671649785e+000
 1.425899233140657e+000	 2.609126183566624e+000	 9.703544866389240e+000
 1.397604102294122e+000	 2.624391551432815e+000	 9.644710740696986e+000
 1.369191502008848e+000	 2.639326239254022e+000	 9.579166559742451e+000
 1.340667077527991e+000	 2.653929205115769e+000	 9.499135147648126e+000
 1.312036476387733e+000	 2.668199532184362e+000	 9.408084120893744e+000
 1.283305345051404e+000	 2.682136428193909e+000	 9.330523192571739e+000
 1.254479325579208e+000	 2.695739224828096e+000	 9.264831867962361e+000
 1.225564052337228e+000	 2.709007376998789e+000	 9.206950611136756e+000
 1.196565148749303e+000	 2.721940462023622e+000	 9.153538097830603e+000
 1.167488224095222e+000	 2.734538178704933e+000	 9.101904066983508e+000
 1.467110937006559e+000	 2.616789326589043e+000	 9.760182048529000e+000
 1.438686276770817e+000	 2.632524057386552e+000	 9.702353196975265e+000
 1.410137403538683e+000	 2.647926320568034e+000	 9.646543338632927e+000
 1.381470007436487e+000	 2.662994938263464e+000	 9.584791519049563e+000
 1.352689784332277e+000	 2.677728859214781e+000	 9.510234714310663e+000
 1.323802432407685e+000	 2.692127158366396e+000	 9.420578070868437e+000
 1.294813648761876e+000	 2.706189036347608e+000	 9.339924501456688e+000
 1.265729126051403e+000	 2.719913818848843e+000	 9.272788137722943e+000
 1.236554549169694e+000	 2.733300955893768e+000	 9.215021055538673e+000
 1.207295591969811e+000	 2.746350021009535e+000	 9.163207648201251e+000
 1.177957914033923e+000	 2.759060710297422e+000	 9.114594481441717e+000
 1.480150619017134e+000	 2.640047350121267e+000	 9.756090253050015e+000
 1.451473320400976e+000	 2.655921931206211e+000	 9.698874096021406e+000
 1.422670704783244e+000	 2.671461089702981e+000	 9.644693970036757e+000
 1.393748512864127e+000	 2.686663637272641e+000	 9.588252127198526e+000
 1.364712491136561e+000	 2.701528513313543e+000	 9.522990373329892e+000
 1.335568388427636e+000	 2.716054784548201e+000	 9.441624827605610e+000
 1.306321952472348e+000	 2.730241644501108e+000	 9.355737882453640e+000
 1.276978926523597e+000	 2.744088412869419e+000	 9.284900088294476e+000
 1.247545046002160e+000	 2.757594534788612e+000	 9.225107039529936e+000
 1.218026035190319e+000	 2.770759579995338e+000	 9.172966407246252e+000
 1.188427603972625e+000	 2.783583241889828e+000	 9.125755541241487e+000
 1.493190301027610e+000	 2.663305373653324e+000	 9.751703837400651e+000
 1.464260364031049e+000	 2.679319805025680e+000	 9.694992698002375e+000
 1.435204006027738e+000	 2.694995858837727e+000	 9.645314071425128e+000
 1.406027018291719e+000	 2.710332336281614e+000	 9.595315303390537e+000
 1.376735197940822e+000	 2.725328167412109e+000	 9.537657426135651e+000
 1.347334344447589e+000	 2.739982410729826e+000	 9.465105294614997e+000
 1.317830256182847e+000	 2.754294252654444e+000	 9.376716636604437e+000
 1.288228726995841e+000	 2.768263006889848e+000	 9.300160624030932e+000
 1.258535542834697e+000	 2.781888113683325e+000	 9.236427696826612e+000
 1.228756478410915e+000	 2.795169138981031e+000	 9.182244700138886e+000
 1.198897293911427e+000	 2.808105773482135e+000	 9.135011945246928e+000
 1.506229983037888e+000	 2.686563397185296e+000	 9.749681720976804e+000
 1.477047407660950e+000	 2.702717678845036e+000	 9.695823929039737e+000
 1.447737307272094e+000	 2.718530627972343e+000	 9.649874529643054e+000
 1.418305523719217e+000	 2.734001035290450e+000	 9.604560707331769e+000
 1.388757904745038e+000	 2.749127821510537e+000	 9.552692214641834e+000
 1.359100300467546e+000	 2.763910036911314e+000	 9.487183891219644e+000
 1.329338559893399e+000	 2.778346860807648e+000	 9.401479797990080e+000
 1.299478527468185e+000	 2.792437600910155e+000	 9.317412820385449e+000
 1.269526039667374e+000	 2.806181692577922e+000	 9.248038099984932e+000
 1.239486921631686e+000	 2.819578697966607e+000	 9.190296040588114e+000
 1.209366983850430e+000	 2.832628305074326e+000	 9.141800457973879e+000
 1.519269665047867e+000	 2.709821420717266e+000	 9.752938443724027e+000
 1.489834451290593e+000	 2.726115552664356e+000	 9.700685997608778e+000
 1.460270608516245e+000	 2.742065397106899e+000	 9.656885384052337e+000
 1.430584029146575e+000	 2.757669734299212e+000	 9.614511462685501e+000
 1.400780611549183e+000	 2.772927475608878e+000	 9.566622202382805e+000
 1.370866256487507e+000	 2.787837663092711e+000	 9.506381304888295e+000
 1.340846863604030e+000	 2.802399468960756e+000	 9.427079222061218e+000
 1.310728327940679e+000	 2.816612194930360e+000	 9.335368725396384e+000
 1.280516536500265e+000	 2.830475271472410e+000	 9.258847194739486e+000
 1.250217364852722e+000	 2.843988256952066e+000	 9.196214182077581e+000
 1.219836673789734e+000	 2.857150836666380e+000	 9.145386059567215e+000
 1.532309347057451e+000	 2.733079444249318e+000	 9.760090015801259e+000
 1.502621494919892e+000	 2.749513426483720e+000	 9.708147617958371e+000
 1.472803909760124e+000	 2.765600166241469e+000	 9.664932026341655e+000
 1.442862534573746e+000	 2.781338433307961e+000	 9.623763351453860e+000
 1.412803318353237e+000	 2.796727129707190e+000	 9.578044928997059e+000
 1.382632212507476e+000	 2.811765289274062e+000	 9.521285906119401e+000
 1.352355167314767e+000	 2.826452077113804e+000	 9.447122133350243e+000
 1.321978128413372e+000	 2.840786788950489e+000	 9.352628096206235e+000
 1.291507033333439e+000	 2.854768850366804e+000	 9.267635668339292e+000
 1.260947808074111e+000	 2.868397815937405e+000	 9.198950103672118e+000
 1.230306363729441e+000	 2.881673368258283e+000	 9.144878032707183e+000
 1.125609464338406e+000	 2.636448052334516e+000	 9.013375171433548e+000
 1.097501501095708e+000	 2.648272115530094e+000	 8.940203326563351e+000
 1.069329061409152e+000	 2.659772511872570e+000	 8.857216057681496e+000
 1.041097498112028e+000	 2.670949298215834e+000	 8.765263568629814e+000
 1.012812138484053e+000	 2.681802644152406e+000	 8.670521988489304e+000
 9.844782814308749e-001	 2.692332830683794e+000	 8.575845493203852e+000
 9.561011947256430e-001	 2.702540248811464e+000	 8.483032388493919e+000
 9.276861123150281e-001	 2.712425398051369e+000	 8.394028818062262e+000
 8.992382316919289e-001	 2.721988884875083e+000	 8.310939099022791e+000
 8.707627113369547e-001	 2.731231421080581e+000	 8.235980647498810e+000
 8.422646682306207e-001	 2.740153822095873e+000	 8.171452867322214e+000
 1.136079154278112e+000	 2.660970583927155e+000	 9.054476636832009e+000
 1.107709748972663e+000	 2.672904626897555e+000	 8.979262018481572e+000
 1.079275267505267e+000	 2.684511992475504e+000	 8.898310906740809e+000
 1.050781112497805e+000	 2.695792738043705e+000	 8.813477879865859e+000
 1.022232660780904e+000	 2.706747034772115e+000	 8.726164614412577e+000
 9.936352605472041e-001	 2.717375166275937e+000	 8.638031632072940e+000
 9.649942285672726e-001	 2.727677527193472e+000	 8.551003724623284e+000
 9.363148474705654e-001	 2.737654621686848e+000	 8.467161010851621e+000
 9.076023630936984e-001	 2.747307061868639e+000	 8.388743297553878e+000
 8.788619818981297e-001	 2.756635566157504e+000	 8.318106151142464e+000
 8.500988684592170e-001	 2.765640957566034e+000	 8.257689868941881e+000
 1.146548844217417e+000	 2.685493115519782e+000	 9.072399333280917e+000
 1.117917996849190e+000	 2.697537138265089e+000	 9.005138491917901e+000
 1.089221473600947e+000	 2.709251473078593e+000	 8.931975136488335e+000
 1.060464726883158e+000	 2.720636177871812e+000	 8.854061006255945e+000
 1.031653183077356e+000	 2.731691425392141e+000	 8.772872642078797e+000
 1.002792239663169e+000	 2.742417501868468e+000	 8.690150424978725e+000
 9.738872624085796e-001	 2.752814805575940e+000	 8.607897323020657e+000
 9.449435826258267e-001	 2.762883845322851e+000	 8.528277444155068e+000
 9.159664944952384e-001	 2.772625238862780e+000	 8.453614943123153e+000
 8.869612524591194e-001	 2.782039711235068e+000	 8.386351249199606e+000
 8.579330686876658e-001	 2.791128093036881e+000	 8.329014250466038e+000
 1.157018534156420e+000	 2.710015647112380e+000	 9.087855447611117e+000
 1.128126244725395e+000	 2.722169649632665e+000	 9.027444165930353e+000
 1.099167679696300e+000	 2.733990953681790e+000	 8.960495195147736e+000
 1.070148341268192e+000	 2.745479617700091e+000	 8.888187373045895e+000
 1.041073705373506e+000	 2.756635816012397e+000	 8.812027366555155e+000
 1.011949218778857e+000	 2.767459837461291e+000	 8.733799682994089e+000
 9.827802962496399e-001	 2.777952083958754e+000	 8.655505441890373e+000
 9.535723177808729e-001	 2.788113068959254e+000	 8.579375444597373e+000
 9.243306258965952e-001	 2.797943415857371e+000	 8.507756558847623e+000
 8.950605230199542e-001	 2.807443856313125e+000	 8.443123911004161e+000
 8.657672689159829e-001	 2.816615228508264e+000	 8.388039657418245e+000
 1.167488224095222e+000	 2.734538178704933e+000	 9.101904066983508e+000
 1.138334492601386e+000	 2.746802161000247e+000	 9.046674143344870e+000
 1.109113885791435e+000	 2.758730434285045e+000	 8.984572639456491e+000
 1.079831955653012e+000	 2.770323057528476e+000	 8.916763439672764e+000
 1.050494227669453e+000	 2.781580206632806e+000	 8.844739451366332e+000
 1.021106197894358e+000	 2.792502173054308e+000	 8.770271451979271e+000
 9.916733300905299e-001	 2.803089362341805e+000	 8.695347698447758e+000
 9.622010529357666e-001	 2.813342292595933e+000	 8.622180318500172e+000
 9.326947572978148e-001	 2.823261592852275e+000	 8.553100320511886e+000
 9.031597935806648e-001	 2.832848001391535e+000	 8.490564452887954e+000
 8.736014691441837e-001	 2.842102363980035e+000	 8.437115761591198e+000
 1.177957914033923e+000	 2.759060710297422e+000	 9.114594481441715e+000
 1.148542740477269e+000	 2.771434672367803e+000	 9.063079773780544e+000
 1.119060091886461e+000	 2.783469914888308e+000	 9.004659449071381e+000
 1.089515570037725e+000	 2.795166497356900e+000	 8.940441395862012e+000
 1.059914749965296e+000	 2.806524597253285e+000	 8.871861729156363e+000
 1.030263177009759e+000	 2.817544508647425e+000	 8.800632508775641e+000
 1.000566363931325e+000	 2.828226640724981e+000	 8.728682124857931e+000
 9.708297880905690e-001	 2.838571516232765e+000	 8.658155563497497e+000
 9.410588886989444e-001	 2.848579769847359e+000	 8.591317445372479e+000
 9.112590641412821e-001	 2.858252146470149e+000	 8.530554127736373e+000
 8.814356693722830e-001	 2.867589499452040e+000	 8.478336076848995e+000
 1.188427603972625e+000	 2.783583241889828e+000	 9.125755541241489e+000
 1.158750988353152e+000	 2.796067183735299e+000	 9.076684098400625e+000
 1.129006297981487e+000	 2.808209395491530e+000	 9.020972559326262e+000
 1.099199184422435e+000	 2.820009937185299e+000	 8.959632792612075e+000
 1.069335272261134e+000	 2.831468987873751e+000	 8.894001943628828e+000
 1.039420156125150e+000	 2.842586844240541e+000	 8.825689057780702e+000
 1.009459397772102e+000	 2.853363919108170e+000	 8.756516179479227e+000
 9.794585232453414e-001	 2.863800739869622e+000	 8.688513042908722e+000
 9.494230201000294e-001	 2.873897946842485e+000	 8.623827551372131e+000
 9.193583347018369e-001	 2.883656291548827e+000	 8.564723692725124e+000
 8.892698696002970e-001	 2.893076634924131e+000	 8.513545760930587e+000
 1.198897293911427e+000	 2.808105773482135e+000	 9.135011945246928e+000
 1.168959236229143e+000	 2.820699695102704e+000	 9.087297223044795e+000
 1.138952504076620e+000	 2.832948876094660e+000	 9.033508327338586e+000
 1.108882798807248e+000	 2.844853377013607e+000	 8.974522112048215e+000
 1.078755794557065e+000	 2.856413378494124e+000	 8.911535436356791e+000
 1.048577135240618e+000	 2.867629179833561e+000	 8.846010724493789e+000
 1.018352431612936e+000	 2.878501197491262e+000	 8.779627050216034e+000
 9.880872584001462e-001	 2.889029963506384e+000	 8.714223125147495e+000
 9.577871515011172e-001	 2.899216123837520e+000	 8.651807988572720e+000
 9.274576052623599e-001	 2.909060436627422e+000	 8.594461956575222e+000
 8.971040698282408e-001	 2.918563770396158e+000	 8.544349404110953e+000
 1.209366983850430e+000	 2.832628305074326e+000	 9.141800457973881e+000
 1.179167484105347e+000	 2.845332206469981e+000	 9.094531624083363e+000
 1.148898710171969e+000	 2.857688356697653e+000	 9.042056935502673e+000
 1.118566413192270e+000	 2.869696816841759e+000	 8.985080279848919e+000
 1.088176316853187e+000	 2.881357769114321e+000	 8.924617781802530e+000
 1.057734114356251e+000	 2.892671515426387e+000	 8.861942329051693e+000
 1.027245465453903e+000	 2.903638475874144e+000	 8.798534069845500e+000
 9.967159935550445e-001	 2.914259187142925e+000	 8.736024790286574e+000
 9.661512829022537e-001	 2.924534300832329e+000	 8.676203144492819e+000
 9.355568758228816e-001	 2.934464581705792e+000	 8.620924307567071e+000
 9.049382700561295e-001	 2.944050905867970e+000	 8.572118805517428e+000
 1.219836673789734e+000	 2.857150836666380e+000	 9.145386059567215e+000
 1.189375731981873e+000	 2.869964717837100e+000	 9.097817391035852e+000
 1.158844916267644e+000	 2.882427837300455e+000	 9.046216736132392e+000
 1.128250027577606e+000	 2.894540256669687e+000	 8.991078123696719e+000
 1.097596839149599e+000	 2.906302159734262e+000	 8.933197373659626e+000
 1.066891093472140e+000	 2.917713851018923e+000	 8.873615616742224e+000
 1.036138499295079e+000	 2.928775754256705e+000	 8.813569259698413e+000
 1.005344728710099e+000	 2.939488410779119e+000	 8.754435705751673e+000
 9.745154143034851e-001	 2.949852477826773e+000	 8.697733724917775e+000
 9.436561463834331e-001	 2.959868726783791e+000	 8.645041223470708e+000
 9.127724702839787e-001	 2.969538041339417e+000	 8.598000737843602e+000
 1.230306363729441e+000	 2.881673368258283e+000	 9.144878032707183e+000
 1.199583979858828e+000	 2.894597229204027e+000	 9.096417409720313e+000
 1.168791122363753e+000	 2.907167317903020e+000	 9.045408540758885e+000
 1.137933641963362e+000	 2.919383696497329e+000	 8.992099780967868e+000
 1.107017361446401e+000	 2.931246550353865e+000	 8.937027965416720e+000
 1.076048072588372e+000	 2.942756186611073e+000	 8.880960948060418e+000
 1.045031533136541e+000	 2.953913032638836e+000	 8.824847088421350e+000
 1.013973463865370e+000	 2.964717634414845e+000	 8.769771619924258e+000
 9.828795457048584e-001	 2.975170654820722e+000	 8.716906011643873e+000
 9.517554169440449e-001	 2.985272871861279e+000	 8.667526764471251e+000
 9.206066705118042e-001	 2.995025176810348e+000	 8.622924701153801e+000
 8.422646682306207e-001	 2.740153822095873e+000	 8.171452867322214e+000
 8.137491750310451e-001	 2.748757004534392e+000	 8.118110205627263e+000
 7.852212565530335e-001	 2.757041982326296e+000	 8.072443409446121e+000
 7.566858887956514e-001	 2.765009866903514e+000	 8.030437835680429e+000
 7.281479971706540e-001	 2.772661865956894e+000	 7.988120010228362e+000
 6.996124543915533e-001	 2.779999281457081e+000	 7.941548521161487e+000
 6.710840784416883e-001	 2.787023507627656e+000	 7.886806549136239e+000
 6.425676306221918e-001	 2.793736028873866e+000	 7.827795077426730e+000
 6.140678136806004e-001	 2.800138417670240e+000	 7.777427599991635e+000
 5.855892700207175e-001	 2.806232332410390e+000	 7.737951574369047e+000
 5.571365799941845e-001	 2.812019515222284e+000	 7.711975689559294e+000
 8.500988684592170e-001	 2.765640957566034e+000	 8.257689868941881e+000
 8.213181426176583e-001	 2.774324161233401e+000	 8.208050114515547e+000
 7.925248759258222e-001	 2.782686200520694e+000	 8.165345436931290e+000
 7.637240906662782e-001	 2.790728197197665e+000	 8.125511358486644e+000
 7.349207580637582e-001	 2.798451370188332e+000	 8.084535192668003e+000
 7.061197961545841e-001	 2.805857033573426e+000	 8.038448388785763e+000
 6.773260677358410e-001	 2.812946594544702e+000	 7.983320637305799e+000
 6.485443783951879e-001	 2.819721551314391e+000	 7.919788469572147e+000
 6.197794746220587e-001	 2.826183490983165e+000	 7.863506186586053e+000
 5.910360420008765e-001	 2.832334087369945e+000	 7.818783604044088e+000
 5.623187034867332e-001	 2.838175098806854e+000	 7.789090608753258e+000
 8.579330686876658e-001	 2.791128093036881e+000	 8.329014250466038e+000
 8.288871102041550e-001	 2.799891317933140e+000	 8.281953731767510e+000
 7.998284952985155e-001	 2.808330418715853e+000	 8.241072847585004e+000
 7.707622925368254e-001	 2.816446527492603e+000	 8.202328119469920e+000
 7.416935189567913e-001	 2.824240874420564e+000	 8.161737094488272e+000
 7.126271379175478e-001	 2.831714785690565e+000	 8.115372145483423e+000
 6.835680570299277e-001	 2.838869681462531e+000	 8.059356170157242e+000
 6.545211261681154e-001	 2.845707073755670e+000	 7.991939909026617e+000
 6.254911355634437e-001	 2.852228564296800e+000	 7.929378956745357e+000
 5.964828139809565e-001	 2.858435842330152e+000	 7.879080308441342e+000
 5.675008269791978e-001	 2.864330682391994e+000	 7.845397504668456e+000
 8.657672689159829e-001	 2.816615228508264e+000	 8.388039657418245e+000
 8.364560777905351e-001	 2.825458474633451e+000	 8.342646651474764e+000
 8.071321146711011e-001	 2.833974636911618e+000	 8.302673043222191e+000
 7.778004944072667e-001	 2.842164857788169e+000	 8.264163301920050e+000
 7.484662798497168e-001	 2.850030378653444e+000	 8.223230671624673e+000
 7.191344796803980e-001	 2.857572537808359e+000	 8.176052440877191e+000
 6.898100463238918e-001	 2.864792768381011e+000	 8.118867264497442e+000
 6.604978739409093e-001	 2.871692596197583e+000	 8.048520929005836e+000
 6.312027965046840e-001	 2.878273637611040e+000	 7.979656858190014e+000
 6.019295859608801e-001	 2.884537597290914e+000	 7.923797930779784e+000
 5.726829504714950e-001	 2.890486265977629e+000	 7.886194240838037e+000
 8.736014691441837e-001	 2.842102363980035e+000	 8.437115761591198e+000
 8.440250453767998e-001	 2.851025631334182e+000	 8.392694894034324e+000
 8.144357340435665e-001	 2.859618855107834e+000	 8.352938786699006e+000
 7.848386962775786e-001	 2.867883188084215e+000	 8.314042991965623e+000
 7.552390407424986e-001	 2.875819882886823e+000	 8.272277998370482e+000
 7.256418214430880e-001	 2.883430289926668e+000	 8.223985993256282e+000
 6.960520356176770e-001	 2.890715855300007e+000	 8.165579846518440e+000
 6.664746217135055e-001	 2.897678118640007e+000	 8.093544696292383e+000
 6.369144574457066e-001	 2.904318710925770e+000	 8.018687973673599e+000
 6.073763579405679e-001	 2.910639352252135e+000	 7.957629412806387e+000
 5.778650739635411e-001	 2.916641849563674e+000	 7.916518837648455e+000
 8.814356693722830e-001	 2.867589499452040e+000	 8.478336076848995e+000
 8.515940129629499e-001	 2.876592788035181e+000	 8.434411985402049e+000
 8.217393534158993e-001	 2.885263073304349e+000	 8.394414589714160e+000
 7.918768981477350e-001	 2.893601518380587e+000	 8.354749916090398e+000
 7.620118016351005e-001	 2.901609387120555e+000	 8.311903391772130e+000
 7.321491632055712e-001	 2.909288042045349e+000	 8.262438133949701e+000
 7.022940249112275e-001	 2.916638942219389e+000	 8.202995645116570e+000
 6.724513694858385e-001	 2.923663641082820e+000	 8.130298556951429e+000
 6.426261183864400e-001	 2.930363784240881e+000	 8.050566041642444e+000
 6.128231299199424e-001	 2.936741107213719e+000	 7.985011626049576e+000
 5.830471974552516e-001	 2.942797433150047e+000	 7.941155503770954e+000
 8.892698696002970e-001	 2.893076634924131e+000	 8.513545760930587e+000
 8.591629805489868e-001	 2.902159944736293e+000	 8.469866029614213e+000
 8.290429727880866e-001	 2.910907291501006e+000	 8.429403100189367e+000
 7.989151000177117e-001	 2.919319848677136e+000	 8.388829183803734e+000
 7.687845625274860e-001	 2.927398891354493e+000	 8.344898546237941e+000
 7.386565049678001e-001	 2.935145794164261e+000	 8.294447366667809e+000
 7.085360142044868e-001	 2.942562029139025e+000	 8.234396204846100e+000
 6.784281172578444e-001	 2.949649163525900e+000	 8.161754689877915e+000
 6.483377793268119e-001	 2.956408857556268e+000	 8.079139006391920e+000
 6.182699018989245e-001	 2.962842862175569e+000	 8.010132638238080e+000
 5.882293209465432e-001	 2.968953016736668e+000	 7.964640709176180e+000
 8.971040698282408e-001	 2.918563770396158e+000	 8.544349404110953e+000
 8.667319481349111e-001	 2.927727101437364e+000	 8.500886774987498e+000
 8.363465921601164e-001	 2.936551509697653e+000	 8.459971489254899e+000
 8.059533018874838e-001	 2.945038178973707e+000	 8.418594035152591e+000
 7.755573234196188e-001	 2.953188395588489e+000	 8.373827677736433e+000
 7.451638467297289e-001	 2.961003546283265e+000	 8.322829940896879e+000
 7.147780034973986e-001	 2.968485116058781e+000	 8.262846917307225e+000
 6.844048650294586e-001	 2.975634685969126e+000	 8.191219988915568e+000
 6.540494402667507e-001	 2.982453930871813e+000	 8.108017595914674e+000
 6.237166738774358e-001	 2.988944617137589e+000	 8.036939012732269e+000
 5.934114444373317e-001	 2.995108600323453e+000	 7.991269297189023e+000
 9.049382700561295e-001	 2.944050905867970e+000	 8.572118805517428e+000
 8.743009157207239e-001	 2.953294258138242e+000	 8.529072674383501e+000
 8.436502115319762e-001	 2.962195727894138e+000	 8.487957837866039e+000
 8.129915037570263e-001	 2.970756509270149e+000	 8.446131592782058e+000
 7.823300843114625e-001	 2.978977899822394e+000	 8.401032677003503e+000
 7.516711884913101e-001	 2.986861298402220e+000	 8.350184438497154e+000
 7.210199927899071e-001	 2.994408202978527e+000	 8.291201069852557e+000
 6.903816128006164e-001	 3.001620208412377e+000	 8.221796458742482e+000
 6.597611012061844e-001	 3.008499004187415e+000	 8.140583925763773e+000
 6.291634458553985e-001	 3.015046372099683e+000	 8.069143138968824e+000
 5.985935679275339e-001	 3.021264183910321e+000	 8.025100633217207e+000
 9.127724702839787e-001	 2.969538041339417e+000	 8.598000737843602e+000
 8.818698833064261e-001	 2.978861414838771e+000	 8.555797939893198e+000
 8.509538309036534e-001	 2.987839946090302e+000	 8.514977523073165e+000
 8.200297056263139e-001	 2.996474839566310e+000	 8.473308618271833e+000
 7.891028452029805e-001	 3.004767404056062e+000	 8.428638271219153e+000
 7.581785302524970e-001	 3.012719050520981e+000	 8.378896372711148e+000
 7.272619820819561e-001	 3.020331289898130e+000	 8.322103910572157e+000
 6.963583605712533e-001	 3.027605730855529e+000	 8.256384059947221e+000
 6.654727621450409e-001	 3.034544077502960e+000	 8.180000127367547e+000
 6.346102178327339e-001	 3.041148127061754e+000	 8.110230592053602e+000
 6.037756914170657e-001	 3.047419767497193e+000	 8.069964787949118e+000
 9.206066705118042e-001	 2.995025176810348e+000	 8.622924701153801e+000
 8.894388508920191e-001	 3.004428571538802e+000	 8.582219592276983e+000
 8.582574502751356e-001	 3.013484164285996e+000	 8.542429603966752e+000
 8.270679074953227e-001	 3.022193169862039e+000	 8.501777272495275e+000
 7.958756060941372e-001	 3.030556908289346e+000	 8.458557193648716e+000
 7.646858720132438e-001	 3.038576802639415e+000	 8.411142798843800e+000
 7.335039713734896e-001	 3.046254376817458e+000	 8.357996728588022e+000
 7.023351083413049e-001	 3.053591253298464e+000	 8.297684284269780e+000
 6.711844230832484e-001	 3.060589150818338e+000	 8.228889425599629e+000
 6.400569898093635e-001	 3.067249882023707e+000	 8.163467519768153e+000
 6.089578149058431e-001	 3.073575351083983e+000	 8.129468752967394e+000
 5.571365799941845e-001	 2.812019515222284e+000	 7.711975689559296e+000
 5.287185198196900e-001	 2.817500990623337e+000	 7.694761130299941e+000
 5.003352638129517e-001	 2.822679553656821e+000	 7.679610049464602e+000
 4.719911884326337e-001	 2.827557185699814e+000	 7.666614304906563e+000
 4.436906022608280e-001	 2.832135942759818e+000	 7.655858860126164e+000
 4.154377447072045e-001	 2.836417953168350e+000	 7.647327240403267e+000
 3.872367847946145e-001	 2.840405415259060e+000	 7.640816128787907e+000
 3.590918200257314e-001	 2.844100595033316e+000	 7.635857762376990e+000
 3.310068753301844e-001	 2.847505823816278e+000	 7.631648827987081e+000
 3.029859020915368e-001	 2.850623495906301e+000	 7.626984605694283e+000
 2.750327772533645e-001	 2.853456066220491e+000	 7.620197167611744e+000
 5.623187034867332e-001	 2.838175098806854e+000	 7.789090608753260e+000
 5.336363169290086e-001	 2.843707559340700e+000	 7.768729998399259e+000
 5.049890582647981e-001	 2.848934290012431e+000	 7.749349989733804e+000
 4.763813446597570e-001	 2.853857290628595e+000	 7.730850859762540e+000
 4.478175247716248e-001	 2.858478636320324e+000	 7.713136465701521e+000
 4.193018774423222e-001	 2.862800475215494e+000	 7.696028460689413e+000
 3.908386104722579e-001	 2.866825026095203e+000	 7.679189820757017e+000
 3.624318594764292e-001	 2.870554576037689e+000	 7.662056226402498e+000
 3.340856868217608e-001	 2.873991478052573e+000	 7.643773885651499e+000
 3.058040806450334e-001	 2.877138148708408e+000	 7.623142440332972e+000
 2.775909539506486e-001	 2.879997065756335e+000	 7.598561662271004e+000
 5.675008269791978e-001	 2.864330682391994e+000	 7.845397504668456e+000
 5.385541140382393e-001	 2.869914128058542e+000	 7.821630066841255e+000
 5.096428527165515e-001	 2.875189026368409e+000	 7.797793976941898e+000
 4.807715008867807e-001	 2.880157395557621e+000	 7.773711926386042e+000
 4.519444472823133e-001	 2.884821329880952e+000	 7.749216790526819e+000
 4.231660101773191e-001	 2.889182997262622e+000	 7.724075297936184e+000
 3.944404361497635e-001	 2.893244636931202e+000	 7.697921194262501e+000
 3.657718989269654e-001	 2.897008557041791e+000	 7.670196320208783e+000
 3.371644983131448e-001	 2.900477132288479e+000	 7.640098071815265e+000
 3.086222591982989e-001	 2.903652801510019e+000	 7.606531771868502e+000
 2.801491306476536e-001	 2.906538065291594e+000	 7.568066552638391e+000
 5.726829504714950e-001	 2.890486265977629e+000	 7.886194240838040e+000
 5.434719111472928e-001	 2.896120696776794e+000	 7.859109241362777e+000
 5.142966471681203e-001	 2.901443762724703e+000	 7.830958199179940e+000
 4.851616571136129e-001	 2.906457500486858e+000	 7.801586585820810e+000
 4.560713697928022e-001	 2.911164023441680e+000	 7.770852562468004e+000
 4.270301429121070e-001	 2.915565519309739e+000	 7.738560854216996e+000
 3.980422618270485e-001	 2.919664247767075e+000	 7.704406314047964e+000
 3.691119383772667e-001	 2.923462538045660e+000	 7.667925465226523e+000
 3.402433098042760e-001	 2.926962786524052e+000	 7.628454364878280e+000
 3.114404377512897e-001	 2.930167454311213e+000	 7.585091198226757e+000
 2.827073073443562e-001	 2.933079064826362e+000	 7.536662091100829e+000
 5.778650739635411e-001	 2.916641849563674e+000	 7.916518837648455e+000
 5.483897082560818e-001	 2.922327265495393e+000	 7.886561959125293e+000
 5.189504416194137e-001	 2.927698499081265e+000	 7.854613747110125e+000
 4.895518133401608e-001	 2.932757605416278e+000	 7.820629083958420e+000
 4.601982923030000e-001	 2.937506717002495e+000	 7.784573709050056e+000
 4.308942756465977e-001	 2.941948041356846e+000	 7.746369108308032e+000
 4.016440875040310e-001	 2.946083858602847e+000	 7.705847300274349e+000
 3.724519778272609e-001	 2.949916519049338e+000	 7.662713669317747e+000
 3.433221212950947e-001	 2.953448440759354e+000	 7.616516056253130e+000
 3.142586163039616e-001	 2.956682107112062e+000	 7.566618389825539e+000
 2.852654840407330e-001	 2.959620064360732e+000	 7.512177227729504e+000
 5.830471974552516e-001	 2.942797433150047e+000	 7.941155503770953e+000
 5.533075053645181e-001	 2.948533834214270e+000	 7.909134137735055e+000
 5.236042360703406e-001	 2.953953235438047e+000	 7.874290621985260e+000
 4.939419695663320e-001	 2.959057710345844e+000	 7.836762027118668e+000
 4.643252148128148e-001	 2.963849410563381e+000	 7.796689856143045e+000
 4.347584083807031e-001	 2.968330563403949e+000	 7.754176819865362e+000
 4.052459131806289e-001	 2.972503469438534e+000	 7.709253727302786e+000
 3.757920172768744e-001	 2.976370500052862e+000	 7.661854495926559e+000
 3.464009327855405e-001	 2.979934094994439e+000	 7.611797352229971e+000
 3.170767948562713e-001	 2.983196759912645e+000	 7.558770373063315e+000
 2.878236607367615e-001	 2.986161063894799e+000	 7.502319610856923e+000
 5.882293209465432e-001	 2.968953016736668e+000	 7.964640709176180e+000
 5.582253024725135e-001	 2.974740402933362e+000	 7.931728171355642e+000
 5.282580305208096e-001	 2.980207971794995e+000	 7.895281793878643e+000
 4.983321257920345e-001	 2.985357815275526e+000	 7.855679629021875e+000
 4.684521373221553e-001	 2.990192104124325e+000	 7.813292877739183e+000
 4.386225411143345e-001	 2.994713085451048e+000	 7.768455483361790e+000
 4.088477388567599e-001	 2.998923080274164e+000	 7.721444070324045e+000
 3.791320567260345e-001	 3.002824481056273e+000	 7.672466079021461e+000
 3.494797442755527e-001	 3.006419749229364e+000	 7.621654019886223e+000
 3.198949734081747e-001	 3.009711412713036e+000	 7.569063856844134e+000
 2.903818374324179e-001	 3.012702063428656e+000	 7.514675630850916e+000
 5.934114444373317e-001	 2.995108600323453e+000	 7.991269297189022e+000
 5.631430995799795e-001	 3.000946971652601e+000	 7.959007971037143e+000
 5.329118249707298e-001	 3.006462708152062e+000	 7.922647307056069e+000
 5.027222820171757e-001	 3.011657920205289e+000	 7.882851006012079e+000
 4.725790598309299e-001	 3.016534797685309e+000	 7.840259493696487e+000
 4.424866738474040e-001	 3.021095607498148e+000	 7.795473328738033e+000
 4.124495645323420e-001	 3.025342691109753e+000	 7.749047196904152e+000
 3.824720961746682e-001	 3.029278462059609e+000	 7.701492181031377e+000
 3.525585557650715e-001	 3.032905403464190e+000	 7.653284074347085e+000
 3.227131519596281e-001	 3.036226065513310e+000	 7.604875599502639e+000
 2.929400141276792e-001	 3.039243062962394e+000	 7.556710504441511e+000
 5.985935679275339e-001	 3.021264183910321e+000	 8.025100633217207e+000
 5.680608966868284e-001	 3.027153540371921e+000	 7.995404046578269e+000
 5.375656194200102e-001	 3.032717444509198e+000	 7.961218429631549e+000
 5.071124382416632e-001	 3.037958025135104e+000	 7.923523517603932e+000
 4.767059823390474e-001	 3.042877491246323e+000	 7.883253912540376e+000
 4.463508065798235e-001	 3.047478129545251e+000	 7.841297365939687e+000
 4.160513902072929e-001	 3.051762301945324e+000	 7.798503900727559e+000
 3.858121356227026e-001	 3.055732443062912e+000	 7.755703291166737e+000
 3.556373672540364e-001	 3.059391057698973e+000	 7.713728504890304e+000
 3.255313305105878e-001	 3.062740718313544e+000	 7.673442813686973e+000
 2.954981908225223e-001	 3.065784062496107e+000	 7.635768397146169e+000
 6.037756914170657e-001	 3.047419767497193e+000	 8.069964787949118e+000
 5.729786937929718e-001	 3.053360109091257e+000	 8.045118627427335e+000
 5.422194138685594e-001	 3.058972180866353e+000	 8.015601844844818e+000
 5.115025944654048e-001	 3.064258130064935e+000	 7.982726149630301e+000
 4.808329048464157e-001	 3.069220184807347e+000	 7.947730516616795e+000
 4.502149393115045e-001	 3.073860651592361e+000	 7.911795470698054e+000
 4.196532158815305e-001	 3.078181912780898e+000	 7.876068474999896e+000
 3.891521750700649e-001	 3.082186424066220e+000	 7.841697761701662e+000
 3.587161787423874e-001	 3.085876711933772e+000	 7.809872037560737e+000
 3.283495090610099e-001	 3.089255371113814e+000	 7.781863606911841e+000
 2.980563675169238e-001	 3.092325062029892e+000	 7.759072581500552e+000
 6.089578149058431e-001	 3.073575351083983e+000	 8.129468752967394e+000
 5.778964908983216e-001	 3.079566677810540e+000	 8.112130820294475e+000
 5.468732083162867e-001	 3.085226917223479e+000	 8.090183881479863e+000
 5.158927506883084e-001	 3.090558234994752e+000	 8.065272937451384e+000
 4.849598273529440e-001	 3.095562878368370e+000	 8.038936587070612e+000
 4.540790720423593e-001	 3.100243173639482e+000	 8.012638509101716e+000
 4.232550415549730e-001	 3.104601523616498e+000	 7.987810323146244e+000
 3.924922145166819e-001	 3.108640405069572e+000	 7.965902979951434e+000
 3.617949902300640e-001	 3.112362366168643e+000	 7.948443932121024e+000
 3.311676876108508e-001	 3.115770023914197e+000	 7.937097455662848e+000
 3.006145442108607e-001	 3.118866061563839e+000	 7.933725628965690e+000
 2.750327772533645e-001	 2.853456066220491e+000	 7.620197167611748e+000
 2.471471351279563e-001	 2.856006409498290e+000	 7.612917815975025e+000
 2.193369495812531e-001	 2.858276650234000e+000	 7.610081204407504e+000
 1.916059273113746e-001	 2.860269412912185e+000	 7.614006185048617e+000
 1.639576959960275e-001	 2.861987373296846e+000	 7.626185749025337e+000
 1.363958037885802e-001	 2.863433256073065e+000	 7.647223442139977e+000
 1.089237188885891e-001	 2.864609832501104e+000	 7.676768755793242e+000
 8.154482918534663e-002	 2.865519918085287e+000	 7.713450884572063e+000
 5.426244197296083e-002	 2.866166370259814e+000	 7.754810336099489e+000
 2.707978373541613e-002	 2.866552086093679e+000	 7.797227972877681e+000
 0.000000000000000e+000	 2.866680000016666e+000	 7.835851146166061e+000
 2.775909539506486e-001	 2.879997065756335e+000	 7.598561662271000e+000
 2.494459376495118e-001	 2.882571130674752e+000	 7.571326009198156e+000
 2.213770797753014e-001	 2.884862487718647e+000	 7.545535870409418e+000
 1.933881215034428e-001	 2.886873785783859e+000	 7.522950805172992e+000
 1.654827242539523e-001	 2.888607725522634e+000	 7.504610571292592e+000
 1.376644691828235e-001	 2.890067056963326e+000	 7.490778334030814e+000
 1.099368567485598e-001	 2.891254577142689e+000	 7.480882083670586e+000
 8.230330635240611e-002	 2.892173127753059e+000	 7.473453604586118e+000
 5.476715605077925e-002	 2.892825592806658e+000	 7.466064441032967e+000
 2.733166233832862e-002	 2.893214896319162e+000	 7.455258407101296e+000
 0.000000000000000e+000	 2.893344000014533e+000	 7.436480279191046e+000
 2.801491306476536e-001	 2.906538065291594e+000	 7.568066552638391e+000
 2.517447401707313e-001	 2.909135851850559e+000	 7.525750198848454e+000
 2.234172099689544e-001	 2.911448325202585e+000	 7.482931485590110e+000
 1.951703156950626e-001	 2.913478158654786e+000	 7.440905230448453e+000
 1.670077525113893e-001	 2.915228077747647e+000	 7.400355062770588e+000
 1.389331345765616e-001	 2.916700857852796e+000	 7.361304018961641e+000
 1.109499946080371e-001	 2.917899321783473e+000	 7.323062538299549e+000
 8.306178351902145e-002	 2.918826337420027e+000	 7.284173150453183e+000
 5.527187012824718e-002	 2.919484815352702e+000	 7.242351256830863e+000
 2.758354094103625e-002	 2.919877706543843e+000	 7.194421518661132e+000
 0.000000000000000e+000	 2.920008000011599e+000	 7.136249466632198e+000
 2.827073073443562e-001	 2.933079064826362e+000	 7.536662091100829e+000
 2.540435426916159e-001	 2.935700573025820e+000	 7.484037091815908e+000
 2.254573401622399e-001	 2.938034162685941e+000	 7.429875249159107e+000
 1.969525098862872e-001	 2.940082531525106e+000	 7.375088178096232e+000
 1.685327807684142e-001	 2.941848429972040e+000	 7.320087789585145e+000
 1.402017999698863e-001	 2.943334658741643e+000	 7.264744909940910e+000
 1.119631324671211e-001	 2.944544066423636e+000	 7.208344448711319e+000
 8.382026068528964e-002	 2.945479547086380e+000	 7.149536351302966e+000
 5.577658420544564e-002	 2.946144037898136e+000	 7.086281692596216e+000
 2.783541954358854e-002	 2.946540516767923e+000	 7.015793387540304e+000
 0.000000000000000e+000	 2.946672000008066e+000	 6.934471108107466e+000
 2.852654840407330e-001	 2.959620064360732e+000	 7.512177227729504e+000
 2.563423452121673e-001	 2.962265294200649e+000	 7.453932679884409e+000
 2.274974703551856e-001	 2.964620000168841e+000	 7.393895273912640e+000
 1.987347040771700e-001	 2.966686904394960e+000	 7.332661762792053e+000
 1.700578090251024e-001	 2.968468782195969e+000	 7.270443868677046e+000
 1.414704653628895e-001	 2.969968459630035e+000	 7.207035609845653e+000
 1.129762703259115e-001	 2.971188811063356e+000	 7.141776277850653e+000
 8.457873785130782e-002	 2.972132756752305e+000	 7.073508242767864e+000
 5.628129828245580e-002	 2.972803260443156e+000	 7.000528893961639e+000
 2.808729814603493e-002	 2.973203326991598e+000	 6.920536153001276e+000
 0.000000000000000e+000	 2.973336000004133e+000	 6.830567120640088e+000
 2.878236607367615e-001	 2.986161063894799e+000	 7.502319610856923e+000
 2.586411477323866e-001	 2.988830015375152e+000	 7.443081967692523e+000
 2.295376005478193e-001	 2.991205837651410e+000	 7.382440027229072e+000
 2.005168982677644e-001	 2.993291277264493e+000	 7.320730623650439e+000
 1.715828372815295e-001	 2.995089134419591e+000	 7.258023741137375e+000
 1.427391307556633e-001	 2.996602260518139e+000	 7.194099279013353e+000
 1.139894081845085e-001	 2.997833555702813e+000	 7.128418520020390e+000
 8.533721501717312e-002	 2.998785966417991e+000	 7.060089417731996e+000
 5.678601235935869e-002	 2.999462482987957e+000	 6.987824958658618e+000
 2.833917674842496e-002	 2.999866137215068e+000	 6.909893993757894e+000
 0.000000000000000e+000	 3.000000000000000e+000	 6.824064071702495e+000
 2.903818374324179e-001	 3.012702063428656e+000	 7.514675630850916e+000
 2.609399502522751e-001	 3.015394736549441e+000	 7.459028746267915e+000
 2.315777307401687e-001	 3.017791675133779e+000	 7.402877823250893e+000
 2.022990924581236e-001	 3.019895650133845e+000	 7.346341111626562e+000
 1.731078655377712e-001	 3.021709486643062e+000	 7.289392019191905e+000
 1.440077961482993e-001	 3.023236061406127e+000	 7.231846094079818e+000
 1.150025460430117e-001	 3.024478300342188e+000	 7.173341711898454e+000
 8.609569218298260e-002	 3.025439176083625e+000	 7.113313518078795e+000
 5.729072643623540e-002	 3.026121705532733e+000	 7.050957825947361e+000
 2.859105535080810e-002	 3.026528947438530e+000	 6.985189320645276e+000
 0.000000000000000e+000	 3.026663999995867e+000	 6.914588569516584e+000
 2.929400141276792e-001	 3.039243062962394e+000	 7.556710504441511e+000
 2.632387527718345e-001	 3.041959457723628e+000	 7.509215409349046e+000
 2.336178609322615e-001	 3.044377512616071e+000	 7.462496363123704e+000
 2.040812866483010e-001	 3.046500023003159e+000	 7.416480533645916e+000
 1.746328937939027e-001	 3.048329838866538e+000	 7.371076402333886e+000
 1.452764615408896e-001	 3.049869862294165e+000	 7.326171792487703e+000
 1.160156839015212e-001	 3.051123044981657e+000	 7.281624550193051e+000
 8.685416934883342e-002	 3.052092385749397e+000	 7.237244858817192e+000
 5.779544051316703e-002	 3.052780928077678e+000	 7.192768329272197e+000
 2.884293395323386e-002	 3.053191757662185e+000	 7.147819168797864e+000
 0.000000000000000e+000	 3.053327999991933e+000	 7.101862894889760e+000
 2.954981908225223e-001	 3.065784062496107e+000	 7.635768397146169e+000
 2.655375552910660e-001	 3.068524178897822e+000	 7.600982809899449e+000
 2.356579911241255e-001	 3.070963350098414e+000	 7.568502320381098e+000
 2.058634808383497e-001	 3.073104395872575e+000	 7.538076450020743e+000
 1.761579220499999e-001	 3.074950191090176e+000	 7.509566658411822e+000
 1.465451269335261e-001	 3.076503663182422e+000	 7.482956297471213e+000
 1.170288217601368e-001	 3.077767789621401e+000	 7.458352109467347e+000
 8.761264651482260e-002	 3.078745595415491e+000	 7.435976176561068e+000
 5.830015459023467e-002	 3.079440150622987e+000	 7.416147402254255e+000
 2.909481255575171e-002	 3.079854567886232e+000	 7.399251777244339e+000
 0.000000000000000e+000	 3.079991999988400e+000	 7.385700859944059e+000
 2.980563675169238e-001	 3.092325062029892e+000	 7.759072581500552e+000
 2.678363578099709e-001	 3.095088900072134e+000	 7.741570154402188e+000
 2.376981213157884e-001	 3.097549187580936e+000	 7.728020968760055e+000
 2.076456750283233e-001	 3.099708768742238e+000	 7.717996021954320e+000
 1.776829503061382e-001	 3.101570543314130e+000	 7.711313665774109e+000
 1.478137923263007e-001	 3.103137464071066e+000	 7.708062418685723e+000
 1.180419596189585e-001	 3.104412534261600e+000	 7.708614154120082e+000
 8.837112368104731e-002	 3.105398805082098e+000	 7.713626494894676e+000
 5.880486866751938e-002	 3.106099373168855e+000	 7.724033428809837e+000
 2.934669115841117e-002	 3.106517378110866e+000	 7.741023344662171e+000
 0.000000000000000e+000	 3.106655999985466e+000	 7.766003880110260e+000
 3.006145442108607e-001	 3.118866061563839e+000	 7.933725628965690e+000
 2.701351603285507e-001	 3.121653621246674e+000	 7.938114932681554e+000
 2.397382515072781e-001	 3.124135025063762e+000	 7.948095849923022e+000
 2.094278692182750e-001	 3.126313141612288e+000	 7.963045406147266e+000
 1.792079785623931e-001	 3.128190895538556e+000	 7.982728512828346e+000
 1.490824577193054e-001	 3.129771264960268e+000	 8.007334623971941e+000
 1.190550974780862e-001	 3.131057278902433e+000	 8.037503538910938e+000
 8.912960084760466e-002	 3.132052014749406e+000	 8.074339099659472e+000
 5.930958274510228e-002	 3.132758595715478e+000	 8.119409728803701e+000
 2.959856976126172e-002	 3.133180188336288e+000	 8.174734950794710e+000
 0.000000000000000e+000	 3.133319999983334e+000	 8.242757246682006e+000
 3.133319999983334e+000	 0.000000000000000e+000	 1.072912802536103e+001
 3.133180188336287e+000	 2.959856976126182e-002	 1.077679804839162e+001
 3.132758595715477e+000	 5.930958274510247e-002	 1.080896499678272e+001
 3.132052014749406e+000	 8.912960084760442e-002	 1.082863918622916e+001
 3.131057278902433e+000	 1.190550974780861e-001	 1.083877604346360e+001
 3.129771264960267e+000	 1.490824577193053e-001	 1.084226087773138e+001
 3.128190895538556e+000	 1.792079785623932e-001	 1.084189765279078e+001
 3.126313141612289e+000	 2.094278692182753e-001	 1.084040164797173e+001
 3.124135025063762e+000	 2.397382515072778e-001	 1.084039583686140e+001
 3.121653621246674e+000	 2.701351603285506e-001	 1.084441076082523e+001
 3.118866061563838e+000	 3.006145442108607e-001	 1.085488762266600e+001
 3.159987999982150e+000	 0.000000000000000e+000	 1.059493351138976e+001
 3.159846998384162e+000	 2.985048614990570e-002	 1.065792717502093e+001
 3.159421817546308e+000	 5.981437253772166e-002	 1.070264090154234e+001
 3.158709222798846e+000	 8.988819179751430e-002	 1.073268646550584e+001
 3.157706020655442e+000	 1.200683873234670e-001	 1.075155330919739e+001
 3.156409061319833e+000	 1.503513134314466e-001	 1.076259445099024e+001
 3.154815241215753e+000	 1.807332355959375e-001	 1.076901682103020e+001
 3.152921505537872e+000	 2.112103307641125e-001	 1.077387590530050e+001
 3.150724850821439e+000	 2.417786877487557e-001	 1.078007451491401e+001
 3.148222327528215e+000	 2.724343077016803e-001	 1.079036544269183e+001
 3.145411042646106e+000	 3.031731046692103e-001	 1.080735771368534e+001
 3.186655999981866e+000	 0.000000000000000e+000	 1.050187608437631e+001
 3.186513808432925e+000	 3.010240253874214e-002	 1.057719868669349e+001
 3.186085039377992e+000	 6.031916233064432e-002	 1.063153413247301e+001
 3.185366430849083e+000	 9.064678274776808e-002	 1.066911999410364e+001
 3.184354762409181e+000	 1.210816771691726e-001	 1.069400118539826e+001
 3.183046857680052e+000	 1.516201691438456e-001	 1.071001715689786e+001
 3.181439586893518e+000	 1.822584926296357e-001	 1.072079396649567e+001
 3.179529869463931e+000	 2.129927923099749e-001	 1.072974109831389e+001
 3.177314676579507e+000	 2.438191239901172e-001	 1.074005283420748e+001
 3.174791033810060e+000	 2.747334550745508e-001	 1.075471392388200e+001
 3.171956023728604e+000	 3.057316651271696e-001	 1.077650924056970e+001
 3.213323999982383e+000	 0.000000000000000e+000	 1.045184849238987e+001
 3.213180618482476e+000	 3.035431892772296e-002	 1.053583483660080e+001
 3.212748261210434e+000	 6.082395212379461e-002	 1.059627352341156e+001
 3.212023638900032e+000	 9.140537369827975e-002	 1.063804871887944e+001
 3.211003504163571e+000	 1.220949670151219e-001	 1.066577853023978e+001
 3.209684654040851e+000	 1.528890248564378e-001	 1.068380364872428e+001
 3.208063932571784e+000	 1.837837496634492e-001	 1.069618133780749e+001
 3.206138233390415e+000	 2.147752538558561e-001	 1.070668463105046e+001
 3.203904502337919e+000	 2.458595602313912e-001	 1.071880653065967e+001
 3.201359740092178e+000	 2.770326024472273e-001	 1.073576893572666e+001
 3.198501004811306e+000	 3.082902255848360e-001	 1.076053596625190e+001
 3.239991999983599e+000	 0.000000000000000e+000	 1.044656312576843e+001
 3.239847428532718e+000	 3.060623531680004e-002	 1.053489537703757e+001
 3.239411483043539e+000	 6.132874191709668e-002	 1.059734344656947e+001
 3.238680846951603e+000	 9.216396464896334e-002	 1.063945529413192e+001
 3.237652245918530e+000	 1.231082568612335e-001	 1.066643615325528e+001
 3.236322450402155e+000	 1.541578805691587e-001	 1.068313879288970e+001
 3.234688278250491e+000	 1.853090066973396e-001	 1.069405961768853e+001
 3.232746597317268e+000	 2.165577154017499e-001	 1.070334046164304e+001
 3.230494328096633e+000	 2.478999964726069e-001	 1.071477585211514e+001
 3.227928446374532e+000	 2.793317498197739e-001	 1.073182545522457e+001
 3.225045985894188e+000	 3.108487860423074e-001	 1.075763134669312e+001
 3.266659999985416e+000	 0.000000000000000e+000	 1.048755937904166e+001
 3.266514238583552e+000	 3.085815170592526e-002	 1.057528439665707e+001
 3.266074704877213e+000	 6.183353171047463e-002	 1.063509015362889e+001
 3.265338055003706e+000	 9.292255559973295e-002	 1.067320195218176e+001
 3.264300987673976e+000	 1.241215467074265e-001	 1.069542223810932e+001
 3.262960246763894e+000	 1.554267362819441e-001	 1.070712266364775e+001
 3.261312623929575e+000	 1.868342637312685e-001	 1.071324250624524e+001
 3.259354961244441e+000	 2.183401769476501e-001	 1.071829328779962e+001
 3.257084153855605e+000	 2.499404327137935e-001	 1.072636935650092e+001
 3.254497152657088e+000	 2.816308971922559e-001	 1.074116412319215e+001
 3.251590966977224e+000	 3.134073464996811e-001	 1.076599157315059e+001
 3.293327999987732e+000	 0.000000000000000e+000	 1.057621065516923e+001
 3.293181048634878e+000	 3.111006809505051e-002	 1.065775682554424e+001
 3.292737926711361e+000	 6.233832150385259e-002	 1.070972780875095e+001
 3.291995263056253e+000	 9.368114655050250e-002	 1.073903608861915e+001
 3.290949729429830e+000	 1.251348365536193e-001	 1.075208750153957e+001
 3.289598043125996e+000	 1.566955919947295e-001	 1.075477529427094e+001
 3.287936969608975e+000	 1.883595207651974e-001	 1.075248107998709e+001
 3.285963325171877e+000	 2.201226384935503e-001	 1.075008252625035e+001
 3.283673979614794e+000	 2.519808689549801e-001	 1.075196752125379e+001
 3.281065858939814e+000	 2.839300445647379e-001	 1.076205449014736e+001
 3.278135948060388e+000	 3.159659069570548e-001	 1.078381845789524e+001
 3.319995999990449e+000	 0.000000000000000e+000	 1.071373103220980e+001
 3.319847858686600e+000	 3.136198448412762e-002	 1.078292462678283e+001
 3.319401148545888e+000	 6.284311129715468e-002	 1.082134423081312e+001
 3.318652471109157e+000	 9.443973750118619e-002	 1.083659557826208e+001
 3.317598471186008e+000	 1.261481263997311e-001	 1.083569010330532e+001
 3.316235839488389e+000	 1.579644477074505e-001	 1.082504119842822e+001
 3.314561315288624e+000	 1.898847777990878e-001	 1.081046793919642e+001
 3.312571689099526e+000	 2.219051000394441e-001	 1.079720609774683e+001
 3.310263805374155e+000	 2.540213051961959e-001	 1.078992617462892e+001
 3.307634565222676e+000	 2.862291919372846e-001	 1.079275809961621e+001
 3.304680929143654e+000	 3.185244674145260e-001	 1.080932217218467e+001
 3.346663999993465e+000	 0.000000000000000e+000	 1.087999003553702e+001
 3.346514668738617e+000	 3.161390087310848e-002	 1.093285483159785e+001
 3.346064370380700e+000	 6.334790109030505e-002	 1.095472686157586e+001
 3.345309679162327e+000	 9.519832845169791e-002	 1.095360294633517e+001
 3.344247212942429e+000	 1.271614162456804e-001	 1.093682626552613e+001
 3.342873635850999e+000	 1.592333034200427e-001	 1.091110159658328e+001
 3.341185660968463e+000	 1.914100348329014e-001	 1.088251255953503e+001
 3.339180053027334e+000	 2.236875615853254e-001	 1.085654109801784e+001
 3.336853631133645e+000	 2.560617414374699e-001	 1.083808943901081e+001
 3.334203271505639e+000	 2.885283393099609e-001	 1.083150480153375e+001
 3.331225910226997e+000	 3.210830278721923e-001	 1.084072384473035e+001
 3.373331999996682e+000	 0.000000000000000e+000	 1.094838088491862e+001
 3.373181478790831e+000	 3.186581726194498e-002	 1.099480397079632e+001
 3.372727592215700e+000	 6.385269088322784e-002	 1.101004901870225e+001
 3.371966887215674e+000	 9.595691940195179e-002	 1.100232999362859e+001
 3.370895954699014e+000	 1.281747060913862e-001	 1.097919870826107e+001
 3.369511432213755e+000	 1.605021591324418e-001	 1.094755918538928e+001
 3.367810006648429e+000	 1.929352918665996e-001	 1.091368386850512e+001
 3.365788416955247e+000	 2.254700231311879e-001	 1.088323191559294e+001
 3.363443456893223e+000	 2.581021776788313e-001	 1.086126982558358e+001
 3.360771977788671e+000	 2.908274866828314e-001	 1.085229467688383e+001
 3.357770891310390e+000	 3.236415883301514e-001	 1.086026028763678e+001
 3.400000000000000e+000	 0.000000000000000e+000	 1.089627085586833e+001
 3.399848288843145e+000	 3.211773365058896e-002	 1.094825182174286e+001
 3.399390814050797e+000	 6.435748067584715e-002	 1.096805060077618e+001
 3.398624095269110e+000	 9.671551035186184e-002	 1.096411981130347e+001
 3.397544696455680e+000	 1.291879959367673e-001	 1.094424427068256e+001
 3.396149228576581e+000	 1.617710148445832e-001	 1.091555440882797e+001
 3.394434352328458e+000	 1.944605489001441e-001	 1.088454135450717e+001
 3.392396780883214e+000	 2.272524846770251e-001	 1.085707393384071e+001
 3.390033282652842e+000	 2.601426139203092e-001	 1.083841783740635e+001
 3.387340684071737e+000	 2.931266340559610e-001	 1.083325724462905e+001
 3.384315872393811e+000	 3.262001487885011e-001	 1.084571922679736e+001
 3.118866061563838e+000	 3.006145442108607e-001	 1.085488762266600e+001
 3.115770023914197e+000	 3.311676876108510e-001	 1.086587592596086e+001
 3.112362366168643e+000	 3.617949902300638e-001	 1.087176312718240e+001
 3.108640405069572e+000	 3.924922145166819e-001	 1.087532770366000e+001
 3.104601523616499e+000	 4.232550415549727e-001	 1.087922353637704e+001
 3.100243173639482e+000	 4.540790720423593e-001	 1.088599080933559e+001
 3.095562878368369e+000	 4.849598273529443e-001	 1.089806748353012e+001
 3.090558234994752e+000	 5.158927506883083e-001	 1.091780073813257e+001
 3.085226917223479e+000	 5.468732083162871e-001	 1.094745773238211e+001
 3.079566677810541e+000	 5.778964908983216e-001	 1.098923500648385e+001
 3.073575351083983e+000	 6.089578149058433e-001	 1.104526580910171e+001
 3.145411042646106e+000	 3.031731046692103e-001	 1.080735771368534e+001
 3.142288654310429e+000	 3.339862889291540e-001	 1.082435260292033e+001
 3.138851993649093e+000	 3.648742635849500e-001	 1.083508334167425e+001
 3.135098354567004e+000	 3.958327550185429e-001	 1.084256326889179e+001
 3.131025097790100e+000	 4.268574075554641e-001	 1.084964141631726e+001
 3.126629653460699e+000	 4.579437844502214e-001	 1.085901763235514e+001
 3.121909523728592e+000	 4.890873689588726e-001	 1.087325846216310e+001
 3.116862285334807e+000	 5.202835654996194e-001	 1.089481313537301e+001
 3.111485592184849e+000	 5.515277009021272e-001	 1.092602897091465e+001
 3.105777177908167e+000	 5.828150257461737e-001	 1.096916547064979e+001
 3.099734858400542e+000	 6.141407157900874e-001	 1.102640634045702e+001
 3.171956023728604e+000	 3.057316651271696e-001	 1.077650924056970e+001
 3.168807284706830e+000	 3.368048902469569e-001	 1.079795803401214e+001
 3.165341621129662e+000	 3.679535369392486e-001	 1.081208733244445e+001
 3.161556304064507e+000	 3.991732955197488e-001	 1.082212506933530e+001
 3.157448671963742e+000	 4.304597735552531e-001	 1.083109457282210e+001
 3.153016133281928e+000	 4.618084968573515e-001	 1.084183426395314e+001
 3.148256169088800e+000	 4.932149105640555e-001	 1.085701830174609e+001
 3.143166335674824e+000	 5.246743803101855e-001	 1.087917748306118e+001
 3.137744267146154e+000	 5.561821934872367e-001	 1.091071966044277e+001
 3.131987678005701e+000	 5.877335605933205e-001	 1.095394890059726e+001
 3.125894365716972e+000	 6.193236166736610e-001	 1.101108257065632e+001
 3.198501004811306e+000	 3.082902255848360e-001	 1.076053596625189e+001
 3.195325915103382e+000	 3.396234915643845e-001	 1.078480896592748e+001
 3.191831248610334e+000	 3.710328102931060e-001	 1.080085500821554e+001
 3.188014253562082e+000	 4.025138360204639e-001	 1.081209211555716e+001
 3.183872246137423e+000	 4.340621395545155e-001	 1.082169277444938e+001
 3.179402613103171e+000	 4.656732092639323e-001	 1.083260857552793e+001
 3.174602814449003e+000	 4.973424521686788e-001	 1.084759600043054e+001
 3.169470386014815e+000	 5.290651951201936e-001	 1.086924261779191e+001
 3.164002942107412e+000	 5.608366860717980e-001	 1.089999290280312e+001
 3.158198178103163e+000	 5.926520954399380e-001	 1.094217285144156e+001
 3.152053873033303e+000	 6.245065175567317e-001	 1.099801252238558e+001
 3.225045985894188e+000	 3.108487860423074e-001	 1.075763134669312e+001
 3.221844545500062e+000	 3.424420928815619e-001	 1.078303884787715e+001
 3.218320876091100e+000	 3.741120836466697e-001	 1.079949939215330e+001
 3.214472203059718e+000	 4.058543765208516e-001	 1.081059226508823e+001
 3.210295820311139e+000	 4.376645055534267e-001	 1.081960960915421e+001
 3.205789092924430e+000	 4.695379216701471e-001	 1.082958639110965e+001
 3.200949459809202e+000	 5.014699937729293e-001	 1.084333172594978e+001
 3.195774436354789e+000	 5.334560099298289e-001	 1.086346077178914e+001
 3.190261617068639e+000	 5.654911786559939e-001	 1.089242635890822e+001
 3.184408678200579e+000	 5.975706302862023e-001	 1.093254946989372e+001
 3.178213380349571e+000	 6.296894184394666e-001	 1.098604764701377e+001
 3.251590966977224e+000	 3.134073464996811e-001	 1.076599157315058e+001
 3.248363175896857e+000	 3.452606941986143e-001	 1.079080050248365e+001
 3.244810503571942e+000	 3.771913570000863e-001	 1.080616892670209e+001
 3.240930152557404e+000	 4.091949170210756e-001	 1.081580416413198e+001
 3.236719394484887e+000	 4.412668715521624e-001	 1.082308406339755e+001
 3.232175572745705e+000	 4.734026340761792e-001	 1.083109270200539e+001
 3.227296105169404e+000	 5.055975353769933e-001	 1.084265766155040e+001
 3.222078486694756e+000	 5.378468247392779e-001	 1.086038804350446e+001
 3.216520292029850e+000	 5.701456712400072e-001	 1.088671233504356e+001
 3.210619178297972e+000	 6.024891651322905e-001	 1.092391518496322e+001
 3.204372887665806e+000	 6.348723193220344e-001	 1.097417210611906e+001
 3.278135948060388e+000	 3.159659069570548e-001	 1.078381845789523e+001
 3.274881806293744e+000	 3.480792955156667e-001	 1.080626865500389e+001
 3.271300131052852e+000	 3.802706303535028e-001	 1.081904965069460e+001
 3.267388102055136e+000	 4.125354575212996e-001	 1.082595907459510e+001
 3.263142968658663e+000	 4.448692375508979e-001	 1.083042199879226e+001
 3.258562052566994e+000	 4.772673464822108e-001	 1.083553279041169e+001
 3.253642750529617e+000	 5.097250769810574e-001	 1.084409877159437e+001
 3.248382537034727e+000	 5.422376395487271e-001	 1.085868479791530e+001
 3.242778966991063e+000	 5.748001638240202e-001	 1.088165780827482e+001
 3.236829678395365e+000	 6.074076999783786e-001	 1.091523034662469e+001
 3.230532394982041e+000	 6.400552202046016e-001	 1.096150200933313e+001
 3.304680929143654e+000	 3.185244674145260e-001	 1.080932217218468e+001
 3.301400436690708e+000	 3.508978968328442e-001	 1.082764232885192e+001
 3.297789758533816e+000	 3.833499037070663e-001	 1.083636725591499e+001
 3.293846051552904e+000	 4.158759980216872e-001	 1.083934259289170e+001
 3.289566542832464e+000	 4.484716035498091e-001	 1.083999753204907e+001
 3.284948532388303e+000	 4.811320588884258e-001	 1.084139326711683e+001
 3.279989395889841e+000	 5.138526185853077e-001	 1.084627349134902e+001
 3.274686587374711e+000	 5.466284543583624e-001	 1.085711600047525e+001
 3.269037641952293e+000	 5.794546564082163e-001	 1.087618439439152e+001
 3.263040178492782e+000	 6.123262348246432e-001	 1.090557881537590e+001
 3.256691902298309e+000	 6.452381210873367e-001	 1.094728461096140e+001
 3.331225910226997e+000	 3.210830278721923e-001	 1.084072384473035e+001
 3.327919067087726e+000	 3.537164981502716e-001	 1.085314711487613e+001
 3.324279386014817e+000	 3.864291770609236e-001	 1.085638902984224e+001
 3.320304001050700e+000	 4.192165385224021e-001	 1.085429626655671e+001
 3.315990117006285e+000	 4.520739695490713e-001	 1.085025432361762e+001
 3.311335012209628e+000	 4.849967712950066e-001	 1.084724302808222e+001
 3.306336041250085e+000	 5.179801601899309e-001	 1.084789434519511e+001
 3.300990637714719e+000	 5.510192691683700e-001	 1.085455148841856e+001
 3.295296316913555e+000	 5.841091489927772e-001	 1.086932826159189e+001
 3.289250678590245e+000	 6.172447696712604e-001	 1.089416750542793e+001
 3.282851409614640e+000	 6.504210219704071e-001	 1.093089746767848e+001
 3.357770891310390e+000	 3.236415883301514e-001	 1.086026028763679e+001
 3.354437697484784e+000	 3.565350994680742e-001	 1.087126777218494e+001
 3.350769013495848e+000	 3.895084504152220e-001	 1.087204042037151e+001
 3.346761950548515e+000	 4.225570790236078e-001	 1.086667967674694e+001
 3.342413691180124e+000	 4.556763355488602e-001	 1.085880025826987e+001
 3.337721492030971e+000	 4.888614837021363e-001	 1.085157184144531e+001
 3.332682686610352e+000	 5.221077017951133e-001	 1.084776849721363e+001
 3.327294688054763e+000	 5.554100839789362e-001	 1.084996618288794e+001
 3.321554991874868e+000	 5.887636415778864e-001	 1.086023999291415e+001
 3.315461178687778e+000	 6.221633045184065e-001	 1.088032588409399e+001
 3.309010916931069e+000	 6.556039228539804e-001	 1.091184755945601e+001
 3.384315872393811e+000	 3.262001487885011e-001	 1.084571922679736e+001
 3.380956327881860e+000	 3.593537007863772e-001	 1.086091983032277e+001
 3.377258640976893e+000	 3.925877237701081e-001	 1.086458507872058e+001
 3.373219900046344e+000	 4.258976195254685e-001	 1.086094137256414e+001
 3.368837265353978e+000	 4.592787015493513e-001	 1.085370484463846e+001
 3.364107971852335e+000	 4.927261961099983e-001	 1.084612074044723e+001
 3.359029331970650e+000	 5.262352434010416e-001	 1.084100819310486e+001
 3.353598738394850e+000	 5.598008987902470e-001	 1.084081093537184e+001
 3.347813666836249e+000	 5.934181341637267e-001	 1.084765451424921e+001
 3.341671678785408e+000	 6.270818393662587e-001	 1.086341059286437e+001
 3.335170424247629e+000	 6.607868237382245e-001	 1.088976893987538e+001
 3.073575351083983e+000	 6.089578149058433e-001	 1.104526580910171e+001
 3.067249882023707e+000	 6.400569898093638e-001	 1.108712620523298e+001
 3.060589150818339e+000	 6.711844230832489e-001	 1.108798413266482e+001
 3.053591253298464e+000	 7.023351083413045e-001	 1.107677111816014e+001
 3.046254376817458e+000	 7.335039713734894e-001	 1.106940782832426e+001
 3.038576802639415e+000	 7.646858720132437e-001	 1.106596251073669e+001
 3.030556908289346e+000	 7.958756060941377e-001	 1.106625488788153e+001
 3.022193169862039e+000	 8.270679074953229e-001	 1.106986052036047e+001
 3.013484164285995e+000	 8.582574502751353e-001	 1.107611565988029e+001
 3.004428571538802e+000	 8.894388508920191e-001	 1.108412253706080e+001
 2.995025176810348e+000	 9.206066705118045e-001	 1.109275503394600e+001
 3.099734858400542e+000	 6.141407157900874e-001	 1.102640634045702e+001
 3.093355552640277e+000	 6.455045788827545e-001	 1.106834227912120e+001
 3.086638131285181e+000	 6.768969408555950e-001	 1.106902645040775e+001
 3.079580673959276e+000	 7.083127527125638e-001	 1.106209121288542e+001
 3.072181352588336e+000	 7.397468970565123e-001	 1.105794376887759e+001
 3.064438433808137e+000	 7.711941899724107e-001	 1.105675816006177e+001
 3.056350281334656e+000	 8.026493830006506e-001	 1.105845038128503e+001
 3.047915358292586e+000	 8.341071651999052e-001	 1.106268320899770e+001
 3.039132229498539e+000	 8.655621652988897e-001	 1.106887147418281e+001
 3.029999563695274e+000	 8.970089539361906e-001	 1.107618771947783e+001
 3.020516135733327e+000	 9.284420459871778e-001	 1.108356818560730e+001
 3.125894365716972e+000	 6.193236166736610e-001	 1.101108257065631e+001
 3.119461223256674e+000	 6.509521679555176e-001	 1.105185520681345e+001
 3.112687111751801e+000	 6.826094586273640e-001	 1.105276748316640e+001
 3.105570094619815e+000	 7.142903970833028e-001	 1.104940210500261e+001
 3.098108328358891e+000	 7.459898227390769e-001	 1.104784356564605e+001
 3.090300064976482e+000	 7.777025079311872e-001	 1.104835818411137e+001
 3.082143654379540e+000	 8.094231599068452e-001	 1.105094565147784e+001
 3.073637546722665e+000	 8.411464229042439e-001	 1.105534437841542e+001
 3.064780294710580e+000	 8.728668803224782e-001	 1.106103723554318e+001
 3.055570555851222e+000	 9.045790569802747e-001	 1.106725762058540e+001
 3.046007094655772e+000	 9.362774214625445e-001	 1.107299579234001e+001
 3.152053873033303e+000	 6.245065175567317e-001	 1.099801252238558e+001
 3.145566893872943e+000	 6.563997570278102e-001	 1.103651826929777e+001
 3.138736092218256e+000	 6.883219763987002e-001	 1.103821887775725e+001
 3.131559515280151e+000	 7.202680414536518e-001	 1.103782453160071e+001
 3.124035304129199e+000	 7.522327484212990e-001	 1.103834559982230e+001
 3.116161696144542e+000	 7.842108258896712e-001	 1.104012677495321e+001
 3.107937027424103e+000	 8.161969368128006e-001	 1.104323852602773e+001
 3.099359735152392e+000	 8.481856806083998e-001	 1.104748302026858e+001
 3.090428359922246e+000	 8.801715953459420e-001	 1.105240037924668e+001
 3.081141548006777e+000	 9.121491600242940e-001	 1.105727519735159e+001
 3.071498053577817e+000	 9.441127969379057e-001	 1.106114325713182e+001
 3.178213380349571e+000	 6.296894184394666e-001	 1.098604764701377e+001
 3.171672564489124e+000	 6.618473460997888e-001	 1.102132566498598e+001
 3.164785072684600e+000	 6.940344941697481e-001	 1.102452247923647e+001
 3.157548935940349e+000	 7.262456858237404e-001	 1.102661353458528e+001
 3.149962279899344e+000	 7.584756741032915e-001	 1.102882569773155e+001
 3.142023327312415e+000	 7.907191438479604e-001	 1.103156774637741e+001
 3.133730400468455e+000	 8.229707137185969e-001	 1.103496767232959e+001
 3.125081923581885e+000	 8.552249383124343e-001	 1.103887923363232e+001
 3.116076425133662e+000	 8.874763103693230e-001	 1.104288877579494e+001
 3.106712540162070e+000	 9.197192630682695e-001	 1.104632224341845e+001
 3.096989012499596e+000	 9.519481724132636e-001	 1.104825231095654e+001
 3.204372887665806e+000	 6.348723193220344e-001	 1.097417210611906e+001
 3.197778235105262e+000	 6.672949351716107e-001	 1.100541944740692e+001
 3.190834053150890e+000	 6.997470119406513e-001	 1.101094803568311e+001
 3.183538356600479e+000	 7.322233301936987e-001	 1.101515575964567e+001
 3.175889255669407e+000	 7.647185997851698e-001	 1.101879402814299e+001
 3.167884958480192e+000	 7.972274618061515e-001	 1.102232103404477e+001
 3.159523773512700e+000	 8.297444906243137e-001	 1.102590870544548e+001
 3.150804112011262e+000	 8.622641960164075e-001	 1.102944994577222e+001
 3.141724490344950e+000	 8.947810253926620e-001	 1.103256607025655e+001
 3.132283532317233e+000	 9.272893661122239e-001	 1.103461435311872e+001
 3.122479971421242e+000	 9.597835478886196e-001	 1.103469560800167e+001
 3.230532394982041e+000	 6.400552202046016e-001	 1.096150200933313e+001
 3.223883905721403e+000	 6.727425242434327e-001	 1.098887346997104e+001
 3.216883033617179e+000	 7.054595297115548e-001	 1.099689087391730e+001
 3.209527777260608e+000	 7.382009745636572e-001	 1.100296673229229e+001
 3.201816231439470e+000	 7.709615254670480e-001	 1.100789198198784e+001
 3.193746589647970e+000	 8.037357797643429e-001	 1.101215918258066e+001
 3.185317146556945e+000	 8.365182675300302e-001	 1.101597028662635e+001
 3.176526300440638e+000	 8.693034537203809e-001	 1.101924462653356e+001
 3.167372555556240e+000	 9.020857404160014e-001	 1.102162701737390e+001
 3.157854524472395e+000	 9.348594691561776e-001	 1.102249588258769e+001
 3.147970930342888e+000	 9.676189233639758e-001	 1.102097131853410e+001
 3.256691902298309e+000	 6.452381210873367e-001	 1.094728461096140e+001
 3.249989576337585e+000	 6.781901133154114e-001	 1.097161942543143e+001
 3.242932014083523e+000	 7.111720474826022e-001	 1.098186954778691e+001
 3.235517197920808e+000	 7.441786189337459e-001	 1.098968811225265e+001
 3.227743207209616e+000	 7.772044511490409e-001	 1.099588903547307e+001
 3.219608220815842e+000	 8.102440977226320e-001	 1.100098382034564e+001
 3.211110519601295e+000	 8.432920444358265e-001	 1.100519021303884e+001
 3.202248488870132e+000	 8.763427114244150e-001	 1.100844099670736e+001
 3.193020620767656e+000	 9.093904554393821e-001	 1.101039281266454e+001
 3.183425516627689e+000	 9.424295722001536e-001	 1.101043490813330e+001
 3.173461889264666e+000	 9.754542988393339e-001	 1.100769771953650e+001
 3.282851409614640e+000	 6.504210219704071e-001	 1.093089746767848e+001
 3.276095246953852e+000	 6.836377023877039e-001	 1.095317527689864e+001
 3.268980994549979e+000	 7.168845652539385e-001	 1.096552346055250e+001
 3.261506618581141e+000	 7.501562633040946e-001	 1.097508492743254e+001
 3.253670182979924e+000	 7.834473768312622e-001	 1.098267959751632e+001
 3.245469851983902e+000	 8.167524156811156e-001	 1.098882212257157e+001
 3.236903892645860e+000	 8.500658213417824e-001	 1.099373149918699e+001
 3.227970677299860e+000	 8.833819691285709e-001	 1.099734073070868e+001
 3.218668685979320e+000	 9.166951704628458e-001	 1.099930641973919e+001
 3.208996508783244e+000	 9.499996752441726e-001	 1.099901818201701e+001
 3.198952848186713e+000	 9.832896743146952e-001	 1.099560778323823e+001
 3.309010916931069e+000	 6.556039228539804e-001	 1.091184755945601e+001
 3.302200917570249e+000	 6.890852914604667e-001	 1.093317434491964e+001
 3.295029975016599e+000	 7.225970830257074e-001	 1.094761046280312e+001
 3.287496039241681e+000	 7.561339076748331e-001	 1.095904278857306e+001
 3.279597158750476e+000	 7.896903025138271e-001	 1.096827984236890e+001
 3.271331483152246e+000	 8.232607336398923e-001	 1.097582326350491e+001
 3.262697265690743e+000	 8.568395982479766e-001	 1.098187845048786e+001
 3.253692865729938e+000	 8.904212268329097e-001	 1.098636515388175e+001
 3.244316751191362e+000	 9.239998854864342e-001	 1.098892789404630e+001
 3.234567500939192e+000	 9.575697782882571e-001	 1.098894608578797e+001
 3.224443807109157e+000	 9.911250497900616e-001	 1.098554376365710e+001
 3.335170424247629e+000	 6.607868237382245e-001	 1.088976893987538e+001
 3.328306588186820e+000	 6.945328805338576e-001	 1.091136326093758e+001
 3.321078955483442e+000	 7.283096007980534e-001	 1.092800442724684e+001
 3.313485459902493e+000	 7.621115520460923e-001	 1.094156508566256e+001
 3.305524134521356e+000	 7.959332281968499e-001	 1.095282452824033e+001
 3.297193114320970e+000	 8.297690515990592e-001	 1.096225485816190e+001
 3.288490638736053e+000	 8.636133751544897e-001	 1.097003272943216e+001
 3.279415054160485e+000	 8.974604845374922e-001	 1.097605093472580e+001
 3.269964816403906e+000	 9.313046005101889e-001	 1.097992970323799e+001
 3.260138493095666e+000	 9.651398813324287e-001	 1.098102758130441e+001
 3.249934766032135e+000	 9.989604252654352e-001	 1.097845178125998e+001
 2.995025176810348e+000	 9.206066705118045e-001	 1.109275503394600e+001
 2.985272871861278e+000	 9.517554169440450e-001	 1.110447205197606e+001
 2.975170654820722e+000	 9.828795457048585e-001	 1.112252155578003e+001
 2.964717634414846e+000	 1.013973463865370e+000	 1.114669048200387e+001
 2.953913032638836e+000	 1.045031533136540e+000	 1.117668639649048e+001
 2.942756186611073e+000	 1.076048072588372e+000	 1.121206219905545e+001
 2.931246550353865e+000	 1.107017361446401e+000	 1.125228096739697e+001
 2.919383696497328e+000	 1.137933641963363e+000	 1.129670524207039e+001
 2.907167317903020e+000	 1.168791122363753e+000	 1.134460279038654e+001
 2.894597229204027e+000	 1.199583979858828e+000	 1.139515246296068e+001
 2.881673368258283e+000	 1.230306363729441e+000	 1.144745017782173e+001
 3.020516135733327e+000	 9.284420459871778e-001	 1.108356818560730e+001
 3.010680827941015e+000	 9.598559025168252e-001	 1.109422069315160e+001
 3.000492629920439e+000	 9.912449318515900e-001	 1.111197573492977e+001
 2.989950642812039e+000	 1.022603493460617e+000	 1.113642071208970e+001
 2.979054081989313e+000	 1.053925901066823e+000	 1.116704902505460e+001
 2.967802278928781e+000	 1.085206425389242e+000	 1.120319441160810e+001
 2.956194683005870e+000	 1.116439296963322e+000	 1.124408943770909e+001
 2.944230863213302e+000	 1.147618709037034e+000	 1.128885678280794e+001
 2.931910509798535e+000	 1.178738820540489e+000	 1.133651516907309e+001
 2.919233435816973e+000	 1.209793759126601e+000	 1.138598532980947e+001
 2.906199578597639e+000	 1.240777624280165e+000	 1.143609605524691e+001
 3.046007094655772e+000	 9.362774214625445e-001	 1.107299579234001e+001
 3.036088784020225e+000	 9.679563880896780e-001	 1.108218498291262e+001
 3.025814605019650e+000	 9.996103179984717e-001	 1.109921651754046e+001
 3.015183651208757e+000	 1.031233523056087e+000	 1.112347338393604e+001
 3.004195131339357e+000	 1.062820268997393e+000	 1.115423034588434e+001
 2.992848371246103e+000	 1.094364778190455e+000	 1.119059707662786e+001
 2.981142815657544e+000	 1.125861232480630e+000	 1.123157083243929e+001
 2.969078029928998e+000	 1.157303776111121e+000	 1.127602955712986e+001
 2.956653701693830e+000	 1.188686518717651e+000	 1.132273793555991e+001
 2.943869642429749e+000	 1.220003538394793e+000	 1.137035342697050e+001
 2.930725788936877e+000	 1.251248884831276e+000	 1.141743231985281e+001
 3.071498053577817e+000	 9.441127969379057e-001	 1.106114325713182e+001
 3.061496740099039e+000	 9.760568736625853e-001	 1.106862882028231e+001
 3.051136580118482e+000	 1.007975704145466e+000	 1.108465146174100e+001
 3.040416659605120e+000	 1.039863552651724e+000	 1.110838479608712e+001
 3.029336180689076e+000	 1.071714636928179e+000	 1.113888044127228e+001
 3.017894463563138e+000	 1.103523130991923e+000	 1.117501914759996e+001
 3.006090948308972e+000	 1.135283167998224e+000	 1.121555816250410e+001
 2.993925196644493e+000	 1.166988843185512e+000	 1.125912597735356e+001
 2.981396893588967e+000	 1.198634216895122e+000	 1.130422846184132e+001
 2.968505849042415e+000	 1.230213317663281e+000	 1.134925491254686e+001
 2.955251999276042e+000	 1.261720145382654e+000	 1.139248406120989e+001
 3.096989012499596e+000	 9.519481724132636e-001	 1.104825231095654e+001
 3.086904696177589e+000	 9.841573592355289e-001	 1.105394938687096e+001
 3.076458555217060e+000	 1.016341090292535e+000	 1.106880805841166e+001
 3.065649668001247e+000	 1.048493582247471e+000	 1.109181798996834e+001
 3.054477230038581e+000	 1.080609004859105e+000	 1.112177269707788e+001
 3.042940555879987e+000	 1.112681483793558e+000	 1.115732936965218e+001
 3.031039080960242e+000	 1.144705103516002e+000	 1.119700067831198e+001
 3.018772363359863e+000	 1.176673910260096e+000	 1.123916113699947e+001
 3.006140085484014e+000	 1.208581915072786e+000	 1.128205327236651e+001
 2.993142055655025e+000	 1.240423096931949e+000	 1.132379363504172e+001
 2.979778209615191e+000	 1.272191405934185e+000	 1.136237870241993e+001
 3.122479971421242e+000	 9.597835478886196e-001	 1.103469560800167e+001
 3.112312652256008e+000	 9.922578448084910e-001	 1.103867136587094e+001
 3.101780530315512e+000	 1.024706476439641e+000	 1.105236936913781e+001
 3.090882676397256e+000	 1.057123611843272e+000	 1.107455615226963e+001
 3.079618279387981e+000	 1.089503372790100e+000	 1.110379676573887e+001
 3.067986648196746e+000	 1.121839836595270e+000	 1.113850878310924e+001
 3.055987213611441e+000	 1.154127039033863e+000	 1.117695589433419e+001
 3.043619530075186e+000	 1.186358977334763e+000	 1.121725433744642e+001
 3.030883277379037e+000	 1.218529613250524e+000	 1.125737905448678e+001
 3.017778262267638e+000	 1.250632876200675e+000	 1.129516960997874e+001
 3.004304419954370e+000	 1.282662666485751e+000	 1.132833592600679e+001
 3.147970930342888e+000	 9.676189233639758e-001	 1.102097131853410e+001
 3.137720608334429e+000	 1.000358330381453e+000	 1.102344115914175e+001
 3.127102505413965e+000	 1.033071862586746e+000	 1.103610315241117e+001
 3.116115684793268e+000	 1.065753641439071e+000	 1.105749601820335e+001
 3.104759328737387e+000	 1.098397740721089e+000	 1.108595153249515e+001
 3.093032740513514e+000	 1.130998189396973e+000	 1.111964323324625e+001
 3.080935346262661e+000	 1.163548974551708e+000	 1.115658162351049e+001
 3.068466696790536e+000	 1.196044044409403e+000	 1.119462062872023e+001
 3.055626469274102e+000	 1.228477311428221e+000	 1.123146368799866e+001
 3.042414468880311e+000	 1.260842655469342e+000	 1.126466952125606e+001
 3.028830630293633e+000	 1.293133927037236e+000	 1.129165763085298e+001
 3.173461889264666e+000	 9.754542988393339e-001	 1.100769771953650e+001
 3.163128564412980e+000	 1.008458815954396e+000	 1.100902110249377e+001
 3.152424480512546e+000	 1.041437248733814e+000	 1.102090021230736e+001
 3.141348693189401e+000	 1.074383671034812e+000	 1.104164127558792e+001
 3.129900378086907e+000	 1.107292108652000e+000	 1.106933808464671e+001
 3.118078832830393e+000	 1.140156542198578e+000	 1.110191588589072e+001
 3.105883478913983e+000	 1.172970910069433e+000	 1.113712802093826e+001
 3.093313863505990e+000	 1.205729111483904e+000	 1.117256236362046e+001
 3.080369661169276e+000	 1.238425009605759e+000	 1.120564729271134e+001
 3.067050675493100e+000	 1.271052434737831e+000	 1.123365724584264e+001
 3.053356840633026e+000	 1.303605187588521e+000	 1.125371791843870e+001
 3.198952848186713e+000	 9.832896743146952e-001	 1.099560778323823e+001
 3.188536520491794e+000	 1.016559301527303e+000	 1.099627462290100e+001
 3.177746455611380e+000	 1.049802634880804e+000	 1.100775671176220e+001
 3.166581701585774e+000	 1.083013700630437e+000	 1.102809596971000e+001
 3.155041427436653e+000	 1.116186476582760e+000	 1.105515268367434e+001
 3.143124925147479e+000	 1.149314894999995e+000	 1.108659974854839e+001
 3.130831611565499e+000	 1.182392845586940e+000	 1.111992963632563e+001
 3.118161030221624e+000	 1.215414178558155e+000	 1.115246076444192e+001
 3.105112853064621e+000	 1.248372707783021e+000	 1.118134329303159e+001
 3.091686882106064e+000	 1.281262214006022e+000	 1.120356440051574e+001
 3.077883050972603e+000	 1.314076448139491e+000	 1.121595310674764e+001
 3.224443807109157e+000	 9.911250497900616e-001	 1.098554376365710e+001
 3.213944476571005e+000	 1.024659787100156e+000	 1.098619778786772e+001
 3.203068430710595e+000	 1.058168021027681e+000	 1.099776799069021e+001
 3.191814709982509e+000	 1.091643730225893e+000	 1.101805790892293e+001
 3.180182476786732e+000	 1.125080844513294e+000	 1.104467974006569e+001
 3.168171017464872e+000	 1.158473247801137e+000	 1.107505019674645e+001
 3.155779744217294e+000	 1.191814781104125e+000	 1.110639747472493e+001
 3.143008196937515e+000	 1.225099245632047e+000	 1.113576750159381e+001
 3.129856044960206e+000	 1.258320405959892e+000	 1.116002949862573e+001
 3.116323088719257e+000	 1.291471993273796e+000	 1.117588090941983e+001
 3.102409261312411e+000	 1.324547708690029e+000	 1.117985177030996e+001
 3.249934766032135e+000	 9.989604252654352e-001	 1.097845178125998e+001
 3.239352432650741e+000	 1.032760272672935e+000	 1.097985573056517e+001
 3.228390405810319e+000	 1.066533407174408e+000	 1.099212238344406e+001
 3.217047718379721e+000	 1.100273759821121e+000	 1.101281207094079e+001
 3.205323526137257e+000	 1.133975212443531e+000	 1.103928479069771e+001
 3.193217109782673e+000	 1.167631600601917e+000	 1.106869750530758e+001
 3.180727876869459e+000	 1.201236716620890e+000	 1.109801106509122e+001
 3.167855363653740e+000	 1.234784312705469e+000	 1.112399628346347e+001
 3.154599236856098e+000	 1.268268104136253e+000	 1.114323920027554e+001
 3.140959295332737e+000	 1.301681772541035e+000	 1.115214559130404e+001
 3.126935471652506e+000	 1.335018969240017e+000	 1.114703318375377e+001
 2.881673368258283e+000	 1.230306363729441e+000	 1.144745017782173e+001
 2.868397815937404e+000	 1.260947808074110e+000	 1.148425488463135e+001
 2.854768850366804e+000	 1.291507033333439e+000	 1.148775273849526e+001
 2.840786788950488e+000	 1.321978128413373e+000	 1.145597470565951e+001
 2.826452077113804e+000	 1.352355167314767e+000	 1.139940253360233e+001
 2.811765289274062e+000	 1.382632212507475e+000	 1.136225747176566e+001
 2.796727129707190e+000	 1.412803318353237e+000	 1.134549143502854e+001
 2.781338433307961e+000	 1.442862534573747e+000	 1.134541072766042e+001
 2.765600166241469e+000	 1.472803909760124e+000	 1.135814954600924e+001
 2.749513426483720e+000	 1.502621494919891e+000	 1.137968342395204e+001
 2.733079444249319e+000	 1.532309347057451e+000	 1.140584376579267e+001
 2.906199578597639e+000	 1.240777624280165e+000	 1.143609605524691e+001
 2.892811036722654e+000	 1.271679861023362e+000	 1.146839081901405e+001
 2.879066073662390e+000	 1.302499178906338e+000	 1.146401797039320e+001
 2.864965009522325e+000	 1.333229616525127e+000	 1.142100555544930e+001
 2.850508293518875e+000	 1.363865197443818e+000	 1.136953900854622e+001
 2.835696504958288e+000	 1.394399933597353e+000	 1.133933458051848e+001
 2.820530354110670e+000	 1.424827828743552e+000	 1.132701050815955e+001
 2.805010682976677e+000	 1.455142881960698e+000	 1.132900603101245e+001
 2.789138465944542e+000	 1.485339091186876e+000	 1.134159403783182e+001
 2.772914810335272e+000	 1.515410456797143e+000	 1.136089470183504e+001
 2.756340956833962e+000	 1.545350985214473e+000	 1.138289024341566e+001
 2.930725788936877e+000	 1.251248884831276e+000	 1.141743231985281e+001
 2.917224257507826e+000	 1.282411913972944e+000	 1.144441091920932e+001
 2.903363296957934e+000	 1.313491324479491e+000	 1.143151097949576e+001
 2.889143230094150e+000	 1.344481104637046e+000	 1.138105814898239e+001
 2.874564509923965e+000	 1.375375227572934e+000	 1.133887684427597e+001
 2.859627720642560e+000	 1.406167654687189e+000	 1.131541238322279e+001
 2.844333578514223e+000	 1.436852339133718e+000	 1.130741771208416e+001
 2.828682932645491e+000	 1.467423229347397e+000	 1.131147312822321e+001
 2.812676765647745e+000	 1.497874272613284e+000	 1.132399890462471e+001
 2.796316194186986e+000	 1.528199418673973e+000	 1.134126911671298e+001
 2.779602469418804e+000	 1.558392623371014e+000	 1.135942663797153e+001
 2.955251999276042e+000	 1.261720145382654e+000	 1.139248406120989e+001
 2.941637478292966e+000	 1.293143966922747e+000	 1.141336582579436e+001
 2.927660520253484e+000	 1.324483470052802e+000	 1.139131906145377e+001
 2.913321450666013e+000	 1.355732592749046e+000	 1.134152217625834e+001
 2.898620726329122e+000	 1.386885257702045e+000	 1.130826831762155e+001
 2.883558936326928e+000	 1.417935375776930e+000	 1.129128044046243e+001
 2.868136802917897e+000	 1.448876849523699e+000	 1.128745379142175e+001
 2.852355182314455e+000	 1.479703576733827e+000	 1.129351768328783e+001
 2.836215065351123e+000	 1.510409454039345e+000	 1.130604826978527e+001
 2.819717578038901e+000	 1.540988380550389e+000	 1.132148256604707e+001
 2.802863982003876e+000	 1.571434261527091e+000	 1.133613368068863e+001
 2.979778209615191e+000	 1.272191405934185e+000	 1.136237870241993e+001
 2.966050699078124e+000	 1.303876019872661e+000	 1.137640490269255e+001
 2.951957743549081e+000	 1.335475615626169e+000	 1.134478352573293e+001
 2.937499671237958e+000	 1.366984080861041e+000	 1.130331581184122e+001
 2.922676942734390e+000	 1.398395287831081e+000	 1.127855633249457e+001
 2.907490152011438e+000	 1.429703096866527e+000	 1.126772024680613e+001
 2.891940027321741e+000	 1.460901359913464e+000	 1.126785239131468e+001
 2.876027431983614e+000	 1.491983924119971e+000	 1.127583889135034e+001
 2.859753365054722e+000	 1.522944635465056e+000	 1.128842008690073e+001
 2.843118961891063e+000	 1.553777342426399e+000	 1.130220474915354e+001
 2.826125494589216e+000	 1.584475899682720e+000	 1.131368555303798e+001
 3.004304419954370e+000	 1.282662666485751e+000	 1.132833592600679e+001
 2.990463919863343e+000	 1.314608072822576e+000	 1.133476561253607e+001
 2.976254966844774e+000	 1.346467761199496e+000	 1.129845516493342e+001
 2.961677891810029e+000	 1.378235568972947e+000	 1.126734539009125e+001
 2.946733159139817e+000	 1.409905317959977e+000	 1.125057374087967e+001
 2.931421367696138e+000	 1.441470817955927e+000	 1.124550453617023e+001
 2.915743251725804e+000	 1.472925870302978e+000	 1.124933936641958e+001
 2.899699681653019e+000	 1.504264271505810e+000	 1.125912881027554e+001
 2.883291664758590e+000	 1.535479816890413e+000	 1.127178551252427e+001
 2.866520345743509e+000	 1.566566304302014e+000	 1.128409859945320e+001
 2.849387007174854e+000	 1.597517537837919e+000	 1.129274939634660e+001
 3.028830630293633e+000	 1.293133927037236e+000	 1.129165763085298e+001
 3.014877140648670e+000	 1.325340125772382e+000	 1.128976292928014e+001
 3.000552190140605e+000	 1.357459906772683e+000	 1.125596336224772e+001
 2.985856112382270e+000	 1.389487057084678e+000	 1.123450497990876e+001
 2.970789375545449e+000	 1.421415348088662e+000	 1.122514271437447e+001
 2.955352583381074e+000	 1.453238539045079e+000	 1.122539664041758e+001
 2.939546476130134e+000	 1.484950380692207e+000	 1.123263214496705e+001
 2.923371931322718e+000	 1.516544618891328e+000	 1.124407174828004e+001
 2.906829964462770e+000	 1.548014998315415e+000	 1.125680833517150e+001
 2.889921729596284e+000	 1.579355266177241e+000	 1.126781977228644e+001
 2.872648519760826e+000	 1.610559175992701e+000	 1.127398487551953e+001
 3.053356840633026e+000	 1.303605187588521e+000	 1.125371791843870e+001
 3.039290361434153e+000	 1.336072178721969e+000	 1.124302533437454e+001
 3.024849413436621e+000	 1.368452052345632e+000	 1.121827256420174e+001
 3.010034332954730e+000	 1.400738545196150e+000	 1.120567583224107e+001
 2.994845591951334e+000	 1.432925378217068e+000	 1.120307416343746e+001
 2.979283799066296e+000	 1.465006260133933e+000	 1.120814989819902e+001
 2.963349700534780e+000	 1.496974891081117e+000	 1.121843914479368e+001
 2.947044180992758e+000	 1.528824966276507e+000	 1.123134370447063e+001
 2.930368264167312e+000	 1.560550179740057e+000	 1.124414445737567e+001
 2.913323113449429e+000	 1.592144228052089e+000	 1.125401618516888e+001
 2.895910032347164e+000	 1.623600814147085e+000	 1.125804379382858e+001
 3.077883050972603e+000	 1.314076448139491e+000	 1.121595310674764e+001
 3.063703582219838e+000	 1.346804231671227e+000	 1.120098690839207e+001
 3.049146636732866e+000	 1.379444197918242e+000	 1.118633208147950e+001
 3.034212553527452e+000	 1.411990033307279e+000	 1.118172586947128e+001
 3.018901808357516e+000	 1.444435408345127e+000	 1.118516720168139e+001
 3.003215014751850e+000	 1.476773981222436e+000	 1.119450711123510e+001
 2.987152924939791e+000	 1.508999401469674e+000	 1.120745923844744e+001
 2.970716430663188e+000	 1.541105313661330e+000	 1.122161185933823e+001
 2.953906563872260e+000	 1.573085361164338e+000	 1.123444142784264e+001
 2.936724497302984e+000	 1.604933189926567e+000	 1.124332760756339e+001
 2.919171544933902e+000	 1.636642452301086e+000	 1.124556975591887e+001
 3.102409261312411e+000	 1.324547708690029e+000	 1.117985177030996e+001
 3.088116803005770e+000	 1.357536284620048e+000	 1.116674315224921e+001
 3.073443860029386e+000	 1.390436343490416e+000	 1.116107565655048e+001
 3.058390774100482e+000	 1.423241521417980e+000	 1.116350921437018e+001
 3.042958024764042e+000	 1.455945438472771e+000	 1.117220865272029e+001
 3.027146230437786e+000	 1.488541702310539e+000	 1.118520004541287e+001
 3.010956149345215e+000	 1.521023911857844e+000	 1.120038126465080e+001
 2.994388680334057e+000	 1.553385661045778e+000	 1.121553411244360e+001
 2.977444863577661e+000	 1.585620542588254e+000	 1.122833802093273e+001
 2.960125881156992e+000	 1.617722151800683e+000	 1.123638529742700e+001
 2.942433057521074e+000	 1.649684090454720e+000	 1.123719787636508e+001
 3.126935471652506e+000	 1.335018969240017e+000	 1.114703318375377e+001
 3.112530023792000e+000	 1.368268337568320e+000	 1.114130184921723e+001
 3.097741083326226e+000	 1.401428489062056e+000	 1.114342106516713e+001
 3.082568994673866e+000	 1.434493009528169e+000	 1.115186575643931e+001
 3.067014241170958e+000	 1.467455468599930e+000	 1.116497259723326e+001
 3.051077446124150e+000	 1.500309423398188e+000	 1.118094897423671e+001
 3.034759373751101e+000	 1.533048422245595e+000	 1.119788358357597e+001
 3.018060930005414e+000	 1.565666008429837e+000	 1.121375866470318e+001
 3.000983163283562e+000	 1.598155724011803e+000	 1.122646386087097e+001
 2.983527265011496e+000	 1.630511113674446e+000	 1.123381168196615e+001
 2.965694570108715e+000	 1.662725728608005e+000	 1.123355453127634e+001
 2.733079444249319e+000	 1.532309347057451e+000	 1.140584376579267e+001
 2.716297039568712e+000	 1.561865955864427e+000	 1.142946160879335e+001
 2.699170149807901e+000	 1.591280936462619e+000	 1.144629497441860e+001
 2.681700406264190e+000	 1.620548384726113e+000	 1.145657287747298e+001
 2.663889573078078e+000	 1.649662417173072e+000	 1.146067426835045e+001
 2.645739547069145e+000	 1.678617174651290e+000	 1.146005562057950e+001
 2.627252357450537e+000	 1.707406826031018e+000	 1.145658613761248e+001
 2.608430165421335e+000	 1.736025571900473e+000	 1.145202814287700e+001
 2.589275263636230e+000	 1.764467648259312e+000	 1.144835326885791e+001
 2.569790075552226e+000	 1.792727330205414e+000	 1.144772841174377e+001
 2.549977154652176e+000	 1.820798935610175e+000	 1.145249998200469e+001
 2.756340956833962e+000	 1.545350985214473e+000	 1.138289024341566e+001
 2.739415715428227e+000	 1.575159153276105e+000	 1.140224220394488e+001
 2.722143056995375e+000	 1.604824487717100e+000	 1.141641483209133e+001
 2.704524626716822e+000	 1.634341034160935e+000	 1.142560154704481e+001
 2.686562203747829e+000	 1.663702859050867e+000	 1.143012819484698e+001
 2.668257701051977e+000	 1.692904053366853e+000	 1.143046672015201e+001
 2.649613165113236e+000	 1.721938736349818e+000	 1.142792465828462e+001
 2.630630775524840e+000	 1.750801059228598e+000	 1.142482060070501e+001
 2.611312844454483e+000	 1.779485208944865e+000	 1.142312222833807e+001
 2.591661815985434e+000	 1.807985411871278e+000	 1.142499549392202e+001
 2.571680265333477e+000	 1.836295937518066e+000	 1.143279271617277e+001
 2.779602469418804e+000	 1.558392623371014e+000	 1.135942663797154e+001
 2.762534391287983e+000	 1.588452350687268e+000	 1.137487445639685e+001
 2.745115964183133e+000	 1.618368038971054e+000	 1.138666989389923e+001
 2.727348847169785e+000	 1.648133683595235e+000	 1.139494424450192e+001
 2.709234834417954e+000	 1.677743300928162e+000	 1.139995728998242e+001
 2.690775855035223e+000	 1.707190932081953e+000	 1.140211164635013e+001
 2.671973972776374e+000	 1.736470646668199e+000	 1.140196747640850e+001
 2.652831385628806e+000	 1.765576546556353e+000	 1.140072277011224e+001
 2.633350425273202e+000	 1.794502769630099e+000	 1.140104832877568e+001
 2.613533556419093e+000	 1.823243493536874e+000	 1.140513755514610e+001
 2.593383376015194e+000	 1.851792939425738e+000	 1.141532146713855e+001
 2.802863982003876e+000	 1.571434261527091e+000	 1.133613368068863e+001
 2.785653067148002e+000	 1.601745548097935e+000	 1.134804399229869e+001
 2.768088871371186e+000	 1.631911590224498e+000	 1.135773828553556e+001
 2.750173067623071e+000	 1.661926333029029e+000	 1.136525974132912e+001
 2.731907465088427e+000	 1.691783742804963e+000	 1.137077503052611e+001
 2.713294009018838e+000	 1.721477810796585e+000	 1.137458940082334e+001
 2.694334780439897e+000	 1.751002556986144e+000	 1.137716218516587e+001
 2.675031995733158e+000	 1.780352033883711e+000	 1.137912263398820e+001
 2.655388006092302e+000	 1.809520330314980e+000	 1.138161284164614e+001
 2.635405296853118e+000	 1.838501575202161e+000	 1.138756846761755e+001
 2.615086486697246e+000	 1.867289941333142e+000	 1.139942100466511e+001
 2.826125494589216e+000	 1.584475899682720e+000	 1.131368555303798e+001
 2.808771743008305e+000	 1.615038745508126e+000	 1.132242963575300e+001
 2.791061778559539e+000	 1.645455141477451e+000	 1.133029158145736e+001
 2.772997288076671e+000	 1.675718982462327e+000	 1.133720098650316e+001
 2.754580095759225e+000	 1.705824184681278e+000	 1.134320488035778e+001
 2.735812163002780e+000	 1.735764689510745e+000	 1.134848361918770e+001
 2.716695588103744e+000	 1.765534467303639e+000	 1.135336726096213e+001
 2.697232605837830e+000	 1.795127521210649e+000	 1.135835231993492e+001
 2.677425586911706e+000	 1.824537890999473e+000	 1.136411878998597e+001
 2.657277037287425e+000	 1.853759656867096e+000	 1.137178787891049e+001
 2.636789597379548e+000	 1.882786943240229e+000	 1.138451220813908e+001
 2.849387007174854e+000	 1.597517537837919e+000	 1.129274939634660e+001
 2.831890418868914e+000	 1.628331942917860e+000	 1.129870299620353e+001
 2.814034685748200e+000	 1.658998692729931e+000	 1.130499445369973e+001
 2.795821508530576e+000	 1.689511631895144e+000	 1.131141480111998e+001
 2.777252726430318e+000	 1.719864626557111e+000	 1.131786538693488e+001
 2.758330316987007e+000	 1.750051568224430e+000	 1.132437464273247e+001
 2.739056395767859e+000	 1.780066377620673e+000	 1.133111539648167e+001
 2.719433215942749e+000	 1.809903008537144e+000	 1.133842262523584e+001
 2.699463167731334e+000	 1.839555451683543e+000	 1.134681153145569e+001
 2.679148777721928e+000	 1.869017738531633e+000	 1.135699581883781e+001
 2.658492708062018e+000	 1.898283945146948e+000	 1.137009952256603e+001
 2.872648519760826e+000	 1.610559175992701e+000	 1.127398487551952e+001
 2.855009094729853e+000	 1.641625140327156e+000	 1.127752810851882e+001
 2.837007592937177e+000	 1.672542243981955e+000	 1.128250437282664e+001
 2.818645728984777e+000	 1.703304281327492e+000	 1.128854162541000e+001
 2.799925357101683e+000	 1.733905068432466e+000	 1.129536996027674e+001
 2.780848470971473e+000	 1.764338446937636e+000	 1.130283931599322e+001
 2.761417203432182e+000	 1.794598287937230e+000	 1.131093779919353e+001
 2.741633826047844e+000	 1.824678495863168e+000	 1.131981051220196e+001
 2.721500748551104e+000	 1.854573012367157e+000	 1.132977876337801e+001
 2.701020518156543e+000	 1.884275820195732e+000	 1.134135952995163e+001
 2.680195818744573e+000	 1.913780947053250e+000	 1.135528503503399e+001
 2.895910032347164e+000	 1.623600814147085e+000	 1.125804379382858e+001
 2.878127770591144e+000	 1.654918337736034e+000	 1.125956112280939e+001
 2.859980500126478e+000	 1.686085795233540e+000	 1.126347135808651e+001
 2.841469949439266e+000	 1.717096930759384e+000	 1.126921531519690e+001
 2.822597987773292e+000	 1.747945510307352e+000	 1.127632670235673e+001
 2.803366624956138e+000	 1.778625325650358e+000	 1.128445083638579e+001
 2.783778011096657e+000	 1.809130198253296e+000	 1.129336404922406e+001
 2.763834436153042e+000	 1.839453983188698e+000	 1.130299366793254e+001
 2.743538329370936e+000	 1.869590573050278e+000	 1.131343844095019e+001
 2.722892258591185e+000	 1.899533901859347e+000	 1.132498927394972e+001
 2.701898929427128e+000	 1.929277948959084e+000	 1.133815013001228e+001
 2.919171544933902e+000	 1.636642452301086e+000	 1.124556975591887e+001
 2.901246446452806e+000	 1.668211535144512e+000	 1.124545004120386e+001
 2.882953407316110e+000	 1.699629346484705e+000	 1.124853777402798e+001
 2.864294169894032e+000	 1.730889580190834e+000	 1.125406298504140e+001
 2.845270618445120e+000	 1.761985952181773e+000	 1.126133828409155e+001
 2.825884778940959e+000	 1.792912204362594e+000	 1.126977865299794e+001
 2.806138818761223e+000	 1.823662108568856e+000	 1.127892200855635e+001
 2.786035046258273e+000	 1.854229470513710e+000	 1.128845041319042e+001
 2.765575910190750e+000	 1.884608133732874e+000	 1.129821179990318e+001
 2.744763999025769e+000	 1.914791983522436e+000	 1.130824206814737e+001
 2.723602040109602e+000	 1.944774950864403e+000	 1.131878739802785e+001
 2.942433057521074e+000	 1.649684090454720e+000	 1.123719787636508e+001
 2.924365122314863e+000	 1.681504732552608e+000	 1.123583449898564e+001
 2.905926314506080e+000	 1.713172897735468e+000	 1.123833817100483e+001
 2.887118390349069e+000	 1.744682229621855e+000	 1.124370489548679e+001
 2.867943249117139e+000	 1.776026394055733e+000	 1.125100186729338e+001
 2.848402932925892e+000	 1.807199083074341e+000	 1.125938841181742e+001
 2.828499626425824e+000	 1.838194018883899e+000	 1.126813777871853e+001
 2.808235656363467e+000	 1.869004957838178e+000	 1.127665966235347e+001
 2.787613491010467e+000	 1.899625694414908e+000	 1.128452330915449e+001
 2.766635739460210e+000	 1.930050065184955e+000	 1.129148106153426e+001
 2.745305150791908e+000	 1.960271952769154e+000	 1.129749217808638e+001
 2.965694570108715e+000	 1.662725728608005e+000	 1.123355453127634e+001
 2.947483798177338e+000	 1.694797929960343e+000	 1.123134558765389e+001
 2.928899221696398e+000	 1.726716448985847e+000	 1.123349916716049e+001
 2.909942610804364e+000	 1.758474879052459e+000	 1.123875438198452e+001
 2.890615879789327e+000	 1.790066835929240e+000	 1.124590906911582e+001
 2.870921086910895e+000	 1.821485961785593e+000	 1.125384194484786e+001
 2.850860434090400e+000	 1.852725929198409e+000	 1.126153570429593e+001
 2.830436266468553e+000	 1.883780445162080e+000	 1.126810093163903e+001
 2.809651071830005e+000	 1.914643255096348e+000	 1.127280067465354e+001
 2.788507479894426e+000	 1.945308146846862e+000	 1.127507552575503e+001
 2.767008261473969e+000	 1.975768954673289e+000	 1.127456904132662e+001
 2.549977154652176e+000	 1.820798935610175e+000	 1.145249998200469e+001
 2.529839182825770e+000	 1.848676828161380e+000	 1.145582854337876e+001
 2.509378967208837e+000	 1.876355419114987e+000	 1.144913614186254e+001
 2.488599441235097e+000	 1.903829172691866e+000	 1.143231725949019e+001
 2.467503664099979e+000	 1.931092610269970e+000	 1.140529484131716e+001
 2.446094819379461e+000	 1.958140313934778e+000	 1.136800261915542e+001
 2.424376213529276e+000	 1.984966929989930e+000	 1.132036659863221e+001
 2.402351274265837e+000	 2.011567172423368e+000	 1.126521185243797e+001
 2.380023548830396e+000	 2.037935826324343e+000	 1.122476679828329e+001
 2.357396702138207e+000	 2.064067751246718e+000	 1.120205573644051e+001
 2.334474514814633e+000	 2.089957884514068e+000	 1.119500047011992e+001
 2.571680265333477e+000	 1.836295937518066e+000	 1.143279271617277e+001
 2.551370897214117e+000	 1.864411101601794e+000	 1.143891106936609e+001
 2.530736542655011e+000	 1.892325267812062e+000	 1.143384223959575e+001
 2.509780160056639e+000	 1.920032853254175e+000	 1.141724082453336e+001
 2.488504834651568e+000	 1.947528332676985e+000	 1.138878947706844e+001
 2.466913777111521e+000	 1.974806242053562e+000	 1.134818063766717e+001
 2.445010322033827e+000	 2.001861182121705e+000	 1.129517393485302e+001
 2.422797926308551e+000	 2.028687821879580e+000	 1.124720905722316e+001
 2.400280167367885e+000	 2.055280902031814e+000	 1.121630762682316e+001
 2.377460741319559e+000	 2.081635238381421e+000	 1.120021228159539e+001
 2.354343460966238e+000	 2.107745725163034e+000	 1.119654510306235e+001
 2.593383376015194e+000	 1.851792939425738e+000	 1.141532146713855e+001
 2.572902611602827e+000	 1.880145375042032e+000	 1.142320275091178e+001
 2.552094118101473e+000	 1.908295116508996e+000	 1.141837672614338e+001
 2.530960878878383e+000	 1.936236533816368e+000	 1.140033044458559e+001
 2.509506005203260e+000	 1.963964055083904e+000	 1.136858103708772e+001
 2.487732734843586e+000	 1.991472170172263e+000	 1.132265669198574e+001
 2.465644430538283e+000	 2.018755434253400e+000	 1.126985360140623e+001
 2.443244578351072e+000	 2.045808471335707e+000	 1.123230174388136e+001
 2.420536785905097e+000	 2.072625977739186e+000	 1.120929174841282e+001
 2.397524780500567e+000	 2.099202725516005e+000	 1.119835524719506e+001
 2.374212407117443e+000	 2.125533565811849e+000	 1.119689627862320e+001
 2.615086486697246e+000	 1.867289941333142e+000	 1.139942100466511e+001
 2.594434325991823e+000	 1.895879648482040e+000	 1.140796895101935e+001
 2.573451693548162e+000	 1.924264965205734e+000	 1.140196509416833e+001
 2.552141597700285e+000	 1.952440214378395e+000	 1.138079989843183e+001
 2.530507175755037e+000	 1.980399777490679e+000	 1.134389834296682e+001
 2.508551692575658e+000	 2.008138098290838e+000	 1.129217649711820e+001
 2.486278539042668e+000	 2.035649686384982e+000	 1.124874311275062e+001
 2.463691230393453e+000	 2.062929120791727e+000	 1.121992353707634e+001
 2.440793404442102e+000	 2.089971053446450e+000	 1.120326141373035e+001
 2.417588819681313e+000	 2.116770212650470e+000	 1.119615614104350e+001
 2.394081353268349e+000	 2.143321406460531e+000	 1.119587352017273e+001
 2.636789597379548e+000	 1.882786943240229e+000	 1.138451220813908e+001
 2.615966040381032e+000	 1.911613921921764e+000	 1.139256095743421e+001
 2.594809268995017e+000	 1.940234813902221e+000	 1.138391742174197e+001
 2.573322316522301e+000	 1.968643894940201e+000	 1.135794512065889e+001
 2.551508346306874e+000	 1.996835499897263e+000	 1.131404891778635e+001
 2.529370650307736e+000	 2.024804026409246e+000	 1.126536566565256e+001
 2.506912647547007e+000	 2.052543938516416e+000	 1.123124168100620e+001
 2.484137882435738e+000	 2.080049770247615e+000	 1.120955570495940e+001
 2.461050022978969e+000	 2.107316129153594e+000	 1.119780173442740e+001
 2.437652858861884e+000	 2.134337699784820e+000	 1.119332392574572e+001
 2.413950299419056e+000	 2.161109247109096e+000	 1.119332783325680e+001
 2.658492708062018e+000	 1.898283945146948e+000	 1.137009952256603e+001
 2.637497754770377e+000	 1.927348195361151e+000	 1.137641331085253e+001
 2.616166844441978e+000	 1.956204662598404e+000	 1.136362561722487e+001
 2.594503035344390e+000	 1.984847575501736e+000	 1.133114140555314e+001
 2.572509516858754e+000	 2.013271222303608e+000	 1.128236436842681e+001
 2.550189608039823e+000	 2.041469954527444e+000	 1.124323877669620e+001
 2.527546756051328e+000	 2.069438190647670e+000	 1.121679775171132e+001
 2.504584534477977e+000	 2.097170419703349e+000	 1.120072483441294e+001
 2.481306641515768e+000	 2.124661204860606e+000	 1.119253857790106e+001
 2.457716898042369e+000	 2.151905186919057e+000	 1.118960316257085e+001
 2.433819245569663e+000	 2.178897087757561e+000	 1.118914012547393e+001
 2.680195818744573e+000	 1.913780947053250e+000	 1.135528503503399e+001
 2.659029469159782e+000	 1.943082468800149e+000	 1.135904121026577e+001
 2.637524419888981e+000	 1.972174511294227e+000	 1.134056074297348e+001
 2.615683754166508e+000	 2.001051256062946e+000	 1.129986555159459e+001
 2.593510687410649e+000	 2.029706944709663e+000	 1.125621282685948e+001
 2.571008565771920e+000	 2.058135882645392e+000	 1.122523881486752e+001
 2.548180864555651e+000	 2.086332442778711e+000	 1.120490655794272e+001
 2.525031186520220e+000	 2.114291069158907e+000	 1.119300056512748e+001
 2.501563260052567e+000	 2.142006280567476e+000	 1.118713651202014e+001
 2.477780937222855e+000	 2.169472674053184e+000	 1.118477219503945e+001
 2.453688191720270e+000	 2.196684928405941e+000	 1.118321965461995e+001
 2.701898929427128e+000	 1.929277948959084e+000	 1.133815013001228e+001
 2.680561183549176e+000	 1.958816742238704e+000	 1.133949410676047e+001
 2.658881995335964e+000	 1.988144359989638e+000	 1.131427041343959e+001
 2.636864472988613e+000	 2.017254936623779e+000	 1.127025182617051e+001
 2.614511857962542e+000	 2.046142667115383e+000	 1.123528307511839e+001
 2.591827523504031e+000	 2.074801810763047e+000	 1.121085609338044e+001
 2.568814973060007e+000	 2.103226694909506e+000	 1.119510773695328e+001
 2.545477838562512e+000	 2.131411718614264e+000	 1.118599337920301e+001
 2.521819878589437e+000	 2.159351356274191e+000	 1.118129679699478e+001
 2.497844976403427e+000	 2.187040161187201e+000	 1.117864137000071e+001
 2.473557137870976e+000	 2.214472769054255e+000	 1.117550250351095e+001
 2.723602040109602e+000	 1.944774950864403e+000	 1.131878739802785e+001
 2.702092897938480e+000	 1.974551015676761e+000	 1.131576554834645e+001
 2.680239570782870e+000	 2.004114208684582e+000	 1.128420831598186e+001
 2.658045191810659e+000	 2.033458617184183e+000	 1.124698621610812e+001
 2.635513028514410e+000	 2.062578389520717e+000	 1.121908617368660e+001
 2.612646481236155e+000	 2.091467738880369e+000	 1.119962579356809e+001
 2.589449081564420e+000	 2.120120947040020e+000	 1.118698300584109e+001
 2.565924490604902e+000	 2.148532368069398e+000	 1.117935244317893e+001
 2.542076497126445e+000	 2.176696431980742e+000	 1.117475542176150e+001
 2.517909015584173e+000	 2.204607648321111e+000	 1.117105129410934e+001
 2.493426084021882e+000	 2.232260609702518e+000	 1.116595007999662e+001
 2.745305150791908e+000	 1.960271952769154e+000	 1.129749217808638e+001
 2.723624612327620e+000	 1.990285289114268e+000	 1.128791530380840e+001
 2.701597146229636e+000	 2.020084057379005e+000	 1.125617004113940e+001
 2.679225910632606e+000	 2.049662297744106e+000	 1.122913633706035e+001
 2.656514199066231e+000	 2.079014111925619e+000	 1.120717768568051e+001
 2.633465438968294e+000	 2.108133666997313e+000	 1.119112556507073e+001
 2.610083190068913e+000	 2.137015199170221e+000	 1.118015389298258e+001
 2.586371142647441e+000	 2.165653017524286e+000	 1.117276349959019e+001
 2.562333115663661e+000	 2.194041507687116e+000	 1.116728118241939e+001
 2.537973054765180e+000	 2.222175135454916e+000	 1.116187112374239e+001
 2.513295030173088e+000	 2.250048450350747e+000	 1.115454764076963e+001
 2.767008261473969e+000	 1.975768954673289e+000	 1.127456904132662e+001
 2.745156326716522e+000	 2.006019562551172e+000	 1.125700046539570e+001
 2.722954721676198e+000	 2.036053906072851e+000	 1.123321216693699e+001
 2.700406629454409e+000	 2.065865978303493e+000	 1.121442063800063e+001
 2.677515369617984e+000	 2.095449834330041e+000	 1.119877919817162e+001
 2.654284396700450e+000	 2.124799595113841e+000	 1.118497318335656e+001
 2.630717298573514e+000	 2.153909451300075e+000	 1.117427952216804e+001
 2.606817794690175e+000	 2.182773666978905e+000	 1.116594680533106e+001
 2.582589734201157e+000	 2.211386583393304e+000	 1.115867380040893e+001
 2.558037093946534e+000	 2.239742622588618e+000	 1.115099688652035e+001
 2.533163976324692e+000	 2.267836290998960e+000	 1.114130283766481e+001
 2.334474514814633e+000	 2.089957884514068e+000	 1.119500047011992e+001
 2.311264384991488e+000	 2.115597417230627e+000	 1.119213979522165e+001
 2.287766902175922e+000	 2.140985357364761e+000	 1.118371482549327e+001
 2.263986181384554e+000	 2.166116898914944e+000	 1.117009077294344e+001
 2.239926444295830e+000	 2.190987326190443e+000	 1.115159696937064e+001
 2.215592016756413e+000	 2.215592016756412e+000	 1.112853406545600e+001
 2.190987326190444e+000	 2.239926444295831e+000	 1.110118152432225e+001
 2.166116898914944e+000	 2.263986181384554e+000	 1.106980532331777e+001
 2.140985357364762e+000	 2.287766902175922e+000	 1.103466577587480e+001
 2.115597417230626e+000	 2.311264384991489e+000	 1.099602538419740e+001
 2.089957884514069e+000	 2.334474514814633e+000	 1.095415663326628e+001
 2.354343460966238e+000	 2.107745725163034e+000	 1.119654510306235e+001
 2.330935787405982e+000	 2.133603478507495e+000	 1.119402918244180e+001
 2.307238315163295e+000	 2.159207497939899e+000	 1.118366981521780e+001
 2.283255194278109e+000	 2.184552936554364e+000	 1.116640265383252e+001
 2.258990682359991e+000	 2.209635038524449e+000	 1.114313581525993e+001
 2.234449142073308e+000	 2.234449142073308e+000	 1.111475652138404e+001
 2.209635038524449e+000	 2.258990682359990e+000	 1.108213803417146e+001
 2.184552936554364e+000	 2.283255194278110e+000	 1.104614679636143e+001
 2.159207497939899e+000	 2.307238315163295e+000	 1.100764968641036e+001
 2.133603478507495e+000	 2.330935787405982e+000	 1.096752129530150e+001
 2.107745725163034e+000	 2.354343460966238e+000	 1.092665113256744e+001
 2.374212407117443e+000	 2.125533565811849e+000	 1.119689627862320e+001
 2.350607189820049e+000	 2.151609539784174e+000	 1.119398965840800e+001
 2.326709728150233e+000	 2.177429638514804e+000	 1.118145500366643e+001
 2.302524207171238e+000	 2.202988974193504e+000	 1.116070390374205e+001
 2.278054920423748e+000	 2.228282750858128e+000	 1.113312699072356e+001
 2.253306267389836e+000	 2.253306267389836e+000	 1.110010021914681e+001
 2.228282750858128e+000	 2.278054920423748e+000	 1.106299144452967e+001
 2.202988974193504e+000	 2.302524207171238e+000	 1.102316720780070e+001
 2.177429638514803e+000	 2.326709728150233e+000	 1.098199963061594e+001
 2.151609539784174e+000	 2.350607189820048e+000	 1.094087332538421e+001
 2.125533565811849e+000	 2.374212407117443e+000	 1.090119222356018e+001
 2.394081353268349e+000	 2.143321406460531e+000	 1.119587352017273e+001
 2.370278592233794e+000	 2.169615601060698e+000	 1.119198158462977e+001
 2.346181141136843e+000	 2.195651779089522e+000	 1.117714140892704e+001
 2.321793220064046e+000	 2.221425011832426e+000	 1.115314846100089e+001
 2.297119158487202e+000	 2.246930463191558e+000	 1.112178208356588e+001
 2.272163392706085e+000	 2.272163392706085e+000	 1.108481161000101e+001
 2.246930463191558e+000	 2.297119158487202e+000	 1.104400278681898e+001
 2.221425011832426e+000	 2.321793220064046e+000	 1.100112440549235e+001
 2.195651779089522e+000	 2.346181141136843e+000	 1.095795504424514e+001
 2.169615601060697e+000	 2.370278592233793e+000	 1.091628981919369e+001
 2.143321406460531e+000	 2.394081353268349e+000	 1.087794704395337e+001
 2.413950299419056e+000	 2.161109247109096e+000	 1.119332783325680e+001
 2.389949994647324e+000	 2.187621662337096e+000	 1.118799111461126e+001
 2.365652554123235e+000	 2.213873919664102e+000	 1.117082118476508e+001
 2.341062232956640e+000	 2.239861049471193e+000	 1.114390769031258e+001
 2.316183396550450e+000	 2.265578175524814e+000	 1.110932725768334e+001
 2.291020518022143e+000	 2.291020518022143e+000	 1.106914964101751e+001
 2.265578175524814e+000	 2.316183396550451e+000	 1.102544418809312e+001
 2.239861049471193e+000	 2.341062232956640e+000	 1.098028652215912e+001
 2.213873919664102e+000	 2.365652554123235e+000	 1.093576533525120e+001
 2.187621662337096e+000	 2.389949994647325e+000	 1.089398918728434e+001
 2.161109247109096e+000	 2.413950299419056e+000	 1.085709320493577e+001
 2.433819245569663e+000	 2.178897087757561e+000	 1.118914012547393e+001
 2.409621397060749e+000	 2.205627723613400e+000	 1.118202888168482e+001
 2.385123967109518e+000	 2.232096060238592e+000	 1.116260653734723e+001
 2.360331245849126e+000	 2.258297087109868e+000	 1.113316949248910e+001
 2.335247634613596e+000	 2.284225887857976e+000	 1.109600252314769e+001
 2.309877643338102e+000	 2.309877643338101e+000	 1.105338515610369e+001
 2.284225887857977e+000	 2.335247634613597e+000	 1.100759837686390e+001
 2.258297087109868e+000	 2.360331245849125e+000	 1.096093156318572e+001
 2.232096060238591e+000	 2.385123967109518e+000	 1.091568953403989e+001
 2.205627723613399e+000	 2.409621397060749e+000	 1.087419960255343e+001
 2.178897087757560e+000	 2.433819245569663e+000	 1.083881852117877e+001
 2.453688191720270e+000	 2.196684928405941e+000	 1.118321965461994e+001
 2.429292799474172e+000	 2.223633784889643e+000	 1.117412870412209e+001
 2.404595380095800e+000	 2.250318200813038e+000	 1.115262865021931e+001
 2.379600258741609e+000	 2.276733124748515e+000	 1.112113741522110e+001
 2.354311872676735e+000	 2.302873600191120e+000	 1.108206100175035e+001
 2.328734768654050e+000	 2.328734768654050e+000	 1.103780028838832e+001
 2.302873600191121e+000	 2.354311872676736e+000	 1.099075817750270e+001
 2.276733124748514e+000	 2.379600258741609e+000	 1.094334698134662e+001
 2.250318200813038e+000	 2.404595380095800e+000	 1.089799592998588e+001
 2.223633784889643e+000	 2.429292799474172e+000	 1.085715868317841e+001
 2.196684928405941e+000	 2.453688191720269e+000	 1.082332072801194e+001
 2.473557137870976e+000	 2.214472769054255e+000	 1.117550250351095e+001
 2.448964201887703e+000	 2.241639846165858e+000	 1.116434630655168e+001
 2.424066793082190e+000	 2.268540341387490e+000	 1.114103661707444e+001
 2.398869271634196e+000	 2.295169162387196e+000	 1.110802976482631e+001
 2.373376110739969e+000	 2.321521312524323e+000	 1.106776818826278e+001
 2.347591893970077e+000	 2.347591893970077e+000	 1.102268784445431e+001
 2.321521312524323e+000	 2.373376110739969e+000	 1.097522599385991e+001
 2.295169162387196e+000	 2.398869271634196e+000	 1.092782923920060e+001
 2.268540341387491e+000	 2.424066793082190e+000	 1.088296169498479e+001
 2.241639846165858e+000	 2.448964201887703e+000	 1.084311316271926e+001
 2.214472769054255e+000	 2.473557137870976e+000	 1.081080718649270e+001
 2.493426084021882e+000	 2.232260609702518e+000	 1.116595007999662e+001
 2.468635604301448e+000	 2.259645907442076e+000	 1.115275805677308e+001
 2.443538206068797e+000	 2.286762481961994e+000	 1.112799638187708e+001
 2.418138284526992e+000	 2.313605200025974e+000	 1.109407871892143e+001
 2.392440348803396e+000	 2.340169024857662e+000	 1.105340120765168e+001
 2.366449019286273e+000	 2.366449019286272e+000	 1.100835068087439e+001
 2.340169024857661e+000	 2.392440348803396e+000	 1.096131328270330e+001
 2.313605200025974e+000	 2.418138284526992e+000	 1.091468335983963e+001
 2.286762481961994e+000	 2.443538206068797e+000	 1.087087249476413e+001
 2.259645907442075e+000	 2.468635604301448e+000	 1.083231854810239e+001
 2.232260609702518e+000	 2.493426084021882e+000	 1.080149457704564e+001
 2.513295030173088e+000	 2.250048450350747e+000	 1.115454764076963e+001
 2.488307006715512e+000	 2.277651968718327e+000	 1.113945971711564e+001
 2.463009619055729e+000	 2.304984622536598e+000	 1.111368968593558e+001
 2.437407297420105e+000	 2.332041237664912e+000	 1.107952943996679e+001
 2.411504586867115e+000	 2.358816737191213e+000	 1.103924806847262e+001
 2.385306144602727e+000	 2.385306144602727e+000	 1.099510107347540e+001
 2.358816737191213e+000	 2.411504586867115e+000	 1.094934001753901e+001
 2.332041237664912e+000	 2.437407297420106e+000	 1.090422246663721e+001
 2.304984622536598e+000	 2.463009619055729e+000	 1.086202208863103e+001
 2.277651968718327e+000	 2.488307006715513e+000	 1.082503876615611e+001
 2.250048450350747e+000	 2.513295030173087e+000	 1.079560858230365e+001
 2.533163976324692e+000	 2.267836290998960e+000	 1.114130283766481e+001
 2.507978409130006e+000	 2.295658029994647e+000	 1.112456520954314e+001
 2.482481032043097e+000	 2.323206763111350e+000	 1.109831302154212e+001
 2.456676310313640e+000	 2.350477275304074e+000	 1.106463918963531e+001
 2.430568824931228e+000	 2.377464449525057e+000	 1.102560691265302e+001
 2.404163269919529e+000	 2.404163269919529e+000	 1.098326007973084e+001
 2.377464449525057e+000	 2.430568824931227e+000	 1.093963414334285e+001
 2.350477275304074e+000	 2.456676310313640e+000	 1.089676731259919e+001
 2.323206763111350e+000	 2.482481032043097e+000	 1.085671191829088e+001
 2.295658029994646e+000	 2.507978409130006e+000	 1.082154579932661e+001
 2.267836290998959e+000	 2.533163976324692e+000	 1.079338355974400e+001
 2.089957884514069e+000	 2.334474514814633e+000	 1.095415663326628e+001
 2.064067751246718e+000	 2.357396702138207e+000	 1.090900391636756e+001
 2.037935826324343e+000	 2.380023548830395e+000	 1.085827849120682e+001
 2.011567172423368e+000	 2.402351274265837e+000	 1.079891536198264e+001
 1.984966929989930e+000	 2.424376213529276e+000	 1.073122238646030e+001
 1.958140313934778e+000	 2.446094819379461e+000	 1.066876181008581e+001
 1.931092610269970e+000	 2.467503664099979e+000	 1.061269774641125e+001
 1.903829172691866e+000	 2.488599441235097e+000	 1.056223724484052e+001
 1.876355419114987e+000	 2.509378967208838e+000	 1.051651524785615e+001
 1.848676828161380e+000	 2.529839182825770e+000	 1.047455844841760e+001
 1.820798935610176e+000	 2.549977154652176e+000	 1.043525068464247e+001
 2.107745725163034e+000	 2.354343460966238e+000	 1.092665113256744e+001
 2.081635238381421e+000	 2.377460741319560e+000	 1.088527455901775e+001
 2.055280902031814e+000	 2.400280167367884e+000	 1.084080431626813e+001
 2.028687821879580e+000	 2.422797926308551e+000	 1.078991193817311e+001
 2.001861182121705e+000	 2.445010322033828e+000	 1.072930458224500e+001
 1.974806242053562e+000	 2.466913777111521e+000	 1.066532923284506e+001
 1.947528332676985e+000	 2.488504834651568e+000	 1.060864412922855e+001
 1.920032853254174e+000	 2.509780160056640e+000	 1.055827500780260e+001
 1.892325267812062e+000	 2.530736542655012e+000	 1.051311734359979e+001
 1.864411101601794e+000	 2.551370897214117e+000	 1.047194930625999e+001
 1.836295937518066e+000	 2.571680265333477e+000	 1.043339531356901e+001
 2.125533565811849e+000	 2.374212407117443e+000	 1.090119222356018e+001
 2.099202725516006e+000	 2.397524780500568e+000	 1.086335455478723e+001
 2.072625977739186e+000	 2.420536785905096e+000	 1.082446857592461e+001
 2.045808471335707e+000	 2.443244578351072e+000	 1.078102322952758e+001
 2.018755434253400e+000	 2.465644430538283e+000	 1.072954361183020e+001
 1.991472170172263e+000	 2.487732734843587e+000	 1.066769978127710e+001
 1.963964055083904e+000	 2.509506005203261e+000	 1.060886871354832e+001
 1.936236533816368e+000	 2.530960878878383e+000	 1.055704805137808e+001
 1.908295116508996e+000	 2.552094118101472e+000	 1.051098260853581e+001
 1.880145375042031e+000	 2.572902611602827e+000	 1.046929018101744e+001
 1.851792939425738e+000	 2.593383376015194e+000	 1.043042299135790e+001
 2.143321406460531e+000	 2.394081353268349e+000	 1.087794704395337e+001
 2.116770212650470e+000	 2.417588819681313e+000	 1.084337228671279e+001
 2.089971053446451e+000	 2.440793404442101e+000	 1.080937289963594e+001
 2.062929120791727e+000	 2.463691230393453e+000	 1.077233413396101e+001
 2.035649686384982e+000	 2.486278539042668e+000	 1.072867858126099e+001
 2.008138098290838e+000	 2.508551692575658e+000	 1.067488037383400e+001
 1.980399777490679e+000	 2.530507175755036e+000	 1.061337929505392e+001
 1.952440214378395e+000	 2.552141597700285e+000	 1.055857489747817e+001
 1.924264965205734e+000	 2.573451693548162e+000	 1.051014292881302e+001
 1.895879648482040e+000	 2.594434325991823e+000	 1.046662772007016e+001
 1.867289941333142e+000	 2.615086486697246e+000	 1.042639527277430e+001
 2.161109247109096e+000	 2.413950299419056e+000	 1.085709320493577e+001
 2.134337699784820e+000	 2.437652858861884e+000	 1.082546691142755e+001
 2.107316129153595e+000	 2.461050022978969e+000	 1.079562956133401e+001
 2.080049770247615e+000	 2.484137882435739e+000	 1.076393969353150e+001
 2.052543938516416e+000	 2.506912647547007e+000	 1.072679503199663e+001
 2.024804026409246e+000	 2.529370650307736e+000	 1.068064736472401e+001
 1.996835499897263e+000	 2.551508346306874e+000	 1.062216985981601e+001
 1.968643894940202e+000	 2.573322316522302e+000	 1.056285346446904e+001
 1.940234813902220e+000	 2.594809268995017e+000	 1.051060270176439e+001
 1.911613921921764e+000	 2.615966040381032e+000	 1.046397419819818e+001
 1.882786943240229e+000	 2.636789597379548e+000	 1.042133255021024e+001
 2.178897087757560e+000	 2.433819245569663e+000	 1.083881852117877e+001
 2.151905186919057e+000	 2.457716898042369e+000	 1.080978812662294e+001
 2.124661204860606e+000	 2.481306641515767e+000	 1.078336130105840e+001
 2.097170419703349e+000	 2.504584534477977e+000	 1.075594498419979e+001
 2.069438190647671e+000	 2.527546756051328e+000	 1.072398780557959e+001
 2.041469954527445e+000	 2.550189608039823e+000	 1.068399553850843e+001
 2.013271222303608e+000	 2.572509516858754e+000	 1.063254579666112e+001
 1.984847575501735e+000	 2.594503035344390e+000	 1.056986793414772e+001
 1.956204662598403e+000	 2.616166844441977e+000	 1.051234557556262e+001
 1.927348195361151e+000	 2.637497754770376e+000	 1.046131412471408e+001
 1.898283945146948e+000	 2.658492708062018e+000	 1.041522052095284e+001
 2.196684928405941e+000	 2.453688191720269e+000	 1.082332072801194e+001
 2.169472674053184e+000	 2.477780937222855e+000	 1.079649592626739e+001
 2.142006280567476e+000	 2.501563260052567e+000	 1.077270113411816e+001
 2.114291069158906e+000	 2.525031186520220e+000	 1.074846499219765e+001
 2.086332442778711e+000	 2.548180864555652e+000	 1.072036099783100e+001
 2.058135882645392e+000	 2.571008565771921e+000	 1.068502343377731e+001
 2.029706944709663e+000	 2.593510687410649e+000	 1.063916249795183e+001
 2.001051256062946e+000	 2.615683754166508e+000	 1.057957852115436e+001
 1.972174511294227e+000	 2.637524419888981e+000	 1.051534116505871e+001
 1.943082468800149e+000	 2.659029469159783e+000	 1.045861082441908e+001
 1.913780947053250e+000	 2.680195818744573e+000	 1.040869470217405e+001
 2.214472769054255e+000	 2.473557137870976e+000	 1.081080718649270e+001
 2.187040161187200e+000	 2.497844976403427e+000	 1.078576034426988e+001
 2.159351356274192e+000	 2.521819878589436e+000	 1.076379214848155e+001
 2.131411718614264e+000	 2.545477838562512e+000	 1.074162447775822e+001
 2.103226694909506e+000	 2.568814973060009e+000	 1.071602789901395e+001
 2.074801810763048e+000	 2.591827523504031e+000	 1.068383797391765e+001
 2.046142667115383e+000	 2.614511857962541e+000	 1.064197072275455e+001
 2.017254936623779e+000	 2.636864472988613e+000	 1.058743712728096e+001
 1.988144359989638e+000	 2.658881995335965e+000	 1.051955174514191e+001
 1.958816742238703e+000	 2.680561183549176e+000	 1.045657578618521e+001
 1.929277948959085e+000	 2.701898929427129e+000	 1.040414597430371e+001
 2.232260609702518e+000	 2.493426084021882e+000	 1.080149457704564e+001
 2.204607648321111e+000	 2.517909015584173e+000	 1.077776118723384e+001
 2.176696431980743e+000	 2.542076497126444e+000	 1.075678729105002e+001
 2.148532368069398e+000	 2.565924490604902e+000	 1.073555782691286e+001
 2.120120947040020e+000	 2.589449081564420e+000	 1.071111092074719e+001
 2.091467738880369e+000	 2.612646481236154e+000	 1.068055447632669e+001
 2.062578389520717e+000	 2.635513028514410e+000	 1.064108187740847e+001
 2.033458617184183e+000	 2.658045191810659e+000	 1.058998667783312e+001
 2.004114208684582e+000	 2.680239570782871e+000	 1.052544703214775e+001
 1.974551015676761e+000	 2.702092897938480e+000	 1.045772701290878e+001
 1.944774950864403e+000	 2.723602040109602e+000	 1.040150242385151e+001
 2.250048450350747e+000	 2.513295030173087e+000	 1.079560858230365e+001
 2.222175135454916e+000	 2.537973054765179e+000	 1.077268775690378e+001
 2.194041507687117e+000	 2.562333115663662e+000	 1.075184914343175e+001
 2.165653017524286e+000	 2.586371142647441e+000	 1.073040889201525e+001
 2.137015199170221e+000	 2.610083190068913e+000	 1.070574151040227e+001
 2.108133666997313e+000	 2.633465438968294e+000	 1.067529664750186e+001
 2.079014111925619e+000	 2.656514199066230e+000	 1.063661494104382e+001
 2.049662297744106e+000	 2.679225910632606e+000	 1.058803366511168e+001
 2.020084057379004e+000	 2.701597146229636e+000	 1.053026673449078e+001
 1.990285289114268e+000	 2.723624612327620e+000	 1.046202430775792e+001
 1.960271952769154e+000	 2.745305150791909e+000	 1.040047274206372e+001
 2.267836290998959e+000	 2.533163976324692e+000	 1.079338355974400e+001
 2.239742622588619e+000	 2.558037093946534e+000	 1.077073856287200e+001
 2.211386583393305e+000	 2.582589734201157e+000	 1.074914968779124e+001
 2.182773666978905e+000	 2.606817794690176e+000	 1.072633082161163e+001
 2.153909451300075e+000	 2.630717298573514e+000	 1.070006005367175e+001
 2.124799595113840e+000	 2.654284396700450e+000	 1.066819656478228e+001
 2.095449834330041e+000	 2.677515369617983e+000	 1.062923008139870e+001
 2.065865978303493e+000	 2.700406629454409e+000	 1.058453699384137e+001
 2.036053906072851e+000	 2.722954721676199e+000	 1.053198369972438e+001
 2.006019562551172e+000	 2.745156326716522e+000	 1.046866065124978e+001
 1.975768954673289e+000	 2.767008261473968e+000	 1.040080088235614e+001
 1.820798935610176e+000	 2.549977154652176e+000	 1.043525068464247e+001
 1.792727330205413e+000	 2.569790075552224e+000	 1.038987345025740e+001
 1.764467648259313e+000	 2.589275263636230e+000	 1.033263210586309e+001
 1.736025571900472e+000	 2.608430165421335e+000	 1.026649447038513e+001
 1.707406826031018e+000	 2.627252357450538e+000	 1.019416847321432e+001
 1.678617174651289e+000	 2.645739547069144e+000	 1.011807119400524e+001
 1.649662417173072e+000	 2.663889573078078e+000	 1.004030113755805e+001
 1.620548384726113e+000	 2.681700406264190e+000	 9.963419257478547e+000
 1.591280936462618e+000	 2.699170149807902e+000	 9.890262962262650e+000
 1.561865955864427e+000	 2.716297039568712e+000	 9.822098379152434e+000
 1.532309347057451e+000	 2.733079444249318e+000	 9.760090015801261e+000
 1.836295937518066e+000	 2.571680265333477e+000	 1.043339531356901e+001
 1.807985411871278e+000	 2.591661815985435e+000	 1.038874746167135e+001
 1.779485208944865e+000	 2.611312844454483e+000	 1.033236723462873e+001
 1.750801059228598e+000	 2.630630775524840e+000	 1.026716087798778e+001
 1.721938736349818e+000	 2.649613165113236e+000	 1.019575831392219e+001
 1.692904053366853e+000	 2.668257701051977e+000	 1.012048847338676e+001
 1.663702859050867e+000	 2.686562203747828e+000	 1.004457638204188e+001
 1.634341034160935e+000	 2.704524626716821e+000	 9.970410879280689e+000
 1.604824487717100e+000	 2.722143056995375e+000	 9.899266193877793e+000
 1.575159153276105e+000	 2.739415715428226e+000	 9.832329352853257e+000
 1.545350985214473e+000	 2.756340956833962e+000	 9.770717976814428e+000
 1.851792939425738e+000	 2.593383376015194e+000	 1.043042299135790e+001
 1.823243493536874e+000	 2.613533556419093e+000	 1.038577327469618e+001
 1.794502769630099e+000	 2.633350425273200e+000	 1.032987190381594e+001
 1.765576546556352e+000	 2.652831385628806e+000	 1.026553443316806e+001
 1.736470646668198e+000	 2.671973972776374e+000	 1.019537091982659e+001
 1.707190932081953e+000	 2.690775855035223e+000	 1.012305093328405e+001
 1.677743300928162e+000	 2.709234834417954e+000	 1.005064411924744e+001
 1.648133683595235e+000	 2.727348847169784e+000	 9.979438942776479e+000
 1.618368038971053e+000	 2.745115964183133e+000	 9.910620094563969e+000
 1.588452350687268e+000	 2.762534391287983e+000	 9.845288383290688e+000
 1.558392623371014e+000	 2.779602469418803e+000	 9.784479587886031e+000
 1.867289941333142e+000	 2.615086486697246e+000	 1.042639527277430e+001
 1.838501575202161e+000	 2.635405296853118e+000	 1.038102351473183e+001
 1.809520330314980e+000	 2.655388006092302e+000	 1.032522383977094e+001
 1.780352033883710e+000	 2.675031995733159e+000	 1.026191563468488e+001
 1.751002556986143e+000	 2.694334780439896e+000	 1.019506654002956e+001
 1.721477810796585e+000	 2.713294009018838e+000	 1.012655381745161e+001
 1.691783742804964e+000	 2.731907465088427e+000	 1.005766281181677e+001
 1.661926333029029e+000	 2.750173067623071e+000	 9.989555282366936e+000
 1.631911590224498e+000	 2.768088871371186e+000	 9.923291545124842e+000
 1.601745548097935e+000	 2.785653067148001e+000	 9.859851633310814e+000
 1.571434261527091e+000	 2.802863982003876e+000	 9.800155319875243e+000
 1.882786943240229e+000	 2.636789597379548e+000	 1.042133255021024e+001
 1.853759656867096e+000	 2.657277037287426e+000	 1.037452313058012e+001
 1.824537890999473e+000	 2.677425586911706e+000	 1.031882770745225e+001
 1.795127521210649e+000	 2.697232605837831e+000	 1.025845798939248e+001
 1.765534467303639e+000	 2.716695588103744e+000	 1.019517886872009e+001
 1.735764689510745e+000	 2.735812163002779e+000	 1.013026069854496e+001
 1.705824184681278e+000	 2.754580095759224e+000	 1.006482675749999e+001
 1.675718982462327e+000	 2.772997288076670e+000	 9.999877771629315e+000
 1.645455141477451e+000	 2.791061778559538e+000	 9.936315540368513e+000
 1.615038745508127e+000	 2.808771743008305e+000	 9.874965485497404e+000
 1.584475899682721e+000	 2.826125494589216e+000	 9.816597958570199e+000
 1.898283945146948e+000	 2.658492708062018e+000	 1.041522052095284e+001
 1.869017738531634e+000	 2.679148777721928e+000	 1.036679704816951e+001
 1.839555451683543e+000	 2.699463167731334e+000	 1.031290420282868e+001
 1.809903008537143e+000	 2.719433215942749e+000	 1.025525213210578e+001
 1.780066377620673e+000	 2.739056395767860e+000	 1.019509058556402e+001
 1.750051568224430e+000	 2.758330316987007e+000	 1.013349465101820e+001
 1.719864626557111e+000	 2.777252726430318e+000	 1.007139175674726e+001
 1.689511631895144e+000	 2.795821508530576e+000	 1.000958789502110e+001
 1.658998692729931e+000	 2.814034685748200e+000	 9.948792859252515e+000
 1.628331942917861e+000	 2.831890418868914e+000	 9.889644303530732e+000
 1.597517537837919e+000	 2.849387007174854e+000	 9.832730450942981e+000
 1.913780947053250e+000	 2.680195818744573e+000	 1.040869470217405e+001
 1.884275820195732e+000	 2.701020518156543e+000	 1.036014006105312e+001
 1.854573012367156e+000	 2.721500748551103e+000	 1.030742668175832e+001
 1.824678495863168e+000	 2.741633826047844e+000	 1.025178512657371e+001
 1.794598287937230e+000	 2.761417203432182e+000	 1.019423921440330e+001
 1.764338446937635e+000	 2.780848470971473e+000	 1.013563557049311e+001
 1.733905068432467e+000	 2.799925357101683e+000	 1.007667254889301e+001
 1.703304281327492e+000	 2.818645728984777e+000	 1.001792829227194e+001
 1.672542243981954e+000	 2.837007592937177e+000	 9.959887709703168e+000
 1.641625140327156e+000	 2.855009094729854e+000	 9.902968170493120e+000
 1.610559175992701e+000	 2.872648519760826e+000	 9.847543730849884e+000
 1.929277948959085e+000	 2.701898929427129e+000	 1.040414597430371e+001
 1.899533901859347e+000	 2.722892258591184e+000	 1.035448106832656e+001
 1.869590573050279e+000	 2.743538329370937e+000	 1.030197148520848e+001
 1.839453983188698e+000	 2.763834436153043e+000	 1.024759411428449e+001
 1.809130198253296e+000	 2.783778011096656e+000	 1.019211428715411e+001
 1.778625325650358e+000	 2.803366624956139e+000	 1.013611746463044e+001
 1.747945510307352e+000	 2.822597987773292e+000	 1.008004022101308e+001
 1.717096930759385e+000	 2.841469949439266e+000	 1.002420027699912e+001
 1.686085795233540e+000	 2.859980500126478e+000	 9.968825349533825e+000
 1.654918337736034e+000	 2.878127770591143e+000	 9.914080605417537e+000
 1.623600814147085e+000	 2.895910032347164e+000	 9.860094525332750e+000
 1.944774950864403e+000	 2.723602040109602e+000	 1.040150242385151e+001
 1.914791983522436e+000	 2.744763999025769e+000	 1.034947032833535e+001
 1.884608133732874e+000	 2.765575910190751e+000	 1.029616017001684e+001
 1.854229470513710e+000	 2.786035046258275e+000	 1.024226331381889e+001
 1.823662108568856e+000	 2.806138818761223e+000	 1.018825448010135e+001
 1.792912204362594e+000	 2.825884778940959e+000	 1.013442571709263e+001
 1.761985952181773e+000	 2.845270618445119e+000	 1.008091959097890e+001
 1.730889580190835e+000	 2.864294169894032e+000	 1.002776133098467e+001
 1.699629346484705e+000	 2.882953407316110e+000	 9.974889684795139e+000
 1.668211535144512e+000	 2.901246446452806e+000	 9.922186259292678e+000
 1.636642452301086e+000	 2.919171544933902e+000	 9.869503142603461e+000
 1.960271952769154e+000	 2.745305150791909e+000	 1.040047274206372e+001
 1.930050065184955e+000	 2.766635739460210e+000	 1.034479837190642e+001
 1.899625694414909e+000	 2.787613491010468e+000	 1.028965633531565e+001
 1.869004957838178e+000	 2.808235656363468e+000	 1.023542099390769e+001
 1.838194018883899e+000	 2.828499626425822e+000	 1.018224472411729e+001
 1.807199083074341e+000	 2.848402932925892e+000	 1.013009432608749e+001
 1.776026394055733e+000	 2.867943249117138e+000	 1.007878656613710e+001
 1.744682229621855e+000	 2.887118390349068e+000	 1.002802257546045e+001
 1.713172897735468e+000	 2.905926314506080e+000	 9.977420846805904e+000
 1.681504732552608e+000	 2.924365122314863e+000	 9.926548591661359e+000
 1.649684090454720e+000	 2.942433057521074e+000	 9.874951242725203e+000
 1.975768954673289e+000	 2.767008261473968e+000	 1.040080088235614e+001
 1.945308146846862e+000	 2.788507479894426e+000	 1.034019264819790e+001
 1.914643255096348e+000	 2.809651071830004e+000	 1.028216242435513e+001
 1.883780445162079e+000	 2.830436266468553e+000	 1.022673642163696e+001
 1.852725929198409e+000	 2.850860434090399e+000	 1.017371329023558e+001
 1.821485961785593e+000	 2.870921086910894e+000	 1.012270311888774e+001
 1.790066835929240e+000	 2.890615879789326e+000	 1.007316547895250e+001
 1.758474879052460e+000	 2.909942610804365e+000	 1.002444622066404e+001
 1.726716448985847e+000	 2.928899221696398e+000	 9.975812749035304e+000
 1.694797929960344e+000	 2.947483798177338e+000	 9.926487528878129e+000
 1.662725728608005e+000	 2.965694570108715e+000	 9.875679591940331e+000
 1.532309347057451e+000	 2.733079444249318e+000	 9.760090015801259e+000
 1.502621494919892e+000	 2.749513426483720e+000	 9.708147617958371e+000
 1.472803909760124e+000	 2.765600166241469e+000	 9.664932026341655e+000
 1.442862534573746e+000	 2.781338433307961e+000	 9.623763351453858e+000
 1.412803318353237e+000	 2.796727129707190e+000	 9.578044928997059e+000
 1.382632212507476e+000	 2.811765289274062e+000	 9.521285906119401e+000
 1.352355167314767e+000	 2.826452077113804e+000	 9.447122133350243e+000
 1.321978128413372e+000	 2.840786788950489e+000	 9.352628096206235e+000
 1.291507033333439e+000	 2.854768850366804e+000	 9.267635668339292e+000
 1.260947808074111e+000	 2.868397815937405e+000	 9.198950103672118e+000
 1.230306363729441e+000	 2.881673368258283e+000	 9.144878032707181e+000
 1.545350985214473e+000	 2.756340956833962e+000	 9.770717976814430e+000
 1.515410456797143e+000	 2.772914810335272e+000	 9.718666058295774e+000
 1.485339091186876e+000	 2.789138465944542e+000	 9.675450459055973e+000
 1.455142881960698e+000	 2.805010682976676e+000	 9.634785629513978e+000
 1.424827828743552e+000	 2.820530354110669e+000	 9.590469255569888e+000
 1.394399933597354e+000	 2.835696504958287e+000	 9.536404745354494e+000
 1.363865197443819e+000	 2.850508293518875e+000	 9.466621930305365e+000
 1.333229616525126e+000	 2.864965009522324e+000	 9.375296060224219e+000
 1.302499178906338e+000	 2.879066073662390e+000	 9.281318938671685e+000
 1.271679861023363e+000	 2.892811036722655e+000	 9.206012324123693e+000
 1.240777624280165e+000	 2.906199578597639e+000	 9.148116883805189e+000
 1.558392623371014e+000	 2.779602469418803e+000	 9.784479587886032e+000
 1.528199418673973e+000	 2.796316194186986e+000	 9.732693319207357e+000
 1.497874272613285e+000	 2.812676765647745e+000	 9.689788300688642e+000
 1.467423229347397e+000	 2.828682932645490e+000	 9.649875369381986e+000
 1.436852339133718e+000	 2.844333578514223e+000	 9.607148814632842e+000
 1.406167654687189e+000	 2.859627720642560e+000	 9.555908781589217e+000
 1.375375227572934e+000	 2.874564509923965e+000	 9.490581792372817e+000
 1.344481104637046e+000	 2.889143230094151e+000	 9.405739339130079e+000
 1.313491324479492e+000	 2.903363296957934e+000	 9.306114058716018e+000
 1.282411913972944e+000	 2.917224257507826e+000	 9.224142871027286e+000
 1.251248884831276e+000	 2.930725788936877e+000	 9.162118809073709e+000
 1.571434261527091e+000	 2.802863982003876e+000	 9.800155319875243e+000
 1.540988380550389e+000	 2.819717578038901e+000	 9.748908474220041e+000
 1.510409454039345e+000	 2.836215065351122e+000	 9.706516200621584e+000
 1.479703576733828e+000	 2.852355182314455e+000	 9.667487767416272e+000
 1.448876849523699e+000	 2.868136802917896e+000	 9.626416356787077e+000
 1.417935375776931e+000	 2.883558936326929e+000	 9.578001402173443e+000
 1.386885257702045e+000	 2.898620726329122e+000	 9.517068941130813e+000
 1.355732592749046e+000	 2.913321450666013e+000	 9.438589937970439e+000
 1.324483470052802e+000	 2.927660520253484e+000	 9.339640852092282e+000
 1.293143966922747e+000	 2.941637478292966e+000	 9.251004293884531e+000
 1.261720145382654e+000	 2.955251999276043e+000	 9.184595865626783e+000
 1.584475899682721e+000	 2.826125494589216e+000	 9.816597958570199e+000
 1.553777342426400e+000	 2.843118961891062e+000	 9.766065007159169e+000
 1.522944635465056e+000	 2.859753365054722e+000	 9.724281345868517e+000
 1.491983924119970e+000	 2.876027431983614e+000	 9.686156707465724e+000
 1.460901359913464e+000	 2.891940027321741e+000	 9.646685483963179e+000
 1.429703096866527e+000	 2.907490152011438e+000	 9.600969015994236e+000
 1.398395287831081e+000	 2.922676942734390e+000	 9.544235789626047e+000
 1.366984080861041e+000	 2.937499671237958e+000	 9.471859495023724e+000
 1.335475615626169e+000	 2.951957743549081e+000	 9.379374921485562e+000
 1.303876019872661e+000	 2.966050699078124e+000	 9.284215322429317e+000
 1.272191405934185e+000	 2.979778209615192e+000	 9.213201913205309e+000
 1.597517537837919e+000	 2.849387007174854e+000	 9.832730450942981e+000
 1.566566304302014e+000	 2.866520345743511e+000	 9.782988735787541e+000
 1.535479816890413e+000	 2.883291664758588e+000	 9.741805452634671e+000
 1.504264271505810e+000	 2.899699681653019e+000	 9.704492810648169e+000
 1.472925870302978e+000	 2.915743251725803e+000	 9.666448747500610e+000
 1.441470817955927e+000	 2.931421367696138e+000	 9.623179189743732e+000
 1.409905317959977e+000	 2.946733159139817e+000	 9.570318106544988e+000
 1.378235568972946e+000	 2.961677891810029e+000	 9.503645311258458e+000
 1.346467761199496e+000	 2.976254966844774e+000	 9.419101986458664e+000
 1.314608072822576e+000	 2.990463919863343e+000	 9.321366299682049e+000
 1.282662666485751e+000	 3.004304419954371e+000	 9.245547070605429e+000
 1.610559175992701e+000	 2.872648519760826e+000	 9.847543730849882e+000
 1.579355266177241e+000	 2.889921729596284e+000	 9.798575717657883e+000
 1.548014998315415e+000	 2.906829964462771e+000	 9.757882743210859e+000
 1.516544618891328e+000	 2.923371931322718e+000	 9.721181473936010e+000
 1.484950380692207e+000	 2.939546476130134e+000	 9.684275738856279e+000
 1.453238539045079e+000	 2.955352583381074e+000	 9.643078780986610e+000
 1.421415348088662e+000	 2.970789375545450e+000	 9.593633181703325e+000
 1.389487057084678e+000	 2.985856112382272e+000	 9.532128412577654e+000
 1.357459906772683e+000	 3.000552190140606e+000	 9.454915991428381e+000
 1.325340125772382e+000	 3.014877140648669e+000	 9.360034631935246e+000
 1.293133927037235e+000	 3.028830630293632e+000	 9.279212194916306e+000
 1.623600814147085e+000	 2.895910032347164e+000	 9.860094525332748e+000
 1.592144228052090e+000	 2.913323113449428e+000	 9.811790139179223e+000
 1.560550179740057e+000	 2.930368264167312e+000	 9.771377909026436e+000
 1.528824966276507e+000	 2.947044180992758e+000	 9.734980898177424e+000
 1.496974891081117e+000	 2.963349700534780e+000	 9.698811173356713e+000
 1.465006260133933e+000	 2.979283799066296e+000	 9.659192068207764e+000
 1.432925378217068e+000	 2.994845591951334e+000	 9.612577992777883e+000
 1.400738545196150e+000	 3.010034332954731e+000	 9.555571743472255e+000
 1.368452052345631e+000	 3.024849413436621e+000	 9.484939291376076e+000
 1.336072178721969e+000	 3.039290361434152e+000	 9.397622049727788e+000
 1.303605187588521e+000	 3.053356840633026e+000	 9.311763382284759e+000
 1.636642452301086e+000	 2.919171544933902e+000	 9.869503142603461e+000
 1.604933189926567e+000	 2.936724497302984e+000	 9.821662188833201e+000
 1.573085361164337e+000	 2.953906563872260e+000	 9.781224060633615e+000
 1.541105313661329e+000	 2.970716430663187e+000	 9.744720106143065e+000
 1.508999401469674e+000	 2.987152924939791e+000	 9.708772967381497e+000
 1.476773981222437e+000	 3.003215014751852e+000	 9.670118878008029e+000
 1.444435408345127e+000	 3.018901808357515e+000	 9.625627373213215e+000
 1.411990033307279e+000	 3.034212553527452e+000	 9.572318366181396e+000
 1.379444197918242e+000	 3.049146636732866e+000	 9.507376570186082e+000
 1.346804231671228e+000	 3.063703582219837e+000	 9.428163269436803e+000
 1.314076448139491e+000	 3.077883050972602e+000	 9.340766489005958e+000
 1.649684090454720e+000	 2.942433057521074e+000	 9.874951242725203e+000
 1.617722151800683e+000	 2.960125881156992e+000	 9.827285915417830e+000
 1.585620542588254e+000	 2.977444863577661e+000	 9.786420665345794e+000
 1.553385661045779e+000	 2.994388680334057e+000	 9.749296951150091e+000
 1.521023911857845e+000	 3.010956149345216e+000	 9.712950309341759e+000
 1.488541702310539e+000	 3.027146230437786e+000	 9.674532709606256e+000
 1.455945438472771e+000	 3.042958024764042e+000	 9.631332181236950e+000
 1.423241521417981e+000	 3.058390774100482e+000	 9.580789665054166e+000
 1.390436343490416e+000	 3.073443860029386e+000	 9.520513071052578e+000
 1.357536284620048e+000	 3.088116803005770e+000	 9.448288547303035e+000
 1.324547708690028e+000	 3.102409261312412e+000	 9.363801671814606e+000
 1.662725728608005e+000	 2.965694570108715e+000	 9.875679591940331e+000
 1.630511113674446e+000	 2.983527265011494e+000	 9.827817072140315e+000
 1.598155724011803e+000	 3.000983163283563e+000	 9.786031473208389e+000
 1.565666008429836e+000	 3.018060930005414e+000	 9.747676116780490e+000
 1.533048422245595e+000	 3.034759373751101e+000	 9.710201724794525e+000
 1.500309423398188e+000	 3.051077446124149e+000	 9.671178856795271e+000
 1.467455468599930e+000	 3.067014241170959e+000	 9.628317469923447e+000
 1.434493009528169e+000	 3.082568994673866e+000	 9.579483555827821e+000
 1.401428489062056e+000	 3.097741083326226e+000	 9.522712835942240e+000
 1.368268337568320e+000	 3.112530023792000e+000	 9.456221523133547e+000
 1.335018969240017e+000	 3.126935471652506e+000	 9.378414183437911e+000
 1.230306363729441e+000	 2.881673368258283e+000	 9.144878032707181e+000
 1.199583979858828e+000	 2.894597229204027e+000	 9.096417409720313e+000
 1.168791122363753e+000	 2.907167317903020e+000	 9.045408540758885e+000
 1.137933641963362e+000	 2.919383696497329e+000	 8.992099780967868e+000
 1.107017361446401e+000	 2.931246550353865e+000	 8.937027965416721e+000
 1.076048072588372e+000	 2.942756186611073e+000	 8.880960948060418e+000
 1.045031533136541e+000	 2.953913032638836e+000	 8.824847088421349e+000
 1.013973463865370e+000	 2.964717634414845e+000	 8.769771619924258e+000
 9.828795457048584e-001	 2.975170654820722e+000	 8.716906011643873e+000
 9.517554169440449e-001	 2.985272871861279e+000	 8.667526764471251e+000
 9.206066705118042e-001	 2.995025176810348e+000	 8.622924701153799e+000
 1.240777624280165e+000	 2.906199578597639e+000	 9.148116883805193e+000
 1.209793759126601e+000	 2.919233435816973e+000	 9.098221070087256e+000
 1.178738820540489e+000	 2.931910509798534e+000	 9.047315898106623e+000
 1.147618709037034e+000	 2.944230863213301e+000	 8.995400618051235e+000
 1.116439296963322e+000	 2.956194683005870e+000	 8.942747014923834e+000
 1.085206425389242e+000	 2.967802278928781e+000	 8.889840928940759e+000
 1.053925901066823e+000	 2.979054081989313e+000	 8.837331255896105e+000
 1.022603493460617e+000	 2.989950642812039e+000	 8.785986348636438e+000
 9.912449318515898e-001	 3.000492629920440e+000	 8.736645466237260e+000
 9.598559025168251e-001	 3.010680827941015e+000	 8.690232838797604e+000
 9.284420459871779e-001	 3.020516135733327e+000	 8.647676454630501e+000
 1.251248884831276e+000	 2.930725788936877e+000	 9.162118809073707e+000
 1.220003538394792e+000	 2.943869642429749e+000	 9.110250730652316e+000
 1.188686518717652e+000	 2.956653701693829e+000	 9.058730939739993e+000
 1.157303776111121e+000	 2.969078029928999e+000	 9.007337576737060e+000
 1.125861232480630e+000	 2.981142815657544e+000	 8.956102960694182e+000
 1.094364778190454e+000	 2.992848371246103e+000	 8.905253991341292e+000
 1.062820268997394e+000	 3.004195131339357e+000	 8.855160595083651e+000
 1.031233523056087e+000	 3.015183651208757e+000	 8.806292122707404e+000
 9.996103179984714e-001	 3.025814605019650e+000	 8.759170747010984e+000
 9.679563880896778e-001	 3.036088784020224e+000	 8.714381330851284e+000
 9.362774214625443e-001	 3.046007094655771e+000	 8.672499022865535e+000
 1.261720145382654e+000	 2.955251999276043e+000	 9.184595865626781e+000
 1.230213317663281e+000	 2.968505849042415e+000	 9.130288610324541e+000
 1.198634216895123e+000	 2.981396893588967e+000	 9.077539738452845e+000
 1.166988843185511e+000	 2.993925196644493e+000	 9.025933872942664e+000
 1.135283167998224e+000	 3.006090948308973e+000	 8.975288831955693e+000
 1.103523130991923e+000	 3.017894463563139e+000	 8.925594812111660e+000
 1.071714636928179e+000	 3.029336180689076e+000	 8.876962212745948e+000
 1.039863552651724e+000	 3.040416659605120e+000	 8.829577994892571e+000
 1.007975704145466e+000	 3.051136580118482e+000	 8.783660896381068e+000
 9.760568736625851e-001	 3.061496740099038e+000	 8.739467621300767e+000
 9.441127969379056e-001	 3.071498053577817e+000	 8.697228594292231e+000
 1.272191405934185e+000	 2.979778209615192e+000	 9.213201913205310e+000
 1.240423096931948e+000	 2.993142055655025e+000	 9.156045066860159e+000
 1.208581915072786e+000	 3.006140085484014e+000	 9.101543207018027e+000
 1.176673910260096e+000	 3.018772363359864e+000	 9.049114706849986e+000
 1.144705103516002e+000	 3.031039080960243e+000	 8.998387301444900e+000
 1.112681483793558e+000	 3.042940555879987e+000	 8.949135951066905e+000
 1.080609004859105e+000	 3.054477230038581e+000	 8.901229976908986e+000
 1.048493582247471e+000	 3.065649668001247e+000	 8.854589348312173e+000
 1.016341090292535e+000	 3.076458555217061e+000	 8.809149915580750e+000
 9.841573592355286e-001	 3.086904696177588e+000	 8.764824807409223e+000
 9.519481724132636e-001	 3.096989012499596e+000	 8.721530960926827e+000
 1.282662666485751e+000	 3.004304419954371e+000	 9.245547070605429e+000
 1.250632876200675e+000	 3.017778262267638e+000	 9.185172105389054e+000
 1.218529613250524e+000	 3.030883277379036e+000	 9.128469705576697e+000
 1.186358977334763e+000	 3.043619530075185e+000	 9.074719015922540e+000
 1.154127039033863e+000	 3.055987213611442e+000	 9.023381630701358e+000
 1.121839836595271e+000	 3.067986648196746e+000	 8.974038034985354e+000
 1.089503372790100e+000	 3.079618279387982e+000	 8.926333985653978e+000
 1.057123611843272e+000	 3.090882676397256e+000	 8.879936695677474e+000
 1.024706476439640e+000	 3.101780530315511e+000	 8.834500595499762e+000
 9.922578448084908e-001	 3.112312652256009e+000	 8.789631297519751e+000
 9.597835478886195e-001	 3.122479971421242e+000	 8.744908576418814e+000
 1.293133927037235e+000	 3.028830630293632e+000	 9.279212194916308e+000
 1.260842655469342e+000	 3.042414468880311e+000	 9.215276915117327e+000
 1.228477311428221e+000	 3.055626469274102e+000	 9.155987681253180e+000
 1.196044044409403e+000	 3.068466696790535e+000	 9.100511262933926e+000
 1.163548974551707e+000	 3.080935346262660e+000	 9.048166651959333e+000
 1.130998189396973e+000	 3.093032740513514e+000	 8.998359978646516e+000
 1.098397740721089e+000	 3.104759328737387e+000	 8.950530072307135e+000
 1.065753641439071e+000	 3.116115684793267e+000	 8.904104513251721e+000
 1.033071862586746e+000	 3.127102505413966e+000	 8.858465928876056e+000
 1.000358330381453e+000	 3.137720608334429e+000	 8.812918434139528e+000
 9.676189233639758e-001	 3.147970930342888e+000	 8.766707638333477e+000
 1.303605187588521e+000	 3.053356840633026e+000	 9.311763382284759e+000
 1.271052434737831e+000	 3.067050675493101e+000	 9.243935432623163e+000
 1.238425009605759e+000	 3.080369661169275e+000	 9.181718338182270e+000
 1.205729111483903e+000	 3.093313863505989e+000	 9.124193257040821e+000
 1.172970910069433e+000	 3.105883478913984e+000	 9.070559784579764e+000
 1.140156542198578e+000	 3.118078832830393e+000	 9.020069240825384e+000
 1.107292108652001e+000	 3.129900378086907e+000	 8.971969344981014e+000
 1.074383671034811e+000	 3.141348693189400e+000	 8.925460107592688e+000
 1.041437248733813e+000	 3.152424480512545e+000	 8.879660670632500e+000
 1.008458815954396e+000	 3.163128564412980e+000	 8.833578144013073e+000
 9.754542988393339e-001	 3.173461889264667e+000	 8.786125193303871e+000
 1.314076448139491e+000	 3.077883050972602e+000	 9.340766489005960e+000
 1.281262214006022e+000	 3.091686882106064e+000	 9.268705930260317e+000
 1.248372707783021e+000	 3.105112853064621e+000	 9.203248336253282e+000
 1.215414178558155e+000	 3.118161030221624e+000	 9.143416006055979e+000
 1.182392845586939e+000	 3.130831611565499e+000	 9.088312084094333e+000
 1.149314894999995e+000	 3.143124925147479e+000	 9.037052113294145e+000
 1.116186476582760e+000	 3.155041427436653e+000	 8.988707758551998e+000
 1.083013700630438e+000	 3.166581701585775e+000	 8.942262513248002e+000
 1.049802634880804e+000	 3.177746455611380e+000	 8.896579095769676e+000
 1.016559301527304e+000	 3.188536520491794e+000	 8.850378144008912e+000
 9.832896743146951e-001	 3.198952848186712e+000	 8.802216263777305e+000
 1.324547708690028e+000	 3.102409261312412e+000	 9.363801671814606e+000
 1.291471993273796e+000	 3.116323088719257e+000	 9.287142628281631e+000
 1.258320405959892e+000	 3.129856044960207e+000	 9.218142516981056e+000
 1.225099245632046e+000	 3.143008196937515e+000	 9.155791598194920e+000
 1.191814781104125e+000	 3.155779744217294e+000	 9.099119322058641e+000
 1.158473247801138e+000	 3.168171017464872e+000	 9.047124041004226e+000
 1.125080844513294e+000	 3.180182476786733e+000	 8.998715717278419e+000
 1.091643730225893e+000	 3.191814709982507e+000	 8.952671419691216e+000
 1.058168021027681e+000	 3.203068430710596e+000	 8.907603292167469e+000
 1.024659787100156e+000	 3.213944476571005e+000	 8.861938572211564e+000
 9.911250497900614e-001	 3.224443807109156e+000	 8.813900995162022e+000
 1.335018969240017e+000	 3.126935471652506e+000	 9.378414183437911e+000
 1.301681772541034e+000	 3.140959295332738e+000	 9.296809329378409e+000
 1.268268104136253e+000	 3.154599236856098e+000	 9.223956655014746e+000
 1.234784312705468e+000	 3.167855363653740e+000	 9.158905111678351e+000
 1.201236716620890e+000	 3.180727876869459e+000	 9.100633095021454e+000
 1.167631600601917e+000	 3.193217109782673e+000	 9.048039971736770e+000
 1.133975212443531e+000	 3.205323526137257e+000	 8.999887706377368e+000
 1.100273759821121e+000	 3.217047718379722e+000	 8.954756125892335e+000
 1.066533407174408e+000	 3.228390405810319e+000	 8.911011478932027e+000
 1.032760272672935e+000	 3.239352432650741e+000	 8.866787836812630e+000
 9.989604252654352e-001	 3.249934766032135e+000	 8.819971822253859e+000
 9.206066705118042e-001	 2.995025176810348e+000	 8.622924701153799e+000
 8.894388508920191e-001	 3.004428571538802e+000	 8.582219592276982e+000
 8.582574502751356e-001	 3.013484164285996e+000	 8.542429603966751e+000
 8.270679074953227e-001	 3.022193169862039e+000	 8.501777272495275e+000
 7.958756060941372e-001	 3.030556908289346e+000	 8.458557193648716e+000
 7.646858720132438e-001	 3.038576802639415e+000	 8.411142798843800e+000
 7.335039713734896e-001	 3.046254376817458e+000	 8.357996728588020e+000
 7.023351083413049e-001	 3.053591253298464e+000	 8.297684284269781e+000
 6.711844230832484e-001	 3.060589150818338e+000	 8.228889425599627e+000
 6.400569898093635e-001	 3.067249882023707e+000	 8.163467519768151e+000
 6.089578149058431e-001	 3.073575351083983e+000	 8.129468752967394e+000
 9.284420459871779e-001	 3.020516135733327e+000	 8.647676454630501e+000
 8.970089539361903e-001	 3.029999563695273e+000	 8.608087197675227e+000
 8.655621652988902e-001	 3.039132229498540e+000	 8.569031572011593e+000
 8.341071651999050e-001	 3.047915358292587e+000	 8.529186861752093e+000
 8.026493830006501e-001	 3.056350281334656e+000	 8.487293938608875e+000
 7.711941899724105e-001	 3.064438433808137e+000	 8.442166046988609e+000
 7.397468970565124e-001	 3.072181352588336e+000	 8.392701480797884e+000
 7.083127527125638e-001	 3.079580673959275e+000	 8.337899595407139e+000
 6.768969408555946e-001	 3.086638131285180e+000	 8.276879583651217e+000
 6.455045788827541e-001	 3.093355552640277e+000	 8.217098266531634e+000
 6.141407157900874e-001	 3.099734858400542e+000	 8.189498359470891e+000
 9.362774214625443e-001	 3.046007094655771e+000	 8.672499022865535e+000
 9.045790569802750e-001	 3.055570555851223e+000	 8.632692206435349e+000
 8.728668803224783e-001	 3.064780294710581e+000	 8.593113050503476e+000
 8.411464229042434e-001	 3.073637546722664e+000	 8.552855924803216e+000
 8.094231599068449e-001	 3.082143654379540e+000	 8.511067407104473e+000
 7.777025079311873e-001	 3.090300064976481e+000	 8.466957317088543e+000
 7.459898227390770e-001	 3.098108328358891e+000	 8.419813954430605e+000
 7.142903970833032e-001	 3.105570094619816e+000	 8.369022944898486e+000
 6.826094586273637e-001	 3.112687111751801e+000	 8.314089082758725e+000
 6.509521679555173e-001	 3.119461223256674e+000	 8.259146957051026e+000
 6.193236166736610e-001	 3.125894365716972e+000	 8.235706559710142e+000
 9.441127969379056e-001	 3.071498053577817e+000	 8.697228594292231e+000
 9.121491600242940e-001	 3.081141548006778e+000	 8.656220919304163e+000
 8.801715953459424e-001	 3.090428359922246e+000	 8.615205105335289e+000
 8.481856806083995e-001	 3.099359735152392e+000	 8.573653560880597e+000
 8.161969368128004e-001	 3.107937027424103e+000	 8.531076458528617e+000
 7.842108258896708e-001	 3.116161696144542e+000	 8.487035266606403e+000
 7.522327484212990e-001	 3.124035304129198e+000	 8.441160816426066e+000
 7.202680414536518e-001	 3.131559515280150e+000	 8.393175267129974e+000
 6.883219763986999e-001	 3.138736092218256e+000	 8.342917313612698e+000
 6.563997570278098e-001	 3.145566893872942e+000	 8.292269576875894e+000
 6.245065175567315e-001	 3.152053873033303e+000	 8.271065822890144e+000
 9.519481724132636e-001	 3.096989012499596e+000	 8.721530960926827e+000
 9.197192630682695e-001	 3.106712540162070e+000	 8.678682390653703e+000
 8.874763103693232e-001	 3.116076425133662e+000	 8.635656395963165e+000
 8.552249383124337e-001	 3.125081923581885e+000	 8.592262970508099e+000
 8.229707137185969e-001	 3.133730400468455e+000	 8.548332200472862e+000
 7.907191438479603e-001	 3.142023327312415e+000	 8.503730552389936e+000
 7.584756741032915e-001	 3.149962279899343e+000	 8.458382047641296e+000
 7.262456858237402e-001	 3.157548935940349e+000	 8.412293641576630e+000
 6.940344941697477e-001	 3.164785072684600e+000	 8.365584107616414e+000
 6.618473460997887e-001	 3.171672564489124e+000	 8.318932285107438e+000
 6.296894184394667e-001	 3.178213380349571e+000	 8.298350709659038e+000
 9.597835478886195e-001	 3.122479971421242e+000	 8.744908576418814e+000
 9.272893661122238e-001	 3.132283532317234e+000	 8.699914975283168e+000
 8.947810253926622e-001	 3.141724490344950e+000	 8.654639218521224e+000
 8.622641960164071e-001	 3.150804112011263e+000	 8.609187002837585e+000
 8.297444906243133e-001	 3.159523773512700e+000	 8.563663048457581e+000
 7.972274618061515e-001	 3.167884958480192e+000	 8.518190411155961e+000
 7.647185997851699e-001	 3.175889255669407e+000	 8.472935052556005e+000
 7.322233301936989e-001	 3.183538356600478e+000	 8.428134940234976e+000
 6.997470119406511e-001	 3.190834053150890e+000	 8.384132930513443e+000
 6.672949351716104e-001	 3.197778235105263e+000	 8.341412675597214e+000
 6.348723193220341e-001	 3.204372887665806e+000	 8.320144222671484e+000
 9.676189233639758e-001	 3.147970930342888e+000	 8.766707638333477e+000
 9.348594691561778e-001	 3.157854524472396e+000	 8.719592895163155e+000
 9.020857404160018e-001	 3.167372555556241e+000	 8.672155565537590e+000
 8.693034537203804e-001	 3.176526300440638e+000	 8.624753717185001e+000
 8.365182675300302e-001	 3.185317146556945e+000	 8.577719798392774e+000
 8.037357797643429e-001	 3.193746589647969e+000	 8.531383252159467e+000
 7.709615254670481e-001	 3.201816231439471e+000	 8.486098781535834e+000
 7.382009745636574e-001	 3.209527777260609e+000	 8.442279488890168e+000
 7.054595297115545e-001	 3.216883033617179e+000	 8.400434092022888e+000
 6.727425242434325e-001	 3.223883905721402e+000	 8.361207408117565e+000
 6.400552202046016e-001	 3.230532394982041e+000	 8.338844180112139e+000
 9.754542988393339e-001	 3.173461889264667e+000	 8.786125193303871e+000
 9.424295722001534e-001	 3.183425516627688e+000	 8.737232825001030e+000
 9.093904554393824e-001	 3.193020620767654e+000	 8.688043201317804e+000
 8.763427114244147e-001	 3.202248488870132e+000	 8.639121957966458e+000
 8.432920444358267e-001	 3.211110519601296e+000	 8.590980711054597e+000
 8.102440977226320e-001	 3.219608220815843e+000	 8.544103261366590e+000
 7.772044511490408e-001	 3.227743207209616e+000	 8.498977864948943e+000
 7.441786189337460e-001	 3.235517197920807e+000	 8.456134741441902e+000
 7.111720474826019e-001	 3.242932014083524e+000	 8.416187970583556e+000
 6.781901133154112e-001	 3.249989576337585e+000	 8.379880914610254e+000
 6.452381210873366e-001	 3.256691902298308e+000	 8.356669610889627e+000
 9.832896743146951e-001	 3.198952848186712e+000	 8.802216263777305e+000
 9.499996752441726e-001	 3.208996508783244e+000	 8.752200495579023e+000
 9.166951704628461e-001	 3.218668685979320e+000	 8.701981752122105e+000
 8.833819691285707e-001	 3.227970677299859e+000	 8.652286942290226e+000
 8.500658213417820e-001	 3.236903892645859e+000	 8.603756607907775e+000
 8.167524156811158e-001	 3.245469851983902e+000	 8.556975016487378e+000
 7.834473768312622e-001	 3.253670182979923e+000	 8.512506758474260e+000
 7.501562633040948e-001	 3.261506618581142e+000	 8.470938966560256e+000
 7.168845652539382e-001	 3.268980994549978e+000	 8.432928252364336e+000
 6.836377023877035e-001	 3.276095246953852e+000	 8.399251442271302e+000
 6.504210219704072e-001	 3.282851409614640e+000	 8.375667170290729e+000
 9.911250497900614e-001	 3.224443807109156e+000	 8.813900995162022e+000
 9.575697782882571e-001	 3.234567500939191e+000	 8.763717313881088e+000
 9.239998854864346e-001	 3.244316751191363e+000	 8.713498810318962e+000
 8.904212268329095e-001	 3.253692865729938e+000	 8.664085859502530e+000
 8.568395982479764e-001	 3.262697265690743e+000	 8.616195977646417e+000
 8.232607336398921e-001	 3.271331483152246e+000	 8.570458112270162e+000
 7.896903025138271e-001	 3.279597158750477e+000	 8.527453898983699e+000
 7.561339076748334e-001	 3.287496039241681e+000	 8.487764945990337e+000
 7.225970830257071e-001	 3.295029975016600e+000	 8.452025183751811e+000
 6.890852914604664e-001	 3.302200917570249e+000	 8.420977302920377e+000
 6.556039228539802e-001	 3.309010916931070e+000	 8.397717574965240e+000
 9.989604252654352e-001	 3.249934766032135e+000	 8.819971822253859e+000
 9.651398813324286e-001	 3.260138493095665e+000	 8.770866999087744e+000
 9.313046005101890e-001	 3.269964816403907e+000	 8.721976051748356e+000
 8.974604845374918e-001	 3.279415054160485e+000	 8.674203482032306e+000
 8.636133751544897e-001	 3.288490638736054e+000	 8.628290092865836e+000
 8.297690515990591e-001	 3.297193114320970e+000	 8.584851795493345e+000
 7.959332281968499e-001	 3.305524134521356e+000	 8.544425870417458e+000
 7.621115520460927e-001	 3.313485459902493e+000	 8.507523683866213e+000
 7.283096007980531e-001	 3.321078955483442e+000	 8.474688836576437e+000
 6.945328805338571e-001	 3.328306588186819e+000	 8.446559706457013e+000
 6.607868237382243e-001	 3.335170424247628e+000	 8.424560619131507e+000
 6.089578149058431e-001	 3.073575351083983e+000	 8.129468752967394e+000
 5.778964908983216e-001	 3.079566677810540e+000	 8.112130820294475e+000
 5.468732083162867e-001	 3.085226917223479e+000	 8.090183881479863e+000
 5.158927506883084e-001	 3.090558234994752e+000	 8.065272937451384e+000
 4.849598273529440e-001	 3.095562878368370e+000	 8.038936587070618e+000
 4.540790720423593e-001	 3.100243173639482e+000	 8.012638509101720e+000
 4.232550415549730e-001	 3.104601523616498e+000	 7.987810323146235e+000
 3.924922145166819e-001	 3.108640405069572e+000	 7.965902979951437e+000
 3.617949902300640e-001	 3.112362366168643e+000	 7.948443932121024e+000
 3.311676876108508e-001	 3.115770023914197e+000	 7.937097455662843e+000
 3.006145442108607e-001	 3.118866061563839e+000	 7.933725628965686e+000
 6.141407157900874e-001	 3.099734858400542e+000	 8.189498359470891e+000
 5.828150257461738e-001	 3.105777177908166e+000	 8.179666341933649e+000
 5.515277009021272e-001	 3.111485592184849e+000	 8.165225054513169e+000
 5.202835654996195e-001	 3.116862285334807e+000	 8.148139813537568e+000
 4.890873689588724e-001	 3.121909523728591e+000	 8.130229214936779e+000
 4.579437844502214e-001	 3.126629653460698e+000	 8.113215089456752e+000
 4.268574075554643e-001	 3.131025097790100e+000	 8.098784123801458e+000
 3.958327550185428e-001	 3.135098354567003e+000	 8.088658099712266e+000
 3.648742635849503e-001	 3.138851993649093e+000	 8.084669811701433e+000
 3.339862889291539e-001	 3.142288654310430e+000	 8.088841852697465e+000
 3.031731046692104e-001	 3.145411042646106e+000	 8.103465603037011e+000
 6.193236166736610e-001	 3.125894365716972e+000	 8.235706559710142e+000
 5.877335605933207e-001	 3.131987678005702e+000	 8.230702893693415e+000
 5.561821934872365e-001	 3.137744267146154e+000	 8.220717948037979e+000
 5.246743803101857e-001	 3.143166335674824e+000	 8.208009862096880e+000
 4.932149105640552e-001	 3.148256169088801e+000	 8.194642504284722e+000
 4.618084968573515e-001	 3.153016133281928e+000	 8.182555253241954e+000
 4.304597735552533e-001	 3.157448671963742e+000	 8.173644743551684e+000
 3.991732955197487e-001	 3.161556304064507e+000	 8.169855319593008e+000
 3.679535369392488e-001	 3.165341621129662e+000	 8.173275058318653e+000
 3.368048902469567e-001	 3.168807284706830e+000	 8.186234359849312e+000
 3.057316651271697e-001	 3.171956023728603e+000	 8.211404261482052e+000
 6.245065175567315e-001	 3.152053873033303e+000	 8.271065822890144e+000
 5.926520954399379e-001	 3.158198178103163e+000	 8.268563557132652e+000
 5.608366860717978e-001	 3.164002942107413e+000	 8.260369176250695e+000
 5.290651951201936e-001	 3.169470386014816e+000	 8.248991043561871e+000
 4.973424521686786e-001	 3.174602814449002e+000	 8.236688112352596e+000
 4.656732092639322e-001	 3.179402613103171e+000	 8.225560958494496e+000
 4.340621395545159e-001	 3.183872246137423e+000	 8.217655087864165e+000
 4.025138360204639e-001	 3.188014253562083e+000	 8.215073043334074e+000
 3.710328102931063e-001	 3.191831248610334e+000	 8.220091962211100e+000
 3.396234915643843e-001	 3.195325915103381e+000	 8.235283383141116e+000
 3.082902255848362e-001	 3.198501004811306e+000	 8.263632269236362e+000
 6.296894184394667e-001	 3.178213380349571e+000	 8.298350709659038e+000
 5.975706302862025e-001	 3.184408678200579e+000	 8.296369766209175e+000
 5.654911786559937e-001	 3.190261617068638e+000	 8.287683663002895e+000
 5.334560099298289e-001	 3.195774436354789e+000	 8.274993061376163e+000
 5.014699937729290e-001	 3.200949459809202e+000	 8.260686113359029e+000
 4.695379216701472e-001	 3.205789092924431e+000	 8.246952245763790e+000
 4.376645055534270e-001	 3.210295820311139e+000	 8.235908540926738e+000
 4.058543765208516e-001	 3.214472203059717e+000	 8.229735009279386e+000
 3.741120836466699e-001	 3.218320876091100e+000	 8.230815184386827e+000
 3.424420928815618e-001	 3.221844545500062e+000	 8.241878629737174e+000
 3.108487860423075e-001	 3.225045985894189e+000	 8.266142125864693e+000
 6.348723193220341e-001	 3.204372887665806e+000	 8.320144222671486e+000
 6.024891651322907e-001	 3.210619178297972e+000	 8.317046596590590e+000
 5.701456712400070e-001	 3.216520292029850e+000	 8.305968977607865e+000
 5.378468247392780e-001	 3.222078486694757e+000	 8.289730842860489e+000
 5.055975353769930e-001	 3.227296105169404e+000	 8.270767713631948e+000
 4.734026340761792e-001	 3.232175572745705e+000	 8.251269267195649e+000
 4.412668715521625e-001	 3.236719394484886e+000	 8.233330378737312e+000
 4.091949170210756e-001	 3.240930152557404e+000	 8.219111147790024e+000
 3.771913570000865e-001	 3.244810503571943e+000	 8.211002108870479e+000
 3.452606941986142e-001	 3.248363175896857e+000	 8.211790995665915e+000
 3.134073464996812e-001	 3.251590966977224e+000	 8.224827619511716e+000
 6.400552202046016e-001	 3.230532394982041e+000	 8.338844180112139e+000
 6.074076999783787e-001	 3.236829678395365e+000	 8.333328081924945e+000
 5.748001638240200e-001	 3.242778966991062e+000	 8.318339701047416e+000
 5.422376395487272e-001	 3.248382537034726e+000	 8.296728053600301e+000
 5.097250769810570e-001	 3.253642750529616e+000	 8.270878003299657e+000
 4.772673464822108e-001	 3.258562052566995e+000	 8.242874355375379e+000
 4.448692375508982e-001	 3.263142968658663e+000	 8.214679225551610e+000
 4.125354575212996e-001	 3.267388102055136e+000	 8.188318486241425e+000
 3.802706303535030e-001	 3.271300131052852e+000	 8.166073247610408e+000
 3.480792955156666e-001	 3.274881806293745e+000	 8.150672512361702e+000
 3.159659069570548e-001	 3.278135948060387e+000	 8.145483347139006e+000
 6.452381210873366e-001	 3.256691902298308e+000	 8.356669610889627e+000
 6.123262348246433e-001	 3.263040178492782e+000	 8.347762555554599e+000
 5.794546564082159e-001	 3.269037641952292e+000	 8.327721820867110e+000
 5.466284543583625e-001	 3.274686587374711e+000	 8.299320643466206e+000
 5.138526185853074e-001	 3.279989395889841e+000	 8.264778742487243e+000
 4.811320588884258e-001	 3.284948532388303e+000	 8.225954129699892e+000
 4.484716035498094e-001	 3.289566542832465e+000	 8.184548551250241e+000
 4.158759980216870e-001	 3.293846051552904e+000	 8.142322098921667e+000
 3.833499037070666e-001	 3.297789758533815e+000	 8.101312695079828e+000
 3.508978968328441e-001	 3.301400436690709e+000	 8.064056348720799e+000
 3.185244674145261e-001	 3.304680929143654e+000	 8.033804297325519e+000
 6.504210219704072e-001	 3.282851409614640e+000	 8.375667170290729e+000
 6.172447696712605e-001	 3.289250678590245e+000	 8.362718016255881e+000
 5.841091489927768e-001	 3.295296316913555e+000	 8.336857153160814e+000
 5.510192691683702e-001	 3.300990637714720e+000	 8.300660422505318e+000
 5.179801601899307e-001	 3.306336041250084e+000	 8.256051180092046e+000
 4.849967712950066e-001	 3.311335012209629e+000	 8.204521638181204e+000
 4.520739695490715e-001	 3.315990117006285e+000	 8.147368207341978e+000
 4.192165385224019e-001	 3.320304001050699e+000	 8.085936099330422e+000
 3.864291770609240e-001	 3.324279386014817e+000	 8.021868629805752e+000
 3.537164981502716e-001	 3.327919067087727e+000	 7.957356865570620e+000
 3.210830278721925e-001	 3.331225910226997e+000	 7.895385492135730e+000
 6.556039228539802e-001	 3.309010916931070e+000	 8.397717574965240e+000
 6.221633045184069e-001	 3.315461178687778e+000	 8.380387516672514e+000
 5.887636415778862e-001	 3.321554991874869e+000	 8.348307790143718e+000
 5.554100839789363e-001	 3.327294688054762e+000	 8.303718665045773e+000
 5.221077017951132e-001	 3.332682686610352e+000	 8.248098903335816e+000
 4.888614837021363e-001	 3.337721492030971e+000	 8.183198525069761e+000
 4.556763355488605e-001	 3.342413691180124e+000	 8.111645794580939e+000
 4.225570790236078e-001	 3.346761950548516e+000	 8.035444797297625e+000
 3.895084504152222e-001	 3.350769013495848e+000	 7.956958603012961e+000
 3.565350994680742e-001	 3.354437697484785e+000	 7.879130993689228e+000
 3.236415883301516e-001	 3.357770891310391e+000	 7.805681609640915e+000
 6.607868237382243e-001	 3.335170424247628e+000	 8.424560619131508e+000
 6.270818393662591e-001	 3.341671678785408e+000	 8.403478667260815e+000
 5.934181341637264e-001	 3.347813666836248e+000	 8.367643031810591e+000
 5.598008987902472e-001	 3.353598738394850e+000	 8.320174497620794e+000
 5.262352434010413e-001	 3.359029331970649e+000	 8.263572583894442e+000
 4.927261961099982e-001	 3.364107971852334e+000	 8.199995213361268e+000
 4.592787015493515e-001	 3.368837265353978e+000	 8.131517156681325e+000
 4.258976195254683e-001	 3.373219900046345e+000	 8.060368826572878e+000
 3.925877237701084e-001	 3.377258640976893e+000	 7.989156988763940e+000
 3.593537007863771e-001	 3.380956327881860e+000	 7.921068934455476e+000
 3.262001487885013e-001	 3.384315872393811e+000	 7.860061622891974e+000
 3.006145442108607e-001	 3.118866061563839e+000	 7.933725628965690e+000
 2.701351603285507e-001	 3.121653621246674e+000	 7.938114932681559e+000
 2.397382515072781e-001	 3.124135025063762e+000	 7.948095849923022e+000
 2.094278692182750e-001	 3.126313141612288e+000	 7.963045406147266e+000
 1.792079785623931e-001	 3.128190895538556e+000	 7.982728512828355e+000
 1.490824577193054e-001	 3.129771264960268e+000	 8.007334623971941e+000
 1.190550974780862e-001	 3.131057278902433e+000	 8.037503538910947e+000
 8.912960084760466e-002	 3.132052014749406e+000	 8.074339099659481e+000
 5.930958274510228e-002	 3.132758595715478e+000	 8.119409728803692e+000
 2.959856976126172e-002	 3.133180188336288e+000	 8.174734950794710e+000
 0.000000000000000e+000	 3.133319999983334e+000	 8.242757246682006e+000
 3.031731046692104e-001	 3.145411042646106e+000	 8.103465603037011e+000
 2.724343077016805e-001	 3.148222327528214e+000	 8.127952962304043e+000
 2.417786877487560e-001	 3.150724850821440e+000	 8.159247896340233e+000
 2.112103307641123e-001	 3.152921505537871e+000	 8.196560825048913e+000
 1.807332355959375e-001	 3.154815241215753e+000	 8.239635403128403e+000
 1.503513134314467e-001	 3.156409061319833e+000	 8.288799992740621e+000
 1.200683873234671e-001	 3.157706020655442e+000	 8.345006991065343e+000
 8.988819179751452e-002	 3.158709222798845e+000	 8.409858674728646e+000
 5.981437253772146e-002	 3.159421817546308e+000	 8.485618434166854e+000
 2.985048614990561e-002	 3.159846998384162e+000	 8.575206481162358e+000
 0.000000000000000e+000	 3.159987999982150e+000	 8.682179335524593e+000
 3.057316651271697e-001	 3.171956023728603e+000	 8.211404261482057e+000
 2.747334550745512e-001	 3.174791033810060e+000	 8.247728045905914e+000
 2.438191239901174e-001	 3.177314676579507e+000	 8.291247149335183e+000
 2.129927923099747e-001	 3.179529869463931e+000	 8.341073447283602e+000
 1.822584926296357e-001	 3.181439586893518e+000	 8.397001896497628e+000
 1.516201691438457e-001	 3.183046857680052e+000	 8.459577779793589e+000
 1.210816771691728e-001	 3.184354762409182e+000	 8.530150453244207e+000
 9.064678274776827e-002	 3.185366430849083e+000	 8.610912166810614e+000
 6.031916233064413e-002	 3.186085039377992e+000	 8.704920754593186e+000
 3.010240253874203e-002	 3.186513808432925e+000	 8.816105214944129e+000
 0.000000000000000e+000	 3.186655999981866e+000	 8.949253439574893e+000
 3.082902255848362e-001	 3.198501004811306e+000	 8.263632269236366e+000
 2.770326024472274e-001	 3.201359740092179e+000	 8.303508680609934e+000
 2.458595602313915e-001	 3.203904502337920e+000	 8.350023313515845e+000
 2.147752538558560e-001	 3.206138233390415e+000	 8.402239371314602e+000
 1.837837496634492e-001	 3.208063932571783e+000	 8.460057840126659e+000
 1.528890248564379e-001	 3.209684654040851e+000	 8.524301521796971e+000
 1.220949670151220e-001	 3.211003504163571e+000	 8.596784152534799e+000
 9.140537369827995e-002	 3.212023638900031e+000	 8.680363082665341e+000
 6.082395212379443e-002	 3.212748261210434e+000	 8.778974232661730e+000
 3.035431892772286e-002	 3.213180618482476e+000	 8.897648279209708e+000
 0.000000000000000e+000	 3.213323999982383e+000	 9.042507280706786e+000
 3.108487860423075e-001	 3.225045985894189e+000	 8.266142125864693e+000
 2.793317498197742e-001	 3.227928446374532e+000	 8.301286866243409e+000
 2.478999964726072e-001	 3.230494328096633e+000	 8.341451982020457e+000
 2.165577154017498e-001	 3.232746597317268e+000	 8.385683480437567e+000
 1.853090066973396e-001	 3.234688278250491e+000	 8.434025066034995e+000
 1.541578805691588e-001	 3.236322450402154e+000	 8.487620039049237e+000
 1.231082568612337e-001	 3.237652245918531e+000	 8.548796795641072e+000
 9.216396464896356e-002	 3.238680846951602e+000	 8.621136304787218e+000
 6.132874191709650e-002	 3.239411483043539e+000	 8.709520191697276e+000
 3.060623531679994e-002	 3.239847428532718e+000	 8.820158311425011e+000
 0.000000000000000e+000	 3.239991999983599e+000	 8.960594969319040e+000
 3.134073464996812e-001	 3.251590966977224e+000	 8.224827619511716e+000
 2.816308971922560e-001	 3.254497152657088e+000	 8.246977153552177e+000
 2.499404327137938e-001	 3.257084153855606e+000	 8.271353302017786e+000
 2.183401769476500e-001	 3.259354961244440e+000	 8.296997735115173e+000
 1.868342637312685e-001	 3.261312623929575e+000	 8.324115306390290e+000
 1.554267362819441e-001	 3.262960246763894e+000	 8.354194956671179e+000
 1.241215467074266e-001	 3.264300987673977e+000	 8.390112665724052e+000
 9.292255559973316e-002	 3.265338055003706e+000	 8.436214720712638e+000
 6.183353171047444e-002	 3.266074704877214e+000	 8.498379841599798e+000
 3.085815170592516e-002	 3.266514238583551e+000	 8.584058973300175e+000
 0.000000000000000e+000	 3.266659999985416e+000	 8.702291845350848e+000
 3.159659069570548e-001	 3.278135948060387e+000	 8.145483347139006e+000
 2.839300445647380e-001	 3.281065858939814e+000	 8.146415767351993e+000
 2.519808689549805e-001	 3.283673979614793e+000	 8.145490724954868e+000
 2.201226384935501e-001	 3.285963325171877e+000	 8.141739561405231e+000
 1.883595207651974e-001	 3.287936969608975e+000	 8.135528218209515e+000
 1.566955919947295e-001	 3.289598043125997e+000	 8.128698350794727e+000
 1.251348365536195e-001	 3.290949729429829e+000	 8.124688862533827e+000
 9.368114655050273e-002	 3.291995263056253e+000	 8.128636016979353e+000
 6.233832150385239e-002	 3.292737926711360e+000	 8.147450574103965e+000
 3.111006809505041e-002	 3.293181048634879e+000	 8.189870682609051e+000
 0.000000000000000e+000	 3.293327999987732e+000	 8.266489569952707e+000
 3.185244674145261e-001	 3.304680929143654e+000	 8.033804297325524e+000
 2.862291919372847e-001	 3.307634565222676e+000	 8.005359800397756e+000
 2.540213051961963e-001	 3.310263805374154e+000	 7.969569836773532e+000
 2.219051000394439e-001	 3.312571689099526e+000	 7.925430330080942e+000
 1.898847777990878e-001	 3.314561315288624e+000	 7.873449511303412e+000
 1.579644477074505e-001	 3.316235839488389e+000	 7.815810512718600e+000
 1.261481263997312e-001	 3.317598471186007e+000	 7.756512677783745e+000
 9.443973750118642e-002	 3.318652471109158e+000	 7.701489628479029e+000
 6.284311129715450e-002	 3.319401148545888e+000	 7.658702436808670e+000
 3.136198448412752e-002	 3.319847858686600e+000	 7.638206550739533e+000
 0.000000000000000e+000	 3.319995999990449e+000	 7.652191453713816e+000
 3.210830278721925e-001	 3.331225910226997e+000	 7.895385492135734e+000
 2.885283393099610e-001	 3.334203271505640e+000	 7.829601629715716e+000
 2.560617414374702e-001	 3.336853631133645e+000	 7.751341668255495e+000
 2.236875615853252e-001	 3.339180053027334e+000	 7.660300586859399e+000
 1.914100348329013e-001	 3.341185660968463e+000	 7.557150498654606e+000
 1.592333034200427e-001	 3.342873635850998e+000	 7.444204938005794e+000
 1.271614162456806e-001	 3.344247212942430e+000	 7.325565035307822e+000
 9.519832845169815e-002	 3.345309679162326e+000	 7.207258029449200e+000
 6.334790109030486e-002	 3.346064370380699e+000	 7.097368905043767e+000
 3.161390087310839e-002	 3.346514668738616e+000	 7.006165859690793e+000
 0.000000000000000e+000	 3.346663999993465e+000	 6.946220253450698e+000
 3.236415883301516e-001	 3.357770891310391e+000	 7.805681609640917e+000
 2.908274866828316e-001	 3.360771977788671e+000	 7.729685626439805e+000
 2.581021776788315e-001	 3.363443456893221e+000	 7.640054068494599e+000
 2.254700231311878e-001	 3.365788416955247e+000	 7.535924378370238e+000
 1.929352918665995e-001	 3.367810006648428e+000	 7.417898373532647e+000
 1.605021591324418e-001	 3.369511432213754e+000	 7.288192951575107e+000
 1.281747060913863e-001	 3.370895954699014e+000	 7.150782637928313e+000
 9.595691940195203e-002	 3.371966887215674e+000	 7.011534896878108e+000
 6.385269088322762e-002	 3.372727592215699e+000	 6.878339039600230e+000
 3.186581726194487e-002	 3.373181478790831e+000	 6.761229473875383e+000
 0.000000000000000e+000	 3.373331999996682e+000	 6.672503978878742e+000
 3.262001487885013e-001	 3.384315872393811e+000	 7.860061622891972e+000
 2.931266340559612e-001	 3.387340684071736e+000	 7.798315020516037e+000
 2.601426139203095e-001	 3.390033282652841e+000	 7.723801359253311e+000
 2.272524846770250e-001	 3.392396780883214e+000	 7.635809101810290e+000
 1.944605489001440e-001	 3.394434352328458e+000	 7.535061794399633e+000
 1.617710148445833e-001	 3.396149228576582e+000	 7.423864016135880e+000
 1.291879959367674e-001	 3.397544696455680e+000	 7.306239591663537e+000
 9.671551035186207e-002	 3.398624095269112e+000	 7.188063044188898e+000
 6.435748067584694e-002	 3.399390814050797e+000	 7.077185171345299e+000
 3.211773365058886e-002	 3.399848288843145e+000	 6.983553529719779e+000
 0.000000000000000e+000	 3.400000000000000e+000	 6.919328543950207e+000
 3.400000000000000e+000	 0.000000000000000e+000	 1.089627085586833e+001
 3.399848288843145e+000	 3.211773365058896e-002	 1.094825182174286e+001
 3.399390814050797e+000	 6.435748067584715e-002	 1.096805060077618e+001
 3.398624095269110e+000	 9.671551035186184e-002	 1.096411981130347e+001
 3.397544696455680e+000	 1.291879959367673e-001	 1.094424427068256e+001
 3.396149228576581e+000	 1.617710148445832e-001	 1.091555440882797e+001
 3.394434352328458e+000	 1.944605489001441e-001	 1.088454135450717e+001
 3.392396780883214e+000	 2.272524846770251e-001	 1.085707393384071e+001
 3.390033282652842e+000	 2.601426139203092e-001	 1.083841783740635e+001
 3.387340684071737e+000	 2.931266340559610e-001	 1.083325724462905e+001
 3.384315872393811e+000	 3.262001487885011e-001	 1.084571922679736e+001
 3.426668000003317e+000	 0.000000000000000e+000	 1.079255434973816e+001
 3.426515098895459e+000	 3.236965003900857e-002	 1.085450452217420e+001
 3.426054035885893e+000	 6.486227046811326e-002	 1.088302954950708e+001
 3.425281303322550e+000	 9.747410130137259e-002	 1.088682377111162e+001
 3.424193438212349e+000	 1.302012857817725e-001	 1.087390965343232e+001
 3.422787024939412e+000	 1.630398705564287e-001	 1.085165017737117e+001
 3.421058698008491e+000	 1.959858059335152e-001	 1.082676270660838e+001
 3.419005144811186e+000	 2.290349462228409e-001	 1.080533458061424e+001
 3.416623108412468e+000	 2.621830501619324e-001	 1.079284069572162e+001
 3.413909390354809e+000	 2.954257814294041e-001	 1.079416337235800e+001
 3.410860853477238e+000	 3.287587092473185e-001	 1.081361484174718e+001
 3.453336000006534e+000	 0.000000000000000e+000	 1.070672900029894e+001
 3.453181908947675e+000	 3.262156642723706e-002	 1.077560238169241e+001
 3.452717257720900e+000	 6.536706026008118e-002	 1.081011685560732e+001
 3.451938511375909e+000	 9.823269225055065e-002	 1.081919377198944e+001
 3.450842179968952e+000	 1.312145756264717e-001	 1.081107885915316e+001
 3.449424821302194e+000	 1.643087262680443e-001	 1.079335350278122e+001
 3.447683043688490e+000	 1.975110629667697e-001	 1.077294729896565e+001
 3.445613508739141e+000	 2.308174077686786e-001	 1.075615212931216e+001
 3.443212934172093e+000	 2.642234864037292e-001	 1.074863802853193e+001
 3.440478096637889e+000	 2.977249288031721e-001	 1.075547115226083e+001
 3.437405834560681e+000	 3.313172697066004e-001	 1.078113419071747e+001
 3.480004000009550e+000	 0.000000000000000e+000	 1.063774342162672e+001
 3.479848718999697e+000	 3.287348281532392e-002	 1.071093892561418e+001
 3.479380479555727e+000	 6.587185005183192e-002	 1.074909302981212e+001
 3.478595719429110e+000	 9.899128319949312e-002	 1.076133966321266e+001
 3.477490921725428e+000	 1.322278654709649e-001	 1.075613386491381e+001
 3.476062617664880e+000	 1.655775819795217e-001	 1.074126187105361e+001
 3.474307389368426e+000	 1.990363199999830e-001	 1.072385225309454e+001
 3.472221872667065e+000	 2.325998693145915e-001	 1.071038835965735e+001
 3.469802759931711e+000	 2.662639226457270e-001	 1.070672233948753e+001
 3.467046802920988e+000	 3.000240761772669e-001	 1.071809106313274e+001
 3.463950815644158e+000	 3.338758301663241e-001	 1.074913430158212e+001
 3.506672000012267e+000	 0.000000000000000e+000	 1.058439285196495e+001
 3.506515529051426e+000	 3.312539920331866e-002	 1.065977282185135e+001
 3.506043701390285e+000	 6.637663984344668e-002	 1.069962174044521e+001
 3.505252927482078e+000	 9.974987414829721e-002	 1.071327198594211e+001
 3.504139663481709e+000	 1.332411553153518e-001	 1.070937441980920e+001
 3.502700414027417e+000	 1.668464376909529e-001	 1.069590719649644e+001
 3.500931735048262e+000	 2.005615770332309e-001	 1.068018538522314e+001
 3.498830236594934e+000	 2.343823308606330e-001	 1.066887166015835e+001
 3.496392585691322e+000	 2.683043588879537e-001	 1.066798834380164e+001
 3.493615509204113e+000	 3.023232235516896e-001	 1.068293113118754e+001
 3.490495796727684e+000	 3.364343906264662e-001	 1.071848486614334e+001
 3.533340000014583e+000	 0.000000000000000e+000	 1.054532494176999e+001
 3.533182339102767e+000	 3.337731559127077e-002	 1.062123351320950e+001
 3.532706923224484e+000	 6.688142963500651e-002	 1.066125523536934e+001
 3.531910135534731e+000	 1.005084650970601e-001	 1.067490713079178e+001
 3.530788405237732e+000	 1.342544451597326e-001	 1.067102288476997e+001
 3.529338210389759e+000	 1.681152934024299e-001	 1.065776029112717e+001
 3.527556080727968e+000	 2.020868340665887e-001	 1.064260925344307e+001
 3.525438600522740e+000	 2.361647924068565e-001	 1.063240060207556e+001
 3.522982411450922e+000	 2.703447951304369e-001	 1.063331601906953e+001
 3.520184215487275e+000	 3.046223709264417e-001	 1.065089940882969e+001
 3.517040777811276e+000	 3.389929510870034e-001	 1.069007009908926e+001
 3.560008000016400e+000	 0.000000000000000e+000	 1.051904528160920e+001
 3.559849149153620e+000	 3.362923197922979e-002	 1.059432659604183e+001
 3.559370145058234e+000	 6.738621942659254e-002	 1.063343951827670e+001
 3.558567343586992e+000	 1.012670560458787e-001	 1.064607225920307e+001
 3.557437146993432e+000	 1.352677350042070e-001	 1.064122884710582e+001
 3.555976006751857e+000	 1.693841491140445e-001	 1.062723512120506e+001
 3.554180426407513e+000	 2.036120911001322e-001	 1.061174500585904e+001
 3.552046964450459e+000	 2.379472539533151e-001	 1.060174732970333e+001
 3.549572237210508e+000	 2.723852313732046e-001	 1.060357348917230e+001
 3.546752921770479e+000	 3.069215183015246e-001	 1.062290630471286e+001
 3.543585758894952e+000	 3.415515115479126e-001	 1.066479046786887e+001
 3.586676000017616e+000	 0.000000000000000e+000	 1.050392268344753e+001
 3.586515959203890e+000	 3.388114836724521e-002	 1.057793895846269e+001
 3.586033366891444e+000	 6.789100921828585e-002	 1.061551929210835e+001
 3.585224551638781e+000	 1.020256469948502e-001	 1.062651000091132e+001
 3.584085888748746e+000	 1.362810248488751e-001	 1.062007352150753e+001
 3.582613803113660e+000	 1.706530048258888e-001	 1.060469286197961e+001
 3.580804772086859e+000	 2.051373481339368e-001	 1.058817604009431e+001
 3.578655328378077e+000	 2.397297155000623e-001	 1.057766077653172e+001
 3.576162062970080e+000	 2.744256676162844e-001	 1.057961974995103e+001
 3.573321628053737e+000	 3.092206656769395e-001	 1.059986677282580e+001
 3.570130739978726e+000	 3.441100720091705e-001	 1.064356430020452e+001
 3.613344000018133e+000	 0.000000000000000e+000	 1.049819422806683e+001
 3.613182769253481e+000	 3.413306475536653e-002	 1.057084369053730e+001
 3.612696588724027e+000	 6.839579901016757e-002	 1.060674268162850e+001
 3.611881759690020e+000	 1.027842379440719e-001	 1.061588293907462e+001
 3.610734630503605e+000	 1.372943146938367e-001	 1.060757394854094e+001
 3.609251599475124e+000	 1.719218605380546e-001	 1.059044576107779e+001
 3.607429117765978e+000	 2.066626051680781e-001	 1.057245148390070e+001
 3.605263692305578e+000	 2.415121770471514e-001	 1.056086971628155e+001
 3.602751888729632e+000	 2.764661038597041e-001	 1.056230724482695e+001
 3.599890334337059e+000	 3.115198130526881e-001	 1.058270236788867e+001
 3.596675721062617e+000	 3.466686324707543e-001	 1.062732927556217e+001
 3.640012000017849e+000	 0.000000000000000e+000	 1.049997009060885e+001
 3.639849579302291e+000	 3.438498114364327e-002	 1.057170477814911e+001
 3.639359810555890e+000	 6.890058880231878e-002	 1.060626574648257e+001
 3.638538967740630e+000	 1.035428288936408e-001	 1.061377789395621e+001
 3.637383372257951e+000	 1.383076045391919e-001	 1.060368700101795e+001
 3.635889395836193e+000	 1.731907162506339e-001	 1.058476082034433e+001
 3.634053463444836e+000	 2.081878622026318e-001	 1.056508950604383e+001
 3.631872056232944e+000	 2.432946385946359e-001	 1.055208565728105e+001
 3.629341714489164e+000	 2.785065401034914e-001	 1.055248429806378e+001
 3.626459040620449e+000	 3.138189604287712e-001	 1.057234317391673e+001
 3.623220702146641e+000	 3.492271929326405e-001	 1.061704380653209e+001
 3.666680000016666e+000	 0.000000000000000e+000	 1.050723815554007e+001
 3.666516389350228e+000	 3.463689753212492e-002	 1.057908159155029e+001
 3.666023032386948e+000	 6.940537859482068e-002	 1.061315679540717e+001
 3.665196175790535e+000	 1.043014198436540e-001	 1.061971001541304e+001
 3.664032114011715e+000	 1.393208943850406e-001	 1.060831320802453e+001
 3.662527192196825e+000	 1.744595719637187e-001	 1.058786330538094e+001
 3.660677809123401e+000	 2.097131192376734e-001	 1.056658046610893e+001
 3.658480420160158e+000	 2.450771001425689e-001	 1.055200558816183e+001
 3.655931540248671e+000	 2.805469763476741e-001	 1.055099741291843e+001
 3.653027746903921e+000	 3.161181078051908e-001	 1.056972961240899e+001
 3.649765683230813e+000	 3.517857533948059e-001	 1.061368831572535e+001
 3.384315872393811e+000	 3.262001487885011e-001	 1.084571922679736e+001
 3.380956327881860e+000	 3.593537007863772e-001	 1.086091983032277e+001
 3.377258640976893e+000	 3.925877237701081e-001	 1.086458507872058e+001
 3.373219900046344e+000	 4.258976195254685e-001	 1.086094137256414e+001
 3.368837265353978e+000	 4.592787015493513e-001	 1.085370484463846e+001
 3.364107971852335e+000	 4.927261961099983e-001	 1.084612074044723e+001
 3.359029331970650e+000	 5.262352434010416e-001	 1.084100819310486e+001
 3.353598738394850e+000	 5.598008987902470e-001	 1.084081093537184e+001
 3.347813666836249e+000	 5.934181341637267e-001	 1.084765451424921e+001
 3.341671678785408e+000	 6.270818393662587e-001	 1.086341059286437e+001
 3.335170424247629e+000	 6.607868237382245e-001	 1.088976893987538e+001
 3.410860853477238e+000	 3.287587092473185e-001	 1.081361484174718e+001
 3.407474958278943e+000	 3.621723021052771e-001	 1.083532280897697e+001
 3.403748268457944e+000	 3.956669971256944e-001	 1.084400145992600e+001
 3.399677849544182e+000	 4.292381600281079e-001	 1.084399766447004e+001
 3.395260839527842e+000	 4.628810675506773e-001	 1.083912581182204e+001
 3.390494451673717e+000	 4.965909085187303e-001	 1.083270471488221e+001
 3.385375977330978e+000	 5.303627850078559e-001	 1.082759987729381e+001
 3.379902788734986e+000	 5.641917136024434e-001	 1.082627169664842e+001
 3.374072341797700e+000	 5.980726267504357e-001	 1.083083020247611e+001
 3.367882178883140e+000	 6.320003742149503e-001	 1.084309694940965e+001
 3.361329931564333e+000	 6.659697246232672e-001	 1.086467470369751e+001
 3.437405834560681e+000	 3.313172697066004e-001	 1.078113419071747e+001
 3.433993588676044e+000	 3.649909034247586e-001	 1.080875838014251e+001
 3.430237895939014e+000	 3.987462704819553e-001	 1.082202555282069e+001
 3.426135799042037e+000	 4.325787005314929e-001	 1.082537076281602e+001
 3.421684413701722e+000	 4.664834335528000e-001	 1.082267572478189e+001
 3.416880931495114e+000	 5.004556209282911e-001	 1.081730311219108e+001
 3.411722622691324e+000	 5.344903266155145e-001	 1.081213617518240e+001
 3.406206839075148e+000	 5.685825284154835e-001	 1.080962428320518e+001
 3.400331016759192e+000	 6.027271193379756e-001	 1.081183502551717e+001
 3.394092678980937e+000	 6.369189090644474e-001	 1.082051352690486e+001
 3.387489438881134e+000	 6.711526255090805e-001	 1.083757306683623e+001
 3.463950815644158e+000	 3.338758301663241e-001	 1.074913430158212e+001
 3.460512219073185e+000	 3.678095047447778e-001	 1.078200610656639e+001
 3.456727523420122e+000	 4.018255438388306e-001	 1.079936335058932e+001
 3.452593748539921e+000	 4.359192410355515e-001	 1.080569925175087e+001
 3.448107987875623e+000	 4.700857995556378e-001	 1.080493425725721e+001
 3.443267411316521e+000	 5.043203333385941e-001	 1.080044759545038e+001
 3.438069268051671e+000	 5.386178682239287e-001	 1.079511409228778e+001
 3.432510889415307e+000	 5.729733432292812e-001	 1.079134689028960e+001
 3.426589691720682e+000	 6.073816119262632e-001	 1.079114673865964e+001
 3.420303179078741e+000	 6.418374439146738e-001	 1.079615855030364e+001
 3.413648946197965e+000	 6.763355263955971e-001	 1.080967258968854e+001
 3.490495796727684e+000	 3.364343906264662e-001	 1.071848486614334e+001
 3.487030849470385e+000	 3.706281060652908e-001	 1.075587237141146e+001
 3.483217150901286e+000	 4.049048171962604e-001	 1.077676011787644e+001
 3.479051698037852e+000	 4.392597815402108e-001	 1.078567177120068e+001
 3.474531562049550e+000	 4.736881655591101e-001	 1.078654029856204e+001
 3.469653891137935e+000	 5.081850457495538e-001	 1.078273662407712e+001
 3.464415913412003e+000	 5.427454098330110e-001	 1.077710348075620e+001
 3.458814939755432e+000	 5.773641580437487e-001	 1.077199513097196e+001
 3.452848366682128e+000	 6.120361045152155e-001	 1.076932366107063e+001
 3.446513679176499e+000	 6.467559787655527e-001	 1.077061258562369e+001
 3.439808453514761e+000	 6.815184272827487e-001	 1.078152088000036e+001
 3.517040777811276e+000	 3.389929510870034e-001	 1.069007009908926e+001
 3.513549479867664e+000	 3.734467073862540e-001	 1.073119160072811e+001
 3.509706778382525e+000	 4.079840905541842e-001	 1.075500099153130e+001
 3.505509647535838e+000	 4.426003220453980e-001	 1.076602701266649e+001
 3.500955136223510e+000	 4.772905315631356e-001	 1.076819136325968e+001
 3.496040370959348e+000	 5.120497581610831e-001	 1.076483429828043e+001
 3.490762558772303e+000	 5.468729514426730e-001	 1.075874534159000e+001
 3.485118990095495e+000	 5.817549728587999e-001	 1.075219982126289e+001
 3.479107041643489e+000	 6.166905971047497e-001	 1.074700197105110e+001
 3.472724179274159e+000	 6.516745136170080e-001	 1.074453537472417e+001
 3.465967960831457e+000	 6.867013281704680e-001	 1.075371849341267e+001
 3.543585758894952e+000	 3.415515115479126e-001	 1.066479046786888e+001
 3.540068110265041e+000	 3.762653087076237e-001	 1.070882737654827e+001
 3.536196405863857e+000	 4.110633639125422e-001	 1.073491149038881e+001
 3.531967597033896e+000	 4.459408625510411e-001	 1.074755364112905e+001
 3.527378710397506e+000	 4.808928975676332e-001	 1.075064294263633e+001
 3.522426850780760e+000	 5.159144705730965e-001	 1.074746915958171e+001
 3.517109204132555e+000	 5.510004930528264e-001	 1.074075009574709e+001
 3.511423040435468e+000	 5.861457876743472e-001	 1.073266474540170e+001
 3.505365716604720e+000	 6.213450896947828e-001	 1.072489299121364e+001
 3.498934679371662e+000	 6.565930484689632e-001	 1.071866266817623e+001
 3.492127468147986e+000	 6.918842290586874e-001	 1.072692894568987e+001
 3.570130739978726e+000	 3.441100720091705e-001	 1.064356430020452e+001
 3.566586740662536e+000	 3.790839100293559e-001	 1.068967344629683e+001
 3.562686033345299e+000	 4.141426372712738e-001	 1.071735793881737e+001
 3.558425546532040e+000	 4.492814030570673e-001	 1.073109014690667e+001
 3.553802284571547e+000	 4.844952635725215e-001	 1.073470780100340e+001
 3.548813330602161e+000	 5.197791829855072e-001	 1.073143294968842e+001
 3.543455849492743e+000	 5.551280346633837e-001	 1.072389582573205e+001
 3.537727090775320e+000	 5.905366024903044e-001	 1.071416440234717e+001
 3.531624391565783e+000	 6.259995822852323e-001	 1.070378046410898e+001
 3.525145179468956e+000	 6.615115833213418e-001	 1.069380305632608e+001
 3.518286975464283e+000	 6.970671299473390e-001	 1.070187721384527e+001
 3.596675721062617e+000	 3.466686324707543e-001	 1.062732927556217e+001
 3.593105371060168e+000	 3.819025113514069e-001	 1.067465463387606e+001
 3.589175660826872e+000	 4.172219106303193e-001	 1.070324780849297e+001
 3.584883496030281e+000	 4.526219435634038e-001	 1.071752463108485e+001
 3.580225858745636e+000	 4.880976295777195e-001	 1.072125521967779e+001
 3.575199810423550e+000	 5.236438953982293e-001	 1.071757932987425e+001
 3.569802494852850e+000	 5.592555762742565e-001	 1.070902648920384e+001
 3.564031141115022e+000	 5.949274173065841e-001	 1.069754173444182e+001
 3.557883066526630e+000	 6.306540748760147e-001	 1.068451781879392e+001
 3.551355679565987e+000	 6.664301181740676e-001	 1.067083479864253e+001
 3.544446482780284e+000	 7.022500308363556e-001	 1.067934824142416e+001
 3.623220702146641e+000	 3.492271929326405e-001	 1.061704380653209e+001
 3.619624001457956e+000	 3.847211126737331e-001	 1.066472765746627e+001
 3.615665288308592e+000	 4.203011839896183e-001	 1.069352998259014e+001
 3.611341445528634e+000	 4.559624840699787e-001	 1.070779452792646e+001
 3.606649432919778e+000	 4.916999955831460e-001	 1.071121019132578e+001
 3.601586290244921e+000	 5.275086078111761e-001	 1.070682256289122e+001
 3.596149140212859e+000	 5.633831178853564e-001	 1.069705010603573e+001
 3.590335191454546e+000	 5.993182321230999e-001	 1.068370583916510e+001
 3.584141741487224e+000	 6.353085674670475e-001	 1.066802542880521e+001
 3.577566179662699e+000	 6.713486530270642e-001	 1.065106222006000e+001
 3.570605990095922e+000	 7.074329317256695e-001	 1.066018544773200e+001
 3.649765683230813e+000	 3.517857533948059e-001	 1.061368831572535e+001
 3.646142631855923e+000	 3.875397139962905e-001	 1.066088185879296e+001
 3.642154915790480e+000	 4.233804573491110e-001	 1.068919494634331e+001
 3.637799395027112e+000	 4.593030245767192e-001	 1.070288626746889e+001
 3.633073007093982e+000	 4.953023615887200e-001	 1.070555256719636e+001
 3.627972770066271e+000	 5.313733202242620e-001	 1.070013615932149e+001
 3.622495785572755e+000	 5.675106594965961e-001	 1.068893692017850e+001
 3.616639241793862e+000	 6.037090469397646e-001	 1.067362966483388e+001
 3.610400416447522e+000	 6.399630600582474e-001	 1.065528786197587e+001
 3.603776679759039e+000	 6.762671878802548e-001	 1.063586396549818e+001
 3.596765497411132e+000	 7.126158326152124e-001	 1.064528924080605e+001
 3.335170424247629e+000	 6.607868237382245e-001	 1.088976893987538e+001
 3.328306588186820e+000	 6.945328805338576e-001	 1.091136326093758e+001
 3.321078955483442e+000	 7.283096007980534e-001	 1.092800442724684e+001
 3.313485459902493e+000	 7.621115520460923e-001	 1.094156508566256e+001
 3.305524134521356e+000	 7.959332281968499e-001	 1.095282452824033e+001
 3.297193114320970e+000	 8.297690515990592e-001	 1.096225485816190e+001
 3.288490638736053e+000	 8.636133751544897e-001	 1.097003272943216e+001
 3.279415054160485e+000	 8.974604845374922e-001	 1.097605093472580e+001
 3.269964816403906e+000	 9.313046005101889e-001	 1.097992970323799e+001
 3.260138493095666e+000	 9.651398813324287e-001	 1.098102758130441e+001
 3.249934766032135e+000	 9.989604252654352e-001	 1.097845178125998e+001
 3.361329931564333e+000	 6.659697246232672e-001	 1.086467470369751e+001
 3.354412258803586e+000	 6.999804696079965e-001	 1.088760120312156e+001
 3.347127935950537e+000	 7.340221185710896e-001	 1.090611074552807e+001
 3.339474880563621e+000	 7.680891964179748e-001	 1.092154837427258e+001
 3.331451110292614e+000	 8.021761538804227e-001	 1.093486827874075e+001
 3.323054745490133e+000	 8.362773695586973e-001	 1.094644518328528e+001
 3.314284011781863e+000	 8.703871520613905e-001	 1.095633588412901e+001
 3.305137242591581e+000	 9.044997422423740e-001	 1.096438116162214e+001
 3.295612881617041e+000	 9.386093155341523e-001	 1.097015313707995e+001
 3.285709485252758e+000	 9.727099843767159e-001	 1.097296696741462e+001
 3.275425724955747e+000	 1.006795800740831e+000	 1.097189186586268e+001
 3.387489438881134e+000	 6.711526255090805e-001	 1.083757306683623e+001
 3.380517929420490e+000	 7.054280586828631e-001	 1.086228731313425e+001
 3.373176916417826e+000	 7.397346363448024e-001	 1.088238412307081e+001
 3.365464301225001e+000	 7.740668407904772e-001	 1.089924270239819e+001
 3.357378086064188e+000	 8.084190795645522e-001	 1.091386639299366e+001
 3.348916376659676e+000	 8.427856875188232e-001	 1.092688684728739e+001
 3.340077384828114e+000	 8.771609289687061e-001	 1.093857010569340e+001
 3.330859431023175e+000	 9.115389999475941e-001	 1.094880954017025e+001
 3.321260946830720e+000	 9.459140305583734e-001	 1.095685124984877e+001
 3.311280477410429e+000	 9.802800874211785e-001	 1.096181642842425e+001
 3.300916683879955e+000	 1.014631176216317e+000	 1.096269524171533e+001
 3.413648946197965e+000	 6.763355263955971e-001	 1.080967258968854e+001
 3.406623600037462e+000	 7.108756477584002e-001	 1.083589772041127e+001
 3.399225896885227e+000	 7.454471541191478e-001	 1.085742960131778e+001
 3.391453721886553e+000	 7.800444851635687e-001	 1.087567381139594e+001
 3.383305061835990e+000	 8.146620052492226e-001	 1.089165648766040e+001
 3.374778007829510e+000	 8.492940054794386e-001	 1.090602784316535e+001
 3.365870757874714e+000	 8.839347058764533e-001	 1.091906758829825e+001
 3.356581619455178e+000	 9.185782576531858e-001	 1.093069244312278e+001
 3.346909012044858e+000	 9.532187455829028e-001	 1.094046593235363e+001
 3.336851469568601e+000	 9.878501904658823e-001	 1.094761065685121e+001
 3.326407642804696e+000	 1.022466551691976e+000	 1.095091191436000e+001
 3.439808453514761e+000	 6.815184272827487e-001	 1.078152088000036e+001
 3.432729270654426e+000	 7.163232368345508e-001	 1.080896773824906e+001
 3.425274877352659e+000	 7.511596718940811e-001	 1.083177339860169e+001
 3.417443142548179e+000	 7.860221295372193e-001	 1.085135137675803e+001
 3.409232037607928e+000	 8.209049309344189e-001	 1.086873215294998e+001
 3.400639638999539e+000	 8.558023234405421e-001	 1.088456599858937e+001
 3.391664130921576e+000	 8.907084827846498e-001	 1.089912770453911e+001
 3.382303807887502e+000	 9.256175153591826e-001	 1.091232340919939e+001
 3.372557077259375e+000	 9.605234606077897e-001	 1.092369972906146e+001
 3.362422461727200e+000	 9.954202935108940e-001	 1.093245539726743e+001
 3.351898601729900e+000	 1.030301927167889e+000	 1.093744937821319e+001
 3.465967960831457e+000	 6.867013281704680e-001	 1.075371849341267e+001
 3.458834941271304e+000	 7.217708259112585e-001	 1.078209922550289e+001
 3.451323857820038e+000	 7.568721896695587e-001	 1.080601007698490e+001
 3.443432563209798e+000	 7.919997739113979e-001	 1.082685494048072e+001
 3.435159013379911e+000	 8.271478566201258e-001	 1.084565109312081e+001
 3.426501270169675e+000	 8.623106414021357e-001	 1.086303129351605e+001
 3.417457503968606e+000	 8.974822596933118e-001	 1.087924777657650e+001
 3.408025996320059e+000	 9.326567730656179e-001	 1.089417835522126e+001
 3.398205142474186e+000	 9.678281756330857e-001	 1.090733484316252e+001
 3.387993453886149e+000	 1.002990396556281e+000	 1.091787401645165e+001
 3.377389560655498e+000	 1.038137302644139e+000	 1.092460589966499e+001
 3.492127468147986e+000	 6.918842290586874e-001	 1.072692894568987e+001
 3.484940611888026e+000	 7.272184149884663e-001	 1.075595883181192e+001
 3.477372838287284e+000	 7.625847074455355e-001	 1.078080053205985e+001
 3.469421983871323e+000	 7.979774182860747e-001	 1.080283164239945e+001
 3.461085989151848e+000	 8.333907823063274e-001	 1.082303960635213e+001
 3.452362901339824e+000	 8.688189593642191e-001	 1.084202304054499e+001
 3.443250877015715e+000	 9.042560366024566e-001	 1.085999495202674e+001
 3.433748184752760e+000	 9.396960307725260e-001	 1.087678806768818e+001
 3.423853207689207e+000	 9.751328906588402e-001	 1.089186250198071e+001
 3.413564446045371e+000	 1.010560499602108e+000	 1.090430864686611e+001
 3.402880519581427e+000	 1.045972678120808e+000	 1.091289222692364e+001
 3.518286975464283e+000	 6.970671299473390e-001	 1.070187721384527e+001
 3.511046282504512e+000	 7.326660040661169e-001	 1.073127625265433e+001
 3.503421818754312e+000	 7.682972252219673e-001	 1.075686999804452e+001
 3.495411404532665e+000	 8.039550626612186e-001	 1.077999397228140e+001
 3.487012964923652e+000	 8.396337079930085e-001	 1.080159008165372e+001
 3.478224532509898e+000	 8.753272773267932e-001	 1.082220712534416e+001
 3.469044250062812e+000	 9.110298135121011e-001	 1.084200318749179e+001
 3.459470373185520e+000	 9.467352884799398e-001	 1.086075014453308e+001
 3.449501272904357e+000	 9.824376056851036e-001	 1.087784052652434e+001
 3.439135438204790e+000	 1.018130602648443e+000	 1.089229053922503e+001
 3.428371478507617e+000	 1.053808053597977e+000	 1.090278047575643e+001
 3.544446482780284e+000	 7.022500308363556e-001	 1.067934824142416e+001
 3.537151953120691e+000	 7.381135931441537e-001	 1.070884249372573e+001
 3.529470799221043e+000	 7.740097429988094e-001	 1.073500606738224e+001
 3.521400825193738e+000	 8.099327070367999e-001	 1.075911754160184e+001
 3.512939940695230e+000	 8.458766336801536e-001	 1.078205852061588e+001
 3.504086163679800e+000	 8.818355952898579e-001	 1.080431327702789e+001
 3.494837623109805e+000	 9.178035904222620e-001	 1.082597026708849e+001
 3.485192561618248e+000	 9.537745461878934e-001	 1.084672576220701e+001
 3.475149338119550e+000	 9.897423207119256e-001	 1.086588984842178e+001
 3.464706430364329e+000	 1.025700705695351e+000	 1.088238943044382e+001
 3.453862437434002e+000	 1.061643429075729e+000	 1.089480433797202e+001
 3.570605990095922e+000	 7.074329317256695e-001	 1.066018544773200e+001
 3.563257623736486e+000	 7.435611822225200e-001	 1.068950814416064e+001
 3.555519779687395e+000	 7.797222607760181e-001	 1.071605672410228e+001
 3.547390245854455e+000	 8.159103514127873e-001	 1.074103887399531e+001
 3.538866916466492e+000	 8.521195593677474e-001	 1.076526208272652e+001
 3.529947794849443e+000	 8.883439132534144e-001	 1.078913236695076e+001
 3.520630996156604e+000	 9.245773673329562e-001	 1.081265485418144e+001
 3.510914750050856e+000	 9.608138038964199e-001	 1.083543648067295e+001
 3.500797403334707e+000	 9.970470357393572e-001	 1.085669106936880e+001
 3.490277422523912e+000	 1.033270808742900e+000	 1.087524216867941e+001
 3.479353396360510e+000	 1.069478804554146e+000	 1.088955515686555e+001
 3.596765497411132e+000	 7.126158326152124e-001	 1.064528924080605e+001
 3.589363294351825e+000	 7.490087713011588e-001	 1.067418165814794e+001
 3.581568760153285e+000	 7.854347785535488e-001	 1.070092839024001e+001
 3.573379666514728e+000	 8.218879957891508e-001	 1.072665321343072e+001
 3.564793892237348e+000	 8.583624850557747e-001	 1.075207665305450e+001
 3.555809426018735e+000	 8.948522312174628e-001	 1.077751373447195e+001
 3.546424369203119e+000	 9.313511442442009e-001	 1.080287357462982e+001
 3.536636938483259e+000	 9.678530616055532e-001	 1.082766108437938e+001
 3.526445468549742e+000	 1.004351750767448e+000	 1.085098106092344e+001
 3.515848414683465e+000	 1.040840911791156e+000	 1.087154071662113e+001
 3.504844355287081e+000	 1.077314180033311e+000	 1.088767805137912e+001
 3.249934766032135e+000	 9.989604252654352e-001	 1.097845178125998e+001
 3.239352432650741e+000	 1.032760272672935e+000	 1.097985573056517e+001
 3.228390405810319e+000	 1.066533407174408e+000	 1.099212238344406e+001
 3.217047718379721e+000	 1.100273759821121e+000	 1.101281207094079e+001
 3.205323526137257e+000	 1.133975212443531e+000	 1.103928479069771e+001
 3.193217109782673e+000	 1.167631600601917e+000	 1.106869750530758e+001
 3.180727876869459e+000	 1.201236716620890e+000	 1.109801106509122e+001
 3.167855363653740e+000	 1.234784312705469e+000	 1.112399628346347e+001
 3.154599236856098e+000	 1.268268104136253e+000	 1.114323920027554e+001
 3.140959295332737e+000	 1.301681772541035e+000	 1.115214559130404e+001
 3.126935471652506e+000	 1.335018969240017e+000	 1.114703318375377e+001
 3.275425724955747e+000	 1.006795800740831e+000	 1.097189186586268e+001
 3.264760388731105e+000	 1.040860758245642e+000	 1.097464247040350e+001
 3.253712380910649e+000	 1.074898793320969e+000	 1.098802358737407e+001
 3.242280726777507e+000	 1.108903789416095e+000	 1.100935394334495e+001
 3.230464575488312e+000	 1.142869580373430e+000	 1.103574470353181e+001
 3.218263202100959e+000	 1.176789953402282e+000	 1.106409805589967e+001
 3.205676009522064e+000	 1.210658652137173e+000	 1.109111404598409e+001
 3.192702530370364e+000	 1.244469379778354e+000	 1.111329642445336e+001
 3.179342428752352e+000	 1.278215802312035e+000	 1.112695754590766e+001
 3.165595501946556e+000	 1.311891551807666e+000	 1.112822238185565e+001
 3.151461681992926e+000	 1.345490229789387e+000	 1.111736236385277e+001
 3.300916683879955e+000	 1.014631176216317e+000	 1.096269524171533e+001
 3.290168344812070e+000	 1.048961243818355e+000	 1.096717126076330e+001
 3.279034356011567e+000	 1.083264179467451e+000	 1.098185569512477e+001
 3.267513735175860e+000	 1.117533819010909e+000	 1.100384170529705e+001
 3.255605624839903e+000	 1.151763948303092e+000	 1.103000232523222e+001
 3.243309294419742e+000	 1.185948306202339e+000	 1.105699832455752e+001
 3.230624142175128e+000	 1.220080587653086e+000	 1.108128491387846e+001
 3.217549697087408e+000	 1.254154446850814e+000	 1.109911730911268e+001
 3.204085620648994e+000	 1.288163500487353e+000	 1.110655519659631e+001
 3.190231708560741e+000	 1.322101331073807e+000	 1.109946616690320e+001
 3.175987892333698e+000	 1.355961490338257e+000	 1.108808533464238e+001
 3.326407642804696e+000	 1.022466551691976e+000	 1.095091191436000e+001
 3.315576300893580e+000	 1.057061729391170e+000	 1.095750677557279e+001
 3.304356331113032e+000	 1.091629565613964e+000	 1.097372961872465e+001
 3.292746743574746e+000	 1.126163848605684e+000	 1.099644677370540e+001
 3.280746674192009e+000	 1.160658316232648e+000	 1.102230386956781e+001
 3.268355386739016e+000	 1.195106659002230e+000	 1.104773369256641e+001
 3.255572274828653e+000	 1.229502523168778e+000	 1.106896271768799e+001
 3.242396863804885e+000	 1.263839513923010e+000	 1.108201633118691e+001
 3.228828812546041e+000	 1.298111198662370e+000	 1.108272278925592e+001
 3.214867915175308e+000	 1.332311110339624e+000	 1.106671598601513e+001
 3.200514102674839e+000	 1.366432750886795e+000	 1.105965445863812e+001
 3.351898601729900e+000	 1.030301927167889e+000	 1.093744937821319e+001
 3.340984256975579e+000	 1.065162214964183e+000	 1.094594242789934e+001
 3.329678306214996e+000	 1.099994951760619e+000	 1.096386466145431e+001
 3.317979751974136e+000	 1.134793878200544e+000	 1.098744199218397e+001
 3.305887723544611e+000	 1.169552684162233e+000	 1.101298878111886e+001
 3.293401479058773e+000	 1.204265011802098e+000	 1.103672338959485e+001
 3.280520407482643e+000	 1.238924458684402e+000	 1.105465983368536e+001
 3.267244030522806e+000	 1.273524580995097e+000	 1.106261260311242e+001
 3.253572004443512e+000	 1.308058896837248e+000	 1.105620003702334e+001
 3.239504121790274e+000	 1.342520889605283e+000	 1.103309469597018e+001
 3.225040313016362e+000	 1.376904011435166e+000	 1.103251913999969e+001
 3.377389560655498e+000	 1.038137302644139e+000	 1.092460589966499e+001
 3.366392213058008e+000	 1.073262700537491e+000	 1.093454613641401e+001
 3.355000281317417e+000	 1.108360337907524e+000	 1.095334613563453e+001
 3.343212760373997e+000	 1.143423907795610e+000	 1.097732031762259e+001
 3.331028772897689e+000	 1.178447052091981e+000	 1.100248120751967e+001
 3.318447571379005e+000	 1.213423364602087e+000	 1.102446158245197e+001
 3.305468540137102e+000	 1.248346394200107e+000	 1.103895269141415e+001
 3.292091197241183e+000	 1.283209648067234e+000	 1.104157733997301e+001
 3.278315196341421e+000	 1.318006595012151e+000	 1.102776579240232e+001
 3.264140328405664e+000	 1.352730668870948e+000	 1.100240946402360e+001
 3.249566523358288e+000	 1.387375271983537e+000	 1.100712496590897e+001
 3.402880519581427e+000	 1.045972678120808e+000	 1.091289222692364e+001
 3.391800169140812e+000	 1.081363186111191e+000	 1.092429971305721e+001
 3.380322256420250e+000	 1.116725724054792e+000	 1.094384916610120e+001
 3.368445768774295e+000	 1.152053937391004e+000	 1.096771563664352e+001
 3.356169822251226e+000	 1.187341420022024e+000	 1.099176146742285e+001
 3.343493663699706e+000	 1.222581717402338e+000	 1.101156853042570e+001
 3.330416672792031e+000	 1.257768329716046e+000	 1.102247256707020e+001
 3.316938363960027e+000	 1.292894715139578e+000	 1.101962430789302e+001
 3.303058388239788e+000	 1.327954293187240e+000	 1.099822817065519e+001
 3.288776535021494e+000	 1.362940448136786e+000	 1.097504328877488e+001
 3.274092733700633e+000	 1.397846532532076e+000	 1.098391289644882e+001
 3.428371478507617e+000	 1.053808053597977e+000	 1.090278047575643e+001
 3.417208125223934e+000	 1.089463671685380e+000	 1.091564071648424e+001
 3.405644231523448e+000	 1.125091110202530e+000	 1.093581711157933e+001
 3.393678777175000e+000	 1.160683966986851e+000	 1.095936159762275e+001
 3.381310871605199e+000	 1.196235787952496e+000	 1.098199856980872e+001
 3.368539756020867e+000	 1.231740070202997e+000	 1.099915678157181e+001
 3.355364805447436e+000	 1.267190265232369e+000	 1.100600561485665e+001
 3.341785530679351e+000	 1.302579782212286e+000	 1.099749591896033e+001
 3.327801580138630e+000	 1.337901991362676e+000	 1.096891181803843e+001
 3.313412741637784e+000	 1.373150227402962e+000	 1.095135055870728e+001
 3.298618944043411e+000	 1.408317793080948e+000	 1.096331850045868e+001
 3.453862437434002e+000	 1.061643429075729e+000	 1.089480433797202e+001
 3.442616081307318e+000	 1.097564157260154e+000	 1.090906696957668e+001
 3.430966206626969e+000	 1.133456496350850e+000	 1.092973009965197e+001
 3.418911785576080e+000	 1.169313996583270e+000	 1.095273915677392e+001
 3.406451920959592e+000	 1.205130155883531e+000	 1.097369803576691e+001
 3.393585848342482e+000	 1.240898423004204e+000	 1.098790057498849e+001
 3.380312938103318e+000	 1.276612200749228e+000	 1.099036654505548e+001
 3.366632697399166e+000	 1.312264849285518e+000	 1.097588236306139e+001
 3.352544772037962e+000	 1.347849689538625e+000	 1.094382092209709e+001
 3.338048948254552e+000	 1.383360006669642e+000	 1.093167184450067e+001
 3.323145154386643e+000	 1.418789053630321e+000	 1.094577123499092e+001
 3.479353396360510e+000	 1.069478804554146e+000	 1.088955515686555e+001
 3.468024037390906e+000	 1.105664642835609e+000	 1.090513240829411e+001
 3.456288181730765e+000	 1.141821882499862e+000	 1.092612216056932e+001
 3.444144793977504e+000	 1.177944026180386e+000	 1.094838032647592e+001
 3.431592970314385e+000	 1.214024523815262e+000	 1.096740810194069e+001
 3.418631940664544e+000	 1.250056775806104e+000	 1.097838293169185e+001
 3.405261070759681e+000	 1.286034136266774e+000	 1.097619412786338e+001
 3.391479864119481e+000	 1.321949916359429e+000	 1.095548337248933e+001
 3.377287963937803e+000	 1.357797387715248e+000	 1.092367264779940e+001
 3.362685154871818e+000	 1.393569785936990e+000	 1.091596989127204e+001
 3.347671364730342e+000	 1.429260314180360e+000	 1.093157028725958e+001
 3.504844355287081e+000	 1.077314180033311e+000	 1.088767805137912e+001
 3.493431993474643e+000	 1.113765128411843e+000	 1.090444298275884e+001
 3.481610156834797e+000	 1.150187268649676e+000	 1.092557692861622e+001
 3.469377802379237e+000	 1.186574055778320e+000	 1.094686370042280e+001
 3.456734019669560e+000	 1.222918891747823e+000	 1.096371998745531e+001
 3.443678032987045e+000	 1.259215128608840e+000	 1.097122571701891e+001
 3.430209203416529e+000	 1.295456071785157e+000	 1.096415920987266e+001
 3.416327030840312e+000	 1.331634983434178e+000	 1.093703737950168e+001
 3.402031155838170e+000	 1.367745085892707e+000	 1.090873790452277e+001
 3.387321361489601e+000	 1.403779565205173e+000	 1.090442024449543e+001
 3.372197575074528e+000	 1.439731574731234e+000	 1.092062719828913e+001
 3.126935471652506e+000	 1.335018969240017e+000	 1.114703318375377e+001
 3.112530023792000e+000	 1.368268337568320e+000	 1.114130184921723e+001
 3.097741083326226e+000	 1.401428489062056e+000	 1.114342106516713e+001
 3.082568994673866e+000	 1.434493009528169e+000	 1.115186575643931e+001
 3.067014241170958e+000	 1.467455468599930e+000	 1.116497259723326e+001
 3.051077446124150e+000	 1.500309423398188e+000	 1.118094897423671e+001
 3.034759373751101e+000	 1.533048422245595e+000	 1.119788358357597e+001
 3.018060930005414e+000	 1.565666008429837e+000	 1.121375866470318e+001
 3.000983163283562e+000	 1.598155724011803e+000	 1.122646386087097e+001
 2.983527265011496e+000	 1.630511113674446e+000	 1.123381168196615e+001
 2.965694570108715e+000	 1.662725728608005e+000	 1.123355453127634e+001
 3.151461681992926e+000	 1.345490229789387e+000	 1.111736236385277e+001
 3.136943244578563e+000	 1.379000390515981e+000	 1.111991431789882e+001
 3.122038306623422e+000	 1.412420634633105e+000	 1.112862016965642e+001
 3.106747215247636e+000	 1.445744497637801e+000	 1.114211099330797e+001
 3.091070457578299e+000	 1.478965498726574e+000	 1.115888836051567e+001
 3.075008661810973e+000	 1.512077144485368e+000	 1.117733329761603e+001
 3.058562598157479e+000	 1.545072932632920e+000	 1.119571693709222e+001
 3.041733179677284e+000	 1.577946355813512e+000	 1.121221286764447e+001
 3.024521462989988e+000	 1.610690905435004e+000	 1.122491117312060e+001
 3.006928648866512e+000	 1.643300075547886e+000	 1.123183413606256e+001
 2.988956082696837e+000	 1.675767366760974e+000	 1.123095356678591e+001
 3.175987892333698e+000	 1.355961490338257e+000	 1.108808533464238e+001
 3.161356465365481e+000	 1.389732443463149e+000	 1.109753873895390e+001
 3.146335529920983e+000	 1.423412780203684e+000	 1.111174421965835e+001
 3.130925435821790e+000	 1.456995985746995e+000	 1.112947132631071e+001
 3.115126673986046e+000	 1.490475528852819e+000	 1.114936709080122e+001
 3.098939877498229e+000	 1.523844865572194e+000	 1.116996499303530e+001
 3.082365822564309e+000	 1.557097443019938e+000	 1.118969568791019e+001
 3.065405429349620e+000	 1.590226703196920e+000	 1.120689949920006e+001
 3.048059762696877e+000	 1.623226086857971e+000	 1.121984067126896e+001
 3.030330032721980e+000	 1.656089037421116e+000	 1.122672335436605e+001
 3.012217595285378e+000	 1.688809004913743e+000	 1.122570928374112e+001
 3.200514102674839e+000	 1.366432750886795e+000	 1.105965445863812e+001
 3.185769686152757e+000	 1.400464496409990e+000	 1.107472484420928e+001
 3.170632753218907e+000	 1.434404925773955e+000	 1.109342074998538e+001
 3.155103656396314e+000	 1.468247473855910e+000	 1.111463309280289e+001
 3.139182890394172e+000	 1.501985558978823e+000	 1.113713549205804e+001
 3.122871093185870e+000	 1.535612586658817e+000	 1.115959325780862e+001
 3.106169046971531e+000	 1.569121953406790e+000	 1.118057421386692e+001
 3.089077679022347e+000	 1.602507050580201e+000	 1.119856136287179e+001
 3.071598062404153e+000	 1.635761268280842e+000	 1.121196738496606e+001
 3.053731416577815e+000	 1.668877999294270e+000	 1.121915094584671e+001
 3.035479107874254e+000	 1.701850643066445e+000	 1.121843477372453e+001
 3.225040313016362e+000	 1.376904011435166e+000	 1.103251913999969e+001
 3.210182906940405e+000	 1.411196549356671e+000	 1.105201553594922e+001
 3.194929976517193e+000	 1.445397071344083e+000	 1.107426734686521e+001
 3.179281876971192e+000	 1.479498961964707e+000	 1.109827030066912e+001
 3.163239106802647e+000	 1.513495589104740e+000	 1.112290628076769e+001
 3.146802308873855e+000	 1.547380307745388e+000	 1.114695235003803e+001
 3.129972271379087e+000	 1.581146463793625e+000	 1.116909169028632e+001
 3.112749928695398e+000	 1.614787397963496e+000	 1.118792646563296e+001
 3.095136362111731e+000	 1.648296449703754e+000	 1.120199260220697e+001
 3.077132800433933e+000	 1.681666961167483e+000	 1.120977645994860e+001
 3.058740620463381e+000	 1.714892281219213e+000	 1.120973335533248e+001
 3.249566523358288e+000	 1.387375271983537e+000	 1.100712496590897e+001
 3.234596127728435e+000	 1.421928602303357e+000	 1.102994620357617e+001
 3.219227199815839e+000	 1.456389216914231e+000	 1.105489111746140e+001
 3.203460097546411e+000	 1.490750450073546e+000	 1.108104422879597e+001
 3.187295323211441e+000	 1.525005619230725e+000	 1.110737789597483e+001
 3.170733524562135e+000	 1.559148028832056e+000	 1.113276138741370e+001
 3.153775495786916e+000	 1.593170974180589e+000	 1.115597195726984e+001
 3.136422178368696e+000	 1.627067745346946e+000	 1.117570793403021e+001
 3.118674661819536e+000	 1.660831631126843e+000	 1.119060381516450e+001
 3.100534184290246e+000	 1.694455923040890e+000	 1.119924734368713e+001
 3.082002133052676e+000	 1.727933919372181e+000	 1.120019852469886e+001
 3.274092733700633e+000	 1.397846532532076e+000	 1.098391289644882e+001
 3.259009348516858e+000	 1.432660655250213e+000	 1.100904408235485e+001
 3.243524423114846e+000	 1.467381362484561e+000	 1.103588819615034e+001
 3.227638318121956e+000	 1.502001938182587e+000	 1.106360306004077e+001
 3.211351539620524e+000	 1.536515649356934e+000	 1.109123423861268e+001
 3.194664740250668e+000	 1.570915749918973e+000	 1.111772417308421e+001
 3.177578720194960e+000	 1.605195484567825e+000	 1.114192341283668e+001
 3.160094428042173e+000	 1.639348092730692e+000	 1.116260395587345e+001
 3.142212961527484e+000	 1.673366812550247e+000	 1.117847469227487e+001
 3.123935568146673e+000	 1.707244884914625e+000	 1.118819892655938e+001
 3.105263645642055e+000	 1.740975557525482e+000	 1.119041393625683e+001
 3.298618944043411e+000	 1.408317793080948e+000	 1.096331850045868e+001
 3.283422569305680e+000	 1.443392708197407e+000	 1.098982765204986e+001
 3.267821646414211e+000	 1.478373508055239e+000	 1.101784328564231e+001
 3.251816538697812e+000	 1.513253426291988e+000	 1.104658154500516e+001
 3.235407756029868e+000	 1.548025679483521e+000	 1.107514443858104e+001
 3.218595955939409e+000	 1.582683471006288e+000	 1.110252904718789e+001
 3.201381944603160e+000	 1.617219994955479e+000	 1.112763893056933e+001
 3.183766677715757e+000	 1.651628440114874e+000	 1.114929774618065e+001
 3.165751261235494e+000	 1.685901993974103e+000	 1.116626507520853e+001
 3.147336952003127e+000	 1.720033846788822e+000	 1.117725443182004e+001
 3.128525158231437e+000	 1.754017195679249e+000	 1.118095341216561e+001
 3.323145154386643e+000	 1.418789053630321e+000	 1.094577123499092e+001
 3.307835790094914e+000	 1.454124761145104e+000	 1.097280607339468e+001
 3.292118869713935e+000	 1.489365653626425e+000	 1.100132923114575e+001
 3.275994759273966e+000	 1.524504914401911e+000	 1.103060069502207e+001
 3.259463972439443e+000	 1.559535709610643e+000	 1.105976264814340e+001
 3.242527171628312e+000	 1.594451192094152e+000	 1.108784876271991e+001
 3.225185169011457e+000	 1.629244505343696e+000	 1.111379580049734e+001
 3.207438927389378e+000	 1.663908787499634e+000	 1.113645753612597e+001
 3.189289560943490e+000	 1.698437175398548e+000	 1.115462099944134e+001
 3.170738335859523e+000	 1.732822808663616e+000	 1.116702501276092e+001
 3.151786670820736e+000	 1.767058833833616e+000	 1.117238097892068e+001
 3.347671364730342e+000	 1.429260314180360e+000	 1.093157028725958e+001
 3.332249010884568e+000	 1.464856814093469e+000	 1.095847866045328e+001
 3.316416093014018e+000	 1.500357799198286e+000	 1.098690662588032e+001
 3.300172979850403e+000	 1.535756402512514e+000	 1.101626750285775e+001
 3.283520188849219e+000	 1.571045739738455e+000	 1.104572786029224e+001
 3.266458387317334e+000	 1.606218913182716e+000	 1.107434038448644e+001
 3.248988393419791e+000	 1.641269015732624e+000	 1.110105569202866e+001
 3.231111177062963e+000	 1.676189134885112e+000	 1.112473658381076e+001
 3.212827860651388e+000	 1.710972356823719e+000	 1.114417473721573e+001
 3.194139719715778e+000	 1.745611770539141e+000	 1.115810981271118e+001
 3.175048183409871e+000	 1.780100471988717e+000	 1.116525092975376e+001
 3.372197575074528e+000	 1.439731574731234e+000	 1.092062719828913e+001
 3.356662231674654e+000	 1.475588867042669e+000	 1.094698901845881e+001
 3.340713316314456e+000	 1.511349944770984e+000	 1.097508800920461e+001
 3.324351200427108e+000	 1.547007890623957e+000	 1.100417468971805e+001
 3.307576405259167e+000	 1.582555769867112e+000	 1.103366375081271e+001
 3.290389603006430e+000	 1.617986634272130e+000	 1.106264520997132e+001
 3.272791617828106e+000	 1.653293526122406e+000	 1.109006463780507e+001
 3.254783426736442e+000	 1.688469482271450e+000	 1.111477320574599e+001
 3.236366160359109e+000	 1.723507538249754e+000	 1.113554486175135e+001
 3.217541103571808e+000	 1.758400732415532e+000	 1.115109604755141e+001
 3.198309695998757e+000	 1.793142110144684e+000	 1.116010791150936e+001
 2.965694570108715e+000	 1.662725728608005e+000	 1.123355453127634e+001
 2.947483798177338e+000	 1.694797929960343e+000	 1.123134558765389e+001
 2.928899221696398e+000	 1.726716448985847e+000	 1.123349916716049e+001
 2.909942610804364e+000	 1.758474879052459e+000	 1.123875438198452e+001
 2.890615879789327e+000	 1.790066835929240e+000	 1.124590906911582e+001
 2.870921086910895e+000	 1.821485961785593e+000	 1.125384194484786e+001
 2.850860434090400e+000	 1.852725929198409e+000	 1.126153570429593e+001
 2.830436266468553e+000	 1.883780445162080e+000	 1.126810093163903e+001
 2.809651071830005e+000	 1.914643255096348e+000	 1.127280067465354e+001
 2.788507479894426e+000	 1.945308146846862e+000	 1.127507552575503e+001
 2.767008261473969e+000	 1.975768954673289e+000	 1.127456904132662e+001
 2.988956082696837e+000	 1.675767366760974e+000	 1.123095356678591e+001
 2.970602474040236e+000	 1.708091127367755e+000	 1.122831597410033e+001
 2.951872128887056e+000	 1.740260000235878e+000	 1.123031127665013e+001
 2.932766831259906e+000	 1.772267528482681e+000	 1.123541831722532e+001
 2.913288510461653e+000	 1.804107277802321e+000	 1.124216196247000e+001
 2.893439240895929e+000	 1.835772840496374e+000	 1.124913651577898e+001
 2.873221241754907e+000	 1.867257839512400e+000	 1.125503016878114e+001
 2.852636876573476e+000	 1.898555932485417e+000	 1.125865035091616e+001
 2.831688652649308e+000	 1.929660815777189e+000	 1.125894982373738e+001
 2.810379220328354e+000	 1.960566228508146e+000	 1.125505335452515e+001
 2.788711372155723e+000	 1.991265956576792e+000	 1.124628479269549e+001
 3.012217595285378e+000	 1.688809004913743e+000	 1.122570928374112e+001
 2.993721149903497e+000	 1.721384324774959e+000	 1.122303596757445e+001
 2.974845036078005e+000	 1.753803551485679e+000	 1.122499690189416e+001
 2.955591051715656e+000	 1.786060177912640e+000	 1.122982616100657e+001
 2.935961141134095e+000	 1.818147719675097e+000	 1.123579173516955e+001
 2.915957394880990e+000	 1.850059719206805e+000	 1.124122021782668e+001
 2.895582049419351e+000	 1.881789749825994e+000	 1.124452262690815e+001
 2.874837486678263e+000	 1.913331419808317e+000	 1.124422121331992e+001
 2.853726233468411e+000	 1.944678376457553e+000	 1.123897709611434e+001
 2.832250960762047e+000	 1.975824310168927e+000	 1.122761855106265e+001
 2.810414482837230e+000	 2.006762958479779e+000	 1.121017460062735e+001
 3.035479107874254e+000	 1.701850643066445e+000	 1.121843477372453e+001
 3.016839825767045e+000	 1.734677522182089e+000	 1.121606114515236e+001
 2.997817943269185e+000	 1.767347102735386e+000	 1.121807052059088e+001
 2.978415272171568e+000	 1.799852827342473e+000	 1.122246716783966e+001
 2.958633771806631e+000	 1.832188161547714e+000	 1.122727772144672e+001
 2.938475548866074e+000	 1.864346597917032e+000	 1.123057716172856e+001
 2.917942857083756e+000	 1.896321660139343e+000	 1.123051602539836e+001
 2.897038096782951e+000	 1.928106907130930e+000	 1.122534869435160e+001
 2.875763814287376e+000	 1.959695937137597e+000	 1.121346259474700e+001
 2.854122701195575e+000	 1.991082391829359e+000	 1.119340812500604e+001
 2.832117593518570e+000	 2.022259960382399e+000	 1.117474130688810e+001
 3.058740620463381e+000	 1.714892281219213e+000	 1.120973335533248e+001
 3.039958501630808e+000	 1.747970719589279e+000	 1.120793970487037e+001
 3.020790850460532e+000	 1.780890653985136e+000	 1.121004125526877e+001
 3.001239492627601e+000	 1.813645476772324e+000	 1.121382689750827e+001
 2.981306402479240e+000	 1.846228603420313e+000	 1.121709686440906e+001
 2.960993702851183e+000	 1.878633476627206e+000	 1.121769002040788e+001
 2.940303664748140e+000	 1.910853570452599e+000	 1.121351248270236e+001
 2.919238706887588e+000	 1.942882394453412e+000	 1.120256741354486e+001
 2.897801395106262e+000	 1.974713497817474e+000	 1.118298580824856e+001
 2.875994441629014e+000	 2.006340473489594e+000	 1.115392453309902e+001
 2.853820704199826e+000	 2.037756962284804e+000	 1.114214868534326e+001
 3.082002133052676e+000	 1.727933919372181e+000	 1.120019852469886e+001
 3.063077177494705e+000	 1.761263916996664e+000	 1.119921241034336e+001
 3.043763757651986e+000	 1.794434205235065e+000	 1.120141283038289e+001
 3.024063713083709e+000	 1.827438126202331e+000	 1.120438720245764e+001
 3.003979033151893e+000	 1.860269045293039e+000	 1.120572375094240e+001
 2.983511856836313e+000	 1.892920355337473e+000	 1.120304012799357e+001
 2.962664472412528e+000	 1.925385480765913e+000	 1.119401346809980e+001
 2.941439316992212e+000	 1.957657881775916e+000	 1.117641170894834e+001
 2.919838975925133e+000	 1.989731058497339e+000	 1.114812599536625e+001
 2.897866182062439e+000	 2.021598555149789e+000	 1.111717325358105e+001
 2.875523814881082e+000	 2.053253964187143e+000	 1.111284783573613e+001
 3.105263645642055e+000	 1.740975557525482e+000	 1.119041393625684e+001
 3.086195853358668e+000	 1.774557114404378e+000	 1.119041256807491e+001
 3.066736664843483e+000	 1.807977756485311e+000	 1.119268356378632e+001
 3.046887933539847e+000	 1.841230775632634e+000	 1.119462625049026e+001
 3.026651663824572e+000	 1.874309487166035e+000	 1.119363068212136e+001
 3.006030010821464e+000	 1.907207234047981e+000	 1.118710761384227e+001
 2.985025280076941e+000	 1.939917391079437e+000	 1.117252001461358e+001
 2.963639927096867e+000	 1.972433369098596e+000	 1.114741594357375e+001
 2.941876556744047e+000	 2.004748619177347e+000	 1.110993662030937e+001
 2.919737922495926e+000	 2.036856636810096e+000	 1.108525225175829e+001
 2.897226925562421e+000	 2.068750966089566e+000	 1.108726407164168e+001
 3.128525158231437e+000	 1.754017195679249e+000	 1.118095341216561e+001
 3.109314529222616e+000	 1.787850311812554e+000	 1.118206603575940e+001
 3.089709572034964e+000	 1.821521307736009e+000	 1.118434639078707e+001
 3.069712153995974e+000	 1.855023425063373e+000	 1.118501858092934e+001
 3.049324294497249e+000	 1.888349929039446e+000	 1.118128777727955e+001
 3.028548164806635e+000	 1.921494112758879e+000	 1.117037156974157e+001
 3.007386087741395e+000	 1.954449301393320e+000	 1.114953296397789e+001
 2.985840537201595e+000	 1.987208856421605e+000	 1.111611484214676e+001
 2.963914137563063e+000	 2.019766179857653e+000	 1.107570503155839e+001
 2.941609662929547e+000	 2.052114718470668e+000	 1.105850786650618e+001
 2.918930036243927e+000	 2.084247967992224e+000	 1.106579719976500e+001
 3.151786670820736e+000	 1.767058833833616e+000	 1.117238097892067e+001
 3.132433205086475e+000	 1.801143509221328e+000	 1.117469125997311e+001
 3.112682479226364e+000	 1.835064858987296e+000	 1.117688891910739e+001
 3.092536374452043e+000	 1.868816074494688e+000	 1.117603519252170e+001
 3.071996925169904e+000	 1.902390370913415e+000	 1.116916311000005e+001
 3.051066318791824e+000	 1.935780991470312e+000	 1.115331024857921e+001
 3.029746895405916e+000	 1.968981211707714e+000	 1.112555324200414e+001
 3.008041147306436e+000	 2.001984343745096e+000	 1.108312411311111e+001
 2.985951718382243e+000	 2.034783740538410e+000	 1.104795095505730e+001
 2.963481403363379e+000	 2.067372800131659e+000	 1.103726274470154e+001
 2.940633146925679e+000	 2.099744969895266e+000	 1.104882181966148e+001
 3.175048183409871e+000	 1.780100471988717e+000	 1.116525092975376e+001
 3.155551880950169e+000	 1.814436706630833e+000	 1.116879934174911e+001
 3.135655386417623e+000	 1.848608410239309e+000	 1.117079351316014e+001
 3.115360594908013e+000	 1.882608723926719e+000	 1.116814366145184e+001
 3.094669555842513e+000	 1.916430812788086e+000	 1.115772287438945e+001
 3.073584472777031e+000	 1.950067870182429e+000	 1.113640129286554e+001
 3.052107703070523e+000	 1.983513122022769e+000	 1.110108216278639e+001
 3.030241757411437e+000	 2.016759831069224e+000	 1.105439553478654e+001
 3.007989299201648e+000	 2.049801301219773e+000	 1.102693338214191e+001
 2.985353143797493e+000	 2.082630881793222e+000	 1.102181607925463e+001
 2.962336257607764e+000	 2.115241971798842e+000	 1.103668764283160e+001
 3.198309695998757e+000	 1.793142110144684e+000	 1.116010791150936e+001
 3.178670556813624e+000	 1.827729904041205e+000	 1.116489412861435e+001
 3.158628293608679e+000	 1.862151961492185e+000	 1.116653740615040e+001
 3.138184815363838e+000	 1.896401373359606e+000	 1.116180828793501e+001
 3.117342186515054e+000	 1.930471254663603e+000	 1.114743158009382e+001
 3.096102626762256e+000	 1.964354748895379e+000	 1.112012199158853e+001
 3.074468510735240e+000	 1.998045032338640e+000	 1.107662176027687e+001
 3.052442367516636e+000	 2.031535318394142e+000	 1.103351102299309e+001
 3.030026880021336e+000	 2.064818861901898e+000	 1.101288919788757e+001
 3.007224884231966e+000	 2.097888963455511e+000	 1.101244386850437e+001
 2.984039368290266e+000	 2.130738973703105e+000	 1.102971983020371e+001
 2.767008261473969e+000	 1.975768954673289e+000	 1.127456904132662e+001
 2.745156326716522e+000	 2.006019562551172e+000	 1.125700046539570e+001
 2.722954721676198e+000	 2.036053906072851e+000	 1.123321216693699e+001
 2.700406629454409e+000	 2.065865978303493e+000	 1.121442063800063e+001
 2.677515369617984e+000	 2.095449834330041e+000	 1.119877919817162e+001
 2.654284396700450e+000	 2.124799595113841e+000	 1.118497318335656e+001
 2.630717298573514e+000	 2.153909451300075e+000	 1.117427952216804e+001
 2.606817794690175e+000	 2.182773666978905e+000	 1.116594680533106e+001
 2.582589734201157e+000	 2.211386583393304e+000	 1.115867380040893e+001
 2.558037093946534e+000	 2.239742622588618e+000	 1.115099688652035e+001
 2.533163976324692e+000	 2.267836290998960e+000	 1.114130283766481e+001
 2.788711372155723e+000	 1.991265956576792e+000	 1.124628479269549e+001
 2.766688041105134e+000	 2.021753835987452e+000	 1.122773325749561e+001
 2.744312297122522e+000	 2.052023754766099e+000	 1.121233757593664e+001
 2.721587348276045e+000	 2.082069658862324e+000	 1.120020375120438e+001
 2.698516540169660e+000	 2.111885556733959e+000	 1.118975804832058e+001
 2.675103354432631e+000	 2.141465523229930e+000	 1.117943833549252e+001
 2.651351407078246e+000	 2.170803703429568e+000	 1.116851702536668e+001
 2.627264446733149e+000	 2.199894316433246e+000	 1.115866067152926e+001
 2.602846352738986e+000	 2.228731659099303e+000	 1.114919793562424e+001
 2.578101133128303e+000	 2.257310109722225e+000	 1.113906360333023e+001
 2.553032922476773e+000	 2.285624131647170e+000	 1.112704314176658e+001
 2.810414482837230e+000	 2.006762958479779e+000	 1.121017460062735e+001
 2.788219755493519e+000	 2.037488109423218e+000	 1.119903682607230e+001
 2.765669872568660e+000	 2.067993603458853e+000	 1.119092604377831e+001
 2.742768067097567e+000	 2.098273339420692e+000	 1.118450925429617e+001
 2.719517710721304e+000	 2.128321279137459e+000	 1.117847060326135e+001
 2.695922312164874e+000	 2.158131451345657e+000	 1.117151582495684e+001
 2.671985515583138e+000	 2.187697955558761e+000	 1.116237660066830e+001
 2.647711098776373e+000	 2.217014965887358e+000	 1.115106772136962e+001
 2.623102971277156e+000	 2.246076734805151e+000	 1.113946507502693e+001
 2.598165172310488e+000	 2.274877596855761e+000	 1.112698085493103e+001
 2.572901868629318e+000	 2.303411972295396e+000	 1.111278477465254e+001
 2.832117593518570e+000	 2.022259960382399e+000	 1.117474130688810e+001
 2.809751469881757e+000	 2.053222382858615e+000	 1.117147681439719e+001
 2.787027448014699e+000	 2.083963452151246e+000	 1.116959749432058e+001
 2.763948785919044e+000	 2.114477019978720e+000	 1.116800371422165e+001
 2.740518881272978e+000	 2.144757001540650e+000	 1.116562274692379e+001
 2.716741269897224e+000	 2.174797379461116e+000	 1.116141297442827e+001
 2.692619624088216e+000	 2.204592207687736e+000	 1.115436798579436e+001
 2.668157750819863e+000	 2.234135615341308e+000	 1.114352054092086e+001
 2.643359589815660e+000	 2.263421810510898e+000	 1.112982510323452e+001
 2.618229211493063e+000	 2.292445083989264e+000	 1.111508328484811e+001
 2.592770814782297e+000	 2.321199812943656e+000	 1.109884202373942e+001
 2.853820704199826e+000	 2.037756962284804e+000	 1.114214868534326e+001
 2.831283184269936e+000	 2.068956656293786e+000	 1.114559069157151e+001
 2.808385023460716e+000	 2.099933300843413e+000	 1.114894205285376e+001
 2.785129504740552e+000	 2.130680700536533e+000	 1.115132253330473e+001
 2.761520051824738e+000	 2.161192723943644e+000	 1.115188807825265e+001
 2.737560227629725e+000	 2.191463307576405e+000	 1.114983480647042e+001
 2.713253732593508e+000	 2.221486459816572e+000	 1.114440287627740e+001
 2.688604402863628e+000	 2.251256264795160e+000	 1.113488019683463e+001
 2.663616208354491e+000	 2.280766886216589e+000	 1.112063741306600e+001
 2.638293250676009e+000	 2.310012571122761e+000	 1.110371478926285e+001
 2.612639760935674e+000	 2.338987653591965e+000	 1.108553841524286e+001
 2.875523814881082e+000	 2.053253964187143e+000	 1.111284783573613e+001
 2.852814898658140e+000	 2.084690929728875e+000	 1.112188808273550e+001
 2.829742598906793e+000	 2.115903149535490e+000	 1.112952046079550e+001
 2.806310223562162e+000	 2.146884381094253e+000	 1.113507043812483e+001
 2.782521222376647e+000	 2.177628446346550e+000	 1.113790846434444e+001
 2.758379185362421e+000	 2.208129235691617e+000	 1.113745377901458e+001
 2.733887841099043e+000	 2.238380711945352e+000	 1.113317807465662e+001
 2.709051054907677e+000	 2.268376914248977e+000	 1.112460898488047e+001
 2.683872826893645e+000	 2.298111961922277e+000	 1.111133336901459e+001
 2.658357289859304e+000	 2.327580058256287e+000	 1.109322739495209e+001
 2.632508707089417e+000	 2.356775494240340e+000	 1.107320564064188e+001
 2.897226925562421e+000	 2.068750966089566e+000	 1.108726407164168e+001
 2.874346613046457e+000	 2.100425203164026e+000	 1.110085111826620e+001
 2.851100174353010e+000	 2.131872998227611e+000	 1.111186450609628e+001
 2.827490942383945e+000	 2.163088061652005e+000	 1.111982198125631e+001
 2.803522392928762e+000	 2.194064168749482e+000	 1.112429460401087e+001
 2.779198143095355e+000	 2.224795163806850e+000	 1.112491040161200e+001
 2.754521949604845e+000	 2.255274964074154e+000	 1.112135785695887e+001
 2.729497706952019e+000	 2.285497563702824e+000	 1.111338920287169e+001
 2.704129445433113e+000	 2.315457037628008e+000	 1.110082349264605e+001
 2.678421329042928e+000	 2.345147545389874e+000	 1.108354941866562e+001
 2.652377653243494e+000	 2.374563334888798e+000	 1.106218248652452e+001
 2.918930036243927e+000	 2.084247967992224e+000	 1.106579719976500e+001
 2.895878327434964e+000	 2.116159476599381e+000	 1.108293480097748e+001
 2.872457749799449e+000	 2.147842846919910e+000	 1.109647746853890e+001
 2.848671661205972e+000	 2.179291742209911e+000	 1.110612205520173e+001
 2.824523563481143e+000	 2.210499891152546e+000	 1.111162660122671e+001
 2.800017100828571e+000	 2.241461091922200e+000	 1.111281385963422e+001
 2.775156058110943e+000	 2.272169216203060e+000	 1.110957463925655e+001
 2.749944358996667e+000	 2.302618213156769e+000	 1.110187093448515e+001
 2.724386063972889e+000	 2.332802113333830e+000	 1.108973881155001e+001
 2.698485368226857e+000	 2.362715032523553e+000	 1.107329102236707e+001
 2.672246599397870e+000	 2.392351175537356e+000	 1.105271931844082e+001
 2.940633146925679e+000	 2.099744969895266e+000	 1.104882181966148e+001
 2.917410041823754e+000	 2.131893750035086e+000	 1.106856739038993e+001
 2.893815325246190e+000	 2.163812695612522e+000	 1.108383457916087e+001
 2.869852380028318e+000	 2.195495422768095e+000	 1.109448641788764e+001
 2.845524734033850e+000	 2.226935613555857e+000	 1.110045454795048e+001
 2.820836058562116e+000	 2.258127020037764e+000	 1.110174264601046e+001
 2.795790166617365e+000	 2.289063468332152e+000	 1.109842965026308e+001
 2.770391011041629e+000	 2.319738862610873e+000	 1.109067275501634e+001
 2.744642682512967e+000	 2.350147189039793e+000	 1.107871014249953e+001
 2.718549407411074e+000	 2.380282519657359e+000	 1.106286342209790e+001
 2.692115545552514e+000	 2.410139016186032e+000	 1.104353974875866e+001
 2.962336257607764e+000	 2.115241971798842e+000	 1.103668764283160e+001
 2.938941756212907e+000	 2.147628023471283e+000	 1.105815080319775e+001
 2.915172900693314e+000	 2.179782544305583e+000	 1.107438349307660e+001
 2.891033098851052e+000	 2.211699103326682e+000	 1.108540222913140e+001
 2.866525904586939e+000	 2.243371335959520e+000	 1.109129911583835e+001
 2.841655016296031e+000	 2.274792948153638e+000	 1.109224520011526e+001
 2.816424275124137e+000	 2.305957720461509e+000	 1.108849360965543e+001
 2.790837663086917e+000	 2.336859512065201e+000	 1.108038244174014e+001
 2.764899301053341e+000	 2.367492264745944e+000	 1.106833737040306e+001
 2.738613446595554e+000	 2.397850006791322e+000	 1.105287394119869e+001
 2.711984491707391e+000	 2.427926856834841e+000	 1.103459952447756e+001
 2.984039368290266e+000	 2.130738973703105e+000	 1.102971983020371e+001
 2.960473470602511e+000	 2.163362296908118e+000	 1.105206102910539e+001
 2.936530476140903e+000	 2.195752392999228e+000	 1.106854477501654e+001
 2.912213817674248e+000	 2.227902783885794e+000	 1.107932859751917e+001
 2.887527075140474e+000	 2.259807058363652e+000	 1.108465215639769e+001
 2.862473974030363e+000	 2.291458876269918e+000	 1.108484055344302e+001
 2.837058383631288e+000	 2.322851972591213e+000	 1.108030741183259e+001
 2.811284315132539e+000	 2.353980161519819e+000	 1.107155768864403e+001
 2.785155919594004e+000	 2.384837340452332e+000	 1.105919018723861e+001
 2.758677485780279e+000	 2.415417493925475e+000	 1.104389973772013e+001
 2.731853437862469e+000	 2.445714697483801e+000	 1.102647901542740e+001
 2.533163976324692e+000	 2.267836290998960e+000	 1.114130283766481e+001
 2.507978409130006e+000	 2.295658029994647e+000	 1.112456520954314e+001
 2.482481032043097e+000	 2.323206763111350e+000	 1.109831302154212e+001
 2.456676310313640e+000	 2.350477275304074e+000	 1.106463918963531e+001
 2.430568824931228e+000	 2.377464449525057e+000	 1.102560691265302e+001
 2.404163269919529e+000	 2.404163269919529e+000	 1.098326007973084e+001
 2.377464449525057e+000	 2.430568824931227e+000	 1.093963414334285e+001
 2.350477275304074e+000	 2.456676310313640e+000	 1.089676731259919e+001
 2.323206763111350e+000	 2.482481032043097e+000	 1.085671191829088e+001
 2.295658029994646e+000	 2.507978409130006e+000	 1.082154579932661e+001
 2.267836290998959e+000	 2.533163976324692e+000	 1.079338355974400e+001
 2.553032922476773e+000	 2.285624131647170e+000	 1.112704314176658e+001
 2.527649811545008e+000	 2.313664091271059e+000	 1.110887346133373e+001
 2.501952445030983e+000	 2.341428903686288e+000	 1.108243164860944e+001
 2.475945323207677e+000	 2.368913312943507e+000	 1.104958101339152e+001
 2.449633062995806e+000	 2.396112161859249e+000	 1.101214738737899e+001
 2.423020395236747e+000	 2.423020395236746e+000	 1.097193083079123e+001
 2.396112161859249e+000	 2.449633062995806e+000	 1.093071784111212e+001
 2.368913312943507e+000	 2.475945323207676e+000	 1.089029390928318e+001
 2.341428903686289e+000	 2.501952445030982e+000	 1.085245626527652e+001
 2.313664091271059e+000	 2.527649811545009e+000	 1.081902665301747e+001
 2.285624131647170e+000	 2.553032922476773e+000	 1.079186397411657e+001
 2.572901868629318e+000	 2.303411972295396e+000	 1.111278477465254e+001
 2.547321213960504e+000	 2.331670152547573e+000	 1.109328921230714e+001
 2.521423858019364e+000	 2.359651044261410e+000	 1.106665114721475e+001
 2.495214336102196e+000	 2.387349350583203e+000	 1.103451875119413e+001
 2.468697301060834e+000	 2.414759874193777e+000	 1.099849488053415e+001
 2.441877520554362e+000	 2.441877520554361e+000	 1.096015010732377e+001
 2.414759874193777e+000	 2.468697301060833e+000	 1.092103629068039e+001
 2.387349350583203e+000	 2.495214336102196e+000	 1.088270052351455e+001
 2.359651044261410e+000	 2.521423858019364e+000	 1.084669928686969e+001
 2.331670152547573e+000	 2.547321213960505e+000	 1.081461264178978e+001
 2.303411972295396e+000	 2.572901868629318e+000	 1.078805828810554e+001
 2.592770814782297e+000	 2.321199812943656e+000	 1.109884202373942e+001
 2.566992616376451e+000	 2.349676213824190e+000	 1.107810560056515e+001
 2.540895271008198e+000	 2.377873184836706e+000	 1.105124655701577e+001
 2.514483348997150e+000	 2.405785388223142e+000	 1.101971202620770e+001
 2.487761539126262e+000	 2.433407586528607e+000	 1.098489589996421e+001
 2.460734645872333e+000	 2.460734645872333e+000	 1.094815321244909e+001
 2.433407586528608e+000	 2.487761539126262e+000	 1.091081510276054e+001
 2.405785388223142e+000	 2.514483348997150e+000	 1.087420418209080e+001
 2.377873184836706e+000	 2.540895271008198e+000	 1.083965012725040e+001
 2.349676213824190e+000	 2.566992616376451e+000	 1.080850532013316e+001
 2.321199812943656e+000	 2.592770814782297e+000	 1.078216035208668e+001
 2.612639760935674e+000	 2.338987653591965e+000	 1.108553841524286e+001
 2.586664018792810e+000	 2.367682275100913e+000	 1.106362509140825e+001
 2.560366683997438e+000	 2.396095325412165e+000	 1.103650230968533e+001
 2.533752361892490e+000	 2.424221425863299e+000	 1.100542989659033e+001
 2.506825777192050e+000	 2.452055298863711e+000	 1.097160641117853e+001
 2.479591771190625e+000	 2.479591771190625e+000	 1.093618491066464e+001
 2.452055298863711e+000	 2.506825777192050e+000	 1.090028933540742e+001
 2.424221425863298e+000	 2.533752361892491e+000	 1.086503132847797e+001
 2.396095325412165e+000	 2.560366683997438e+000	 1.083152730100217e+001
 2.367682275100913e+000	 2.586664018792810e+000	 1.080091555210995e+001
 2.338987653591965e+000	 2.612639760935674e+000	 1.077437325165731e+001
 2.632508707089417e+000	 2.356775494240340e+000	 1.107320564064188e+001
 2.606335421209538e+000	 2.385688336377744e+000	 1.105015845237204e+001
 2.579838096987040e+000	 2.414317465987774e+000	 1.102271125694701e+001
 2.553021374788173e+000	 2.442657463503651e+000	 1.099194994049842e+001
 2.525890015258152e+000	 2.470703011199052e+000	 1.095889098282904e+001
 2.498448896509196e+000	 2.498448896509196e+000	 1.092449863683067e+001
 2.470703011199053e+000	 2.525890015258151e+000	 1.088970276907079e+001
 2.442657463503652e+000	 2.553021374788173e+000	 1.085541716600964e+001
 2.414317465987774e+000	 2.579838096987041e+000	 1.082255810605419e+001
 2.385688336377744e+000	 2.606335421209539e+000	 1.079206299515397e+001
 2.356775494240340e+000	 2.632508707089417e+000	 1.076490886291919e+001
 2.652377653243494e+000	 2.374563334888798e+000	 1.106218248652452e+001
 2.626006823626593e+000	 2.403694397654686e+000	 1.103802373133846e+001
 2.599309509976958e+000	 2.432539606563527e+000	 1.101017370124407e+001
 2.572290387684151e+000	 2.461093501144180e+000	 1.097955734316160e+001
 2.544954253324521e+000	 2.489350723534602e+000	 1.094702193358932e+001
 2.517306021828006e+000	 2.517306021828006e+000	 1.091335570579714e+001
 2.489350723534602e+000	 2.544954253324522e+000	 1.087930718145115e+001
 2.461093501144179e+000	 2.572290387684152e+000	 1.084560499998979e+001
 2.432539606563527e+000	 2.599309509976957e+000	 1.081297803458241e+001
 2.403694397654687e+000	 2.626006823626595e+000	 1.078217558085067e+001
 2.374563334888798e+000	 2.652377653243494e+000	 1.075398740374895e+001
 2.672246599397870e+000	 2.392351175537356e+000	 1.105271931844082e+001
 2.645678226043938e+000	 2.421700458931741e+000	 1.102754523756156e+001
 2.618780922967142e+000	 2.450761747139410e+000	 1.099919642890436e+001
 2.591559400580378e+000	 2.479529538784858e+000	 1.096854398592071e+001
 2.564018491391117e+000	 2.507998435870327e+000	 1.093627848036301e+001
 2.536163147147017e+000	 2.536163147147017e+000	 1.090302452263795e+001
 2.507998435870326e+000	 2.564018491391118e+000	 1.086936162216984e+001
 2.479529538784858e+000	 2.591559400580378e+000	 1.083584557875785e+001
 2.450761747139409e+000	 2.618780922967142e+000	 1.080303018197504e+001
 2.421700458931741e+000	 2.645678226043937e+000	 1.077148899285498e+001
 2.392351175537357e+000	 2.672246599397870e+000	 1.074197996404278e+001
 2.692115545552514e+000	 2.410139016186032e+000	 1.104353974875866e+001
 2.665349628461526e+000	 2.439706520208910e+000	 1.101905252545786e+001
 2.638252335957553e+000	 2.468983887715412e+000	 1.099009174567216e+001
 2.610828413476806e+000	 2.497965576425667e+000	 1.095920753712605e+001
 2.583082729457892e+000	 2.526646148206194e+000	 1.092694588775123e+001
 2.555020272466187e+000	 2.555020272466187e+000	 1.089377979346095e+001
 2.526646148206194e+000	 2.583082729457892e+000	 1.086013168726201e+001
 2.497965576425666e+000	 2.610828413476806e+000	 1.082639643376828e+001
 2.468983887715411e+000	 2.638252335957553e+000	 1.079296465396336e+001
 2.439706520208911e+000	 2.665349628461527e+000	 1.076024614209559e+001
 2.410139016186032e+000	 2.692115545552514e+000	 1.073163749745453e+001
 2.711984491707391e+000	 2.427926856834841e+000	 1.103459952447756e+001
 2.685021030879321e+000	 2.457712581486198e+000	 1.101191489225596e+001
 2.657723748948141e+000	 2.487206028291523e+000	 1.098317651448568e+001
 2.630097426373389e+000	 2.516401614066581e+000	 1.095185054480213e+001
 2.602146967524803e+000	 2.545293860542173e+000	 1.091931461871538e+001
 2.573877397785479e+000	 2.573877397785478e+000	 1.088590173676464e+001
 2.545293860542173e+000	 2.602146967524804e+000	 1.085188879350195e+001
 2.516401614066580e+000	 2.630097426373389e+000	 1.081752121873600e+001
 2.487206028291522e+000	 2.657723748948141e+000	 1.078303797201115e+001
 2.457712581486198e+000	 2.685021030879322e+000	 1.075019819596364e+001
 2.427926856834841e+000	 2.711984491707391e+000	 1.072396784346973e+001
 2.731853437862469e+000	 2.445714697483801e+000	 1.102647901542740e+001
 2.704692433297279e+000	 2.475718642763606e+000	 1.100536237699714e+001
 2.677195161938863e+000	 2.505428168867732e+000	 1.097846606746418e+001
 2.649366439270082e+000	 2.534837651707582e+000	 1.094677953098785e+001
 2.621211205591807e+000	 2.563941572878231e+000	 1.091367948637434e+001
 2.592734523104852e+000	 2.592734523104852e+000	 1.087967529531338e+001
 2.563941572878231e+000	 2.621211205591807e+000	 1.084490945256975e+001
 2.534837651707581e+000	 2.649366439270081e+000	 1.080948904789496e+001
 2.505428168867732e+000	 2.677195161938863e+000	 1.077399313827566e+001
 2.475718642763605e+000	 2.704692433297279e+000	 1.074342547234085e+001
 2.445714697483802e+000	 2.731853437862469e+000	 1.071902514009222e+001
 2.267836290998959e+000	 2.533163976324692e+000	 1.079338355974400e+001
 2.239742622588619e+000	 2.558037093946534e+000	 1.077073856287200e+001
 2.211386583393305e+000	 2.582589734201157e+000	 1.074914968779124e+001
 2.182773666978905e+000	 2.606817794690176e+000	 1.072633082161163e+001
 2.153909451300075e+000	 2.630717298573514e+000	 1.070006005367175e+001
 2.124799595113840e+000	 2.654284396700450e+000	 1.066819656478228e+001
 2.095449834330041e+000	 2.677515369617983e+000	 1.062923008139870e+001
 2.065865978303493e+000	 2.700406629454409e+000	 1.058453699384137e+001
 2.036053906072851e+000	 2.722954721676199e+000	 1.053198369972438e+001
 2.006019562551172e+000	 2.745156326716522e+000	 1.046866065124978e+001
 1.975768954673289e+000	 2.767008261473968e+000	 1.040080088235614e+001
 2.285624131647170e+000	 2.553032922476773e+000	 1.079186397411657e+001
 2.257310109722224e+000	 2.578101133128303e+000	 1.076904249593585e+001
 2.228731659099303e+000	 2.602846352738986e+000	 1.074611141070912e+001
 2.199894316433245e+000	 2.627264446733148e+000	 1.072120900594253e+001
 2.170803703429568e+000	 2.651351407078246e+000	 1.069254403917227e+001
 2.141465523229931e+000	 2.675103354432631e+000	 1.065874322470882e+001
 2.111885556733959e+000	 2.698516540169659e+000	 1.062174803899670e+001
 2.082069658862324e+000	 2.721587348276045e+000	 1.058024844949997e+001
 2.052023754766099e+000	 2.744312297122521e+000	 1.053173893282588e+001
 2.021753835987452e+000	 2.766688041105134e+000	 1.047367013749250e+001
 1.991265956576792e+000	 2.788711372155724e+000	 1.040464042110859e+001
 2.303411972295396e+000	 2.572901868629318e+000	 1.078805828810554e+001
 2.274877596855761e+000	 2.598165172310488e+000	 1.076470991471349e+001
 2.246076734805151e+000	 2.623102971277155e+000	 1.074014789118898e+001
 2.217014965887358e+000	 2.647711098776373e+000	 1.071292293092408e+001
 2.187697955558761e+000	 2.671985515583138e+000	 1.068179567694542e+001
 2.158131451345657e+000	 2.695922312164874e+000	 1.064901371005628e+001
 2.128321279137459e+000	 2.719517710721304e+000	 1.061430516784610e+001
 2.098273339420692e+000	 2.742768067097567e+000	 1.057556865750277e+001
 2.067993603458852e+000	 2.765669872568660e+000	 1.053064732884591e+001
 2.037488109423218e+000	 2.788219755493518e+000	 1.047733765307750e+001
 2.006762958479779e+000	 2.810414482837230e+000	 1.041339831801037e+001
 2.321199812943656e+000	 2.592770814782297e+000	 1.078216035208668e+001
 2.292445083989264e+000	 2.618229211493063e+000	 1.075792536732397e+001
 2.263421810510898e+000	 2.643359589815661e+000	 1.073143171279132e+001
 2.234135615341307e+000	 2.668157750819863e+000	 1.070164099327302e+001
 2.204592207687736e+000	 2.692619624088216e+000	 1.067069895323159e+001
 2.174797379461117e+000	 2.716741269897225e+000	 1.063965586501661e+001
 2.144757001540649e+000	 2.740518881272977e+000	 1.060681389146527e+001
 2.114477019978720e+000	 2.763948785919044e+000	 1.057040878873836e+001
 2.083963452151246e+000	 2.787027448014699e+000	 1.052861825113760e+001
 2.053222382858615e+000	 2.809751469881758e+000	 1.047957044643685e+001
 2.022259960382399e+000	 2.832117593518569e+000	 1.042135267765295e+001
 2.338987653591965e+000	 2.612639760935674e+000	 1.077437325165731e+001
 2.310012571122760e+000	 2.638293250676008e+000	 1.074888258312730e+001
 2.280766886216590e+000	 2.663616208354491e+000	 1.072014462819296e+001
 2.251256264795159e+000	 2.688604402863627e+000	 1.068976412636058e+001
 2.221486459816572e+000	 2.713253732593509e+000	 1.066033567195081e+001
 2.191463307576405e+000	 2.737560227629726e+000	 1.063060962952424e+001
 2.161192723943644e+000	 2.761520051824738e+000	 1.059921387785802e+001
 2.130680700536533e+000	 2.785129504740552e+000	 1.056470746633102e+001
 2.099933300843413e+000	 2.808385023460716e+000	 1.052558874115683e+001
 2.068956656293786e+000	 2.831283184269936e+000	 1.048030367424763e+001
 2.037756962284804e+000	 2.853820704199826e+000	 1.042725432855497e+001
 2.356775494240340e+000	 2.632508707089417e+000	 1.076490886291919e+001
 2.327580058256288e+000	 2.658357289859304e+000	 1.073778409840785e+001
 2.298111961922277e+000	 2.683872826893644e+000	 1.070787134782510e+001
 2.268376914248976e+000	 2.709051054907677e+000	 1.067902056692295e+001
 2.238380711945352e+000	 2.733887841099044e+000	 1.065067069848583e+001
 2.208129235691617e+000	 2.758379185362420e+000	 1.062184077533340e+001
 2.177628446346551e+000	 2.782521222376647e+000	 1.059147083913054e+001
 2.146884381094253e+000	 2.806310223562161e+000	 1.055842960246339e+001
 2.115903149535490e+000	 2.829742598906794e+000	 1.052152239361157e+001
 2.084690929728875e+000	 2.852814898658141e+000	 1.047949931633919e+001
 2.053253964187143e+000	 2.875523814881082e+000	 1.043106355628964e+001
 2.374563334888798e+000	 2.652377653243494e+000	 1.075398740374895e+001
 2.345147545389875e+000	 2.678421329042928e+000	 1.072548697629672e+001
 2.315457037628008e+000	 2.704129445433113e+000	 1.069713149612861e+001
 2.285497563702824e+000	 2.729497706952019e+000	 1.066939732217156e+001
 2.255274964074154e+000	 2.754521949604845e+000	 1.064169328383399e+001
 2.224795163806849e+000	 2.779198143095354e+000	 1.061333966138812e+001
 2.194064168749482e+000	 2.803522392928762e+000	 1.058357532266600e+001
 2.163088061652005e+000	 2.827490942383944e+000	 1.055156522618280e+001
 2.131872998227610e+000	 2.851100174353011e+000	 1.051640822202319e+001
 2.100425203164026e+000	 2.874346613046457e+000	 1.047714508042490e+001
 2.068750966089566e+000	 2.897226925562421e+000	 1.043276667719792e+001
 2.392351175537357e+000	 2.672246599397870e+000	 1.074197996404278e+001
 2.362715032523554e+000	 2.698485368226857e+000	 1.071493463242403e+001
 2.332802113333830e+000	 2.724386063972889e+000	 1.068797709625191e+001
 2.302618213156768e+000	 2.749944358996667e+000	 1.066090432156860e+001
 2.272169216203061e+000	 2.775156058110944e+000	 1.063341577785512e+001
 2.241461091922200e+000	 2.800017100828571e+000	 1.060511998175043e+001
 2.210499891152547e+000	 2.824523563481142e+000	 1.057554149429547e+001
 2.179291742209911e+000	 2.848671661205972e+000	 1.054412830265994e+001
 2.147842846919909e+000	 2.872457749799449e+000	 1.051025951519772e+001
 2.116159476599381e+000	 2.895878327434966e+000	 1.047325329718769e+001
 2.084247967992224e+000	 2.918930036243927e+000	 1.043237497376294e+001
 2.410139016186032e+000	 2.692115545552514e+000	 1.073163749745453e+001
 2.380282519657360e+000	 2.718549407411073e+000	 1.070648309864819e+001
 2.350147189039793e+000	 2.744642682512968e+000	 1.068043582997742e+001
 2.319738862610872e+000	 2.770391011041629e+000	 1.065357308979134e+001
 2.289063468332153e+000	 2.795790166617366e+000	 1.062587233602707e+001
 2.258127020037764e+000	 2.820836058562116e+000	 1.059721750647146e+001
 2.226935613555856e+000	 2.845524734033849e+000	 1.056740591387916e+001
 2.195495422768095e+000	 2.869852380028318e+000	 1.053615554434246e+001
 2.163812695612522e+000	 2.893815325246190e+000	 1.050311268507783e+001
 2.131893750035085e+000	 2.917410041823753e+000	 1.046785980621772e+001
 2.099744969895266e+000	 2.940633146925679e+000	 1.042992362027973e+001
 2.427926856834841e+000	 2.711984491707391e+000	 1.072396784346973e+001
 2.397850006791323e+000	 2.738613446595554e+000	 1.070017480460870e+001
 2.367492264745944e+000	 2.764899301053342e+000	 1.067455547026277e+001
 2.336859512065201e+000	 2.790837663086917e+000	 1.064745541411737e+001
 2.305957720461509e+000	 2.816424275124138e+000	 1.061911762004159e+001
 2.274792948153638e+000	 2.841655016296031e+000	 1.058968881576718e+001
 2.243371335959520e+000	 2.866525904586940e+000	 1.055922630368720e+001
 2.211699103326681e+000	 2.891033098851052e+000	 1.052770521441820e+001
 2.179782544305583e+000	 2.915172900693315e+000	 1.049502610641660e+001
 2.147628023471283e+000	 2.938941756212908e+000	 1.046102283327167e+001
 2.115241971798842e+000	 2.962336257607765e+000	 1.042547059931814e+001
 2.445714697483802e+000	 2.731853437862469e+000	 1.071902514009222e+001
 2.415417493925476e+000	 2.758677485780278e+000	 1.069607078054117e+001
 2.384837340452332e+000	 2.785155919594005e+000	 1.067040251083915e+001
 2.353980161519820e+000	 2.811284315132540e+000	 1.064262200651511e+001
 2.322851972591212e+000	 2.837058383631288e+000	 1.061322549255427e+001
 2.291458876269918e+000	 2.862473974030362e+000	 1.058261002783986e+001
 2.259807058363652e+000	 2.887527075140474e+000	 1.055108030994621e+001
 2.227902783885794e+000	 2.912213817674249e+000	 1.051885592298020e+001
 2.195752392999227e+000	 2.936530476140903e+000	 1.048607894868993e+001
 2.163362296908118e+000	 2.960473470602511e+000	 1.045282185929493e+001
 2.130738973703105e+000	 2.984039368290266e+000	 1.041909560944771e+001
 1.975768954673289e+000	 2.767008261473968e+000	 1.040080088235614e+001
 1.945308146846862e+000	 2.788507479894426e+000	 1.034019264819790e+001
 1.914643255096348e+000	 2.809651071830004e+000	 1.028216242435513e+001
 1.883780445162079e+000	 2.830436266468553e+000	 1.022673642163696e+001
 1.852725929198409e+000	 2.850860434090399e+000	 1.017371329023558e+001
 1.821485961785593e+000	 2.870921086910894e+000	 1.012270311888774e+001
 1.790066835929240e+000	 2.890615879789326e+000	 1.007316547895250e+001
 1.758474879052460e+000	 2.909942610804365e+000	 1.002444622066404e+001
 1.726716448985847e+000	 2.928899221696398e+000	 9.975812749035304e+000
 1.694797929960344e+000	 2.947483798177338e+000	 9.926487528878129e+000
 1.662725728608005e+000	 2.965694570108715e+000	 9.875679591940331e+000
 1.991265956576792e+000	 2.788711372155724e+000	 1.040464042110859e+001
 1.960566228508145e+000	 2.810379220328354e+000	 1.033818657506444e+001
 1.929660815777188e+000	 2.831688652649307e+000	 1.027646306251002e+001
 1.898555932485416e+000	 2.852636876573476e+000	 1.021914345133338e+001
 1.867257839512399e+000	 2.873221241754905e+000	 1.016566811530021e+001
 1.835772840496374e+000	 2.893439240895928e+000	 1.011528593133160e+001
 1.804107277802321e+000	 2.913288510461652e+000	 1.006709492853160e+001
 1.772267528482681e+000	 2.932766831259905e+000	 1.002008158019279e+001
 1.740260000235878e+000	 2.951872128887057e+000	 9.973158451396179e+000
 1.708091127367755e+000	 2.970602474040235e+000	 9.925199938074899e+000
 1.675767366760974e+000	 2.988956082696838e+000	 9.875075858280145e+000
 2.006762958479779e+000	 2.810414482837230e+000	 1.041339831801037e+001
 1.975824310168927e+000	 2.832250960762047e+000	 1.034126878846992e+001
 1.944678376457553e+000	 2.853726233468411e+000	 1.027530327768830e+001
 1.913331419808316e+000	 2.874837486678262e+000	 1.021554718072354e+001
 1.881789749825994e+000	 2.895582049419351e+000	 1.016110402042139e+001
 1.850059719206805e+000	 2.915957394880990e+000	 1.011088306723763e+001
 1.818147719675098e+000	 2.935961141134096e+000	 1.006364265160306e+001
 1.786060177912640e+000	 2.955591051715656e+000	 1.001803200507625e+001
 1.753803551485679e+000	 2.974845036078005e+000	 9.972631327534039e+000
 1.721384324774959e+000	 2.993721149903496e+000	 9.925989802213064e+000
 1.688809004913743e+000	 3.012217595285378e+000	 9.876661306676880e+000
 2.022259960382399e+000	 2.832117593518569e+000	 1.042135267765295e+001
 1.991082391829358e+000	 2.854122701195576e+000	 1.034914734373709e+001
 1.959695937137597e+000	 2.875763814287376e+000	 1.027837714705541e+001
 1.928106907130930e+000	 2.897038096782952e+000	 1.021562815186590e+001
 1.896321660139343e+000	 2.917942857083756e+000	 1.015968748964810e+001
 1.864346597917032e+000	 2.938475548866074e+000	 1.010914548522332e+001
 1.832188161547714e+000	 2.958633771806631e+000	 1.006244169506932e+001
 1.799852827342474e+000	 2.978415272171569e+000	 1.001790935503200e+001
 1.767347102735386e+000	 2.997817943269185e+000	 9.973817918789559e+000
 1.734677522182089e+000	 3.016839825767045e+000	 9.928413394352026e+000
 1.701850643066445e+000	 3.035479107874254e+000	 9.879956213585141e+000
 2.037756962284804e+000	 2.853820704199826e+000	 1.042725432855497e+001
 2.006340473489595e+000	 2.875994441629014e+000	 1.036094776160248e+001
 1.974713497817474e+000	 2.897801395106263e+000	 1.028540778754058e+001
 1.942882394453412e+000	 2.919238706887588e+000	 1.021909830986218e+001
 1.910853570452600e+000	 2.940303664748141e+000	 1.016111872260948e+001
 1.878633476627206e+000	 2.960993702851183e+000	 1.010976011920974e+001
 1.846228603420313e+000	 2.981306402479240e+000	 1.006316328655625e+001
 1.813645476772324e+000	 3.001239492627601e+000	 1.001936582078072e+001
 1.780890653985136e+000	 3.020790850460533e+000	 9.976347192533968e+000
 1.747970719589279e+000	 3.039958501630808e+000	 9.932071454032196e+000
 1.714892281219213e+000	 3.058740620463381e+000	 9.884527309335928e+000
 2.053253964187143e+000	 2.875523814881082e+000	 1.043106355628964e+001
 2.021598555149789e+000	 2.897866182062439e+000	 1.037125487079839e+001
 1.989731058497339e+000	 2.919838975925133e+000	 1.029614393209506e+001
 1.957657881775916e+000	 2.941439316992211e+000	 1.022569773855324e+001
 1.925385480765913e+000	 2.962664472412528e+000	 1.016512853037260e+001
 1.892920355337473e+000	 2.983511856836313e+000	 1.011244693418361e+001
 1.860269045293039e+000	 3.003979033151893e+000	 1.006551404884915e+001
 1.827438126202331e+000	 3.024063713083709e+000	 1.002209129496631e+001
 1.794434205235066e+000	 3.043763757651987e+000	 9.979888066435533e+000
 1.761263916996664e+000	 3.063077177494705e+000	 9.936606860817809e+000
 1.727933919372180e+000	 3.082002133052676e+000	 9.889985595969757e+000
 2.068750966089566e+000	 2.897226925562421e+000	 1.043276667719792e+001
 2.036856636810096e+000	 2.919737922495927e+000	 1.037883762529474e+001
 2.004748619177347e+000	 2.941876556744046e+000	 1.031002191957070e+001
 1.972433369098596e+000	 2.963639927096867e+000	 1.023519138314833e+001
 1.939917391079437e+000	 2.985025280076940e+000	 1.017147521739838e+001
 1.907207234047982e+000	 3.006030010821463e+000	 1.011695596723049e+001
 1.874309487166035e+000	 3.026651663824572e+000	 1.006923319881102e+001
 1.841230775632635e+000	 3.046887933539848e+000	 1.002581072683418e+001
 1.807977756485311e+000	 3.066736664843483e+000	 9.984146915854360e+000
 1.774557114404378e+000	 3.086195853358668e+000	 9.941702290460142e+000
 1.740975557525482e+000	 3.105263645642056e+000	 9.895984147332440e+000
 2.084247967992224e+000	 2.918930036243927e+000	 1.043237497376294e+001
 2.052114718470668e+000	 2.941609662929547e+000	 1.038370672102403e+001
 2.019766179857653e+000	 2.963914137563062e+000	 1.032210335051100e+001
 1.987208856421604e+000	 2.985840537201594e+000	 1.024736576046779e+001
 1.954449301393320e+000	 3.007386087741394e+000	 1.017994145031875e+001
 1.921494112758879e+000	 3.028548164806635e+000	 1.012306435460585e+001
 1.888349929039446e+000	 3.049324294497249e+000	 1.007408973159017e+001
 1.855023425063373e+000	 3.069712153995974e+000	 1.003028146151324e+001
 1.821521307736009e+000	 3.089709572034964e+000	 9.988865065243795e+000
 1.787850311812554e+000	 3.109314529222617e+000	 9.947077854586128e+000
 1.754017195679249e+000	 3.128525158231438e+000	 9.902215892356269e+000
 2.099744969895266e+000	 2.940633146925679e+000	 1.042992362027973e+001
 2.067372800131659e+000	 2.963481403363379e+000	 1.038589710226452e+001
 2.034783740538409e+000	 2.985951718382242e+000	 1.033084151928115e+001
 2.001984343745095e+000	 3.008041147306437e+000	 1.026196882887140e+001
 1.968981211707714e+000	 3.029746895405916e+000	 1.019033111421637e+001
 1.935780991470312e+000	 3.051066318791825e+000	 1.013057334556568e+001
 1.902390370913415e+000	 3.071996925169904e+000	 1.007987959087785e+001
 1.868816074494688e+000	 3.092536374452044e+000	 1.003529056469701e+001
 1.835064858987296e+000	 3.112682479226365e+000	 9.993816264384956e+000
 1.801143509221328e+000	 3.132433205086475e+000	 9.952488724763153e+000
 1.767058833833616e+000	 3.151786670820736e+000	 9.908411382395803e+000
 2.115241971798842e+000	 2.962336257607765e+000	 1.042547059931814e+001
 2.082630881793222e+000	 2.985353143797493e+000	 1.038546691955741e+001
 2.049801301219773e+000	 3.007989299201646e+000	 1.033629516898922e+001
 2.016759831069223e+000	 3.030241757411437e+000	 1.027498982264502e+001
 1.983513122022770e+000	 3.052107703070523e+000	 1.020246615704772e+001
 1.950067870182429e+000	 3.073584472777031e+000	 1.013930530363504e+001
 1.916430812788086e+000	 3.094669555842513e+000	 1.008642282593054e+001
 1.882608723926719e+000	 3.115360594908013e+000	 1.004065213347232e+001
 1.848608410239309e+000	 3.135655386417623e+000	 9.998804150231587e+000
 1.814436706630833e+000	 3.155551880950169e+000	 9.957722741741494e+000
 1.780100471988717e+000	 3.175048183409870e+000	 9.914336543435759e+000
 2.130738973703105e+000	 2.984039368290266e+000	 1.041909560944771e+001
 2.097888963455511e+000	 3.007224884231965e+000	 1.038249647832815e+001
 2.064818861901898e+000	 3.030026880021336e+000	 1.033854560656515e+001
 2.031535318394141e+000	 3.052442367516636e+000	 1.028411946670739e+001
 1.998045032338640e+000	 3.074468510735241e+000	 1.021618342281310e+001
 1.964354748895379e+000	 3.096102626762256e+000	 1.014910069595477e+001
 1.930471254663603e+000	 3.117342186515054e+000	 1.009356073603142e+001
 1.896401373359606e+000	 3.138184815363838e+000	 1.004620459400137e+001
 1.862151961492184e+000	 3.158628293608679e+000	 1.000365969509860e+001
 1.827729904041205e+000	 3.178670556813624e+000	 9.962598010628916e+000
 1.793142110144684e+000	 3.198309695998757e+000	 9.919790413941033e+000
 1.662725728608005e+000	 2.965694570108715e+000	 9.875679591940331e+000
 1.630511113674446e+000	 2.983527265011494e+000	 9.827817072140315e+000
 1.598155724011803e+000	 3.000983163283563e+000	 9.786031473208389e+000
 1.565666008429836e+000	 3.018060930005414e+000	 9.747676116780490e+000
 1.533048422245595e+000	 3.034759373751101e+000	 9.710201724794525e+000
 1.500309423398188e+000	 3.051077446124149e+000	 9.671178856795271e+000
 1.467455468599930e+000	 3.067014241170959e+000	 9.628317469923447e+000
 1.434493009528169e+000	 3.082568994673866e+000	 9.579483555827821e+000
 1.401428489062056e+000	 3.097741083326226e+000	 9.522712835942240e+000
 1.368268337568320e+000	 3.112530023792000e+000	 9.456221523133547e+000
 1.335018969240017e+000	 3.126935471652506e+000	 9.378414183437911e+000
 1.675767366760974e+000	 2.988956082696838e+000	 9.875075858280145e+000
 1.643300075547886e+000	 3.006928648866512e+000	 9.826938928134460e+000
 1.610690905435004e+000	 3.024521462989988e+000	 9.784124501412515e+000
 1.577946355813512e+000	 3.041733179677284e+000	 9.744376322405977e+000
 1.545072932632920e+000	 3.058562598157479e+000	 9.705539790952550e+000
 1.512077144485368e+000	 3.075008661810973e+000	 9.665584544025570e+000
 1.478965498726573e+000	 3.091070457578299e+000	 9.622624002639100e+000
 1.445744497637801e+000	 3.106747215247636e+000	 9.574931838095216e+000
 1.412420634633105e+000	 3.122038306623423e+000	 9.520955340180928e+000
 1.379000390515981e+000	 3.136943244578564e+000	 9.459325697828426e+000
 1.345490229789387e+000	 3.151461681992926e+000	 9.388865229757094e+000
 1.688809004913743e+000	 3.012217595285378e+000	 9.876661306676880e+000
 1.656089037421116e+000	 3.030330032721981e+000	 9.828496092650266e+000
 1.623226086857971e+000	 3.048059762696877e+000	 9.784960737089181e+000
 1.590226703196920e+000	 3.065405429349620e+000	 9.744145475396303e+000
 1.557097443019938e+000	 3.082365822564309e+000	 9.704247773536530e+000
 1.523844865572194e+000	 3.098939877498229e+000	 9.663595153452700e+000
 1.490475528852819e+000	 3.115126673986047e+000	 9.620664816035237e+000
 1.456995985746994e+000	 3.130925435821791e+000	 9.574100015306021e+000
 1.423412780203684e+000	 3.146335529920983e+000	 9.522723167507348e+000
 1.389732443463149e+000	 3.161356465365480e+000	 9.465545708097759e+000
 1.355961490338257e+000	 3.175987892333698e+000	 9.401774738021551e+000
 1.701850643066445e+000	 3.035479107874254e+000	 9.879956213585142e+000
 1.668877999294270e+000	 3.053731416577814e+000	 9.831968760927616e+000
 1.635761268280842e+000	 3.071598062404152e+000	 9.787978946704827e+000
 1.602507050580201e+000	 3.089077679022346e+000	 9.746380503508050e+000
 1.569121953406790e+000	 3.106169046971532e+000	 9.705681324960029e+000
 1.535612586658818e+000	 3.122871093185871e+000	 9.664526634896415e+000
 1.501985558978823e+000	 3.139182890394173e+000	 9.621718775663297e+000
 1.468247473855910e+000	 3.155103656396314e+000	 9.576233568675503e+000
 1.434404925773956e+000	 3.170632753218907e+000	 9.527233231924109e+000
 1.400464496409991e+000	 3.185769686152757e+000	 9.474075869909358e+000
 1.366432750886794e+000	 3.200514102674838e+000	 9.416321581265587e+000
 1.714892281219213e+000	 3.058740620463381e+000	 9.884527309335928e+000
 1.681666961167484e+000	 3.077132800433932e+000	 9.836885446404564e+000
 1.648296449703754e+000	 3.095136362111732e+000	 9.792667855478495e+000
 1.614787397963496e+000	 3.112749928695398e+000	 9.750529666392017e+000
 1.581146463793626e+000	 3.129972271379086e+000	 9.709248493090886e+000
 1.547380307745388e+000	 3.146802308873854e+000	 9.667748046986471e+000
 1.513495589104740e+000	 3.163239106802647e+000	 9.625118180026588e+000
 1.479498961964707e+000	 3.179281876971192e+000	 9.580631309956997e+000
 1.445397071344083e+000	 3.194929976517194e+000	 9.533755213378200e+000
 1.411196549356671e+000	 3.210182906940406e+000	 9.484162204536546e+000
 1.376904011435165e+000	 3.225040313016363e+000	 9.431734749070547e+000
 1.727933919372180e+000	 3.082002133052676e+000	 9.889985595969760e+000
 1.694455923040891e+000	 3.100534184290246e+000	 9.842820939659420e+000
 1.660831631126843e+000	 3.118674661819535e+000	 9.798564247333806e+000
 1.627067745346946e+000	 3.136422178368697e+000	 9.756090797410096e+000
 1.593170974180589e+000	 3.153775495786915e+000	 9.714408106745308e+000
 1.559148028832057e+000	 3.170733524562135e+000	 9.672680089110592e+000
 1.525005619230725e+000	 3.187295323211441e+000	 9.630247442724629e+000
 1.490750450073546e+000	 3.203460097546412e+000	 9.586644218495211e+000
 1.456389216914231e+000	 3.219227199815839e+000	 9.541610555408781e+000
 1.421928602303357e+000	 3.234596127728437e+000	 9.495101603459784e+000
 1.387375271983537e+000	 3.249566523358289e+000	 9.447292687356956e+000
 1.740975557525482e+000	 3.105263645642056e+000	 9.895984147332440e+000
 1.707244884914625e+000	 3.123935568146672e+000	 9.849394249312390e+000
 1.673366812550247e+000	 3.142212961527484e+000	 9.805251046412419e+000
 1.639348092730692e+000	 3.160094428042173e+000	 9.762609526465697e+000
 1.605195484567825e+000	 3.177578720194960e+000	 9.720668141445430e+000
 1.570915749918973e+000	 3.194664740250668e+000	 9.678793612617964e+000
 1.536515649356933e+000	 3.211351539620524e+000	 9.636541752535482e+000
 1.502001938182587e+000	 3.227638318121956e+000	 9.593674254538092e+000
 1.467381362484561e+000	 3.243524423114845e+000	 9.550171436959488e+000
 1.432660655250214e+000	 3.259009348516858e+000	 9.506240964874657e+000
 1.397846532532076e+000	 3.274092733700632e+000	 9.462322606708410e+000
 1.754017195679249e+000	 3.128525158231438e+000	 9.902215892356269e+000
 1.720033846788822e+000	 3.147336952003127e+000	 9.856266525825408e+000
 1.685901993974103e+000	 3.165751261235494e+000	 9.812355381108526e+000
 1.651628440114874e+000	 3.183766677715757e+000	 9.769677484836267e+000
 1.617219994955478e+000	 3.201381944603160e+000	 9.727584066466950e+000
 1.582683471006289e+000	 3.218595955939409e+000	 9.685608112357674e+000
 1.548025679483521e+000	 3.235407756029868e+000	 9.643485712584266e+000
 1.513253426291988e+000	 3.251816538697813e+000	 9.601173150042278e+000
 1.478373508055239e+000	 3.267821646414212e+000	 9.558859719700090e+000
 1.443392708197408e+000	 3.283422569305681e+000	 9.516976303283714e+000
 1.408317793080948e+000	 3.298618944043411e+000	 9.476199760865372e+000
 1.767058833833616e+000	 3.151786670820736e+000	 9.908411382395801e+000
 1.732822808663616e+000	 3.170738335859523e+000	 9.863138969083764e+000
 1.698437175398548e+000	 3.189289560943490e+000	 9.819546631526862e+000
 1.663908787499634e+000	 3.207438927389378e+000	 9.776930492937634e+000
 1.629244505343696e+000	 3.225185169011458e+000	 9.734757174143747e+000
 1.594451192094152e+000	 3.242527171628312e+000	 9.692690199568503e+000
 1.559535709610643e+000	 3.259463972439442e+000	 9.650611959678397e+000
 1.524504914401911e+000	 3.275994759273966e+000	 9.608641178135615e+000
 1.489365653626425e+000	 3.292118869713935e+000	 9.567145872122698e+000
 1.454124761145104e+000	 3.307835790094913e+000	 9.526751833562415e+000
 1.418789053630321e+000	 3.323145154386643e+000	 9.488346696929700e+000
 1.780100471988717e+000	 3.175048183409870e+000	 9.914336543435759e+000
 1.745611770539141e+000	 3.194139719715779e+000	 9.869750720591370e+000
 1.710972356823719e+000	 3.212827860651388e+000	 9.826534461215266e+000
 1.676189134885112e+000	 3.231111177062963e+000	 9.784046731895476e+000
 1.641269015732624e+000	 3.248988393419792e+000	 9.741832892339334e+000
 1.606218913182716e+000	 3.266458387317334e+000	 9.699652057075829e+000
 1.571045739738455e+000	 3.283520188849218e+000	 9.657499764826897e+000
 1.535756402512514e+000	 3.300172979850403e+000	 9.615625902330715e+000
 1.500357799198286e+000	 3.316416093014017e+000	 9.574547871603791e+000
 1.464856814093469e+000	 3.332249010884568e+000	 9.535059030808785e+000
 1.429260314180360e+000	 3.347671364730342e+000	 9.498759862501185e+000
 1.793142110144684e+000	 3.198309695998757e+000	 9.919790413941033e+000
 1.758400732415532e+000	 3.217541103571808e+000	 9.875876741062694e+000
 1.723507538249754e+000	 3.236366160359109e+000	 9.833066833971410e+000
 1.688469482271451e+000	 3.254783426736442e+000	 9.790744899748352e+000
 1.653293526122406e+000	 3.272791617828106e+000	 9.748499080942013e+000
 1.617986634272130e+000	 3.290389603006430e+000	 9.706149877696934e+000
 1.582555769867112e+000	 3.307576405259167e+000	 9.663773615901071e+000
 1.547007890623957e+000	 3.324351200427108e+000	 9.621720906521006e+000
 1.511349944770983e+000	 3.340713316314455e+000	 9.580836020797237e+000
 1.475588867042669e+000	 3.356662231674654e+000	 9.543230707873509e+000
 1.439731574731233e+000	 3.372197575074528e+000	 9.509467541478614e+000
 1.335018969240017e+000	 3.126935471652506e+000	 9.378414183437911e+000
 1.301681772541034e+000	 3.140959295332738e+000	 9.296809329378409e+000
 1.268268104136253e+000	 3.154599236856098e+000	 9.223956655014746e+000
 1.234784312705468e+000	 3.167855363653740e+000	 9.158905111678351e+000
 1.201236716620890e+000	 3.180727876869459e+000	 9.100633095021454e+000
 1.167631600601917e+000	 3.193217109782673e+000	 9.048039971736770e+000
 1.133975212443531e+000	 3.205323526137257e+000	 8.999887706377368e+000
 1.100273759821121e+000	 3.217047718379722e+000	 8.954756125892335e+000
 1.066533407174408e+000	 3.228390405810319e+000	 8.911011478932027e+000
 1.032760272672935e+000	 3.239352432650741e+000	 8.866787836812630e+000
 9.989604252654352e-001	 3.249934766032135e+000	 8.819971822253859e+000
 1.345490229789387e+000	 3.151461681992926e+000	 9.388865229757091e+000
 1.311891551807665e+000	 3.165595501946556e+000	 9.305148883767711e+000
 1.278215802312036e+000	 3.179342428752352e+000	 9.228360576848662e+000
 1.244469379778353e+000	 3.192702530370364e+000	 9.160603074444861e+000
 1.210658652137173e+000	 3.205676009522064e+000	 9.100832602658162e+000
 1.176789953402282e+000	 3.218263202100959e+000	 9.047872910613183e+000
 1.142869580373430e+000	 3.230464575488313e+000	 9.000355756837697e+000
 1.108903789416096e+000	 3.242280726777507e+000	 8.956675927015068e+000
 1.074898793320969e+000	 3.253712380910649e+000	 8.914960413439740e+000
 1.040860758245642e+000	 3.264760388731104e+000	 8.873051270387753e+000
 1.006795800740831e+000	 3.275425724955747e+000	 8.828493659760179e+000
 1.355961490338257e+000	 3.175987892333698e+000	 9.401774738021551e+000
 1.322101331073807e+000	 3.190231708560741e+000	 9.320311236614112e+000
 1.288163500487353e+000	 3.204085620648993e+000	 9.239775008396101e+000
 1.254154446850814e+000	 3.217549697087409e+000	 9.169510111452478e+000
 1.220080587653086e+000	 3.230624142175128e+000	 9.108485680654994e+000
 1.185948306202339e+000	 3.243309294419742e+000	 9.055478337064892e+000
 1.151763948303092e+000	 3.255605624839903e+000	 9.009011478940321e+000
 1.117533819010909e+000	 3.267513735175860e+000	 8.967310045834779e+000
 1.083264179467451e+000	 3.279034356011568e+000	 8.928270358106577e+000
 1.048961243818355e+000	 3.290168344812070e+000	 8.889444511826429e+000
 1.014631176216317e+000	 3.300916683879955e+000	 8.848038695825345e+000
 1.366432750886794e+000	 3.200514102674838e+000	 9.416321581265587e+000
 1.332311110339624e+000	 3.214867915175308e+000	 9.340953112121095e+000
 1.298111198662370e+000	 3.228828812546042e+000	 9.256881531385591e+000
 1.263839513923010e+000	 3.242396863804885e+000	 9.184346860628095e+000
 1.229502523168778e+000	 3.255572274828654e+000	 9.122366140221281e+000
 1.195106659002230e+000	 3.268355386739017e+000	 9.069697008835144e+000
 1.160658316232648e+000	 3.280746674192009e+000	 9.024775743881326e+000
 1.126163848605685e+000	 3.292746743574747e+000	 8.985671766424080e+000
 1.091629565613964e+000	 3.304356331113032e+000	 8.950058183540223e+000
 1.057061729391169e+000	 3.315576300893580e+000	 8.915197812289613e+000
 1.022466551691976e+000	 3.326407642804696e+000	 8.877944010206059e+000
 1.376904011435165e+000	 3.225040313016363e+000	 9.431734749070548e+000
 1.342520889605282e+000	 3.239504121790274e+000	 9.364159312147379e+000
 1.308058896837248e+000	 3.253572004443512e+000	 9.278371156796556e+000
 1.273524580995097e+000	 3.267244030522805e+000	 9.203820011076756e+000
 1.238924458684401e+000	 3.280520407482642e+000	 9.141212181213614e+000
 1.204265011802098e+000	 3.293401479058773e+000	 9.089314195411603e+000
 1.169552684162233e+000	 3.305887723544611e+000	 9.046495904936721e+000
 1.134793878200544e+000	 3.317979751974136e+000	 9.010684725611975e+000
 1.099994951760619e+000	 3.329678306214997e+000	 8.979336928720123e+000
 1.065162214964182e+000	 3.340984256975578e+000	 8.948916517414583e+000
 1.030301927167889e+000	 3.351898601729900e+000	 8.914190476671015e+000
 1.387375271983537e+000	 3.249566523358289e+000	 9.447292687356956e+000
 1.352730668870948e+000	 3.264140328405665e+000	 9.386666834010589e+000
 1.318006595012151e+000	 3.278315196341421e+000	 9.302958420757737e+000
 1.283209648067233e+000	 3.292091197241182e+000	 9.226635645258947e+000
 1.248346394200107e+000	 3.305468540137102e+000	 9.163738988334183e+000
 1.213423364602087e+000	 3.318447571379005e+000	 9.113071536047588e+000
 1.178447052091981e+000	 3.331028772897690e+000	 9.072956925091079e+000
 1.143423907795610e+000	 3.343212760373997e+000	 9.040575449298249e+000
 1.108360337907524e+000	 3.355000281317418e+000	 9.011522465719793e+000
 1.073262700537491e+000	 3.366392213058008e+000	 8.981873245985540e+000
 1.038137302644139e+000	 3.377389560655498e+000	 8.947570904114816e+000
 1.397846532532076e+000	 3.274092733700632e+000	 9.462322606708410e+000
 1.362940448136786e+000	 3.288776535021494e+000	 9.407760895828497e+000
 1.327954293187240e+000	 3.303058388239788e+000	 9.329395443352375e+000
 1.292894715139578e+000	 3.316938363960028e+000	 9.251512542129744e+000
 1.257768329716046e+000	 3.330416672792032e+000	 9.188651286982163e+000
 1.222581717402338e+000	 3.343493663699706e+000	 9.139318372132589e+000
 1.187341420022024e+000	 3.356169822251225e+000	 9.100398402157394e+000
 1.152053937391005e+000	 3.368445768774295e+000	 9.068519063732257e+000
 1.116725724054791e+000	 3.380322256420249e+000	 9.039989769271413e+000
 1.081363186111191e+000	 3.391800169140812e+000	 9.010879098711870e+000
 1.045972678120807e+000	 3.402880519581427e+000	 8.977103786772034e+000
 1.408317793080948e+000	 3.298618944043411e+000	 9.476199760865372e+000
 1.373150227402962e+000	 3.313412741637784e+000	 9.426792729308120e+000
 1.337901991362677e+000	 3.327801580138630e+000	 9.356129058449168e+000
 1.302579782212286e+000	 3.341785530679351e+000	 9.277147419735375e+000
 1.267190265232369e+000	 3.355364805447437e+000	 9.213737751180025e+000
 1.231740070202997e+000	 3.368539756020867e+000	 9.163884534834361e+000
 1.196235787952496e+000	 3.381310871605198e+000	 9.124656148393868e+000
 1.160683966986851e+000	 3.393678777175001e+000	 9.092685617184293e+000
 1.125091110202530e+000	 3.405644231523448e+000	 9.064274219912258e+000
 1.089463671685380e+000	 3.417208125223935e+000	 9.035488104922859e+000
 1.053808053597977e+000	 3.428371478507618e+000	 9.002247996308338e+000
 1.418789053630321e+000	 3.323145154386643e+000	 9.488346696929700e+000
 1.383360006669641e+000	 3.338048948254552e+000	 9.443195940643241e+000
 1.347849689538625e+000	 3.352544772037962e+000	 9.379953877552152e+000
 1.312264849285517e+000	 3.366632697399167e+000	 9.302032405634794e+000
 1.276612200749228e+000	 3.380312938103318e+000	 9.236949793324110e+000
 1.240898423004204e+000	 3.393585848342482e+000	 9.185729203405971e+000
 1.205130155883532e+000	 3.406451920959592e+000	 9.145452120853442e+000
 1.169313996583270e+000	 3.418911785576081e+000	 9.112768392375152e+000
 1.133456496350850e+000	 3.430966206626969e+000	 9.084001128841630e+000
 1.097564157260153e+000	 3.442616081307317e+000	 9.055244269165637e+000
 1.061643429075730e+000	 3.453862437434002e+000	 9.022452903062710e+000
 1.429260314180360e+000	 3.347671364730342e+000	 9.498759862501185e+000
 1.393569785936990e+000	 3.362685154871817e+000	 9.457863447749702e+000
 1.357797387715248e+000	 3.377287963937803e+000	 9.400780764905251e+000
 1.321949916359428e+000	 3.391479864119481e+000	 9.325738018949314e+000
 1.286034136266774e+000	 3.405261070759681e+000	 9.258077883946248e+000
 1.250056775806104e+000	 3.418631940664543e+000	 9.204632316143178e+000
 1.214024523815262e+000	 3.431592970314385e+000	 9.162524767866017e+000
 1.177944026180386e+000	 3.444144793977504e+000	 9.128451294258349e+000
 1.141821882499862e+000	 3.456288181730766e+000	 9.098786669993581e+000
 1.105664642835609e+000	 3.468024037390906e+000	 9.069682805789491e+000
 1.069478804554146e+000	 3.479353396360511e+000	 9.037159581328723e+000
 1.439731574731233e+000	 3.372197575074528e+000	 9.509467541478614e+000
 1.403779565205173e+000	 3.387321361489601e+000	 9.471529514423340e+000
 1.367745085892707e+000	 3.402031155838170e+000	 9.418871917236814e+000
 1.331634983434178e+000	 3.416327030840312e+000	 9.348079906720036e+000
 1.295456071785157e+000	 3.430209203416529e+000	 9.276921784533498e+000
 1.259215128608840e+000	 3.443678032987045e+000	 9.220365199910530e+000
 1.222918891747823e+000	 3.456734019669561e+000	 9.175604133340631e+000
 1.186574055778320e+000	 3.469377802379238e+000	 9.139410038762302e+000
 1.150187268649676e+000	 3.481610156834798e+000	 9.108239088702559e+000
 1.113765128411843e+000	 3.493431993474643e+000	 9.078331344466450e+000
 1.077314180033310e+000	 3.504844355287081e+000	 9.045801988292372e+000
 9.989604252654352e-001	 3.249934766032135e+000	 8.819971822253859e+000
 9.651398813324286e-001	 3.260138493095665e+000	 8.770866999087744e+000
 9.313046005101890e-001	 3.269964816403907e+000	 8.721976051748356e+000
 8.974604845374918e-001	 3.279415054160485e+000	 8.674203482032306e+000
 8.636133751544897e-001	 3.288490638736054e+000	 8.628290092865836e+000
 8.297690515990591e-001	 3.297193114320970e+000	 8.584851795493345e+000
 7.959332281968499e-001	 3.305524134521356e+000	 8.544425870417458e+000
 7.621115520460927e-001	 3.313485459902493e+000	 8.507523683866213e+000
 7.283096007980531e-001	 3.321078955483442e+000	 8.474688836576437e+000
 6.945328805338571e-001	 3.328306588186819e+000	 8.446559706457013e+000
 6.607868237382243e-001	 3.335170424247628e+000	 8.424560619131507e+000
 1.006795800740831e+000	 3.275425724955747e+000	 8.828493659760179e+000
 9.727099843767157e-001	 3.285709485252757e+000	 8.781609405473768e+000
 9.386093155341527e-001	 3.295612881617041e+000	 8.735182743277877e+000
 9.044997422423738e-001	 3.305137242591581e+000	 8.690094285519189e+000
 8.703871520613904e-001	 3.314284011781864e+000	 8.647015924227450e+000
 8.362773695586973e-001	 3.323054745490132e+000	 8.606454540555124e+000
 8.021761538804225e-001	 3.331451110292612e+000	 8.568803679053808e+000
 7.680891964179751e-001	 3.339474880563621e+000	 8.534223341001773e+000
 7.340221185710891e-001	 3.347127935950536e+000	 8.503181838122242e+000
 6.999804696079962e-001	 3.354412258803585e+000	 8.477221746145366e+000
 6.659697246232671e-001	 3.361329931564333e+000	 8.458260697312323e+000
 1.014631176216317e+000	 3.300916683879955e+000	 8.848038695825345e+000
 9.802800874211786e-001	 3.311280477410428e+000	 8.804305839567366e+000
 9.459140305583736e-001	 3.321260946830719e+000	 8.761190407089625e+000
 9.115389999475941e-001	 3.330859431023176e+000	 8.719416594505537e+000
 8.771609289687057e-001	 3.340077384828113e+000	 8.679025165254142e+000
 8.427856875188232e-001	 3.348916376659676e+000	 8.639515383537285e+000
 8.084190795645522e-001	 3.357378086064188e+000	 8.601804086079900e+000
 7.740668407904775e-001	 3.365464301225003e+000	 8.567096177856023e+000
 7.397346363448019e-001	 3.373176916417826e+000	 8.536865781585084e+000
 7.054280586828629e-001	 3.380517929420490e+000	 8.512892952262542e+000
 6.711526255090805e-001	 3.387489438881134e+000	 8.497296840605747e+000
 1.022466551691976e+000	 3.326407642804696e+000	 8.877944010206059e+000
 9.878501904658823e-001	 3.336851469568601e+000	 8.838311534454872e+000
 9.532187455829029e-001	 3.346909012044858e+000	 8.797729023195350e+000
 9.185782576531852e-001	 3.356581619455178e+000	 8.756465450529321e+000
 8.839347058764531e-001	 3.365870757874714e+000	 8.715329836333027e+000
 8.492940054794380e-001	 3.374778007829509e+000	 8.675266987398636e+000
 8.146620052492227e-001	 3.383305061835990e+000	 8.637405790948552e+000
 7.800444851635688e-001	 3.391453721886552e+000	 8.603103097823476e+000
 7.454471541191473e-001	 3.399225896885227e+000	 8.573983447284119e+000
 7.108756477583998e-001	 3.406623600037462e+000	 8.551974896618386e+000
 6.763355263955969e-001	 3.413648946197964e+000	 8.539341226576168e+000
 1.030301927167889e+000	 3.351898601729900e+000	 8.914190476671015e+000
 9.954202935108945e-001	 3.362422461727201e+000	 8.874905016949096e+000
 9.605234606077903e-001	 3.372557077259375e+000	 8.834163165428388e+000
 9.256175153591821e-001	 3.382303807887502e+000	 8.792768036009903e+000
 8.907084827846497e-001	 3.391664130921577e+000	 8.751612600863689e+000
 8.558023234405420e-001	 3.400639638999539e+000	 8.711726924922823e+000
 8.209049309344191e-001	 3.409232037607926e+000	 8.674325923119712e+000
 7.860221295372192e-001	 3.417443142548177e+000	 8.640852565836607e+000
 7.511596718940810e-001	 3.425274877352658e+000	 8.613016805772778e+000
 7.163232368345507e-001	 3.432729270654426e+000	 8.592830510638327e+000
 6.815184272827486e-001	 3.439808453514760e+000	 8.582638693698881e+000
 1.038137302644139e+000	 3.377389560655498e+000	 8.947570904114816e+000
 1.002990396556281e+000	 3.387993453886149e+000	 8.908608516289780e+000
 9.678281756330861e-001	 3.398205142474185e+000	 8.868276519569168e+000
 9.326567730656176e-001	 3.408025996320059e+000	 8.827394208366163e+000
 8.974822596933115e-001	 3.417457503968606e+000	 8.786872584444698e+000
 8.623106414021357e-001	 3.426501270169676e+000	 8.747761901067296e+000
 8.271478566201258e-001	 3.435159013379910e+000	 8.711298885040202e+000
 7.919997739113981e-001	 3.443432563209798e+000	 8.678949257764417e+000
 7.568721896695579e-001	 3.451323857820037e+000	 8.652445850723126e+000
 7.217708259112582e-001	 3.458834941271304e+000	 8.633822622001983e+000
 6.867013281704680e-001	 3.465967960831457e+000	 8.625444887821903e+000
 1.045972678120807e+000	 3.402880519581427e+000	 8.977103786772034e+000
 1.010560499602108e+000	 3.413564446045371e+000	 8.938790155248416e+000
 9.751328906588406e-001	 3.423853207689207e+000	 8.899313473902751e+000
 9.396960307725256e-001	 3.433748184752760e+000	 8.859464135018992e+000
 9.042560366024565e-001	 3.443250877015715e+000	 8.820101131266352e+000
 8.688189593642189e-001	 3.452362901339825e+000	 8.782232230735731e+000
 8.333907823063274e-001	 3.461085989151849e+000	 8.747054179113274e+000
 7.979774182860748e-001	 3.469421983871322e+000	 8.715994522340585e+000
 7.625847074455351e-001	 3.477372838287284e+000	 8.690748889898320e+000
 7.272184149884663e-001	 3.484940611888026e+000	 8.673314068498824e+000
 6.918842290586873e-001	 3.492127468147986e+000	 8.666017203116525e+000
 1.053808053597977e+000	 3.428371478507618e+000	 9.002247996308338e+000
 1.018130602648443e+000	 3.439135438204790e+000	 8.964787854833412e+000
 9.824376056851037e-001	 3.449501272904357e+000	 8.926509339756477e+000
 9.467352884799394e-001	 3.459470373185520e+000	 8.888089947434470e+000
 9.110298135121008e-001	 3.469044250062812e+000	 8.850282707603242e+000
 8.753272773267932e-001	 3.478224532509899e+000	 8.813992609721899e+000
 8.396337079930086e-001	 3.487012964923652e+000	 8.780317033359214e+000
 8.039550626612187e-001	 3.495411404532665e+000	 8.750586851023613e+000
 7.682972252219670e-001	 3.503421818754314e+000	 8.726402850912924e+000
 7.326660040661166e-001	 3.511046282504512e+000	 8.709667833606481e+000
 6.970671299473389e-001	 3.518286975464283e+000	 8.702614743606922e+000
 1.061643429075730e+000	 3.453862437434002e+000	 9.022452903062710e+000
 1.025700705695351e+000	 3.464706430364328e+000	 8.985951814328153e+000
 9.897423207119259e-001	 3.475149338119550e+000	 8.949091451962380e+000
 9.537745461878929e-001	 3.485192561618248e+000	 8.912376746066460e+000
 9.178035904222616e-001	 3.494837623109806e+000	 8.876395794564427e+000
 8.818355952898580e-001	 3.504086163679801e+000	 8.841892880714045e+000
 8.458766336801538e-001	 3.512939940695230e+000	 8.809809028251861e+000
 8.099327070367999e-001	 3.521400825193738e+000	 8.781322355379027e+000
 7.740097429988093e-001	 3.529470799221044e+000	 8.757883601015667e+000
 7.381135931441535e-001	 3.537151953120691e+000	 8.741247202669644e+000
 7.022500308363554e-001	 3.544446482780284e+000	 8.733498311877595e+000
 1.069478804554146e+000	 3.479353396360511e+000	 9.037159581328723e+000
 1.033270808742900e+000	 3.490277422523913e+000	 9.001617228614489e+000
 9.970470357393574e-001	 3.500797403334707e+000	 8.966280249301844e+000
 9.608138038964192e-001	 3.510914750050856e+000	 8.931423589972232e+000
 9.245773673329560e-001	 3.520630996156605e+000	 8.897413770652131e+000
 8.883439132534143e-001	 3.529947794849443e+000	 8.864778794614066e+000
 8.521195593677479e-001	 3.538866916466493e+000	 8.834248724670314e+000
 8.159103514127873e-001	 3.547390245854455e+000	 8.806795251598572e+000
 7.797222607760179e-001	 3.555519779687395e+000	 8.783666280176915e+000
 7.435611822225196e-001	 3.563257623736487e+000	 8.766415938623377e+000
 7.074329317256694e-001	 3.570605990095922e+000	 8.756930423564732e+000
 1.077314180033310e+000	 3.504844355287081e+000	 9.045801988292372e+000
 1.040840911791156e+000	 3.515848414683465e+000	 9.011112770295949e+000
 1.004351750767449e+000	 3.526445468549742e+000	 8.977290335952340e+000
 9.678530616055532e-001	 3.536636938483259e+000	 8.944324471881030e+000
 9.313511442442004e-001	 3.546424369203119e+000	 8.912305784648050e+000
 8.948522312174626e-001	 3.555809426018735e+000	 8.881492767409672e+000
 8.583624850557751e-001	 3.564793892237349e+000	 8.852352292909055e+000
 8.218879957891512e-001	 3.573379666514729e+000	 8.825598351792488e+000
 7.854347785535484e-001	 3.581568760153285e+000	 8.802225646802460e+000
 7.490087713011586e-001	 3.589363294351826e+000	 8.783538476265402e+000
 7.126158326152123e-001	 3.596765497411133e+000	 8.771175346318772e+000
 6.607868237382243e-001	 3.335170424247628e+000	 8.424560619131508e+000
 6.270818393662591e-001	 3.341671678785408e+000	 8.403478667260815e+000
 5.934181341637264e-001	 3.347813666836248e+000	 8.367643031810591e+000
 5.598008987902472e-001	 3.353598738394850e+000	 8.320174497620794e+000
 5.262352434010413e-001	 3.359029331970649e+000	 8.263572583894442e+000
 4.927261961099982e-001	 3.364107971852334e+000	 8.199995213361268e+000
 4.592787015493515e-001	 3.368837265353978e+000	 8.131517156681325e+000
 4.258976195254683e-001	 3.373219900046345e+000	 8.060368826572878e+000
 3.925877237701084e-001	 3.377258640976893e+000	 7.989156988763940e+000
 3.593537007863771e-001	 3.380956327881860e+000	 7.921068934455476e+000
 3.262001487885013e-001	 3.384315872393811e+000	 7.860061622891974e+000
 6.659697246232671e-001	 3.361329931564333e+000	 8.458260697312323e+000
 6.320003742149505e-001	 3.367882178883140e+000	 8.436502109355674e+000
 5.980726267504355e-001	 3.374072341797701e+000	 8.401641236126855e+000
 5.641917136024434e-001	 3.379902788734986e+000	 8.356968728239718e+000
 5.303627850078557e-001	 3.385375977330978e+000	 8.305183912167006e+000
 4.965909085187302e-001	 3.390494451673717e+000	 8.248669150604350e+000
 4.628810675506775e-001	 3.395260839527842e+000	 8.189742458698204e+000
 4.292381600281079e-001	 3.399677849544182e+000	 8.130890075387359e+000
 3.956669971256946e-001	 3.403748268457943e+000	 8.074980677451354e+000
 3.621723021052770e-001	 3.407474958278943e+000	 8.025462896454807e+000
 3.287587092473185e-001	 3.410860853477239e+000	 7.986547757041453e+000
 6.711526255090805e-001	 3.387489438881134e+000	 8.497296840605747e+000
 6.369189090644476e-001	 3.394092678980937e+000	 8.474979333869110e+000
 6.027271193379755e-001	 3.400331016759193e+000	 8.441020346307500e+000
 5.685825284154836e-001	 3.406206839075148e+000	 8.399106103580047e+000
 5.344903266155143e-001	 3.411722622691323e+000	 8.352035718212797e+000
 5.004556209282910e-001	 3.416880931495114e+000	 8.302319672540561e+000
 4.664834335528003e-001	 3.421684413701723e+000	 8.252426012678452e+000
 4.325787005314929e-001	 3.426135799042036e+000	 8.205006095742466e+000
 3.987462704819556e-001	 3.430237895939014e+000	 8.163101704200273e+000
 3.649909034247584e-001	 3.433993588676045e+000	 8.130335308559635e+000
 3.313172697066006e-001	 3.437405834560681e+000	 8.111085211913560e+000
 6.763355263955969e-001	 3.413648946197964e+000	 8.539341226576166e+000
 6.418374439146737e-001	 3.420303179078740e+000	 8.516939062477158e+000
 6.073816119262631e-001	 3.426589691720682e+000	 8.483615182216855e+000
 5.729733432292812e-001	 3.432510889415307e+000	 8.444206583138529e+000
 5.386178682239284e-001	 3.438069268051671e+000	 8.401520363070748e+000
 5.043203333385939e-001	 3.443267411316521e+000	 8.358107173682877e+000
 4.700857995556381e-001	 3.448107987875623e+000	 8.316500356563822e+000
 4.359192410355516e-001	 3.452593748539921e+000	 8.279434223808512e+000
 4.018255438388309e-001	 3.456727523420122e+000	 8.250043429282000e+000
 3.678095047447776e-001	 3.460512219073185e+000	 8.232045338493014e+000
 3.338758301663242e-001	 3.463950815644158e+000	 8.229907251063420e+000
 6.815184272827486e-001	 3.439808453514760e+000	 8.582638693698881e+000
 6.467559787655529e-001	 3.446513679176500e+000	 8.560422996549720e+000
 6.120361045152155e-001	 3.452848366682128e+000	 8.527280807067010e+000
 5.773641580437486e-001	 3.458814939755431e+000	 8.489917040001537e+000
 5.427454098330107e-001	 3.464415913412002e+000	 8.451063314822271e+000
 5.081850457495537e-001	 3.469653891137935e+000	 8.413230994137676e+000
 4.736881655591105e-001	 3.474531562049550e+000	 8.378942583721811e+000
 4.392597815402107e-001	 3.479051698037851e+000	 8.350941861817343e+000
 4.049048171962606e-001	 3.483217150901287e+000	 8.332384822383020e+000
 3.706281060652907e-001	 3.487030849470385e+000	 8.327013472848183e+000
 3.364343906264664e-001	 3.490495796727684e+000	 8.339314466416324e+000
 6.867013281704680e-001	 3.465967960831457e+000	 8.625444887821903e+000
 6.516745136170079e-001	 3.472724179274157e+000	 8.603484558167635e+000
 6.166905971047496e-001	 3.479107041643489e+000	 8.569891263461811e+000
 5.817549728588000e-001	 3.485118990095495e+000	 8.533909926166453e+000
 5.468729514426727e-001	 3.490762558772302e+000	 8.498121683679432e+000
 5.120497581610830e-001	 3.496040370959349e+000	 8.464927771241419e+000
 4.772905315631359e-001	 3.500955136223510e+000	 8.436772464248474e+000
 4.426003220453980e-001	 3.505509647535838e+000	 8.416344328513592e+000
 4.079840905541844e-001	 3.509706778382526e+000	 8.406758008066012e+000
 3.734467073862539e-001	 3.513549479867663e+000	 8.411718729798558e+000
 3.389929510870035e-001	 3.517040777811276e+000	 8.435671636826893e+000
 6.918842290586873e-001	 3.492127468147986e+000	 8.666017203116525e+000
 6.565930484689633e-001	 3.498934679371662e+000	 8.644187669404962e+000
 6.213450896947828e-001	 3.505365716604721e+000	 8.609338357164589e+000
 5.861457876743472e-001	 3.511423040435469e+000	 8.573881996311064e+000
 5.510004930528263e-001	 3.517109204132556e+000	 8.540182827355062e+000
 5.159144705730965e-001	 3.522426850780760e+000	 8.510469874277488e+000
 4.808928975676334e-001	 3.527378710397507e+000	 8.487050662966228e+000
 4.459408625510410e-001	 3.531967597033896e+000	 8.472502820582896e+000
 4.110633639125423e-001	 3.536196405863857e+000	 8.469845937009998e+000
 3.762653087076235e-001	 3.540068110265040e+000	 8.482696012758661e+000
 3.415515115479128e-001	 3.543585758894952e+000	 8.515404742990814e+000
 6.970671299473389e-001	 3.518286975464283e+000	 8.702614743606922e+000
 6.615115833213421e-001	 3.525145179468955e+000	 8.680605567886364e+000
 6.259995822852320e-001	 3.531624391565782e+000	 8.643530486107894e+000
 5.905366024903045e-001	 3.537727090775320e+000	 8.607553086966659e+000
 5.551280346633835e-001	 3.543455849492744e+000	 8.574763023057832e+000
 5.197791829855072e-001	 3.548813330602162e+000	 8.547163917951957e+000
 4.844952635725218e-001	 3.553802284571547e+000	 8.526877049085629e+000
 4.492814030570671e-001	 3.558425546532040e+000	 8.516322479281318e+000
 4.141426372712742e-001	 3.562686033345300e+000	 8.518380176479351e+000
 3.790839100293557e-001	 3.566586740662535e+000	 8.536533597660158e+000
 3.441100720091707e-001	 3.570130739978726e+000	 8.574998130571975e+000
 7.022500308363554e-001	 3.544446482780284e+000	 8.733498311877595e+000
 6.664301181740677e-001	 3.551355679565987e+000	 8.710819656744253e+000
 6.306540748760146e-001	 3.557883066526630e+000	 8.670391512305368e+000
 5.949274173065843e-001	 3.564031141115022e+000	 8.632664948234600e+000
 5.592555762742563e-001	 3.569802494852851e+000	 8.599406202669305e+000
 5.236438953982293e-001	 3.575199810423551e+000	 8.572349350557550e+000
 4.880976295777198e-001	 3.580225858745636e+000	 8.553389092794291e+000
 4.526219435634039e-001	 3.584883496030281e+000	 8.544750556830872e+000
 4.172219106303195e-001	 3.589175660826871e+000	 8.549138813865509e+000
 3.819025113514069e-001	 3.593105371060167e+000	 8.569870746938813e+000
 3.466686324707544e-001	 3.596675721062616e+000	 8.610991813884198e+000
 7.074329317256694e-001	 3.570605990095922e+000	 8.756930423564732e+000
 6.713486530270640e-001	 3.577566179662699e+000	 8.732630868035036e+000
 6.353085674670472e-001	 3.584141741487224e+000	 8.687859674467882e+000
 5.993182321231001e-001	 3.590335191454545e+000	 8.646980125349701e+000
 5.633831178853562e-001	 3.596149140212859e+000	 8.611682747863119e+000
 5.275086078111761e-001	 3.601586290244922e+000	 8.583397112995549e+000
 4.916999955831463e-001	 3.606649432919779e+000	 8.563760344315547e+000
 4.559624840699785e-001	 3.611341445528634e+000	 8.554774677464087e+000
 4.203011839896186e-001	 3.615665288308593e+000	 8.558944467499183e+000
 3.847211126737328e-001	 3.619624001457956e+000	 8.579395443734374e+000
 3.492271929326406e-001	 3.623220702146639e+000	 8.619978912924088e+000
 7.126158326152123e-001	 3.596765497411133e+000	 8.771175346318771e+000
 6.762671878802550e-001	 3.603776679759038e+000	 8.743822552436546e+000
 6.399630600582476e-001	 3.610400416447522e+000	 8.693886539249538e+000
 6.037090469397647e-001	 3.616639241793862e+000	 8.648280887553941e+000
 5.675106594965956e-001	 3.622495785572754e+000	 8.609188342114074e+000
 5.313733202242620e-001	 3.627972770066271e+000	 8.577708365049000e+000
 4.953023615887203e-001	 3.633073007093981e+000	 8.555198991237797e+000
 4.593030245767192e-001	 3.637799395027112e+000	 8.543421188298288e+000
 4.233804573491112e-001	 3.642154915790479e+000	 8.544662399275216e+000
 3.875397139962902e-001	 3.646142631855923e+000	 8.561842240183637e+000
 3.517857533948060e-001	 3.649765683230813e+000	 8.598603216960621e+000
 3.262001487885013e-001	 3.384315872393811e+000	 7.860061622891972e+000
 2.931266340559612e-001	 3.387340684071736e+000	 7.798315020516037e+000
 2.601426139203095e-001	 3.390033282652841e+000	 7.723801359253311e+000
 2.272524846770250e-001	 3.392396780883214e+000	 7.635809101810290e+000
 1.944605489001440e-001	 3.394434352328458e+000	 7.535061794399633e+000
 1.617710148445833e-001	 3.396149228576582e+000	 7.423864016135880e+000
 1.291879959367674e-001	 3.397544696455680e+000	 7.306239591663537e+000
 9.671551035186207e-002	 3.398624095269112e+000	 7.188063044188898e+000
 6.435748067584694e-002	 3.399390814050797e+000	 7.077185171345299e+000
 3.211773365058886e-002	 3.399848288843145e+000	 6.983553529719779e+000
 0.000000000000000e+000	 3.400000000000000e+000	 6.919328543950207e+000
 3.287587092473185e-001	 3.410860853477239e+000	 7.986547757041452e+000
 2.954257814294042e-001	 3.413909390354809e+000	 7.949537606879972e+000
 2.621830501619328e-001	 3.416623108412469e+000	 7.901537447451905e+000
 2.290349462228407e-001	 3.419005144811186e+000	 7.842085345407357e+000
 1.959858059335152e-001	 3.421058698008491e+000	 7.772121340084305e+000
 1.630398705564288e-001	 3.422787024939412e+000	 7.694127939061171e+000
 1.302012857817726e-001	 3.424193438212349e+000	 7.612263340681837e+000
 9.747410130137282e-002	 3.425281303322549e+000	 7.532488419773865e+000
 6.486227046811306e-002	 3.426054035885894e+000	 7.462688410025404e+000
 3.236965003900847e-002	 3.426515098895460e+000	 7.412790111927675e+000
 0.000000000000000e+000	 3.426668000003317e+000	 7.394875376194172e+000
 3.313172697066006e-001	 3.437405834560681e+000	 8.111085211913560e+000
 2.977249288031724e-001	 3.440478096637889e+000	 8.095710203585133e+000
 2.642234864037295e-001	 3.443212934172093e+000	 8.070442025998956e+000
 2.308174077686785e-001	 3.445613508739142e+000	 8.035070208108298e+000
 1.975110629667696e-001	 3.447683043688490e+000	 7.990752380780022e+000
 1.643087262680443e-001	 3.449424821302194e+000	 7.940148677051929e+000
 1.312145756264719e-001	 3.450842179968952e+000	 7.887549360335603e+000
 9.823269225055085e-002	 3.451938511375909e+000	 7.838996778706624e+000
 6.536706026008096e-002	 3.452717257720900e+000	 7.802402632272271e+000
 3.262156642723695e-002	 3.453181908947675e+000	 7.787661427686039e+000
 0.000000000000000e+000	 3.453336000006534e+000	 7.806760905389017e+000
 3.338758301663242e-001	 3.463950815644158e+000	 8.229907251063418e+000
 3.000240761772671e-001	 3.467046802920987e+000	 8.233009359949321e+000
 2.662639226457273e-001	 3.469802759931710e+000	 8.226733456770727e+000
 2.325998693145914e-001	 3.472221872667065e+000	 8.211128308128149e+000
 1.990363199999830e-001	 3.474307389368425e+000	 8.187575950675106e+000
 1.655775819795217e-001	 3.476062617664879e+000	 8.158919324840543e+000
 1.322278654709650e-001	 3.477490921725426e+000	 8.129583676449967e+000
 9.899128319949337e-002	 3.478595719429112e+000	 8.105692889272333e+000
 6.587185005183170e-002	 3.479380479555727e+000	 8.095181791586356e+000
 3.287348281532380e-002	 3.479848718999696e+000	 8.107905358117908e+000
 0.000000000000000e+000	 3.480004000009550e+000	 8.155745630351465e+000
 3.364343906264664e-001	 3.490495796727684e+000	 8.339314466416326e+000
 3.023232235516898e-001	 3.493615509204113e+000	 8.357684713549407e+000
 2.683043588879538e-001	 3.496392585691321e+000	 8.366708192283964e+000
 2.343823308606329e-001	 3.498830236594936e+000	 8.366706796992222e+000
 2.005615770332309e-001	 3.500931735048263e+000	 8.359299695385776e+000
 1.668464376909529e-001	 3.502700414027417e+000	 8.347523493854807e+000
 1.332411553153519e-001	 3.504139663481708e+000	 8.335946751422078e+000
 9.974987414829747e-002	 3.505252927482079e+000	 8.330780073310395e+000
 6.637663984344647e-002	 3.506043701390285e+000	 8.339982885925757e+000
 3.312539920331854e-002	 3.506515529051426e+000	 8.373367864137583e+000
 0.000000000000000e+000	 3.506672000012267e+000	 8.442703873032539e+000
 3.389929510870035e-001	 3.517040777811276e+000	 8.435671636826891e+000
 3.046223709264421e-001	 3.520184215487275e+000	 8.466055505333122e+000
 2.703447951304372e-001	 3.522982411450922e+000	 8.486736988546264e+000
 2.361647924068563e-001	 3.525438600522739e+000	 8.498331315014566e+000
 2.020868340665886e-001	 3.527556080727968e+000	 8.502713618584329e+000
 1.681152934024299e-001	 3.529338210389759e+000	 8.503130902063791e+000
 1.342544451597327e-001	 3.530788405237732e+000	 8.504308972825811e+000
 1.005084650970603e-001	 3.531910135534731e+000	 8.512555652467444e+000
 6.688142963500628e-002	 3.532706923224483e+000	 8.535861423764661e+000
 3.337731559127066e-002	 3.533182339102766e+000	 8.583998537608421e+000
 0.000000000000000e+000	 3.533340000014583e+000	 8.668619483101073e+000
 3.415515115479128e-001	 3.543585758894952e+000	 8.515404742990812e+000
 3.069215183015248e-001	 3.546752921770478e+000	 8.554507265411035e+000
 2.723852313732049e-001	 3.549572237210507e+000	 8.583261300609122e+000
 2.379472539533150e-001	 3.552046964450459e+000	 8.602602139169640e+000
 2.036120911001321e-001	 3.554180426407512e+000	 8.614686028352660e+000
 1.693841491140445e-001	 3.555976006751856e+000	 8.622993168511435e+000
 1.352677350042071e-001	 3.557437146993431e+000	 8.632426349251173e+000
 1.012670560458789e-001	 3.558567343586992e+000	 8.649406601821111e+000
 6.738621942659229e-002	 3.559370145058233e+000	 8.681967095214551e+000
 3.362923197922968e-002	 3.559849149153620e+000	 8.739846352800335e+000
 0.000000000000000e+000	 3.560008000016400e+000	 8.834581735581997e+000
 3.441100720091707e-001	 3.570130739978726e+000	 8.574998130571974e+000
 3.092206656769397e-001	 3.573321628053737e+000	 8.619488660641894e+000
 2.744256676162848e-001	 3.576162062970079e+000	 8.652789851311292e+000
 2.397297155000622e-001	 3.578655328378078e+000	 8.676190513343693e+000
 2.051373481339368e-001	 3.580804772086859e+000	 8.692159672873423e+000
 1.706530048258889e-001	 3.582613803113661e+000	 8.704439801878774e+000
 1.362810248488753e-001	 3.584085888748745e+000	 8.718136402594649e+000
 1.020256469948505e-001	 3.585224551638780e+000	 8.739805400080059e+000
 6.789100921828561e-002	 3.586033366891444e+000	 8.777539637529177e+000
 3.388114836724510e-002	 3.586515959203891e+000	 8.841055607715315e+000
 0.000000000000000e+000	 3.586676000017616e+000	 8.941781411513809e+000
 3.466686324707544e-001	 3.596675721062616e+000	 8.610991813884198e+000
 3.115198130526881e-001	 3.599890334337058e+000	 8.657508495657332e+000
 2.764661038597044e-001	 3.602751888729631e+000	 8.691895364269245e+000
 2.415121770471513e-001	 3.605263692305578e+000	 8.715835151542551e+000
 2.066626051680781e-001	 3.607429117765978e+000	 8.732148055667858e+000
 1.719218605380546e-001	 3.609251599475123e+000	 8.744874373052124e+000
 1.372943146938369e-001	 3.610734630503605e+000	 8.759354246653693e+000
 1.027842379440721e-001	 3.611881759690019e+000	 8.782306066201048e+000
 6.839579901016735e-002	 3.612696588724027e+000	 8.821904884958565e+000
 3.413306475536642e-002	 3.613182769253480e+000	 8.887862045480262e+000
 0.000000000000000e+000	 3.613344000018133e+000	 8.991507052161255e+000
 3.492271929326406e-001	 3.623220702146639e+000	 8.619978912924086e+000
 3.138189604287714e-001	 3.626459040620449e+000	 8.665132859451854e+000
 2.785065401034917e-001	 3.629341714489162e+000	 8.697211452687725e+000
 2.432946385946357e-001	 3.631872056232944e+000	 8.718338905186920e+000
 2.081878622026318e-001	 3.634053463444835e+000	 8.731731921179955e+000
 1.731907162506340e-001	 3.635889395836193e+000	 8.741770862260255e+000
 1.383076045391921e-001	 3.637383372257951e+000	 8.754068842464912e+000
 1.035428288936410e-001	 3.638538967740631e+000	 8.775540372868736e+000
 6.890058880231857e-002	 3.639359810555891e+000	 8.814470993492186e+000
 3.438498114364316e-002	 3.639849579302291e+000	 8.880589146562949e+000
 0.000000000000000e+000	 3.640012000017849e+000	 8.985141377887604e+000
 3.517857533948060e-001	 3.649765683230813e+000	 8.598603216960624e+000
 3.161181078051911e-001	 3.653027746903922e+000	 8.638982410129721e+000
 2.805469763476744e-001	 3.655931540248671e+000	 8.665429656058498e+000
 2.450771001425687e-001	 3.658480420160160e+000	 8.680565586141757e+000
 2.097131192376733e-001	 3.660677809123401e+000	 8.688055902029326e+000
 1.744595719637188e-001	 3.662527192196826e+000	 8.692670171893825e+000
 1.393208943850408e-001	 3.664032114011716e+000	 8.700339421392828e+000
 1.043014198436543e-001	 3.665196175790536e+000	 8.718214227829670e+000
 6.940537859482046e-002	 3.666023032386947e+000	 8.754724831590702e+000
 3.463689753212482e-002	 3.666516389350228e+000	 8.819644583122797e+000
 0.000000000000000e+000	 3.666680000016666e+000	 8.924157863301099e+000
 3.666680000016666e+000	 0.000000000000000e+000	 1.050723815554007e+001
 3.666516389350228e+000	 3.463689753212492e-002	 1.057908159155029e+001
 3.666023032386948e+000	 6.940537859482068e-002	 1.061315679540717e+001
 3.665196175790535e+000	 1.043014198436540e-001	 1.061971001541304e+001
 3.664032114011715e+000	 1.393208943850406e-001	 1.060831320802453e+001
 3.662527192196825e+000	 1.744595719637187e-001	 1.058786330538094e+001
 3.660677809123401e+000	 2.097131192376734e-001	 1.056658046610893e+001
 3.658480420160158e+000	 2.450771001425689e-001	 1.055200558816183e+001
 3.655931540248671e+000	 2.805469763476741e-001	 1.055099741291843e+001
 3.653027746903921e+000	 3.161181078051908e-001	 1.056972961240899e+001
 3.649765683230813e+000	 3.517857533948059e-001	 1.061368831572535e+001
 3.693344000014533e+000	 0.000000000000000e+000	 1.051144877292733e+001
 3.693179199575722e+000	 3.488877613527524e-002	 1.058433748222782e+001
 3.692682254933839e+000	 6.991009267304311e-002	 1.061889492452229e+001
 3.691849385458404e+000	 1.050598970112210e-001	 1.062544175922009e+001
 3.690676858653458e+000	 1.403340322455685e-001	 1.061363255840952e+001
 3.689160993087310e+000	 1.757282373585245e-001	 1.059245324693018e+001
 3.687298161349475e+000	 2.112381474961306e-001	 1.057021714773811e+001
 3.685084793032175e+000	 2.468592943351136e-001	 1.055455991441786e+001
 3.682517377733704e+000	 2.825871065421269e-001	 1.055243368737578e+001
 3.679592468080790e+000	 3.184169103270726e-001	 1.057010087671850e+001
 3.676306682767058e+000	 3.543439300923416e-001	 1.061312804297511e+001
 3.720008000011599e+000	 0.000000000000000e+000	 1.050786301731132e+001
 3.719842009800440e+000	 3.514065473862902e-002	 1.058197696240429e+001
 3.719341477480015e+000	 7.041480675161087e-002	 1.061748441967991e+001
 3.718502595125647e+000	 1.058183741792211e-001	 1.062469946914266e+001
 3.717321603294685e+000	 1.413471701065709e-001	 1.061328335138441e+001
 3.715794793977405e+000	 1.769969027538079e-001	 1.059224016366388e+001
 3.713918513575290e+000	 2.127631757550383e-001	 1.056991076035101e+001
 3.711689165904060e+000	 2.486414885280598e-001	 1.055396514218217e+001
 3.709103215218715e+000	 2.846272367369182e-001	 1.055139367783136e+001
 3.706157189257729e+000	 3.207157128492246e-001	 1.056849757173950e+001
 3.702847682303435e+000	 3.569021067900821e-001	 1.061087906442399e+001
 3.746672000008066e+000	 0.000000000000000e+000	 1.049988449364175e+001
 3.746504820024573e+000	 3.539253334213540e-002	 1.057501856577458e+001
 3.746000700025651e+000	 7.091952083043755e-002	 1.061157379651183e+001
 3.745155804792418e+000	 1.065768513475459e-001	 1.061977871695762e+001
 3.743966347935525e+000	 1.423603079679293e-001	 1.060922746807995e+001
 3.742428594867207e+000	 1.782655681494496e-001	 1.058887383210251e+001
 3.740538865800909e+000	 2.142882040142841e-001	 1.056702304344165e+001
 3.738293538775842e+000	 2.504236827213071e-001	 1.055132166572170e+001
 3.735689052703710e+000	 2.866673669319632e-001	 1.054874588498965e+001
 3.732721910434723e+000	 3.230145153715789e-001	 1.056558864381001e+001
 3.729388681839912e+000	 3.594602834879762e-001	 1.060744611749190e+001
 3.773336000004134e+000	 0.000000000000000e+000	 1.049064844557924e+001
 3.773167630248318e+000	 3.564441194574353e-002	 1.056625817986717e+001
 3.772659922570928e+000	 7.142423490943686e-002	 1.060363137984575e+001
 3.771809014458874e+000	 1.073353285160872e-001	 1.061283406542875e+001
 3.770611092576107e+000	 1.433734458295249e-001	 1.060332168076245e+001
 3.769062395756812e+000	 1.795342335453302e-001	 1.058393153608052e+001
 3.767159218026396e+000	 2.158132322737551e-001	 1.056287257942930e+001
 3.764897911647557e+000	 2.522058769147550e-001	 1.054771278636671e+001
 3.762274890188694e+000	 2.887074971271775e-001	 1.054536452401203e+001
 3.759286631611750e+000	 3.253133178940683e-001	 1.056206832466142e+001
 3.755929681376454e+000	 3.620184601859726e-001	 1.060337558521747e+001
 3.800000000000001e+000	 0.000000000000000e+000	 1.048303117073870e+001
 3.799830440471870e+000	 3.589629054940256e-002	 1.055827735738296e+001
 3.799319145116026e+000	 7.192894898852251e-002	 1.059595254799449e+001
 3.798462224125175e+000	 1.080938056847368e-001	 1.060588528442518e+001
 3.797255837216560e+000	 1.443865836912391e-001	 1.059732288171791e+001
 3.795696196646321e+000	 1.808028989413303e-001	 1.057892235142260e+001
 3.793779570251820e+000	 2.173382605333389e-001	 1.055873817926791e+001
 3.791502284519238e+000	 2.539880711083034e-001	 1.054420724633848e+001
 3.788860727673674e+000	 2.907476273224763e-001	 1.054213125601591e+001
 3.785851352788797e+000	 3.276121204166252e-001	 1.055865711222711e+001
 3.782470680913030e+000	 3.645766368840203e-001	 1.059925578021309e+001
 3.826663999995868e+000	 0.000000000000000e+000	 1.047965904230465e+001
 3.826493250695418e+000	 3.614816915306155e-002	 1.055345127959503e+001
 3.825978367661124e+000	 7.243366306760815e-002	 1.059066667235193e+001
 3.825115433791474e+000	 1.088522828533864e-001	 1.060082330308121e+001
 3.823900581857011e+000	 1.453997215529534e-001	 1.059289308633903e+001
 3.822329997535829e+000	 1.820715643373304e-001	 1.057529124034804e+001
 3.820399922477241e+000	 2.188632887929226e-001	 1.055586211061850e+001
 3.818106657390919e+000	 2.557702653018517e-001	 1.054186163522418e+001
 3.815446565158653e+000	 2.927877575177752e-001	 1.053993681949271e+001
 3.812416073965843e+000	 3.299109229391820e-001	 1.055610267577465e+001
 3.809011680449607e+000	 3.671348135820680e-001	 1.059571717443214e+001
 3.853327999991935e+000	 0.000000000000000e+000	 1.048291715608202e+001
 3.853156060919162e+000	 3.640004775666967e-002	 1.055395638866874e+001
 3.852637590206400e+000	 7.293837714660749e-002	 1.058974376705569e+001
 3.851768643457932e+000	 1.096107600219277e-001	 1.059941591078395e+001
 3.850545326497594e+000	 1.464128594145490e-001	 1.059160422135245e+001
 3.848963798425434e+000	 1.833402297332110e-001	 1.057442296482388e+001
 3.847020274702730e+000	 2.203883170523936e-001	 1.055545317621361e+001
 3.844711030262634e+000	 2.575524594952997e-001	 1.054172267526583e+001
 3.842032402643639e+000	 2.948278877129895e-001	 1.053968256649182e+001
 3.838980795142871e+000	 3.322097254616714e-001	 1.055518068903035e+001
 3.835552679986150e+000	 3.696929902800644e-001	 1.059343257737432e+001
 3.879991999988402e+000	 0.000000000000000e+000	 1.049495762100407e+001
 3.879818871143298e+000	 3.665192636017606e-002	 1.056177770482064e+001
 3.879296812752037e+000	 7.344309122543419e-002	 1.059500086266340e+001
 3.878421853124702e+000	 1.103692371902526e-001	 1.060331321906822e+001
 3.877190071138434e+000	 1.474259972759073e-001	 1.059494270852090e+001
 3.875597599315237e+000	 1.846088951288528e-001	 1.057764582757407e+001
 3.873640626928349e+000	 2.219133453116393e-001	 1.055868964961716e+001
 3.871315403134415e+000	 2.593346536885469e-001	 1.054482939129442e+001
 3.868618240128634e+000	 2.968680179080345e-001	 1.054228190815206e+001
 3.865545516319864e+000	 3.345085279840258e-001	 1.055669559475857e+001
 3.862093679522626e+000	 3.722511669779585e-001	 1.059311726520864e+001
 3.906655999985469e+000	 0.000000000000000e+000	 1.051770751012976e+001
 3.906481681368015e+000	 3.690380496352986e-002	 1.057871584337887e+001
 3.905956035298213e+000	 7.394780530400193e-002	 1.060810811702630e+001
 3.905075062791944e+000	 1.111277143582526e-001	 1.061405289584758e+001
 3.903834815779661e+000	 1.484391351369098e-001	 1.060431385359442e+001
 3.902231400205331e+000	 1.858775605241362e-001	 1.058623524897727e+001
 3.900260979154164e+000	 2.234383735705472e-001	 1.056672207519582e+001
 3.897919776006298e+000	 2.611168478814930e-001	 1.055221517082070e+001
 3.895204077613645e+000	 2.989081481028258e-001	 1.054866167391270e+001
 3.892110237496803e+000	 3.368073305061777e-001	 1.056148130407087e+001
 3.888634679059003e+000	 3.748093436756990e-001	 1.059552906316066e+001
 3.933319999983334e+000	 0.000000000000000e+000	 1.055287648824288e+001
 3.933144491593509e+000	 3.715568356668014e-002	 1.060639374598478e+001
 3.932615257845103e+000	 7.445251938222434e-002	 1.063059467583432e+001
 3.931728272459812e+000	 1.118861915258195e-001	 1.063306518277825e+001
 3.930479560421403e+000	 1.494522729974376e-001	 1.062104604974832e+001
 3.928865201095816e+000	 1.871462259189419e-001	 1.060141718764568e+001
 3.926881331380236e+000	 2.249634018290042e-001	 1.058067593874349e+001
 3.924524148878316e+000	 2.628990420740378e-001	 1.056490971949397e+001
 3.921789915098675e+000	 3.009482782972785e-001	 1.055976338849931e+001
 3.918674958673671e+000	 3.391061330280594e-001	 1.057040183356400e+001
 3.915175678595246e+000	 3.773675203732345e-001	 1.060146838338011e+001
 3.649765683230813e+000	 3.517857533948059e-001	 1.061368831572535e+001
 3.646142631855923e+000	 3.875397139962905e-001	 1.066088185879296e+001
 3.642154915790480e+000	 4.233804573491110e-001	 1.068919494634331e+001
 3.637799395027112e+000	 4.593030245767192e-001	 1.070288626746889e+001
 3.633073007093982e+000	 4.953023615887200e-001	 1.070555256719636e+001
 3.627972770066271e+000	 5.313733202242620e-001	 1.070013615932149e+001
 3.622495785572755e+000	 5.675106594965961e-001	 1.068893692017850e+001
 3.616639241793862e+000	 6.037090469397646e-001	 1.067362966483388e+001
 3.610400416447522e+000	 6.399630600582474e-001	 1.065528786197587e+001
 3.603776679759039e+000	 6.762671878802548e-001	 1.063586396549819e+001
 3.596765497411132e+000	 7.126158326152124e-001	 1.064528924080605e+001
 3.676306682767058e+000	 3.543439300923416e-001	 1.061312804297511e+001
 3.672657284658395e+000	 3.903578925499764e-001	 1.065957864619908e+001
 3.668640570027081e+000	 4.264592688408317e-001	 1.068727559471486e+001
 3.664253376031720e+000	 4.626430640275384e-001	 1.070037337780182e+001
 3.659492617930285e+000	 4.989041872664869e-001	 1.070235989489022e+001
 3.654355292113509e+000	 5.352374529595347e-001	 1.069605973304425e+001
 3.648838479133311e+000	 5.716375820076131e-001	 1.068364174768201e+001
 3.642939346722671e+000	 6.080992031672104e-001	 1.066663189086785e+001
 3.636655152803182e+000	 6.446168545105612e-001	 1.064593229042470e+001
 3.629983248476528e+000	 6.811849849902316e-001	 1.062499831714298e+001
 3.622921080995963e+000	 7.177979561086598e-001	 1.063457456332158e+001
 3.702847682303435e+000	 3.569021067900821e-001	 1.061087906442399e+001
 3.699171937461023e+000	 3.931760711038122e-001	 1.065681502023867e+001
 3.695126224263829e+000	 4.295380803326591e-001	 1.068423393332859e+001
 3.690707357036439e+000	 4.659831034784319e-001	 1.069716103611385e+001
 3.685912228766642e+000	 5.025060129443072e-001	 1.069895318332251e+001
 3.680737814160723e+000	 5.391015856948495e-001	 1.069229769359841e+001
 3.675181172693759e+000	 5.757645045186707e-001	 1.067921529779195e+001
 3.669239451651285e+000	 6.124893593947065e-001	 1.066106818246536e+001
 3.662909889158565e+000	 6.492706489629425e-001	 1.063857418037573e+001
 3.656189817193663e+000	 6.861027821003025e-001	 1.061716873703044e+001
 3.649076664580380e+000	 7.229800796022365e-001	 1.062688046677440e+001
 3.729388681839912e+000	 3.594602834879762e-001	 1.060744611749190e+001
 3.725686590263769e+000	 3.959942496577605e-001	 1.065295052244452e+001
 3.721611878500688e+000	 4.326168918245666e-001	 1.068028688106350e+001
 3.717161338041240e+000	 4.693231429293812e-001	 1.069332918887738e+001
 3.712331839603034e+000	 5.061078386221668e-001	 1.069528423507779e+001
 3.707120336207917e+000	 5.429657184301957e-001	 1.068868579496285e+001
 3.701523866254123e+000	 5.798914270297597e-001	 1.067539271280654e+001
 3.695539556579746e+000	 6.168795156222395e-001	 1.065659190927348e+001
 3.689164625513729e+000	 6.539244434153747e-001	 1.063280741524430e+001
 3.682396385910517e+000	 6.910205792104438e-001	 1.061180986153992e+001
 3.675232248164469e+000	 7.281622030959103e-001	 1.062161619803028e+001
 3.755929681376454e+000	 3.620184601859726e-001	 1.060337558521747e+001
 3.752201243066594e+000	 3.988124282117838e-001	 1.064840006897018e+001
 3.748097532737623e+000	 4.356957033165273e-001	 1.067571842284994e+001
 3.743615319046093e+000	 4.726631823803677e-001	 1.068903455000408e+001
 3.738751450439450e+000	 5.097096643000530e-001	 1.069138938309990e+001
 3.733502858255094e+000	 5.468298511655627e-001	 1.068515020132362e+001
 3.727866559814423e+000	 5.840183495408690e-001	 1.067200360098247e+001
 3.721839661508096e+000	 6.212696718497973e-001	 1.065295320084268e+001
 3.715419361868731e+000	 6.585782378678403e-001	 1.062832323580952e+001
 3.708602954627166e+000	 6.959383763206328e-001	 1.060845244267721e+001
 3.701387831748314e+000	 7.333443265896485e-001	 1.061828876433490e+001
 3.782470680913030e+000	 3.645766368840203e-001	 1.059925578021309e+001
 3.778715895869458e+000	 4.016306067658447e-001	 1.064363357453486e+001
 3.774583186974591e+000	 4.387745148085147e-001	 1.067087859309881e+001
 3.770069300050975e+000	 4.760032218313729e-001	 1.068450896525770e+001
 3.765171061275874e+000	 5.133114899779525e-001	 1.068738725961932e+001
 3.759885380302258e+000	 5.506939839009404e-001	 1.068170468610702e+001
 3.754209253374684e+000	 5.881452720519883e-001	 1.066896869333958e+001
 3.748139766436377e+000	 6.256598280773674e-001	 1.064999509095969e+001
 3.741674098223633e+000	 6.632320323203232e-001	 1.062490590393611e+001
 3.734809523343683e+000	 7.008561734308451e-001	 1.060672049222779e+001
 3.727543415331994e+000	 7.385264500834197e-001	 1.061649982447295e+001
 3.809011680449607e+000	 3.671348135820680e-001	 1.059571717443214e+001
 3.805230548672322e+000	 4.044487853199054e-001	 1.063917554150031e+001
 3.801068841211559e+000	 4.418533263005018e-001	 1.066618244217995e+001
 3.796523281055853e+000	 4.793432612823781e-001	 1.068005777619076e+001
 3.791590672112294e+000	 5.169133156558521e-001	 1.068347657960191e+001
 3.786267902349411e+000	 5.545581166363182e-001	 1.067844785900762e+001
 3.780551946934928e+000	 5.922721945631080e-001	 1.066629654037646e+001
 3.774439871364629e+000	 6.300499843049378e-001	 1.064764971221465e+001
 3.767928834578493e+000	 6.678858267728057e-001	 1.062244285400935e+001
 3.761016092060141e+000	 7.057739705410574e-001	 1.060632849185721e+001
 3.753698998915594e+000	 7.437085735771906e-001	 1.061594265120447e+001
 3.835552679986150e+000	 3.696929902800644e-001	 1.059343257737432e+001
 3.831745201475147e+000	 4.072669638739287e-001	 1.063560461576923e+001
 3.827554495448490e+000	 4.449321377924626e-001	 1.066210898677147e+001
 3.822977262060702e+000	 4.826833007333646e-001	 1.067605818363125e+001
 3.818010282948695e+000	 5.205151413337383e-001	 1.067993393801304e+001
 3.812650424396558e+000	 5.584222493716853e-001	 1.067556041965498e+001
 3.806894640495177e+000	 5.963991170742170e-001	 1.066408024676509e+001
 3.800739976292897e+000	 6.344401405324956e-001	 1.064593453836804e+001
 3.794183570933372e+000	 6.725396212252713e-001	 1.062116789579980e+001
 3.787222660776614e+000	 7.106917676512461e-001	 1.060707866596351e+001
 3.779854582499194e+000	 7.488906970709290e-001	 1.061639916152659e+001
 3.862093679522626e+000	 3.722511669779585e-001	 1.059311726520864e+001
 3.858259854277893e+000	 4.100851424278770e-001	 1.063355311110038e+001
 3.854040149685346e+000	 4.480109492843699e-001	 1.065920014485601e+001
 3.849431243065491e+000	 4.860233401843139e-001	 1.067295761073901e+001
 3.844429893785062e+000	 5.241169670115981e-001	 1.067711162023495e+001
 3.839032946443703e+000	 5.622863821070315e-001	 1.067330243663730e+001
 3.833237334055452e+000	 6.005260395853056e-001	 1.066249424219593e+001
 3.827040081221221e+000	 6.388302967600287e-001	 1.064494867221845e+001
 3.820438307288329e+000	 6.771934156777035e-001	 1.062114270671672e+001
 3.813429229493175e+000	 7.156095647613878e-001	 1.060885831426311e+001
 3.806010166082880e+000	 7.540728205646027e-001	 1.061773701149626e+001
 3.888634679059003e+000	 3.748093436756990e-001	 1.059552906316067e+001
 3.884774507080521e+000	 4.129033209817129e-001	 1.063370650335163e+001
 3.880525803922092e+000	 4.510897607761975e-001	 1.065805965609805e+001
 3.875885224070195e+000	 4.893633796352074e-001	 1.067127206565377e+001
 3.870849504621382e+000	 5.277187926894180e-001	 1.067543542500751e+001
 3.865415468490847e+000	 5.661505148423461e-001	 1.067201065067086e+001
 3.859580027615782e+000	 6.046529620963637e-001	 1.066179108664695e+001
 3.853340186149642e+000	 6.432204529875243e-001	 1.064486917679602e+001
 3.846693043643426e+000	 6.818472101300851e-001	 1.062237666880947e+001
 3.839635798209899e+000	 7.205273618714588e-001	 1.061163720125645e+001
 3.832165749666732e+000	 7.592549440581793e-001	 1.061990675253116e+001
 3.915175678595246e+000	 3.773675203732345e-001	 1.060146838338011e+001
 3.911289159882991e+000	 4.157214995353987e-001	 1.063680289607577e+001
 3.907011458158685e+000	 4.541685722679180e-001	 1.065935198829577e+001
 3.902339205074782e+000	 4.927034190860264e-001	 1.067158450375345e+001
 3.897269115457639e+000	 5.313206183671849e-001	 1.067540249929875e+001
 3.891797990537994e+000	 5.700146475776188e-001	 1.067209580076915e+001
 3.885922721176181e+000	 6.087798846073804e-001	 1.066229830844208e+001
 3.879640291078204e+000	 6.476106092149703e-001	 1.064594744782558e+001
 3.872947779998714e+000	 6.865010045823983e-001	 1.062495753393450e+001
 3.865842366926857e+000	 7.254451589814351e-001	 1.061546499987364e+001
 3.858321333250832e+000	 7.644370675516264e-001	 1.062293904626972e+001
 3.596765497411132e+000	 7.126158326152124e-001	 1.064528924080605e+001
 3.589363294351825e+000	 7.490087713011588e-001	 1.067418165814794e+001
 3.581568760153285e+000	 7.854347785535488e-001	 1.070092839024001e+001
 3.573379666514728e+000	 8.218879957891508e-001	 1.072665321343072e+001
 3.564793892237348e+000	 8.583624850557747e-001	 1.075207665305450e+001
 3.555809426018735e+000	 8.948522312174628e-001	 1.077751373447195e+001
 3.546424369203119e+000	 9.313511442442009e-001	 1.080287357462982e+001
 3.536636938483259e+000	 9.678530616055532e-001	 1.082766108437938e+001
 3.526445468549742e+000	 1.004351750767448e+000	 1.085098106092344e+001
 3.515848414683465e+000	 1.040840911791156e+000	 1.087154071662113e+001
 3.504844355287081e+000	 1.077314180033311e+000	 1.088767805137912e+001
 3.622921080995963e+000	 7.177979561086598e-001	 1.063457456332159e+001
 3.615465049311848e+000	 7.544555432825085e-001	 1.066285822725147e+001
 3.607613833466946e+000	 7.911464394965301e-001	 1.068961315073233e+001
 3.599365188956308e+000	 8.278647435640266e-001	 1.071587665972473e+001
 3.590716979155808e+000	 8.646044743521743e-001	 1.074228062654406e+001
 3.581667178136880e+000	 9.013595729831021e-001	 1.076904818356277e+001
 3.572213873436759e+000	 9.381239051402547e-001	 1.079599225571938e+001
 3.562355268780022e+000	 9.748912634794354e-001	 1.082251619578283e+001
 3.552089686747149e+000	 1.011655370143745e+000	 1.084761104078138e+001
 3.541415571385863e+000	 1.048409879381463e+000	 1.086988645841083e+001
 3.530331490760975e+000	 1.085148380265702e+000	 1.088753786043032e+001
 3.649076664580380e+000	 7.229800796022365e-001	 1.062688046677440e+001
 3.641566804271423e+000	 7.599023152640309e-001	 1.065444618618772e+001
 3.633658906780143e+000	 7.968581004397330e-001	 1.068101735343142e+001
 3.625350711397430e+000	 8.338414913391794e-001	 1.070755252026823e+001
 3.616640066073833e+000	 8.708464636489086e-001	 1.073460410231384e+001
 3.607524930254624e+000	 9.078669147491354e-001	 1.076231398518573e+001
 3.598003377670048e+000	 9.448966660367626e-001	 1.079041092191695e+001
 3.588073599076493e+000	 9.819294653538295e-001	 1.081821001979156e+001
 3.577733904944330e+000	 1.018958989520610e+000	 1.084460959104746e+001
 3.566982728088108e+000	 1.055978846972389e+000	 1.086811777793914e+001
 3.555818626234796e+000	 1.092982580498757e+000	 1.088682376020107e+001
 3.675232248164469e+000	 7.281622030959103e-001	 1.062161619803028e+001
 3.667668559230636e+000	 7.653490872456820e-001	 1.064834763330484e+001
 3.659703980092961e+000	 8.025697613831027e-001	 1.067454284371293e+001
 3.651336233838164e+000	 8.398182391145390e-001	 1.070108989445658e+001
 3.642563152991476e+000	 8.770884529458933e-001	 1.072847156923933e+001
 3.633382682372007e+000	 9.143742565154637e-001	 1.075675979470363e+001
 3.623792881903003e+000	 9.516694269336102e-001	 1.078561182256865e+001
 3.613791929372667e+000	 9.889676672286075e-001	 1.081426848234620e+001
 3.603378123141265e+000	 1.026262608897900e+000	 1.084155045603369e+001
 3.592549884790161e+000	 1.063547814563778e+000	 1.086588082473423e+001
 3.581305761708479e+000	 1.100816780732308e+000	 1.088525973271550e+001
 3.701387831748314e+000	 7.333443265896485e-001	 1.061828876433490e+001
 3.693770314189572e+000	 7.707958592274198e-001	 1.064406288595076e+001
 3.685749053405477e+000	 8.082814223265831e-001	 1.066968932017810e+001
 3.677321756278585e+000	 8.457949868900372e-001	 1.069599457073626e+001
 3.668486239908798e+000	 8.833304422430448e-001	 1.072340227003221e+001
 3.659240434489070e+000	 9.208815982819893e-001	 1.075192634370085e+001
 3.649582386135648e+000	 9.584421878306851e-001	 1.078116589305825e+001
 3.639510259668550e+000	 9.960058691036422e-001	 1.081030212359483e+001
 3.629022341337930e+000	 1.033566228275474e+000	 1.083809387541767e+001
 3.618117041491971e+000	 1.071116782155477e+000	 1.086289630213153e+001
 3.606792897181959e+000	 1.108650980966191e+000	 1.088263839195673e+001
 3.727543415331994e+000	 7.385264500834197e-001	 1.061649982447294e+001
 3.719872069148313e+000	 7.762426312092003e-001	 1.064118714407679e+001
 3.711794126717774e+000	 8.139930832701192e-001	 1.066605078468916e+001
 3.703307278718762e+000	 8.517717346656040e-001	 1.069186527740701e+001
 3.694409326825858e+000	 8.895724315402802e-001	 1.071900626748875e+001
 3.685098186605857e+000	 9.273889400486128e-001	 1.074744233669778e+001
 3.675371890368006e+000	 9.652149487278732e-001	 1.077672849734065e+001
 3.665228589964140e+000	 1.003044070978804e+000	 1.080600170192609e+001
 3.654666559534302e+000	 1.040869847653190e+000	 1.083397546271152e+001
 3.643684198193497e+000	 1.078685749747331e+000	 1.085895484260935e+001
 3.632280032655169e+000	 1.116485181200240e+000	 1.087881626961248e+001
 3.753698998915594e+000	 7.437085735771906e-001	 1.061594265120447e+001
 3.745973824106948e+000	 7.816894031909812e-001	 1.063940722922430e+001
 3.737839200029932e+000	 8.197047442136549e-001	 1.066331207116297e+001
 3.729292801158767e+000	 8.577484824411708e-001	 1.068839001482856e+001
 3.720332413742714e+000	 8.958144208375151e-001	 1.071498059406287e+001
 3.710955938722406e+000	 9.338962818152368e-001	 1.074302043238518e+001
 3.701161394600098e+000	 9.719877096250615e-001	 1.077203525547091e+001
 3.690946920259437e+000	 1.010082272853967e+000	 1.080113388275528e+001
 3.680310777730361e+000	 1.048173467030906e+000	 1.082900177058992e+001
 3.669251354894696e+000	 1.086254717339184e+000	 1.085391246526332e+001
 3.657767168128049e+000	 1.124319381434289e+000	 1.087370918059579e+001
 3.779854582499194e+000	 7.488906970709290e-001	 1.061639916152659e+001
 3.772075579065561e+000	 7.871361751727187e-001	 1.063849839524295e+001
 3.763884273342034e+000	 8.254164051571353e-001	 1.066124544930814e+001
 3.755278323598675e+000	 8.637252302166685e-001	 1.068534246508963e+001
 3.746255500659427e+000	 9.020564101346671e-001	 1.071110548072785e+001
 3.736813690838762e+000	 9.404036235817622e-001	 1.073845330528526e+001
 3.726950898831944e+000	 9.787604705221360e-001	 1.076689795201088e+001
 3.716665250554443e+000	 1.017120474729001e+000	 1.079553316149575e+001
 3.705954995926085e+000	 1.055477086408480e+000	 1.082304593595967e+001
 3.694818511595526e+000	 1.093823684930882e+000	 1.084768611144028e+001
 3.683254303600529e+000	 1.132153581668172e+000	 1.086728766447756e+001
 3.806010166082880e+000	 7.540728205646027e-001	 1.061773701149626e+001
 3.798177334024235e+000	 7.925829471543703e-001	 1.063832120728945e+001
 3.789929346654160e+000	 8.311280661005048e-001	 1.065970729969983e+001
 3.781263846038558e+000	 8.697019779920285e-001	 1.068257847541159e+001
 3.772178587576050e+000	 9.082983994316514e-001	 1.070724066131206e+001
 3.762671442954964e+000	 9.469109653480906e-001	 1.073360978396986e+001
 3.752740403063570e+000	 9.855332314189841e-001	 1.076120052142356e+001
 3.742383580849156e+000	 1.024158676603780e+000	 1.078911362406489e+001
 3.731599214121452e+000	 1.062780705785770e+000	 1.081604340093398e+001
 3.720385668295939e+000	 1.101392652522272e+000	 1.084024925477249e+001
 3.708741439072548e+000	 1.139987781901724e+000	 1.085957249917774e+001
 3.832165749666732e+000	 7.592549440581793e-001	 1.061990675253116e+001
 3.824279088983057e+000	 7.980297191358923e-001	 1.063881848584459e+001
 3.815974419966391e+000	 8.368397270437079e-001	 1.065863485678474e+001
 3.807249368478485e+000	 8.756787257671810e-001	 1.068003261176493e+001
 3.798101674492648e+000	 9.145403887283856e-001	 1.070332174870323e+001
 3.788529195071056e+000	 9.534183071141238e-001	 1.072843106217820e+001
 3.778529907294995e+000	 9.923059923154921e-001	 1.075489510677669e+001
 3.768101911143579e+000	 1.031196878478174e+000	 1.078184014059153e+001
 3.757243432316443e+000	 1.070084325162635e+000	 1.080798770608597e+001
 3.745952824995893e+000	 1.108961620113198e+000	 1.083162758205681e+001
 3.734228574544038e+000	 1.147821982134779e+000	 1.085063028346476e+001
 3.858321333250832e+000	 7.644370675516264e-001	 1.062293904626972e+001
 3.850380843942109e+000	 8.034764911172418e-001	 1.064001231266323e+001
 3.842019493278809e+000	 8.425513879866889e-001	 1.065804301659143e+001
 3.833234890918528e+000	 8.816554735420564e-001	 1.067771477936590e+001
 3.824024761409275e+000	 9.207823780247851e-001	 1.069935667951020e+001
 3.814386947187075e+000	 9.599256488797630e-001	 1.072292697937498e+001
 3.804319411526238e+000	 9.990787532115453e-001	 1.074799818827634e+001
 3.793820241437710e+000	 1.038235080352055e+000	 1.077374145409524e+001
 3.782887650511028e+000	 1.077387944538931e+000	 1.079892635255058e+001
 3.771519981695345e+000	 1.116530587703505e+000	 1.082189474161822e+001
 3.759715710014934e+000	 1.155656182367169e+000	 1.084056908499678e+001
 3.504844355287081e+000	 1.077314180033311e+000	 1.088767805137912e+001
 3.493431993474643e+000	 1.113765128411843e+000	 1.090444298275884e+001
 3.481610156834797e+000	 1.150187268649676e+000	 1.092557692861622e+001
 3.469377802379237e+000	 1.186574055778320e+000	 1.094686370042280e+001
 3.456734019669560e+000	 1.222918891747823e+000	 1.096371998745531e+001
 3.443678032987045e+000	 1.259215128608840e+000	 1.097122571701891e+001
 3.430209203416529e+000	 1.295456071785157e+000	 1.096415920987266e+001
 3.416327030840312e+000	 1.331634983434178e+000	 1.093703737950168e+001
 3.402031155838170e+000	 1.367745085892707e+000	 1.090873790452277e+001
 3.387321361489601e+000	 1.403779565205173e+000	 1.090442024449543e+001
 3.372197575074528e+000	 1.439731574731234e+000	 1.092062719828913e+001
 3.530331490760975e+000	 1.085148380265702e+000	 1.088753786043032e+001
 3.518836138555602e+000	 1.121864398976820e+000	 1.090516531054567e+001
 3.506928333832647e+000	 1.158551400055168e+000	 1.092610901322994e+001
 3.494607026019215e+000	 1.195202790937426e+000	 1.094609633980103e+001
 3.481871298056221e+000	 1.231811925592805e+000	 1.096047561137523e+001
 3.468720368583944e+000	 1.268372107728260e+000	 1.096424575632852e+001
 3.455153594041044e+000	 1.304876594084805e+000	 1.095209090650334e+001
 3.441170470672978e+000	 1.341318597822436e+000	 1.091966771781047e+001
 3.426770636445833e+000	 1.377691291990981e+000	 1.089642714571111e+001
 3.411953872861663e+000	 1.413987813083974e+000	 1.089452353758817e+001
 3.396720106671580e+000	 1.450201264672493e+000	 1.091049178176528e+001
 3.555818626234796e+000	 1.092982580498757e+000	 1.088682376020107e+001
 3.544240283636571e+000	 1.129963669542497e+000	 1.090487910422679e+001
 3.532246510830581e+000	 1.166915531461389e+000	 1.092522840024545e+001
 3.519836249659356e+000	 1.203831526097284e+000	 1.094355660023206e+001
 3.507008576443118e+000	 1.240704959438558e+000	 1.095515785701430e+001
 3.493762704181139e+000	 1.277529086848464e+000	 1.095496437779631e+001
 3.480097984665906e+000	 1.314297116385243e+000	 1.093758036181858e+001
 3.466013910506030e+000	 1.351002212211490e+000	 1.090311046893368e+001
 3.451510117053901e+000	 1.387637498090054e+000	 1.088402123486583e+001
 3.436586384234134e+000	 1.424196060963575e+000	 1.088369743501579e+001
 3.421242638269016e+000	 1.460670954614553e+000	 1.089873496187565e+001
 3.581305761708479e+000	 1.100816780732308e+000	 1.088525973271550e+001
 3.569644428717461e+000	 1.138062940108699e+000	 1.090339561953369e+001
 3.557564687828503e+000	 1.175279662868157e+000	 1.092284050695035e+001
 3.545065473299544e+000	 1.212460261257707e+000	 1.093925162007059e+001
 3.532145854830122e+000	 1.249597993284889e+000	 1.094788379255289e+001
 3.518805039778498e+000	 1.286686065969255e+000	 1.094361741009387e+001
 3.505042375290976e+000	 1.323717638686274e+000	 1.092099158532544e+001
 3.490857350339327e+000	 1.360685826601141e+000	 1.088740696662782e+001
 3.476249597662238e+000	 1.397583704189727e+000	 1.087164679725674e+001
 3.461218895606880e+000	 1.434404308843775e+000	 1.087221996783250e+001
 3.445765169866719e+000	 1.471140644557212e+000	 1.088579585377929e+001
 3.606792897181959e+000	 1.108650980966191e+000	 1.088263839195673e+001
 3.595048573798192e+000	 1.146162210675251e+000	 1.090058836411615e+001
 3.582882864826309e+000	 1.183643794275289e+000	 1.091890628847136e+001
 3.570294696939667e+000	 1.221088996418505e+000	 1.093323706013730e+001
 3.557283133217109e+000	 1.258491027131605e+000	 1.093881172483386e+001
 3.543847375375882e+000	 1.295843045090436e+000	 1.093047440118020e+001
 3.529986765916116e+000	 1.333138160987702e+000	 1.090271458359796e+001
 3.515700790172728e+000	 1.370369440991190e+000	 1.087256983700742e+001
 3.500989078270704e+000	 1.407529910289798e+000	 1.085945298151074e+001
 3.485851406979773e+000	 1.444612556724376e+000	 1.086038628226796e+001
 3.470287701464573e+000	 1.481610334500272e+000	 1.087212502751632e+001
 3.632280032655169e+000	 1.116485181200240e+000	 1.087881626961248e+001
 3.620452718878675e+000	 1.154261481241977e+000	 1.089638830739312e+001
 3.608201041823901e+000	 1.192007925682604e+000	 1.091343738255839e+001
 3.595523920579608e+000	 1.229717731579492e+000	 1.092561219460382e+001
 3.582420411603949e+000	 1.267384060978512e+000	 1.092813624784384e+001
 3.568889710973160e+000	 1.305000024211814e+000	 1.091583363618963e+001
 3.554931156541185e+000	 1.342558683289327e+000	 1.088447084251215e+001
 3.540544230006091e+000	 1.380053055381439e+000	 1.085863711380043e+001
 3.525728558879165e+000	 1.417476116390069e+000	 1.084760928787070e+001
 3.510483918352681e+000	 1.454820804605176e+000	 1.084850656602813e+001
 3.494810233062459e+000	 1.492080024443532e+000	 1.085818254133888e+001
 3.657767168128049e+000	 1.124319381434289e+000	 1.087370918059579e+001
 3.645856863958831e+000	 1.162360751808704e+000	 1.089077916725394e+001
 3.633519218821176e+000	 1.200372057089920e+000	 1.090649132787215e+001
 3.620753144219252e+000	 1.238346466740478e+000	 1.091651507161464e+001
 3.607557689990518e+000	 1.276277094825420e+000	 1.091608335675126e+001
 3.593932046570194e+000	 1.314157003333191e+000	 1.090001721628818e+001
 3.579875547166042e+000	 1.351979205590951e+000	 1.086777541701538e+001
 3.565387669839278e+000	 1.389736669771687e+000	 1.084567002820465e+001
 3.550468039487480e+000	 1.427422322490340e+000	 1.083630344125762e+001
 3.535116429725481e+000	 1.465029052485976e+000	 1.083690401323284e+001
 3.519332764660260e+000	 1.502549714386791e+000	 1.084443600713553e+001
 3.683254303600529e+000	 1.132153581668172e+000	 1.086728766447756e+001
 3.671261009038573e+000	 1.170460022375256e+000	 1.088379276988835e+001
 3.658837395818034e+000	 1.208736188497053e+000	 1.089816685221439e+001
 3.645982367858484e+000	 1.246975201901277e+000	 1.090611774026865e+001
 3.632694968376690e+000	 1.285170128672135e+000	 1.090290562432629e+001
 3.618974382166853e+000	 1.323313982454373e+000	 1.088336619554467e+001
 3.604819937790552e+000	 1.361399727892379e+000	 1.085259814550639e+001
 3.590231109672148e+000	 1.399420284161736e+000	 1.083375084687728e+001
 3.575207520095516e+000	 1.437368528590412e+000	 1.082573930696390e+001
 3.559748941098035e+000	 1.475237300366577e+000	 1.082591282611829e+001
 3.543855296257858e+000	 1.513019404329850e+000	 1.083135868639495e+001
 3.708741439072548e+000	 1.139987781901724e+000	 1.085957249917774e+001
 3.696665154117818e+000	 1.178559292941458e+000	 1.087550447922713e+001
 3.684155572814372e+000	 1.217100319903820e+000	 1.088859922733732e+001
 3.671211591497188e+000	 1.255603937061700e+000	 1.089462154076804e+001
 3.657832246762335e+000	 1.294063162518466e+000	 1.088887743674188e+001
 3.644016717762999e+000	 1.332470961575163e+000	 1.086623577302662e+001
 3.629764328414572e+000	 1.370820250193410e+000	 1.083893194420316e+001
 3.615074549504560e+000	 1.409103898551387e+000	 1.082298075574294e+001
 3.599947000703133e+000	 1.447314734690084e+000	 1.081613484692877e+001
 3.584381452470216e+000	 1.485445548246777e+000	 1.081587625173560e+001
 3.568377827855136e+000	 1.523489094272510e+000	 1.081942761523948e+001
 3.734228574544038e+000	 1.147821982134779e+000	 1.085063028346476e+001
 3.722069299196483e+000	 1.186658563507135e+000	 1.086602869266780e+001
 3.709473749810091e+000	 1.225464451310042e+000	 1.087795568715080e+001
 3.696440815135249e+000	 1.264232672221558e+000	 1.088225245471680e+001
 3.682969525147330e+000	 1.302956196364219e+000	 1.087429028591925e+001
 3.669059053358499e+000	 1.341627940695366e+000	 1.084977478983707e+001
 3.654708719037963e+000	 1.380240772493848e+000	 1.082679109910447e+001
 3.639917989336374e+000	 1.418787512940442e+000	 1.081347778743076e+001
 3.624686481310193e+000	 1.457260940789157e+000	 1.080772011465554e+001
 3.609013963841896e+000	 1.495653796126379e+000	 1.080714465197374e+001
 3.592900359451976e+000	 1.533958784214570e+000	 1.080912175714002e+001
 3.759715710014934e+000	 1.155656182367169e+000	 1.084056908499678e+001
 3.747473444274480e+000	 1.194757834072111e+000	 1.085551439994032e+001
 3.734791926805089e+000	 1.233828582715533e+000	 1.086643090631939e+001
 3.721670038772552e+000	 1.272861407380663e+000	 1.086925651271546e+001
 3.708106803531545e+000	 1.311849230209201e+000	 1.085944811573536e+001
 3.694101388953216e+000	 1.350784919814787e+000	 1.083520095432368e+001
 3.679653109660587e+000	 1.389661294793495e+000	 1.081620917959203e+001
 3.664761429167448e+000	 1.428471127328699e+000	 1.080537479027026e+001
 3.649425961916560e+000	 1.467207146887431e+000	 1.080073528693740e+001
 3.633646475212943e+000	 1.505862044005179e+000	 1.080007360532569e+001
 3.617422891048259e+000	 1.544428474155829e+000	 1.080092018199814e+001
 3.372197575074528e+000	 1.439731574731234e+000	 1.092062719828913e+001
 3.356662231674654e+000	 1.475588867042669e+000	 1.094698901845881e+001
 3.340713316314456e+000	 1.511349944770984e+000	 1.097508800920461e+001
 3.324351200427108e+000	 1.547007890623957e+000	 1.100417468971805e+001
 3.307576405259167e+000	 1.582555769867112e+000	 1.103366375081271e+001
 3.290389603006430e+000	 1.617986634272130e+000	 1.106264520997132e+001
 3.272791617828106e+000	 1.653293526122406e+000	 1.109006463780507e+001
 3.254783426736442e+000	 1.688469482271450e+000	 1.111477320574599e+001
 3.236366160359109e+000	 1.723507538249754e+000	 1.113554486175136e+001
 3.217541103571808e+000	 1.758400732415532e+000	 1.115109604755141e+001
 3.198309695998757e+000	 1.793142110144684e+000	 1.116010791150936e+001
 3.396720106671580e+000	 1.450201264672493e+000	 1.091049178176528e+001
 3.381071790665133e+000	 1.486319310265351e+000	 1.093561706756545e+001
 3.365006895213961e+000	 1.522340441605221e+000	 1.096305228750479e+001
 3.348525794452300e+000	 1.558257691097506e+000	 1.099191878218670e+001
 3.331629013417209e+000	 1.594064073578511e+000	 1.102133353840786e+001
 3.314317229192684e+000	 1.629752590292575e+000	 1.105054735288696e+001
 3.296591271931205e+000	 1.665316232926751e+000	 1.107861096324565e+001
 3.278452125749841e+000	 1.700747987698722e+000	 1.110434184459613e+001
 3.259900929498166e+000	 1.736040839493528e+000	 1.112647205376636e+001
 3.240938977395473e+000	 1.771187776044500e+000	 1.114366859777602e+001
 3.221567719534899e+000	 1.806181792153683e+000	 1.115455643273020e+001
 3.421242638269016e+000	 1.460670954614553e+000	 1.089873496187565e+001
 3.405481349655952e+000	 1.497049753488834e+000	 1.092208132325589e+001
 3.389300474113741e+000	 1.533330938440259e+000	 1.094844791410429e+001
 3.372700388477688e+000	 1.569507491571855e+000	 1.097685890332450e+001
 3.355681621575360e+000	 1.605572377290711e+000	 1.100632919744783e+001
 3.338244855378957e+000	 1.641518546313822e+000	 1.103587202791695e+001
 3.320390926034240e+000	 1.677338939731900e+000	 1.106453432101059e+001
 3.302120824763098e+000	 1.713026493126799e+000	 1.109126450515635e+001
 3.283435698637017e+000	 1.748574140738111e+000	 1.111473428763186e+001
 3.264336851218891e+000	 1.783974819674280e+000	 1.113353289246747e+001
 3.244825743070775e+000	 1.819221474163497e+000	 1.114619835988791e+001
 3.445765169866719e+000	 1.471140644557212e+000	 1.088579585377929e+001
 3.429890908647009e+000	 1.507780196712916e+000	 1.090697382737637e+001
 3.413594053013717e+000	 1.544321435275896e+000	 1.093199426865286e+001
 3.396874982503221e+000	 1.580757292046805e+000	 1.095976724055084e+001
 3.379734229733591e+000	 1.617080681003512e+000	 1.098918805158113e+001
 3.362172481565244e+000	 1.653284502335673e+000	 1.101914492139919e+001
 3.344190580137224e+000	 1.689361646537656e+000	 1.104852747862638e+001
 3.325789523776246e+000	 1.725304998555488e+000	 1.107623054549245e+001
 3.306970467775714e+000	 1.761107441983310e+000	 1.110098751307108e+001
 3.287734725042120e+000	 1.796761863304683e+000	 1.112129099277939e+001
 3.268083766606454e+000	 1.832261156173944e+000	 1.113556182255719e+001
 3.470287701464573e+000	 1.481610334500272e+000	 1.087212502751632e+001
 3.454300467638207e+000	 1.518510639937398e+000	 1.089089267799027e+001
 3.437887631913810e+000	 1.555311932111934e+000	 1.091441215197554e+001
 3.421049576528834e+000	 1.592007092522155e+000	 1.094146294966621e+001
 3.403786837891866e+000	 1.628588984716717e+000	 1.097080240160123e+001
 3.386100107751537e+000	 1.665050458357931e+000	 1.100117340598319e+001
 3.367990234240172e+000	 1.701384353343822e+000	 1.103131303495181e+001
 3.349458222789323e+000	 1.737583503984593e+000	 1.105996204256602e+001
 3.330505236914307e+000	 1.773640743228935e+000	 1.108587222852231e+001
 3.311132598865224e+000	 1.809548906935523e+000	 1.110753215449612e+001
 3.291341790142000e+000	 1.845300838184841e+000	 1.112316554139817e+001
 3.494810233062459e+000	 1.492080024443532e+000	 1.085818254133888e+001
 3.478710026629442e+000	 1.529241083162080e+000	 1.087444016104336e+001
 3.462181210813938e+000	 1.566302428948173e+000	 1.089642199007985e+001
 3.445224170554475e+000	 1.603256892997708e+000	 1.092276098284861e+001
 3.427839446050156e+000	 1.640097288430126e+000	 1.095205860706483e+001
 3.410027733937825e+000	 1.676816414380396e+000	 1.098289264520508e+001
 3.391789888343101e+000	 1.713407060150203e+000	 1.101382590543254e+001
 3.373126921802362e+000	 1.749862009413920e+000	 1.104341587800385e+001
 3.354040006052849e+000	 1.786174044474793e+000	 1.107022536913008e+001
 3.334530472688268e+000	 1.822335950566610e+000	 1.109283413958485e+001
 3.314599813677478e+000	 1.858340520196004e+000	 1.110951903186601e+001
 3.519332764660260e+000	 1.502549714386791e+000	 1.084443600713553e+001
 3.503119585620614e+000	 1.539971526386763e+000	 1.085822090794686e+001
 3.486474789714023e+000	 1.577292925784412e+000	 1.087874205900032e+001
 3.469398764580086e+000	 1.614506693473263e+000	 1.090447035632598e+001
 3.451892054208428e+000	 1.651605592143541e+000	 1.093383401110077e+001
 3.433955360124103e+000	 1.688582370402872e+000	 1.096522640651723e+001
 3.415589542446022e+000	 1.725429766956601e+000	 1.099701490843448e+001
 3.396795620815398e+000	 1.762140514843276e+000	 1.102755066926672e+001
 3.377574775191389e+000	 1.798707345720694e+000	 1.105517946043918e+001
 3.357928346511310e+000	 1.835122994197757e+000	 1.107825356392831e+001
 3.337857837212957e+000	 1.871380202207249e+000	 1.109514474790972e+001
 3.543855296257858e+000	 1.513019404329850e+000	 1.083135868639495e+001
 3.527529144611625e+000	 1.550701969611245e+000	 1.084284007782315e+001
 3.510768368613983e+000	 1.588283422620452e+000	 1.086208672947091e+001
 3.493573358605612e+000	 1.625756493948621e+000	 1.088739243406838e+001
 3.475944662366648e+000	 1.663113895856762e+000	 1.091699524018833e+001
 3.457882986310363e+000	 1.700348326425160e+000	 1.094908535471645e+001
 3.439389196548955e+000	 1.737452473762821e+000	 1.098181404715116e+001
 3.420464319828467e+000	 1.774419020272466e+000	 1.101330359885230e+001
 3.401109544329980e+000	 1.811240646966444e+000	 1.104165833612876e+001
 3.381326220334416e+000	 1.847910037828777e+000	 1.106497678110353e+001
 3.361115860748503e+000	 1.884419884218392e+000	 1.108136494862488e+001
 3.568377827855136e+000	 1.523489094272510e+000	 1.081942761523948e+001
 3.551938703602373e+000	 1.561432412835328e+000	 1.082890156322828e+001
 3.535061947513740e+000	 1.599273919456093e+000	 1.084716473047184e+001
 3.517747952630995e+000	 1.637006294423582e+000	 1.087231922672970e+001
 3.499997270524786e+000	 1.674622199569589e+000	 1.090239651652327e+001
 3.481810612496596e+000	 1.712114282447062e+000	 1.093536535624455e+001
 3.463188850651912e+000	 1.749475180568665e+000	 1.096914078485304e+001
 3.444133018841604e+000	 1.786697525701294e+000	 1.100159421515926e+001
 3.424644313468674e+000	 1.823773948211853e+000	 1.103056466835614e+001
 3.404724094157645e+000	 1.860697081459479e+000	 1.105387118936198e+001
 3.384373884284180e+000	 1.897459566229251e+000	 1.106932647468189e+001
 3.592900359451976e+000	 1.533958784214570e+000	 1.080912175714002e+001
 3.576348262592755e+000	 1.572162856058811e+000	 1.081700621822860e+001
 3.559355526413214e+000	 1.610264416291135e+000	 1.083467743074806e+001
 3.541922546656179e+000	 1.648256094897945e+000	 1.086003170511011e+001
 3.524049878682808e+000	 1.686130503281826e+000	 1.089087798236956e+001
 3.505738238682794e+000	 1.723880238468381e+000	 1.092494579384126e+001
 3.486988504754907e+000	 1.761497887373937e+000	 1.095989432974078e+001
 3.467801717854844e+000	 1.798976031129568e+000	 1.099332266794926e+001
 3.448179082607521e+000	 1.836307249456730e+000	 1.102278120955126e+001
 3.428121967981061e+000	 1.873484125089678e+000	 1.104578436254496e+001
 3.407631907820056e+000	 1.910499248239640e+000	 1.105982450907094e+001
 3.617422891048259e+000	 1.544428474155829e+000	 1.080092018199814e+001
 3.600757821582671e+000	 1.582893299281493e+000	 1.080775010777139e+001
 3.583649105312324e+000	 1.621254913125378e+000	 1.082531713744788e+001
 3.566097140681105e+000	 1.659505895371513e+000	 1.085129812745047e+001
 3.548102486840681e+000	 1.697638806993271e+000	 1.088326403582854e+001
 3.529665864868949e+000	 1.735646194488917e+000	 1.091868789105844e+001
 3.510788158857956e+000	 1.773520594178442e+000	 1.095495392894757e+001
 3.491470416868223e+000	 1.811254536557092e+000	 1.098936795307264e+001
 3.471713851746570e+000	 1.848840550700881e+000	 1.101916896961302e+001
 3.451519841804725e+000	 1.886271168719184e+000	 1.104154214202962e+001
 3.430889931356198e+000	 1.923538930249378e+000	 1.105363310478532e+001
 3.198309695998757e+000	 1.793142110144684e+000	 1.116010791150936e+001
 3.178670556813624e+000	 1.827729904041205e+000	 1.116489412861435e+001
 3.158628293608679e+000	 1.862151961492185e+000	 1.116653740615040e+001
 3.138184815363838e+000	 1.896401373359606e+000	 1.116180828793502e+001
 3.117342186515054e+000	 1.930471254663603e+000	 1.114743158009382e+001
 3.096102626762256e+000	 1.964354748895379e+000	 1.112012199158853e+001
 3.074468510735240e+000	 1.998045032338640e+000	 1.107662176027687e+001
 3.052442367516636e+000	 2.031535318394142e+000	 1.103351102299309e+001
 3.030026880021336e+000	 2.064818861901898e+000	 1.101288919788757e+001
 3.007224884231966e+000	 2.097888963455511e+000	 1.101244386850437e+001
 2.984039368290266e+000	 2.130738973703105e+000	 1.102971983020372e+001
 3.221567719534899e+000	 1.806181792153683e+000	 1.115455643273020e+001
 3.201785765048789e+000	 1.841021107572606e+000	 1.116048757621132e+001
 3.181597755035698e+000	 1.875693481314890e+000	 1.116154422236176e+001
 3.161005612357593e+000	 1.910191953999462e+000	 1.115437199586543e+001
 3.140011416462942e+000	 1.944509590579075e+000	 1.113556281951425e+001
 3.118617403193275e+000	 1.978639484684598e+000	 1.110169203810900e+001
 3.096825964446625e+000	 2.012574762977862e+000	 1.105241945898229e+001
 3.074639647697041e+000	 2.046308589507667e+000	 1.101728975150856e+001
 3.052061155369497e+000	 2.079834170063415e+000	 1.100263502811808e+001
 3.029093344069806e+000	 2.113144756520817e+000	 1.100599547761502e+001
 3.005739223669391e+000	 2.146233651174094e+000	 1.102484164012230e+001
 3.244825743070775e+000	 1.819221474163497e+000	 1.114619835988791e+001
 3.224900973283702e+000	 1.854312311104829e+000	 1.115306575038258e+001
 3.204567216462507e+000	 1.889235001138423e+000	 1.115319467022637e+001
 3.183826409351194e+000	 1.923982534640148e+000	 1.114312383909104e+001
 3.162680646410756e+000	 1.958547926495382e+000	 1.111933127310097e+001
 3.141132179624304e+000	 1.992924220474648e+000	 1.107827291544100e+001
 3.119183418158108e+000	 2.027104493617908e+000	 1.103043888155699e+001
 3.096836927877633e+000	 2.061081860622007e+000	 1.100249279073713e+001
 3.074095430717927e+000	 2.094849478225728e+000	 1.099295073484358e+001
 3.050961803907982e+000	 2.128400549586891e+000	 1.099930996714419e+001
 3.027439079048901e+000	 2.161728328645818e+000	 1.101899742802868e+001
 3.268083766606454e+000	 1.832261156173944e+000	 1.113556182255719e+001
 3.248016181518426e+000	 1.867603514637696e+000	 1.114308500624724e+001
 3.227536677889154e+000	 1.902776520962612e+000	 1.114189700649219e+001
 3.206647206344684e+000	 1.937773115281502e+000	 1.112844699159199e+001
 3.185349876358512e+000	 1.972586262412363e+000	 1.109911734100734e+001
 3.163646956055338e+000	 2.007208956265380e+000	 1.105122507249650e+001
 3.141540871869665e+000	 2.041634224258642e+000	 1.101081668258912e+001
 3.119034208058361e+000	 2.075855131737030e+000	 1.098921850102247e+001
 3.096129706066546e+000	 2.109864786388716e+000	 1.098399070024430e+001
 3.072830263746392e+000	 2.143656342653623e+000	 1.099261633823434e+001
 3.049138934428674e+000	 2.177223006118176e+000	 1.101250873519125e+001
 3.291341790142000e+000	 1.845300838184841e+000	 1.112316554139817e+001
 3.271131389753024e+000	 1.880894718171027e+000	 1.113099580026527e+001
 3.250506139315697e+000	 1.916318040787283e+000	 1.112805659399014e+001
 3.229468003338097e+000	 1.951563695923357e+000	 1.111072423909737e+001
 3.208019106306228e+000	 1.986624598329864e+000	 1.107530304818134e+001
 3.186161732486373e+000	 2.021493692056648e+000	 1.102646656056671e+001
 3.163898325581261e+000	 2.056163954899922e+000	 1.099359618866139e+001
 3.141231488239165e+000	 2.090628402852606e+000	 1.097754605330536e+001
 3.118163981415277e+000	 2.124880094552258e+000	 1.097588868648688e+001
 3.094698723584940e+000	 2.158912135720905e+000	 1.098612104969859e+001
 3.070838789808597e+000	 2.192717683591068e+000	 1.100567216146735e+001
 3.314599813677478e+000	 1.858340520196004e+000	 1.110951903186601e+001
 3.294246597987558e+000	 1.894185921704647e+000	 1.111724286973388e+001
 3.273475600742184e+000	 1.929859560612265e+000	 1.111207607926658e+001
 3.252288800331470e+000	 1.965354276565549e+000	 1.109033817663553e+001
 3.230688336253921e+000	 2.000662934247727e+000	 1.104827999355671e+001
 3.208676508917402e+000	 2.035778427848301e+000	 1.100494789064091e+001
 3.186255779292868e+000	 2.070693685541607e+000	 1.097880259742304e+001
 3.163428768419997e+000	 2.105401673968605e+000	 1.096753562634401e+001
 3.140198256764044e+000	 2.139895402716236e+000	 1.096875811173499e+001
 3.116567183423525e+000	 2.174167928788625e+000	 1.098000838969125e+001
 3.092538645188554e+000	 2.208212361064393e+000	 1.099875984886521e+001
 3.337857837212957e+000	 1.871380202207249e+000	 1.109514474790972e+001
 3.317361806222093e+000	 1.907477125238375e+000	 1.110226543285340e+001
 3.296445062168671e+000	 1.943401080437388e+000	 1.109435559294707e+001
 3.275109597324840e+000	 1.979144857207913e+000	 1.106767143011473e+001
 3.253357566201609e+000	 2.014701270165795e+000	 1.102212872113150e+001
 3.231191285348421e+000	 2.050063163640193e+000	 1.098666049476777e+001
 3.208613233004459e+000	 2.085223416183562e+000	 1.096644313645567e+001
 3.185626048600800e+000	 2.120174945084899e+000	 1.095922862492970e+001
 3.162232532112769e+000	 2.154910710880527e+000	 1.096269234445099e+001
 3.138435643262050e+000	 2.189423721856673e+000	 1.097444086223539e+001
 3.114238500568428e+000	 2.223707038538050e+000	 1.099201997582314e+001
 3.361115860748503e+000	 1.884419884218392e+000	 1.108136494862488e+001
 3.340477014456691e+000	 1.920768328772035e+000	 1.108656983976299e+001
 3.319414523595212e+000	 1.956942600262478e+000	 1.107529297173116e+001
 3.297930394318245e+000	 1.992935437850285e+000	 1.104310690076973e+001
 3.276026796149310e+000	 2.028739606083914e+000	 1.100002477277165e+001
 3.253706061779425e+000	 2.064347899432174e+000	 1.097157829418016e+001
 3.230970686716002e+000	 2.099753146825645e+000	 1.095650724397163e+001
 3.207823328781521e+000	 2.134948216201357e+000	 1.095264791807992e+001
 3.184266807461373e+000	 2.169926019045013e+000	 1.095776501510202e+001
 3.160304103100417e+000	 2.204679514924937e+000	 1.096955958788719e+001
 3.135938355948102e+000	 2.239201716011940e+000	 1.098567726168743e+001
 3.384373884284180e+000	 1.897459566229251e+000	 1.106932647468189e+001
 3.363592222691413e+000	 1.934059532305448e+000	 1.107175143614934e+001
 3.342383985021857e+000	 1.970484120087366e+000	 1.105542917188650e+001
 3.320751191311725e+000	 2.006726018492501e+000	 1.101775845001546e+001
 3.298696026097039e+000	 2.042777942001923e+000	 1.098192745658523e+001
 3.276220838210407e+000	 2.078632635224096e+000	 1.095965786091602e+001
 3.253328140427467e+000	 2.114282877467717e+000	 1.094896677029410e+001
 3.230020608962105e+000	 2.149721487317850e+000	 1.094779809624788e+001
 3.206301082809781e+000	 2.184941327209573e+000	 1.095403034443391e+001
 3.182172562938526e+000	 2.219935307993310e+000	 1.096548471785714e+001
 3.157638211327462e+000	 2.254696393485963e+000	 1.097993348089788e+001
 3.407631907820056e+000	 1.910499248239640e+000	 1.105982450907094e+001
 3.386707430926326e+000	 1.947350735838436e+000	 1.105888557456664e+001
 3.365353446448659e+000	 1.984025639911878e+000	 1.103663087494616e+001
 3.343571988305312e+000	 2.020516599134396e+000	 1.099667834704750e+001
 3.321365256044816e+000	 2.056816277919669e+000	 1.096777866648162e+001
 3.298735614641365e+000	 2.092917371015812e+000	 1.095083860023781e+001
 3.275685594138827e+000	 2.128812608109640e+000	 1.094377619912689e+001
 3.252217889142500e+000	 2.164494758434246e+000	 1.094466574664055e+001
 3.228335358157913e+000	 2.199956635374086e+000	 1.095152348752087e+001
 3.204041022776280e+000	 2.235191101061679e+000	 1.096231586094555e+001
 3.179338066706392e+000	 2.270191070960018e+000	 1.097496798641726e+001
 3.430889931356198e+000	 1.923538930249378e+000	 1.105363310478532e+001
 3.409822639161488e+000	 1.960641939370820e+000	 1.104869635592918e+001
 3.388322907875672e+000	 1.997567159735842e+000	 1.101991170982653e+001
 3.366392785299044e+000	 2.034307179775804e+000	 1.098237563647643e+001
 3.344034485992657e+000	 2.070854613836993e+000	 1.095778428755133e+001
 3.321250391072290e+000	 2.107202106807173e+000	 1.094504295286437e+001
 3.298043047850050e+000	 2.143342338751271e+000	 1.094087288767412e+001
 3.274415169322649e+000	 2.179268029550415e+000	 1.094321974578524e+001
 3.250369633505694e+000	 2.214971943538432e+000	 1.095026089284264e+001
 3.225909482613576e+000	 2.250446894129934e+000	 1.096013252268369e+001
 3.201037922084772e+000	 2.285685748434004e+000	 1.097093824196642e+001
 2.984039368290266e+000	 2.130738973703105e+000	 1.102971983020372e+001
 2.960473470602511e+000	 2.163362296908118e+000	 1.105206102910539e+001
 2.936530476140903e+000	 2.195752392999228e+000	 1.106854477501654e+001
 2.912213817674248e+000	 2.227902783885794e+000	 1.107932859751917e+001
 2.887527075140474e+000	 2.259807058363652e+000	 1.108465215639769e+001
 2.862473974030363e+000	 2.291458876269918e+000	 1.108484055344302e+001
 2.837058383631288e+000	 2.322851972591213e+000	 1.108030741183259e+001
 2.811284315132539e+000	 2.353980161519819e+000	 1.107155768864403e+001
 2.785155919594004e+000	 2.384837340452332e+000	 1.105919018723861e+001
 2.758677485780279e+000	 2.415417493925475e+000	 1.104389973772013e+001
 2.731853437862469e+000	 2.445714697483801e+000	 1.102647901542740e+001
 3.005739223669391e+000	 2.146233651174094e+000	 1.102484164012230e+001
 2.982001955396933e+000	 2.179094210322679e+000	 1.104733117747059e+001
 2.957884848112856e+000	 2.211719846336016e+000	 1.106348469112959e+001
 2.933391359548965e+000	 2.244104034014960e+000	 1.107358291114740e+001
 2.908525095676397e+000	 2.276240315533232e+000	 1.107799447118376e+001
 2.883289809077596e+000	 2.308122304622443e+000	 1.107717921525581e+001
 2.857689397177288e+000	 2.339743690710203e+000	 1.107169125716907e+001
 2.831727900334018e+000	 2.371098243005754e+000	 1.106218175685254e+001
 2.805409499794067e+000	 2.402179814527716e+000	 1.104940137907253e+001
 2.778738515509805e+000	 2.432982346068520e+000	 1.103420240155825e+001
 2.751719403824789e+000	 2.463499870090225e+000	 1.101754044142787e+001
 3.027439079048901e+000	 2.161728328645818e+000	 1.101899742802868e+001
 3.003530440191761e+000	 2.194826123737928e+000	 1.104104598930098e+001
 2.979239220085216e+000	 2.227687299673442e+000	 1.105644524653407e+001
 2.954568901424073e+000	 2.260305284144704e+000	 1.106557617556021e+001
 2.929523116212681e+000	 2.292673572703324e+000	 1.106891233541243e+001
 2.904105644125149e+000	 2.324785732975416e+000	 1.106702321704367e+001
 2.878320410723559e+000	 2.356635408829572e+000	 1.106057733169747e+001
 2.852171485535715e+000	 2.388216324492002e+000	 1.105034500166968e+001
 2.825663079994292e+000	 2.419522288603349e+000	 1.103720081752728e+001
 2.798799545239443e+000	 2.450547198211752e+000	 1.102212572749883e+001
 2.771585369787176e+000	 2.481285042696783e+000	 1.100620872670486e+001
 3.049138934428674e+000	 2.177223006118176e+000	 1.101250873519125e+001
 3.025058924986865e+000	 2.210558037153778e+000	 1.103362056536447e+001
 3.000593592057848e+000	 2.243654753011425e+000	 1.104791996387021e+001
 2.975746443299435e+000	 2.276506534274954e+000	 1.105586563683966e+001
 2.950521136749184e+000	 2.309106829873869e+000	 1.105801247606797e+001
 2.924921479172883e+000	 2.341449161328783e+000	 1.105501499667733e+001
 2.898951424269965e+000	 2.373527126949274e+000	 1.104763050322148e+001
 2.872615070737500e+000	 2.405334405978519e+000	 1.103672194534398e+001
 2.845916660194561e+000	 2.436864762679191e+000	 1.102326042550434e+001
 2.818860574969084e+000	 2.468112050355137e+000	 1.100832732301735e+001
 2.791451335749533e+000	 2.499070215303443e+000	 1.099311600070386e+001
 3.070838789808597e+000	 2.192717683591068e+000	 1.100567216146735e+001
 3.046587409782116e+000	 2.226289950570137e+000	 1.102544266277953e+001
 3.021947964030613e+000	 2.259622206349883e+000	 1.103837306934719e+001
 2.996923985174902e+000	 2.292707784405640e+000	 1.104497772490093e+001
 2.971519157285764e+000	 2.325540087044802e+000	 1.104586970049287e+001
 2.945737314220657e+000	 2.358112589682488e+000	 1.104176436803821e+001
 2.919582437816374e+000	 2.390418845069261e+000	 1.103348269287182e+001
 2.893058655939246e+000	 2.422452487465266e+000	 1.102195420466269e+001
 2.866170240394755e+000	 2.454207236755210e+000	 1.100821960749867e+001
 2.838921604698616e+000	 2.485676902498641e+000	 1.099343299176795e+001
 2.811317301711755e+000	 2.516855387910169e+000	 1.097886361261331e+001
 3.092538645188554e+000	 2.208212361064393e+000	 1.099875984886521e+001
 3.068115894577388e+000	 2.242021863986914e+000	 1.101687328997102e+001
 3.043302336003374e+000	 2.275589659688736e+000	 1.102824018260801e+001
 3.018101527050339e+000	 2.308909034536690e+000	 1.103340882225185e+001
 2.992517177822280e+000	 2.341973344216064e+000	 1.103302772851830e+001
 2.966553149268331e+000	 2.374776018036477e+000	 1.102784940150023e+001
 2.940213451362647e+000	 2.407310563189484e+000	 1.101873378944324e+001
 2.913502241140828e+000	 2.439570568952202e+000	 1.100665142518663e+001
 2.886423820594753e+000	 2.471549710831363e+000	 1.099268619032907e+001
 2.858982634427930e+000	 2.503241754642231e+000	 1.097803766797648e+001
 2.831183267673744e+000	 2.534640560516928e+000	 1.096402304717353e+001
 3.114238500568428e+000	 2.223707038538050e+000	 1.099201997582314e+001
 3.089644379372549e+000	 2.257753777404020e+000	 1.100824730819758e+001
 3.064656707975995e+000	 2.291557113027905e+000	 1.101792900967971e+001
 3.039279068925602e+000	 2.325110284668035e+000	 1.102162603299230e+001
 3.013515198358589e+000	 2.358406601387590e+000	 1.102000002260463e+001
 2.987368984315768e+000	 2.391439446390696e+000	 1.101381730078794e+001
 2.960844464908652e+000	 2.424202281309898e+000	 1.100395255904689e+001
 2.933945826342113e+000	 2.456688650439283e+000	 1.099139221028828e+001
 2.906677400794436e+000	 2.488892184907616e+000	 1.097723735868426e+001
 2.879043664156916e+000	 2.520806606785870e+000	 1.096270634616365e+001
 2.851049233635401e+000	 2.552425733123689e+000	 1.094913683680448e+001
 3.135938355948102e+000	 2.239201716011940e+000	 1.098567726168743e+001
 3.111172864167472e+000	 2.273485690821364e+000	 1.099987403933197e+001
 3.086011079948337e+000	 2.307524566367307e+000	 1.100782003886013e+001
 3.060456610800552e+000	 2.341311534799600e+000	 1.101006795204038e+001
 3.034513218894551e+000	 2.374839858559317e+000	 1.100727061608794e+001
 3.008184819362824e+000	 2.408102874745090e+000	 1.100018527638685e+001
 2.981475478454253e+000	 2.441093999430454e+000	 1.098967755030475e+001
 2.954389411542977e+000	 2.473806731926469e+000	 1.097672504524493e+001
 2.926930980993685e+000	 2.506234658983931e+000	 1.096242058573727e+001
 2.899104693885465e+000	 2.538371458929527e+000	 1.094797500642409e+001
 2.870915199596624e+000	 2.570210905730416e+000	 1.093471947023121e+001
 3.157638211327462e+000	 2.254696393485963e+000	 1.097993348089788e+001
 3.132701348962026e+000	 2.289217604238856e+000	 1.099203787959411e+001
 3.107365451920266e+000	 2.323492019706863e+000	 1.099826723939927e+001
 3.081634152675045e+000	 2.357512784931316e+000	 1.099914543457567e+001
 3.055511239430021e+000	 2.391273115731184e+000	 1.099529493962467e+001
 3.029000654409364e+000	 2.424766303099606e+000	 1.098744141567130e+001
 3.002106491999318e+000	 2.457985717551106e+000	 1.097641799530112e+001
 2.974832996743292e+000	 2.490924813413718e+000	 1.096316921662502e+001
 2.947184561192381e+000	 2.523577133060271e+000	 1.094875455906406e+001
 2.919165723613464e+000	 2.555936311073164e+000	 1.093435153547603e+001
 2.890781165557315e+000	 2.587996078337078e+000	 1.092125829777450e+001
 3.179338066706392e+000	 2.270191070960018e+000	 1.097496798641726e+001
 3.154229833756086e+000	 2.304949517656405e+000	 1.098499891895186e+001
 3.128719823891644e+000	 2.339459473046494e+000	 1.098959876284222e+001
 3.102811694548940e+000	 2.373714035063113e+000	 1.098924236568801e+001
 3.076509259964860e+000	 2.407706372903129e+000	 1.098450064591929e+001
 3.049816489455246e+000	 2.441429731454187e+000	 1.097604554990716e+001
 3.022737505543708e+000	 2.474877435671805e+000	 1.096465470649320e+001
 2.995276581942927e+000	 2.508042894900989e+000	 1.095121572719205e+001
 2.967438141390402e+000	 2.540919607136599e+000	 1.093673010209169e+001
 2.939226753340806e+000	 2.573501163216749e+000	 1.092231664368237e+001
 2.910647131517372e+000	 2.605781250943639e+000	 1.090921443346693e+001
 3.201037922084772e+000	 2.285685748434004e+000	 1.097093824196642e+001
 3.175758318549517e+000	 2.320681431073920e+000	 1.097899356592096e+001
 3.150074195862331e+000	 2.355426926386116e+000	 1.098211764690737e+001
 3.123989236422097e+000	 2.389915285194917e+000	 1.098071643022323e+001
 3.097507280498922e+000	 2.424139630075088e+000	 1.097528843281755e+001
 3.070632324500330e+000	 2.458093159808781e+000	 1.096643011827725e+001
 3.043368519087291e+000	 2.491769153792504e+000	 1.095484096977308e+001
 3.015720167141756e+000	 2.525160976388238e+000	 1.094132820653933e+001
 2.987691721587631e+000	 2.558262081212876e+000	 1.092681109128763e+001
 2.959287783067377e+000	 2.591066015360246e+000	 1.091232477823545e+001
 2.930513097476696e+000	 2.623566423550066e+000	 1.089902365414448e+001
 2.731853437862469e+000	 2.445714697483801e+000	 1.102647901542740e+001
 2.704692433297279e+000	 2.475718642763606e+000	 1.100536237699714e+001
 2.677195161938863e+000	 2.505428168867732e+000	 1.097846606746418e+001
 2.649366439270082e+000	 2.534837651707582e+000	 1.094677953098785e+001
 2.621211205591807e+000	 2.563941572878231e+000	 1.091367948637434e+001
 2.592734523104852e+000	 2.592734523104852e+000	 1.087967529531338e+001
 2.563941572878231e+000	 2.621211205591807e+000	 1.084490945256975e+001
 2.534837651707581e+000	 2.649366439270081e+000	 1.080948904789495e+001
 2.505428168867732e+000	 2.677195161938863e+000	 1.077399313827566e+001
 2.475718642763605e+000	 2.704692433297279e+000	 1.074342547234085e+001
 2.445714697483802e+000	 2.731853437862469e+000	 1.071902514009222e+001
 2.751719403824789e+000	 2.463499870090225e+000	 1.101754044142787e+001
 2.724360885152517e+000	 2.493722003266977e+000	 1.099782321621656e+001
 2.696663654363745e+000	 2.523647576259597e+000	 1.097272482545214e+001
 2.668632561959409e+000	 2.553270924081258e+000	 1.094225229007560e+001
 2.640272584166119e+000	 2.582586488197333e+000	 1.090832245303075e+001
 2.611588819996889e+000	 2.611588819996888e+000	 1.087339987090408e+001
 2.582586488197333e+000	 2.640272584166119e+000	 1.083752136945625e+001
 2.553270924081256e+000	 2.668632561959408e+000	 1.080069036530231e+001
 2.523647576259597e+000	 2.696663654363745e+000	 1.076667315188374e+001
 2.493722003266977e+000	 2.724360885152517e+000	 1.073829298872011e+001
 2.463499870090225e+000	 2.751719403824789e+000	 1.071532910157427e+001
 2.771585369787176e+000	 2.481285042696783e+000	 1.100620872670486e+001
 2.744029337007786e+000	 2.511725363770436e+000	 1.098777339126676e+001
 2.716132146788635e+000	 2.541866983651511e+000	 1.096423063361348e+001
 2.687898684648724e+000	 2.571704196454953e+000	 1.093545556820723e+001
 2.659333962740416e+000	 2.601231403516437e+000	 1.090154964045643e+001
 2.630443116888912e+000	 2.630443116888912e+000	 1.086538645861818e+001
 2.601231403516437e+000	 2.659333962740415e+000	 1.082805267676124e+001
 2.571704196454952e+000	 2.687898684648725e+000	 1.079130365443564e+001
 2.541866983651512e+000	 2.716132146788636e+000	 1.075966665785099e+001
 2.511725363770435e+000	 2.744029337007786e+000	 1.073314249958946e+001
 2.481285042696783e+000	 2.771585369787176e+000	 1.071137700885230e+001
 2.791451335749533e+000	 2.499070215303443e+000	 1.099311600070386e+001
 2.763697788862998e+000	 2.529728724273948e+000	 1.097581720113821e+001
 2.735600639213451e+000	 2.560086391043440e+000	 1.095356563774879e+001
 2.707164807337962e+000	 2.590137468828627e+000	 1.092612886842226e+001
 2.678395341314634e+000	 2.619876318835490e+000	 1.089336554391201e+001
 2.649297413780869e+000	 2.649297413780869e+000	 1.085594417767694e+001
 2.619876318835491e+000	 2.678395341314634e+000	 1.081733463713488e+001
 2.590137468828628e+000	 2.707164807337962e+000	 1.078269305575931e+001
 2.560086391043440e+000	 2.735600639213451e+000	 1.075303030877745e+001
 2.529728724273947e+000	 2.763697788862998e+000	 1.072802500791879e+001
 2.499070215303442e+000	 2.791451335749532e+000	 1.070721566921976e+001
 2.811317301711755e+000	 2.516855387910169e+000	 1.097886361261331e+001
 2.783366240718062e+000	 2.547732084777479e+000	 1.096252924535306e+001
 2.755069131638113e+000	 2.578305798435343e+000	 1.094128319283523e+001
 2.726430930027048e+000	 2.608570741202241e+000	 1.091480922793945e+001
 2.697456719888714e+000	 2.638521234154451e+000	 1.088288378308392e+001
 2.668151710672706e+000	 2.668151710672706e+000	 1.084538655063085e+001
 2.638521234154452e+000	 2.697456719888714e+000	 1.080770744472480e+001
 2.608570741202240e+000	 2.726430930027047e+000	 1.077493616551764e+001
 2.578305798435343e+000	 2.755069131638112e+000	 1.074683431362352e+001
 2.547732084777478e+000	 2.783366240718062e+000	 1.072300544513741e+001
 2.516855387910169e+000	 2.811317301711755e+000	 1.070290622177804e+001
 2.831183267673744e+000	 2.534640560516928e+000	 1.096402304717353e+001
 2.803034692572887e+000	 2.565735445280995e+000	 1.094845531771456e+001
 2.774537624062540e+000	 2.596525205827184e+000	 1.092790873923844e+001
 2.745697052715913e+000	 2.627004013575751e+000	 1.090200650685070e+001
 2.716518098462591e+000	 2.657166149473270e+000	 1.087046647780420e+001
 2.687006007564368e+000	 2.687006007564368e+000	 1.083464422245891e+001
 2.657166149473270e+000	 2.716518098462591e+000	 1.079949159874420e+001
 2.627004013575750e+000	 2.745697052715913e+000	 1.076812223575089e+001
 2.596525205827185e+000	 2.774537624062540e+000	 1.074116090314738e+001
 2.565735445280996e+000	 2.803034692572888e+000	 1.071816115125457e+001
 2.534640560516928e+000	 2.831183267673744e+000	 1.069852263477825e+001
 2.851049233635401e+000	 2.552425733123689e+000	 1.094913683680448e+001
 2.822703144427385e+000	 2.583738805784463e+000	 1.093411329747224e+001
 2.794006116486655e+000	 2.614744613218929e+000	 1.091394067721095e+001
 2.764963175404485e+000	 2.645437285949114e+000	 1.088820424971592e+001
 2.735579477036205e+000	 2.675811064791898e+000	 1.085688186961774e+001
 2.705860304455802e+000	 2.705860304455801e+000	 1.082446370381888e+001
 2.675811064791898e+000	 2.735579477036205e+000	 1.079262458020220e+001
 2.645437285949114e+000	 2.764963175404485e+000	 1.076235062823602e+001
 2.614744613218929e+000	 2.794006116486654e+000	 1.073610279538025e+001
 2.583738805784463e+000	 2.822703144427385e+000	 1.071358035495028e+001
 2.552425733123689e+000	 2.851049233635401e+000	 1.069415020282580e+001
 2.870915199596624e+000	 2.570210905730416e+000	 1.093471947023121e+001
 2.842371596281464e+000	 2.601742166287846e+000	 1.091999403802807e+001
 2.813474608910373e+000	 2.632964020610537e+000	 1.089985123975969e+001
 2.784229298092693e+000	 2.663870558322291e+000	 1.087386054616093e+001
 2.754640855609494e+000	 2.694455980110292e+000	 1.084436624923255e+001
 2.724714601346952e+000	 2.724714601346950e+000	 1.081510642165874e+001
 2.694455980110293e+000	 2.754640855609494e+000	 1.078619827785527e+001
 2.663870558322291e+000	 2.784229298092693e+000	 1.075772926846689e+001
 2.632964020610537e+000	 2.813474608910373e+000	 1.073176166113746e+001
 2.601742166287846e+000	 2.842371596281464e+000	 1.070936065363744e+001
 2.570210905730416e+000	 2.870915199596625e+000	 1.068988404395452e+001
 2.890781165557315e+000	 2.587996078337078e+000	 1.092125829777450e+001
 2.862040048135035e+000	 2.619745526791112e+000	 1.090656225330226e+001
 2.832943101333616e+000	 2.651183428001972e+000	 1.088608736396066e+001
 2.803495420780467e+000	 2.682303830695239e+000	 1.086020919770079e+001
 2.773702234182394e+000	 2.713100895428402e+000	 1.083349689712260e+001
 2.743568898237764e+000	 2.743568898237764e+000	 1.080681871770193e+001
 2.713100895428401e+000	 2.773702234182393e+000	 1.078026899480125e+001
 2.682303830695240e+000	 2.803495420780468e+000	 1.075392277867869e+001
 2.651183428001973e+000	 2.832943101333616e+000	 1.072824658956368e+001
 2.619745526791112e+000	 2.862040048135035e+000	 1.070560749349707e+001
 2.587996078337078e+000	 2.890781165557315e+000	 1.068582759657636e+001
 2.910647131517372e+000	 2.605781250943639e+000	 1.090921443346693e+001
 2.881708499988006e+000	 2.637748887294224e+000	 1.089425740186987e+001
 2.852411593756304e+000	 2.669402835393198e+000	 1.087309416293992e+001
 2.822761543467736e+000	 2.700737103067920e+000	 1.084896817686224e+001
 2.792763612754842e+000	 2.731745810746180e+000	 1.082450431545946e+001
 2.762423195128184e+000	 2.762423195128184e+000	 1.079983204989556e+001
 2.731745810746180e+000	 2.792763612754843e+000	 1.077507226585716e+001
 2.700737103067920e+000	 2.822761543467736e+000	 1.075032548085515e+001
 2.669402835393198e+000	 2.852411593756304e+000	 1.072566017173230e+001
 2.637748887294224e+000	 2.881708499988007e+000	 1.070243264948743e+001
 2.605781250943640e+000	 2.910647131517372e+000	 1.068209111631288e+001
 2.930513097476696e+000	 2.623566423550066e+000	 1.089902365414448e+001
 2.901376951840289e+000	 2.655752247797149e+000	 1.088349456897478e+001
 2.871880086178356e+000	 2.687622242784177e+000	 1.086251984440235e+001
 2.842027666154427e+000	 2.719170375440287e+000	 1.084038245816798e+001
 2.811824991326779e+000	 2.750390726063579e+000	 1.081760413389551e+001
 2.781277492018158e+000	 2.781277492018158e+000	 1.079436319366586e+001
 2.750390726063578e+000	 2.811824991326778e+000	 1.077082906178956e+001
 2.719170375440287e+000	 2.842027666154426e+000	 1.074714986219476e+001
 2.687622242784177e+000	 2.871880086178356e+000	 1.072344012949977e+001
 2.655752247797149e+000	 2.901376951840288e+000	 1.069995270532892e+001
 2.623566423550066e+000	 2.930513097476694e+000	 1.067879017271389e+001
 2.445714697483802e+000	 2.731853437862469e+000	 1.071902514009222e+001
 2.415417493925476e+000	 2.758677485780278e+000	 1.069607078054117e+001
 2.384837340452332e+000	 2.785155919594005e+000	 1.067040251083914e+001
 2.353980161519820e+000	 2.811284315132540e+000	 1.064262200651511e+001
 2.322851972591212e+000	 2.837058383631288e+000	 1.061322549255427e+001
 2.291458876269918e+000	 2.862473974030362e+000	 1.058261002783986e+001
 2.259807058363652e+000	 2.887527075140474e+000	 1.055108030994621e+001
 2.227902783885794e+000	 2.912213817674249e+000	 1.051885592298020e+001
 2.195752392999227e+000	 2.936530476140903e+000	 1.048607894868993e+001
 2.163362296908118e+000	 2.960473470602511e+000	 1.045282185929493e+001
 2.130738973703105e+000	 2.984039368290266e+000	 1.041909560944771e+001
 2.463499870090225e+000	 2.751719403824789e+000	 1.071532910157427e+001
 2.432982346068520e+000	 2.778738515509805e+000	 1.069290071416010e+001
 2.402179814527717e+000	 2.805409499794068e+000	 1.066695390661249e+001
 2.371098243005754e+000	 2.831727900334018e+000	 1.063832223151651e+001
 2.339743690710204e+000	 2.857689397177288e+000	 1.060773083507589e+001
 2.308122304622443e+000	 2.883289809077596e+000	 1.057580275183672e+001
 2.276240315533231e+000	 2.908525095676397e+000	 1.054306574364283e+001
 2.244104034014959e+000	 2.933391359548965e+000	 1.050995960233194e+001
 2.211719846336016e+000	 2.957884848112856e+000	 1.047684383307484e+001
 2.179094210322679e+000	 2.982001955396933e+000	 1.044400563339632e+001
 2.146233651174095e+000	 3.005739223669392e+000	 1.041166808180631e+001
 2.481285042696783e+000	 2.771585369787176e+000	 1.071137700885230e+001
 2.450547198211751e+000	 2.798799545239443e+000	 1.068936503890321e+001
 2.419522288603349e+000	 2.825663079994292e+000	 1.066315206088316e+001
 2.388216324492002e+000	 2.852171485535715e+000	 1.063376753941278e+001
 2.356635408829572e+000	 2.878320410723559e+000	 1.060212959426133e+001
 2.324785732975417e+000	 2.904105644125149e+000	 1.056905138671881e+001
 2.292673572703324e+000	 2.929523116212680e+000	 1.053524807442365e+001
 2.260305284144704e+000	 2.954568901424074e+000	 1.050134425067818e+001
 2.227687299673442e+000	 2.979239220085217e+000	 1.046788178154432e+001
 2.194826123737930e+000	 3.003530440191762e+000	 1.043532795205038e+001
 2.161728328645818e+000	 3.027439079048901e+000	 1.040408383166360e+001
 2.499070215303442e+000	 2.791451335749532e+000	 1.070721566921976e+001
 2.468112050355138e+000	 2.818860574969083e+000	 1.068550732156477e+001
 2.436864762679192e+000	 2.845916660194561e+000	 1.065903863359770e+001
 2.405334405978519e+000	 2.872615070737500e+000	 1.062899967734989e+001
 2.373527126949274e+000	 2.898951424269965e+000	 1.059646624856540e+001
 2.341449161328784e+000	 2.924921479172883e+000	 1.056240642613408e+001
 2.309106829873869e+000	 2.950521136749184e+000	 1.052768772459347e+001
 2.276506534274954e+000	 2.975746443299434e+000	 1.049308475196117e+001
 2.243654753011425e+000	 3.000593592057848e+000	 1.045928728228438e+001
 2.210558037153777e+000	 3.025058924986865e+000	 1.042690865023167e+001
 2.177223006118176e+000	 3.049138934428674e+000	 1.039649437381196e+001
 2.516855387910169e+000	 2.811317301711755e+000	 1.070290622177804e+001
 2.485676902498641e+000	 2.838921604698616e+000	 1.068138590452587e+001
 2.454207236755210e+000	 2.866170240394754e+000	 1.065467052826899e+001
 2.422452487465267e+000	 2.893058655939247e+000	 1.062407610357793e+001
 2.390418845069261e+000	 2.919582437816373e+000	 1.059080142985057e+001
 2.358112589682489e+000	 2.945737314220657e+000	 1.055593490930394e+001
 2.325540087044803e+000	 2.971519157285764e+000	 1.052046197908462e+001
 2.292707784405640e+000	 2.996923985174902e+000	 1.048527306968956e+001
 2.259622206349883e+000	 3.021947964030614e+000	 1.045117199487896e+001
 2.226289950570137e+000	 3.046587409782117e+000	 1.041888467609823e+001
 2.192717683591068e+000	 3.070838789808597e+000	 1.038906810312252e+001
 2.534640560516928e+000	 2.831183267673744e+000	 1.069852263477825e+001
 2.503241754642232e+000	 2.858982634427929e+000	 1.067707242239615e+001
 2.471549710831364e+000	 2.886423820594752e+000	 1.065011843040518e+001
 2.439570568952202e+000	 2.913502241140828e+000	 1.061906855085098e+001
 2.407310563189484e+000	 2.940213451362647e+000	 1.058521051563031e+001
 2.374776018036477e+000	 2.966553149268331e+000	 1.054971904666536e+001
 2.341973344216064e+000	 2.992517177822279e+000	 1.051366364972763e+001
 2.308909034536690e+000	 3.018101527050339e+000	 1.047801695573389e+001
 2.275589659688735e+000	 3.043302336003374e+000	 1.044366351018478e+001
 2.242021863986915e+000	 3.068115894577389e+000	 1.041140890914886e+001
 2.208212361064393e+000	 3.092538645188554e+000	 1.038198917882856e+001
 2.552425733123689e+000	 2.851049233635401e+000	 1.069415020282580e+001
 2.520806606785871e+000	 2.879043664156916e+000	 1.067265031838877e+001
 2.488892184907616e+000	 2.906677400794436e+000	 1.064546534550198e+001
 2.456688650439283e+000	 2.933945826342114e+000	 1.061406158914726e+001
 2.424202281309897e+000	 2.960844464908653e+000	 1.057978222028692e+001
 2.391439446390696e+000	 2.987368984315767e+000	 1.054385484400690e+001
 2.358406601387589e+000	 3.013515198358590e+000	 1.050739973737046e+001
 2.325110284668035e+000	 3.039279068925603e+000	 1.047143865613024e+001
 2.291557113027904e+000	 3.064656707975995e+000	 1.043690410614826e+001
 2.257753777404020e+000	 3.089644379372550e+000	 1.040464897300175e+001
 2.223707038538050e+000	 3.114238500568427e+000	 1.037545640182312e+001
 2.570210905730416e+000	 2.870915199596625e+000	 1.068988404395452e+001
 2.538371458929527e+000	 2.899104693885464e+000	 1.066821336044216e+001
 2.506234658983932e+000	 2.926930980993684e+000	 1.064080513661874e+001
 2.473806731926469e+000	 2.954389411542978e+000	 1.060915118774238e+001
 2.441093999430454e+000	 2.981475478454254e+000	 1.057461718531306e+001
 2.408102874745091e+000	 3.008184819362825e+000	 1.053845072517182e+001
 2.374839858559317e+000	 3.034513218894551e+000	 1.050179009195106e+001
 2.341311534799600e+000	 3.060456610800551e+000	 1.046567361403735e+001
 2.307524566367308e+000	 3.086011079948339e+000	 1.043104949976153e+001
 2.273485690821364e+000	 3.111172864167472e+000	 1.039878604305401e+001
 2.239201716011941e+000	 3.135938355948102e+000	 1.036968208530881e+001
 2.587996078337078e+000	 2.890781165557315e+000	 1.068582759657636e+001
 2.555936311073165e+000	 2.919165723613464e+000	 1.066386415709994e+001
 2.523577133060271e+000	 2.947184561192380e+000	 1.063624106155899e+001
 2.490924813413718e+000	 2.974832996743292e+000	 1.060444327666719e+001
 2.457985717551105e+000	 3.002106491999317e+000	 1.056982656862403e+001
 2.424766303099606e+000	 3.029000654409364e+000	 1.053362615339664e+001
 2.391273115731185e+000	 3.055511239430021e+000	 1.049696607062119e+001
 2.357512784931316e+000	 3.081634152675044e+000	 1.046086916998383e+001
 2.323492019706865e+000	 3.107365451920267e+000	 1.042626759534293e+001
 2.289217604238855e+000	 3.132701348962026e+000	 1.039401364926897e+001
 2.254696393485963e+000	 3.157638211327462e+000	 1.036489091912002e+001
 2.605781250943640e+000	 2.910647131517372e+000	 1.068209111631288e+001
 2.573501163216749e+000	 2.939226753340805e+000	 1.065971267316118e+001
 2.540919607136599e+000	 2.967438141390401e+000	 1.063188430967389e+001
 2.508042894900989e+000	 2.995276581942927e+000	 1.060005230757895e+001
 2.474877435671805e+000	 3.022737505543709e+000	 1.056553063298554e+001
 2.441429731454189e+000	 3.049816489455247e+000	 1.052951025135121e+001
 2.407706372903129e+000	 3.076509259964860e+000	 1.049306919401486e+001
 2.373714035063113e+000	 3.102811694548940e+000	 1.045718325953500e+001
 2.339459473046493e+000	 3.128719823891644e+000	 1.042273722931770e+001
 2.304949517656405e+000	 3.154229833756085e+000	 1.039053647432352e+001
 2.270191070960018e+000	 3.179338066706392e+000	 1.036131882801962e+001
 2.623566423550066e+000	 2.930513097476694e+000	 1.067879017271389e+001
 2.591066015360247e+000	 2.959287783067377e+000	 1.065587474511168e+001
 2.558262081212877e+000	 2.987691721587632e+000	 1.062785253830687e+001
 2.525160976388239e+000	 3.015720167141756e+000	 1.059609981407436e+001
 2.491769153792504e+000	 3.043368519087291e+000	 1.056185733359855e+001
 2.458093159808781e+000	 3.070632324500330e+000	 1.052624041994106e+001
 2.424139630075088e+000	 3.097507280498923e+000	 1.049024980074951e+001
 2.389915285194917e+000	 3.123989236422097e+000	 1.045478310850191e+001
 2.355426926386115e+000	 3.150074195862330e+000	 1.042064691166490e+001
 2.320681431073919e+000	 3.175758318549517e+000	 1.038856914733641e+001
 2.285685748434003e+000	 3.201037922084772e+000	 1.035921182425614e+001
 2.130738973703105e+000	 2.984039368290266e+000	 1.041909560944771e+001
 2.097888963455511e+000	 3.007224884231965e+000	 1.038249647832815e+001
 2.064818861901898e+000	 3.030026880021336e+000	 1.033854560656515e+001
 2.031535318394141e+000	 3.052442367516636e+000	 1.028411946670739e+001
 1.998045032338640e+000	 3.074468510735241e+000	 1.021618342281310e+001
 1.964354748895379e+000	 3.096102626762256e+000	 1.014910069595477e+001
 1.930471254663603e+000	 3.117342186515054e+000	 1.009356073603142e+001
 1.896401373359606e+000	 3.138184815363838e+000	 1.004620459400137e+001
 1.862151961492184e+000	 3.158628293608679e+000	 1.000365969509860e+001
 1.827729904041205e+000	 3.178670556813624e+000	 9.962598010628916e+000
 1.793142110144684e+000	 3.198309695998757e+000	 9.919790413941033e+000
 2.146233651174095e+000	 3.005739223669392e+000	 1.041166808180631e+001
 2.113144756520816e+000	 3.029093344069806e+000	 1.037791232703631e+001
 2.079834170063416e+000	 3.052061155369498e+000	 1.033851724717341e+001
 2.046308589507667e+000	 3.074639647697041e+000	 1.029022861319572e+001
 2.012574762977862e+000	 3.096825964446623e+000	 1.022982807197253e+001
 1.978639484684598e+000	 3.118617403193275e+000	 1.016035218803754e+001
 1.944509590579076e+000	 3.140011416462942e+000	 1.010153178362476e+001
 1.910191953999462e+000	 3.161005612357592e+000	 1.005200859465735e+001
 1.875693481314890e+000	 3.181597755035698e+000	 1.000824851782763e+001
 1.841021107572606e+000	 3.201785765048789e+000	 9.966774087976649e+000
 1.806181792153683e+000	 3.221567719534899e+000	 9.924221418607862e+000
 2.161728328645818e+000	 3.027439079048901e+000	 1.040408383166360e+001
 2.128400549586891e+000	 3.050961803907982e+000	 1.037268999300459e+001
 2.094849478225728e+000	 3.074095430717927e+000	 1.033720348024887e+001
 2.061081860622007e+000	 3.096836927877634e+000	 1.029427422421165e+001
 2.027104493617908e+000	 3.119183418158109e+000	 1.024058795236104e+001
 1.992924220474648e+000	 3.141132179624304e+000	 1.017354912430765e+001
 1.958547926495382e+000	 3.162680646410757e+000	 1.011067708728969e+001
 1.923982534640148e+000	 3.183826409351195e+000	 1.005822949089595e+001
 1.889235001138423e+000	 3.204567216462507e+000	 1.001253880848855e+001
 1.854312311104829e+000	 3.224900973283702e+000	 9.970006527959255e+000
 1.819221474163497e+000	 3.244825743070775e+000	 9.927162728022934e+000
 2.177223006118176e+000	 3.049138934428674e+000	 1.039649437381196e+001
 2.143656342653623e+000	 3.072830263746392e+000	 1.036701419765214e+001
 2.109864786388717e+000	 3.096129706066546e+000	 1.033481798337468e+001
 2.075855131737029e+000	 3.119034208058360e+000	 1.029649381556145e+001
 2.041634224258642e+000	 3.141540871869665e+000	 1.024866515295529e+001
 2.007208956265380e+000	 3.163646956055338e+000	 1.018800469455825e+001
 1.972586262412363e+000	 3.185349876358512e+000	 1.012100912738319e+001
 1.937773115281502e+000	 3.206647206344685e+000	 1.006488586981764e+001
 1.902776520962611e+000	 3.227536677889154e+000	 1.001654400642219e+001
 1.867603514637696e+000	 3.248016181518426e+000	 9.972291229596207e+000
 1.832261156173944e+000	 3.268083766606454e+000	 9.928579227429824e+000
 2.192717683591068e+000	 3.070838789808597e+000	 1.038906810312252e+001
 2.158912135720905e+000	 3.094698723584940e+000	 1.036108626205680e+001
 2.124880094552259e+000	 3.118163981415277e+000	 1.033159086100504e+001
 2.090628402852605e+000	 3.141231488239166e+000	 1.029714128091208e+001
 2.056163954899921e+000	 3.163898325581260e+000	 1.025433151963789e+001
 2.021493692056648e+000	 3.186161732486373e+000	 1.019980468473720e+001
 1.986624598329863e+000	 3.208019106306228e+000	 1.013254657090783e+001
 1.951563695923357e+000	 3.229468003338097e+000	 1.007200622254077e+001
 1.916318040787283e+000	 3.250506139315697e+000	 1.002029127156752e+001
 1.880894718171027e+000	 3.271131389753024e+000	 9.973641728881610e+000
 1.845300838184841e+000	 3.291341790142000e+000	 9.928457456591772e+000
 2.208212361064393e+000	 3.092538645188554e+000	 1.038198917882856e+001
 2.174167928788625e+000	 3.116567183423526e+000	 1.035512306049425e+001
 2.139895402716236e+000	 3.140198256764045e+000	 1.032776766471261e+001
 2.105401673968605e+000	 3.163428768419996e+000	 1.029648597538857e+001
 2.070693685541607e+000	 3.186255779292868e+000	 1.025787450962623e+001
 2.035778427848301e+000	 3.208676508917402e+000	 1.020857840831611e+001
 2.000662934247727e+000	 3.230688336253921e+000	 1.014530599921005e+001
 1.965354276565549e+000	 3.252288800331470e+000	 1.007962630990008e+001
 1.929859560612265e+000	 3.273475600742184e+000	 1.002381899081879e+001
 1.894185921704647e+000	 3.294246597987558e+000	 9.974086836032758e+000
 1.858340520196004e+000	 3.314599813677478e+000	 9.926803367193298e+000
 2.223707038538050e+000	 3.114238500568427e+000	 1.037545640182312e+001
 2.189423721856672e+000	 3.138435643262051e+000	 1.034935596529348e+001
 2.154910710880527e+000	 3.162232532112768e+000	 1.032360840319765e+001
 2.120174945084899e+000	 3.185626048600800e+000	 1.029481178755241e+001
 2.085223416183562e+000	 3.208613233004459e+000	 1.025959632146167e+001
 2.050063163640193e+000	 3.231191285348421e+000	 1.021464000027278e+001
 2.014701270165795e+000	 3.253357566201609e+000	 1.015668372708300e+001
 1.979144857207913e+000	 3.275109597324839e+000	 1.008778651334937e+001
 1.943401080437388e+000	 3.296445062168671e+000	 1.002717426952739e+001
 1.907477125238376e+000	 3.317361806222094e+000	 9.973668258175232e+000
 1.871380202207249e+000	 3.337857837212958e+000	 9.923706722229662e+000
 2.239201716011941e+000	 3.135938355948102e+000	 1.036968208530881e+001
 2.204679514924937e+000	 3.160304103100417e+000	 1.034402978342927e+001
 2.169926019045013e+000	 3.184266807461372e+000	 1.031938654255478e+001
 2.134948216201357e+000	 3.207823328781521e+000	 1.029241620032411e+001
 2.099753146825645e+000	 3.230970686716001e+000	 1.025981301282346e+001
 2.064347899432174e+000	 3.253706061779425e+000	 1.021831786071567e+001
 2.028739606083914e+000	 3.276026796149310e+000	 1.016473389207507e+001
 1.992935437850286e+000	 3.297930394318246e+000	 1.009652917178525e+001
 1.956942600262478e+000	 3.319414523595212e+000	 1.003041040886787e+001
 1.920768328772035e+000	 3.340477014456691e+000	 9.972577487553370e+000
 1.884419884218392e+000	 3.361115860748503e+000	 9.921372409338508e+000
 2.254696393485963e+000	 3.157638211327462e+000	 1.036489091912002e+001
 2.219935307993310e+000	 3.182172562938527e+000	 1.033940168524897e+001
 2.184941327209573e+000	 3.206301082809782e+000	 1.031538799726618e+001
 2.149721487317849e+000	 3.230020608962104e+000	 1.028960934138149e+001
 2.114282877467717e+000	 3.253328140427467e+000	 1.025885360675371e+001
 2.078632635224096e+000	 3.276220838210407e+000	 1.021995381264439e+001
 2.042777942001923e+000	 3.298696026097038e+000	 1.016980425509498e+001
 2.006726018492501e+000	 3.320751191311723e+000	 1.010537596045190e+001
 1.970484120087366e+000	 3.342383985021857e+000	 1.003376269775699e+001
 1.934059532305448e+000	 3.363592222691413e+000	 9.972789881774036e+000
 1.897459566229250e+000	 3.384373884284181e+000	 9.920533170771767e+000
 2.270191070960018e+000	 3.179338066706392e+000	 1.036131882801962e+001
 2.235191101061679e+000	 3.204041022776280e+000	 1.033574012570944e+001
 2.199956635374086e+000	 3.228335358157914e+000	 1.031191011236405e+001
 2.164494758434245e+000	 3.252217889142498e+000	 1.028671302353689e+001
 2.128812608109640e+000	 3.275685594138827e+000	 1.025705918684646e+001
 2.092917371015812e+000	 3.298735614641365e+000	 1.021990224786249e+001
 2.056816277919669e+000	 3.321365256044816e+000	 1.017225579876356e+001
 2.020516599134396e+000	 3.343571988305311e+000	 1.011137827213670e+001
 1.984025639911877e+000	 3.365353446448660e+000	 1.003880196451606e+001
 1.947350735838436e+000	 3.386707430926326e+000	 9.974578246404521e+000
 1.910499248239641e+000	 3.407631907820056e+000	 9.920744236257875e+000
 2.285685748434003e+000	 3.201037922084772e+000	 1.035921182425614e+001
 2.250446894129934e+000	 3.225909482613576e+000	 1.033332375847969e+001
 2.214971943538431e+000	 3.250369633505693e+000	 1.030926063718156e+001
 2.179268029550415e+000	 3.274415169322649e+000	 1.028405977556826e+001
 2.143342338751272e+000	 3.298043047850051e+000	 1.025478198192476e+001
 2.107202106807173e+000	 3.321250391072290e+000	 1.021852926160512e+001
 2.070854613836993e+000	 3.344034485992657e+000	 1.017258166719383e+001
 2.034307179775804e+000	 3.366392785299043e+000	 1.011538356317575e+001
 1.997567159735842e+000	 3.388322907875671e+000	 1.004550409125491e+001
 1.960641939370820e+000	 3.409822639161488e+000	 9.977487021573712e+000
 1.923538930249378e+000	 3.430889931356199e+000	 9.921559018660526e+000
 1.793142110144684e+000	 3.198309695998757e+000	 9.919790413941033e+000
 1.758400732415532e+000	 3.217541103571808e+000	 9.875876741062694e+000
 1.723507538249754e+000	 3.236366160359109e+000	 9.833066833971410e+000
 1.688469482271451e+000	 3.254783426736442e+000	 9.790744899748352e+000
 1.653293526122406e+000	 3.272791617828106e+000	 9.748499080942013e+000
 1.617986634272130e+000	 3.290389603006430e+000	 9.706149877696934e+000
 1.582555769867112e+000	 3.307576405259167e+000	 9.663773615901071e+000
 1.547007890623957e+000	 3.324351200427108e+000	 9.621720906521006e+000
 1.511349944770983e+000	 3.340713316314455e+000	 9.580836020797239e+000
 1.475588867042669e+000	 3.356662231674654e+000	 9.543230707873509e+000
 1.439731574731233e+000	 3.372197575074528e+000	 9.509467541478614e+000
 1.806181792153683e+000	 3.221567719534899e+000	 9.924221418607864e+000
 1.771187776044501e+000	 3.240938977395473e+000	 9.880758393528483e+000
 1.736040839493528e+000	 3.259900929498167e+000	 9.838192398336254e+000
 1.700747987698722e+000	 3.278452125749841e+000	 9.795903068989754e+000
 1.665316232926751e+000	 3.296591271931205e+000	 9.753493414950370e+000
 1.629752590292575e+000	 3.314317229192684e+000	 9.710819391396690e+000
 1.594064073578511e+000	 3.331629013417208e+000	 9.668014242523368e+000
 1.558257691097505e+000	 3.348525794452300e+000	 9.626466872173676e+000
 1.522340441605221e+000	 3.365006895213961e+000	 9.587884566665473e+000
 1.486319310265352e+000	 3.381071790665133e+000	 9.552423244245095e+000
 1.450201264672494e+000	 3.396720106671581e+000	 9.520232550752544e+000
 1.819221474163497e+000	 3.244825743070775e+000	 9.927162728022934e+000
 1.783974819674280e+000	 3.264336851218890e+000	 9.883710760348357e+000
 1.748574140738111e+000	 3.283435698637018e+000	 9.841027603195391e+000
 1.713026493126799e+000	 3.302120824763097e+000	 9.798466045963840e+000
 1.677338939731900e+000	 3.320390926034239e+000	 9.755623837368930e+000
 1.641518546313823e+000	 3.338244855378957e+000	 9.712483057641634e+000
 1.605572377290710e+000	 3.355681621575360e+000	 9.671074068461277e+000
 1.569507491571854e+000	 3.372700388477689e+000	 9.632155290336884e+000
 1.533330938440259e+000	 3.389300474113742e+000	 9.595755408490962e+000
 1.497049753488834e+000	 3.405481349655952e+000	 9.561912009664583e+000
 1.460670954614553e+000	 3.421242638269016e+000	 9.530670337000448e+000
 1.832261156173944e+000	 3.268083766606454e+000	 9.928579227429824e+000
 1.796761863304684e+000	 3.287734725042119e+000	 9.884662745125853e+000
 1.761107441983310e+000	 3.306970467775714e+000	 9.841469709159318e+000
 1.725304998555488e+000	 3.325789523776247e+000	 9.798304002557975e+000
 1.689361646537656e+000	 3.344190580137224e+000	 9.755258656056048e+000
 1.653284502335674e+000	 3.362172481565244e+000	 9.714324313436363e+000
 1.617080681003512e+000	 3.379734229733591e+000	 9.675615880769522e+000
 1.580757292046804e+000	 3.396874982503220e+000	 9.639020850476248e+000
 1.544321435275896e+000	 3.413594053013718e+000	 9.604439628834175e+000
 1.507780196712916e+000	 3.429890908647009e+000	 9.571784111906402e+000
 1.471140644557212e+000	 3.445765169866720e+000	 9.540976471509596e+000
 1.845300838184841e+000	 3.291341790142000e+000	 9.928457456591771e+000
 1.809548906935523e+000	 3.311132598865224e+000	 9.883568757268629e+000
 1.773640743228935e+000	 3.330505236914307e+000	 9.839444881223969e+000
 1.737583503984593e+000	 3.349458222789323e+000	 9.796416882066314e+000
 1.701384353343822e+000	 3.367990234240172e+000	 9.755925935262400e+000
 1.665050458357931e+000	 3.386100107751535e+000	 9.717701881326253e+000
 1.628588984716718e+000	 3.403786837891867e+000	 9.681462807864197e+000
 1.592007092522155e+000	 3.421049576528834e+000	 9.646944693620412e+000
 1.555311932111934e+000	 3.437887631913810e+000	 9.613899802347335e+000
 1.518510639937398e+000	 3.454300467638206e+000	 9.582095273455618e+000
 1.481610334500272e+000	 3.470287701464573e+000	 9.551311945983143e+000
 1.858340520196004e+000	 3.314599813677478e+000	 9.926803367193298e+000
 1.822335950566611e+000	 3.334530472688268e+000	 9.880412119930437e+000
 1.786174044474793e+000	 3.354040006052849e+000	 9.836588273247099e+000
 1.749862009413921e+000	 3.373126921802362e+000	 9.795970175194347e+000
 1.713407060150203e+000	 3.391789888343100e+000	 9.758050544740881e+000
 1.676816414380397e+000	 3.410027733937825e+000	 9.722347813712988e+000
 1.640097288430126e+000	 3.427839446050156e+000	 9.688404227020254e+000
 1.603256892997709e+000	 3.445224170554476e+000	 9.655784063153215e+000
 1.566302428948173e+000	 3.462181210813938e+000	 9.624072027151659e+000
 1.529241083162080e+000	 3.478710026629442e+000	 9.592871861654455e+000
 1.492080024443531e+000	 3.494810233062459e+000	 9.561805214728565e+000
 1.871380202207249e+000	 3.337857837212958e+000	 9.923706722229664e+000
 1.835122994197758e+000	 3.357928346511310e+000	 9.877311500416484e+000
 1.798707345720694e+000	 3.377574775191389e+000	 9.835270837547105e+000
 1.762140514843276e+000	 3.396795620815399e+000	 9.796838651102215e+000
 1.725429766956601e+000	 3.415589542446022e+000	 9.761301511049478e+000
 1.688582370402873e+000	 3.433955360124103e+000	 9.727976634860733e+000
 1.651605592143540e+000	 3.451892054208428e+000	 9.696209956659279e+000
 1.614506693473263e+000	 3.469398764580086e+000	 9.665374332342747e+000
 1.577292925784412e+000	 3.486474789714023e+000	 9.634867935968412e+000
 1.539971526386763e+000	 3.503119585620613e+000	 9.604112895697256e+000
 1.502549714386791e+000	 3.519332764660260e+000	 9.572554210264137e+000
 1.884419884218392e+000	 3.361115860748503e+000	 9.921372409338508e+000
 1.847910037828777e+000	 3.381326220334415e+000	 9.875701959933094e+000
 1.811240646966444e+000	 3.401109544329981e+000	 9.835118627181581e+000
 1.774419020272465e+000	 3.420464319828468e+000	 9.798643050700008e+000
 1.737452473762821e+000	 3.439389196548954e+000	 9.765334218590475e+000
 1.700348326425160e+000	 3.457882986310363e+000	 9.734287422162742e+000
 1.663113895856761e+000	 3.475944662366649e+000	 9.704632296863471e+000
 1.625756493948620e+000	 3.493573358605611e+000	 9.675531014886534e+000
 1.588283422620452e+000	 3.510768368613983e+000	 9.646176687984356e+000
 1.550701969611245e+000	 3.527529144611625e+000	 9.615792031594419e+000
 1.513019404329850e+000	 3.543855296257858e+000	 9.583628333630932e+000
 1.897459566229250e+000	 3.384373884284181e+000	 9.920533170771767e+000
 1.860697081459480e+000	 3.404724094157645e+000	 9.875152625972770e+000
 1.823773948211853e+000	 3.424644313468674e+000	 9.835717721952815e+000
 1.786697525701294e+000	 3.444133018841604e+000	 9.800994195013468e+000
 1.749475180568665e+000	 3.463188850651911e+000	 9.769792529624862e+000
 1.712114282447062e+000	 3.481810612496596e+000	 9.740965874261347e+000
 1.674622199569589e+000	 3.499997270524787e+000	 9.713408055448554e+000
 1.637006294423581e+000	 3.517747952630995e+000	 9.686051759289853e+000
 1.599273919456093e+000	 3.535061947513741e+000	 9.657866942379023e+000
 1.561432412835328e+000	 3.551938703602373e+000	 9.627859526165569e+000
 1.523489094272510e+000	 3.568377827855136e+000	 9.595070420627939e+000
 1.910499248239641e+000	 3.407631907820056e+000	 9.920744236257875e+000
 1.873484125089679e+000	 3.428121967981062e+000	 9.875227476337443e+000
 1.836307249456730e+000	 3.448179082607521e+000	 9.836647872427612e+000
 1.798976031129568e+000	 3.467801717854845e+000	 9.803495155194389e+000
 1.761497887373937e+000	 3.486988504754906e+000	 9.774310892605413e+000
 1.723880238468380e+000	 3.505738238682794e+000	 9.747686366649973e+000
 1.686130503281826e+000	 3.524049878682808e+000	 9.722260560285632e+000
 1.648256094897945e+000	 3.541922546656179e+000	 9.696718327850075e+000
 1.610264416291135e+000	 3.559355526413215e+000	 9.669788814389190e+000
 1.572162856058811e+000	 3.576348262592755e+000	 9.640244181063991e+000
 1.533958784214570e+000	 3.592900359451976e+000	 9.606898685119456e+000
 1.923538930249378e+000	 3.430889931356199e+000	 9.921559018660526e+000
 1.886271168719185e+000	 3.451519841804724e+000	 9.875487646401586e+000
 1.848840550700881e+000	 3.471713851746570e+000	 9.837484729446526e+000
 1.811254536557092e+000	 3.491470416868223e+000	 9.805743411838616e+000
 1.773520594178441e+000	 3.510788158857956e+000	 9.778516439382971e+000
 1.735646194488917e+000	 3.529665864868950e+000	 9.754113995350672e+000
 1.697638806993271e+000	 3.548102486840682e+000	 9.730901658524369e+000
 1.659505895371513e+000	 3.566097140681105e+000	 9.707298560976399e+000
 1.621254913125377e+000	 3.583649105312324e+000	 9.681775814739835e+000
 1.582893299281493e+000	 3.600757821582674e+000	 9.652855267779469e+000
 1.544428474155829e+000	 3.617422891048259e+000	 9.619108640503720e+000
 1.439731574731233e+000	 3.372197575074528e+000	 9.509467541478612e+000
 1.403779565205173e+000	 3.387321361489601e+000	 9.471529514423340e+000
 1.367745085892707e+000	 3.402031155838170e+000	 9.418871917236812e+000
 1.331634983434178e+000	 3.416327030840312e+000	 9.348079906720036e+000
 1.295456071785157e+000	 3.430209203416529e+000	 9.276921784533498e+000
 1.259215128608840e+000	 3.443678032987045e+000	 9.220365199910530e+000
 1.222918891747823e+000	 3.456734019669561e+000	 9.175604133340627e+000
 1.186574055778320e+000	 3.469377802379238e+000	 9.139410038762302e+000
 1.150187268649676e+000	 3.481610156834798e+000	 9.108239088702561e+000
 1.113765128411843e+000	 3.493431993474643e+000	 9.078331344466450e+000
 1.077314180033310e+000	 3.504844355287081e+000	 9.045801988292372e+000
 1.450201264672494e+000	 3.396720106671581e+000	 9.520232550752544e+000
 1.413987813083974e+000	 3.411953872861664e+000	 9.484112420457285e+000
 1.377691291990982e+000	 3.426770636445832e+000	 9.434606245238673e+000
 1.341318597822436e+000	 3.441170470672980e+000	 9.368581921359715e+000
 1.304876594084804e+000	 3.455153594041044e+000	 9.294358064147996e+000
 1.268372107728261e+000	 3.468720368583945e+000	 9.234259454565896e+000
 1.231811925592805e+000	 3.481871298056221e+000	 9.186455084375769e+000
 1.195202790937426e+000	 3.494607026019214e+000	 9.147802412232911e+000
 1.158551400055167e+000	 3.506928333832645e+000	 9.114850593401854e+000
 1.121864398976819e+000	 3.518836138555602e+000	 9.083940326607598e+000
 1.085148380265702e+000	 3.530331490760976e+000	 9.051295394905120e+000
 1.460670954614553e+000	 3.421242638269016e+000	 9.530670337000448e+000
 1.424196060963574e+000	 3.436586384234133e+000	 9.495656166170303e+000
 1.387637498090055e+000	 3.451510117053901e+000	 9.448516544807063e+000
 1.351002212211490e+000	 3.466013910506030e+000	 9.386433717850695e+000
 1.314297116385243e+000	 3.480097984665906e+000	 9.311509443340407e+000
 1.277529086848464e+000	 3.493762704181139e+000	 9.247926508615315e+000
 1.240704959438558e+000	 3.507008576443118e+000	 9.197159004249114e+000
 1.203831526097284e+000	 3.519836249659356e+000	 9.156143014368539e+000
 1.166915531461388e+000	 3.532246510830582e+000	 9.121514708717033e+000
 1.129963669542497e+000	 3.544240283636570e+000	 9.089710810766375e+000
 1.092982580498757e+000	 3.555818626234796e+000	 9.057060376759155e+000
 1.471140644557212e+000	 3.445765169866720e+000	 9.540976471509596e+000
 1.434404308843775e+000	 3.461218895606880e+000	 9.506467585096942e+000
 1.397583704189727e+000	 3.476249597662238e+000	 9.461013914176689e+000
 1.360685826601140e+000	 3.490857350339327e+000	 9.402103148656968e+000
 1.323717638686275e+000	 3.505042375290976e+000	 9.328518597471359e+000
 1.286686065969255e+000	 3.518805039778497e+000	 9.261532228928115e+000
 1.249597993284889e+000	 3.532145854830123e+000	 9.207896205174581e+000
 1.212460261257706e+000	 3.545065473299544e+000	 9.164618551704178e+000
 1.175279662868157e+000	 3.557564687828503e+000	 9.128417274317691e+000
 1.138062940108698e+000	 3.569644428717461e+000	 9.095821388127463e+000
 1.100816780732308e+000	 3.581305761708479e+000	 9.063262858798021e+000
 1.481610334500272e+000	 3.470287701464573e+000	 9.551311945983143e+000
 1.444612556724376e+000	 3.485851406979773e+000	 9.516815699018753e+000
 1.407529910289798e+000	 3.500989078270704e+000	 9.472468652612298e+000
 1.370369440991190e+000	 3.515700790172728e+000	 9.416055243469804e+000
 1.333138160987701e+000	 3.529986765916116e+000	 9.345512765245982e+000
 1.295843045090437e+000	 3.543847375375882e+000	 9.275226195191017e+000
 1.258491027131605e+000	 3.557283133217108e+000	 9.218829632461736e+000
 1.221088996418505e+000	 3.570294696939667e+000	 9.173397065513116e+000
 1.183643794275289e+000	 3.582882864826309e+000	 9.135723960619227e+000
 1.146162210675251e+000	 3.595048573798191e+000	 9.102428786314155e+000
 1.108650980966191e+000	 3.606792897181959e+000	 9.070045035296605e+000
 1.492080024443531e+000	 3.494810233062459e+000	 9.561805214728565e+000
 1.454820804605176e+000	 3.510483918352682e+000	 9.526933775990653e+000
 1.417476116390070e+000	 3.525728558879165e+000	 9.483212328473194e+000
 1.380053055381439e+000	 3.540544230006091e+000	 9.428713562728390e+000
 1.342558683289326e+000	 3.554931156541184e+000	 9.361661427503876e+000
 1.305000024211814e+000	 3.568889710973160e+000	 9.289143048718929e+000
 1.267384060978512e+000	 3.582420411603950e+000	 9.230106332596602e+000
 1.229717731579492e+000	 3.595523920579608e+000	 9.182629504677628e+000
 1.192007925682604e+000	 3.608201041823901e+000	 9.143581932406486e+000
 1.154261481241978e+000	 3.620452718878676e+000	 9.109669610206158e+000
 1.116485181200240e+000	 3.632280032655170e+000	 9.077527174823363e+000
 1.502549714386791e+000	 3.519332764660260e+000	 9.572554210264137e+000
 1.465029052485976e+000	 3.535116429725480e+000	 9.537021358233393e+000
 1.427422322490341e+000	 3.550468039487480e+000	 9.493539813875561e+000
 1.389736669771686e+000	 3.565387669839278e+000	 9.440462233841025e+000
 1.351979205590951e+000	 3.579875547166044e+000	 9.376290755127808e+000
 1.314157003333191e+000	 3.593932046570194e+000	 9.303403799682055e+000
 1.276277094825420e+000	 3.607557689990518e+000	 9.241858877525912e+000
 1.238346466740479e+000	 3.620753144219251e+000	 9.192451252790374e+000
 1.200372057089920e+000	 3.633519218821177e+000	 9.152121464947742e+000
 1.162360751808704e+000	 3.645856863958831e+000	 9.117662033730735e+000
 1.124319381434289e+000	 3.657767168128049e+000	 9.085809374873657e+000
 1.513019404329850e+000	 3.543855296257858e+000	 9.583628333630932e+000
 1.475237300366577e+000	 3.559748941098035e+000	 9.547246261351361e+000
 1.437368528590413e+000	 3.575207520095515e+000	 9.503711287570281e+000
 1.399420284161735e+000	 3.590231109672148e+000	 9.451647952774676e+000
 1.361399727892379e+000	 3.604819937790553e+000	 9.389828005434387e+000
 1.323313982454373e+000	 3.618974382166853e+000	 9.318117094764077e+000
 1.285170128672135e+000	 3.632694968376689e+000	 9.254206747264934e+000
 1.246975201901278e+000	 3.645982367858483e+000	 9.202983611702504e+000
 1.208736188497052e+000	 3.658837395818033e+000	 9.161457514900192e+000
 1.170460022375256e+000	 3.671261009038573e+000	 9.126507445002142e+000
 1.132153581668172e+000	 3.683254303600529e+000	 9.094973268611414e+000
 1.523489094272510e+000	 3.568377827855136e+000	 9.595070420627939e+000
 1.485445548246778e+000	 3.584381452470216e+000	 9.557746546255297e+000
 1.447314734690085e+000	 3.599947000703133e+000	 9.513954207565538e+000
 1.409103898551387e+000	 3.615074549504561e+000	 9.462581952679425e+000
 1.370820250193409e+000	 3.629764328414571e+000	 9.402662761535490e+000
 1.332470961575163e+000	 3.644016717763000e+000	 9.333380447153392e+000
 1.294063162518466e+000	 3.657832246762336e+000	 9.267257672833804e+000
 1.255603937061700e+000	 3.671211591497186e+000	 9.214335243613954e+000
 1.217100319903820e+000	 3.684155572814372e+000	 9.171691248181629e+000
 1.178559292941457e+000	 3.696665154117818e+000	 9.136292047053777e+000
 1.139987781901724e+000	 3.708741439072548e+000	 9.105083686023988e+000
 1.533958784214570e+000	 3.592900359451976e+000	 9.606898685119457e+000
 1.495653796126378e+000	 3.609013963841895e+000	 9.568632465093961e+000
 1.457260940789158e+000	 3.624686481310193e+000	 9.524465254939601e+000
 1.418787512940441e+000	 3.639917989336375e+000	 9.473541941122118e+000
 1.380240772493848e+000	 3.654708719037964e+000	 9.415148552112083e+000
 1.341627940695366e+000	 3.669059053358499e+000	 9.348712178535545e+000
 1.302956196364219e+000	 3.682969525147330e+000	 9.281108941417447e+000
 1.264232672221558e+000	 3.696440815135250e+000	 9.226603573686321e+000
 1.225464451310041e+000	 3.709473749810092e+000	 9.182911526864094e+000
 1.186658563507135e+000	 3.722069299196483e+000	 9.147088416284205e+000
 1.147821982134778e+000	 3.734228574544038e+000	 9.116190271666978e+000
 1.544428474155829e+000	 3.617422891048259e+000	 9.619108640503720e+000
 1.505862044005179e+000	 3.633646475212943e+000	 9.579988382428070e+000
 1.467207146887432e+000	 3.649425961916560e+000	 9.535412250210991e+000
 1.428471127328698e+000	 3.664761429167448e+000	 9.484774007419519e+000
 1.389661294793495e+000	 3.679653109660585e+000	 9.427604745750937e+000
 1.350784919814787e+000	 3.694101388953216e+000	 9.363572402824680e+000
 1.311849230209201e+000	 3.708106803531543e+000	 9.295848665541897e+000
 1.272861407380663e+000	 3.721670038772552e+000	 9.239876155051432e+000
 1.233828582715532e+000	 3.734791926805090e+000	 9.195196357033757e+000
 1.194757834072111e+000	 3.747473444274481e+000	 9.158957020623594e+000
 1.155656182367169e+000	 3.759715710014934e+000	 9.128329061059739e+000
 1.077314180033310e+000	 3.504844355287081e+000	 9.045801988292372e+000
 1.040840911791156e+000	 3.515848414683465e+000	 9.011112770295947e+000
 1.004351750767449e+000	 3.526445468549742e+000	 8.977290335952340e+000
 9.678530616055532e-001	 3.536636938483259e+000	 8.944324471881030e+000
 9.313511442442004e-001	 3.546424369203119e+000	 8.912305784648050e+000
 8.948522312174626e-001	 3.555809426018735e+000	 8.881492767409672e+000
 8.583624850557751e-001	 3.564793892237349e+000	 8.852352292909053e+000
 8.218879957891512e-001	 3.573379666514729e+000	 8.825598351792488e+000
 7.854347785535484e-001	 3.581568760153285e+000	 8.802225646802460e+000
 7.490087713011586e-001	 3.589363294351826e+000	 8.783538476265402e+000
 7.126158326152123e-001	 3.596765497411133e+000	 8.771175346318772e+000
 1.085148380265702e+000	 3.530331490760976e+000	 9.051295394905120e+000
 1.048409879381463e+000	 3.541415571385863e+000	 9.017418270716233e+000
 1.011655370143746e+000	 3.552089686747149e+000	 8.985102583635214e+000
 9.748912634794350e-001	 3.562355268780023e+000	 8.954022234375660e+000
 9.381239051402545e-001	 3.572213873436759e+000	 8.923993405623817e+000
 9.013595729831019e-001	 3.581667178136880e+000	 8.894986012433050e+000
 8.646044743521743e-001	 3.590716979155808e+000	 8.867190429403252e+000
 8.278647435640271e-001	 3.599365188956308e+000	 8.841050002022232e+000
 7.911464394965296e-001	 3.607613833466946e+000	 8.817293542150367e+000
 7.544555432825080e-001	 3.615465049311848e+000	 8.796962974949295e+000
 7.177979561086598e-001	 3.622921080995963e+000	 8.781436605246903e+000
 1.092982580498757e+000	 3.555818626234796e+000	 9.057060376759155e+000
 1.055978846972389e+000	 3.566982728088109e+000	 9.024076885738481e+000
 1.018958989520610e+000	 3.577733904944332e+000	 8.993302779170742e+000
 9.819294653538292e-001	 3.588073599076493e+000	 8.964138244884460e+000
 9.448966660367625e-001	 3.598003377670048e+000	 8.936131601643673e+000
 9.078669147491352e-001	 3.607524930254624e+000	 8.908994686086805e+000
 8.708464636489087e-001	 3.616640066073833e+000	 8.882665872810364e+000
 8.338414913391797e-001	 3.625350711397429e+000	 8.857342146080054e+000
 7.968581004397326e-001	 3.633658906780143e+000	 8.833510334775703e+000
 7.599023152640303e-001	 3.641566804271423e+000	 8.811973359276150e+000
 7.229800796022363e-001	 3.649076664580380e+000	 8.793871988133549e+000
 1.100816780732308e+000	 3.581305761708479e+000	 9.063262858798021e+000
 1.063547814563778e+000	 3.592549884790160e+000	 9.031234870073124e+000
 1.026262608897900e+000	 3.603378123141265e+000	 9.002014669232795e+000
 9.889676672286073e-001	 3.613791929372667e+000	 8.974753519656023e+000
 9.516694269336100e-001	 3.623792881903001e+000	 8.948757230529736e+000
 9.143742565154635e-001	 3.633382682372006e+000	 8.923504848362867e+000
 8.770884529458931e-001	 3.642563152991476e+000	 8.898708104707280e+000
 8.398182391145391e-001	 3.651336233838164e+000	 8.874342812935257e+000
 8.025697613831022e-001	 3.659703980092960e+000	 8.850678673563678e+000
 7.653490872456817e-001	 3.667668559230635e+000	 8.828303950288792e+000
 7.281622030959101e-001	 3.675232248164469e+000	 8.808145545787438e+000
 1.108650980966191e+000	 3.606792897181959e+000	 9.070045035296605e+000
 1.071116782155477e+000	 3.618117041491970e+000	 9.039012801722951e+000
 1.033566228275475e+000	 3.629022341337930e+000	 9.011328381923061e+000
 9.960058691036420e-001	 3.639510259668551e+000	 8.985919622694850e+000
 9.584421878306849e-001	 3.649582386135648e+000	 8.961875945316541e+000
 9.208815982819892e-001	 3.659240434489071e+000	 8.938469744949032e+000
 8.833304422430449e-001	 3.668486239908799e+000	 8.915212366928843e+000
 8.457949868900372e-001	 3.677321756278584e+000	 8.891884592326214e+000
 8.082814223265827e-001	 3.685749053405477e+000	 8.868564837141911e+000
 7.707958592274194e-001	 3.693770314189572e+000	 8.845652079184019e+000
 7.333443265896487e-001	 3.701387831748314e+000	 8.823884074287753e+000
 1.116485181200240e+000	 3.632280032655170e+000	 9.077527174823363e+000
 1.078685749747331e+000	 3.643684198193497e+000	 9.047507435973531e+000
 1.040869847653191e+000	 3.654666559534302e+000	 9.021308334642015e+000
 1.003044070978804e+000	 3.665228589964141e+000	 8.997660565448069e+000
 9.652149487278728e-001	 3.675371890368006e+000	 8.975464090793963e+000
 9.273889400486129e-001	 3.685098186605857e+000	 8.953811683509064e+000
 8.895724315402804e-001	 3.694409326825858e+000	 8.932041500654083e+000
 8.517717346656041e-001	 3.703307278718762e+000	 8.909766419937903e+000
 8.139930832701185e-001	 3.711794126717773e+000	 8.886900448675185e+000
 7.762426312092002e-001	 3.719872069148314e+000	 8.863679715519485e+000
 7.385264500834193e-001	 3.727543415331994e+000	 8.840678640685981e+000
 1.124319381434289e+000	 3.657767168128049e+000	 9.085809374873657e+000
 1.086254717339184e+000	 3.669251354894696e+000	 9.056793508066251e+000
 1.048173467030906e+000	 3.680310777730361e+000	 9.031995067734584e+000
 1.010082272853967e+000	 3.690946920259438e+000	 9.009974654486811e+000
 9.719877096250612e-001	 3.701161394600097e+000	 8.989470548370397e+000
 9.338962818152367e-001	 3.710955938722407e+000	 8.969423859068231e+000
 8.958144208375152e-001	 3.720332413742715e+000	 8.949027735852257e+000
 8.577484824411712e-001	 3.729292801158767e+000	 8.927755314671307e+000
 8.197047442136543e-001	 3.737839200029931e+000	 8.905384144972800e+000
 7.816894031909809e-001	 3.745973824106949e+000	 8.882015052447992e+000
 7.437085735771903e-001	 3.753698998915595e+000	 8.858086068953455e+000
 1.132153581668172e+000	 3.683254303600529e+000	 9.094973268611414e+000
 1.093823684930883e+000	 3.694818511595525e+000	 9.066925487038132e+000
 1.055477086408480e+000	 3.705954995926085e+000	 9.043407028767312e+000
 1.017120474729001e+000	 3.716665250554442e+000	 9.022839988400705e+000
 9.787604705221360e-001	 3.726950898831945e+000	 9.003818531759830e+000
 9.404036235817623e-001	 3.736813690838763e+000	 8.985172130969296e+000
 9.020564101346672e-001	 3.746255500659427e+000	 8.965974433491999e+000
 8.637252302166689e-001	 3.755278323598676e+000	 8.945588070324723e+000
 8.254164051571349e-001	 3.763884273342034e+000	 8.923683202120698e+000
 7.871361751727186e-001	 3.772075579065561e+000	 8.900254051061356e+000
 7.488906970709289e-001	 3.779854582499195e+000	 8.875630388102360e+000
 1.139987781901724e+000	 3.708741439072548e+000	 9.105083686023988e+000
 1.101392652522272e+000	 3.720385668295939e+000	 9.077939283078715e+000
 1.062780705785770e+000	 3.731599214121452e+000	 9.055542309813710e+000
 1.024158676603779e+000	 3.742383580849157e+000	 9.036200932828811e+000
 9.855332314189840e-001	 3.752740403063570e+000	 9.018407335857738e+000
 9.469109653480903e-001	 3.762671442954964e+000	 9.000896753728629e+000
 9.082983994316516e-001	 3.772178587576050e+000	 8.982657782787447e+000
 8.697019779920288e-001	 3.781263846038558e+000	 8.962972903881441e+000
 8.311280661005044e-001	 3.789929346654160e+000	 8.941435119730233e+000
 7.925829471543699e-001	 3.798177334024236e+000	 8.917961945810262e+000
 7.540728205646027e-001	 3.806010166082880e+000	 8.892804244298590e+000
 1.147821982134778e+000	 3.734228574544038e+000	 9.116190271666978e+000
 1.108961620113198e+000	 3.745952824995893e+000	 9.089853910623891e+000
 1.070084325162635e+000	 3.757243432316442e+000	 9.068380339991506e+000
 1.031196878478173e+000	 3.768101911143579e+000	 9.049993515757832e+000
 9.923059923154914e-001	 3.778529907294995e+000	 9.033114041043136e+000
 9.534183071141239e-001	 3.788529195071056e+000	 9.016414063995148e+000
 9.145403887283859e-001	 3.798101674492648e+000	 8.998828455628154e+000
 8.756787257671812e-001	 3.807249368478485e+000	 8.979591062476327e+000
 8.368397270437075e-001	 3.815974419966393e+000	 8.958249165780767e+000
 7.980297191358921e-001	 3.824279088983057e+000	 8.934674712860742e+000
 7.592549440581791e-001	 3.832165749666732e+000	 8.909070278687457e+000
 1.155656182367169e+000	 3.759715710014934e+000	 9.128329061059739e+000
 1.116530587703505e+000	 3.771519981695344e+000	 9.102673109287885e+000
 1.077387944538932e+000	 3.782887650511029e+000	 9.081883535376138e+000
 1.038235080352055e+000	 3.793820241437709e+000	 9.064130741280975e+000
 9.990787532115453e-001	 3.804319411526238e+000	 9.047795175021257e+000
 9.599256488797626e-001	 3.814386947187074e+000	 9.031518125694893e+000
 9.207823780247851e-001	 3.824024761409275e+000	 9.014213220225496e+000
 8.816554735420569e-001	 3.833234890918529e+000	 8.995098391001518e+000
 8.425513879866883e-001	 3.842019493278808e+000	 8.973707883925631e+000
 8.034764911172414e-001	 3.850380843942109e+000	 8.949900503145120e+000
 7.644370675516263e-001	 3.858321333250832e+000	 8.923862472559121e+000
 7.126158326152123e-001	 3.596765497411133e+000	 8.771175346318772e+000
 6.762671878802550e-001	 3.603776679759038e+000	 8.743822552436548e+000
 6.399630600582476e-001	 3.610400416447522e+000	 8.693886539249538e+000
 6.037090469397647e-001	 3.616639241793862e+000	 8.648280887553941e+000
 5.675106594965956e-001	 3.622495785572754e+000	 8.609188342114074e+000
 5.313733202242620e-001	 3.627972770066271e+000	 8.577708365049000e+000
 4.953023615887203e-001	 3.633073007093981e+000	 8.555198991237798e+000
 4.593030245767192e-001	 3.637799395027112e+000	 8.543421188298289e+000
 4.233804573491112e-001	 3.642154915790479e+000	 8.544662399275218e+000
 3.875397139962902e-001	 3.646142631855923e+000	 8.561842240183639e+000
 3.517857533948060e-001	 3.649765683230813e+000	 8.598603216960621e+000
 7.177979561086598e-001	 3.622921080995963e+000	 8.781436605246903e+000
 6.811849849902317e-001	 3.629983248476528e+000	 8.750703044023098e+000
 6.446168545105612e-001	 3.636655152803184e+000	 8.696013389554686e+000
 6.080992031672106e-001	 3.642939346722671e+000	 8.645581027226610e+000
 5.716375820076127e-001	 3.648838479133310e+000	 8.602561057880164e+000
 5.352374529595347e-001	 3.654355292113508e+000	 8.567676409587733e+000
 4.989041872664873e-001	 3.659492617930285e+000	 8.541963672056097e+000
 4.626430640275384e-001	 3.664253376031720e+000	 8.526903303465366e+000
 4.264592688408320e-001	 3.668640570027081e+000	 8.524528758018438e+000
 3.903578925499762e-001	 3.672657284658395e+000	 8.537517686180291e+000
 3.543439300923417e-001	 3.676306682767058e+000	 8.569268242781256e+000
 7.229800796022363e-001	 3.649076664580380e+000	 8.793871988133549e+000
 6.861027821003028e-001	 3.656189817193663e+000	 8.760542197224947e+000
 6.492706489629426e-001	 3.662909889158566e+000	 8.702739405248808e+000
 6.124893593947066e-001	 3.669239451651285e+000	 8.648833051318141e+000
 5.757645045186705e-001	 3.675181172693760e+000	 8.603344044184400e+000
 5.391015856948495e-001	 3.680737814160723e+000	 8.566552460168063e+000
 5.025060129443074e-001	 3.685912228766642e+000	 8.539111191014941e+000
 4.659831034784319e-001	 3.690707357036439e+000	 8.522161042782248e+000
 4.295380803326594e-001	 3.695126224263829e+000	 8.517424496090062e+000
 3.931760711038120e-001	 3.699171937461023e+000	 8.527281467084682e+000
 3.569021067900821e-001	 3.702847682303435e+000	 8.554830282012482e+000
 7.281622030959101e-001	 3.675232248164469e+000	 8.808145545787438e+000
 6.910205792104442e-001	 3.682396385910518e+000	 8.772916382596842e+000
 6.539244434153744e-001	 3.689164625513728e+000	 8.713439905130475e+000
 6.168795156222396e-001	 3.695539556579746e+000	 8.657227047370322e+000
 5.798914270297595e-001	 3.701523866254122e+000	 8.610501866243483e+000
 5.429657184301957e-001	 3.707120336207917e+000	 8.573046388365549e+000
 5.061078386221670e-001	 3.712331839603033e+000	 8.545078828146826e+000
 4.693231429293811e-001	 3.717161338041240e+000	 8.527352571368642e+000
 4.326168918245668e-001	 3.721611878500689e+000	 8.521233564187924e+000
 3.959942496577603e-001	 3.725686590263770e+000	 8.528759642050368e+000
 3.594602834879763e-001	 3.729388681839912e+000	 8.552685196469634e+000
 7.333443265896487e-001	 3.701387831748314e+000	 8.823884074287753e+000
 6.959383763206329e-001	 3.708602954627166e+000	 8.787365315553659e+000
 6.585782378678403e-001	 3.715419361868731e+000	 8.727460429021019e+000
 6.212696718497973e-001	 3.721839661508097e+000	 8.669930698166073e+000
 5.840183495408687e-001	 3.727866559814423e+000	 8.622983603325325e+000
 5.468298511655628e-001	 3.733502858255094e+000	 8.585859186185331e+000
 5.097096643000534e-001	 3.738751450439450e+000	 8.558301425558200e+000
 4.726631823803677e-001	 3.743615319046093e+000	 8.540640044683848e+000
 4.356957033165275e-001	 3.748097532737622e+000	 8.533850472194983e+000
 3.988124282117837e-001	 3.752201243066594e+000	 8.539595694374908e+000
 3.620184601859728e-001	 3.755929681376454e+000	 8.560253589278382e+000
 7.385264500834193e-001	 3.727543415331994e+000	 8.840678640685981e+000
 7.008561734308454e-001	 3.734809523343683e+000	 8.803393447612470e+000
 6.632320323203229e-001	 3.741674098223633e+000	 8.744117232908003e+000
 6.256598280773676e-001	 3.748139766436377e+000	 8.686089756938246e+000
 5.881452720519882e-001	 3.754209253374685e+000	 8.639723233373049e+000
 5.506939839009403e-001	 3.759885380302257e+000	 8.603683195802306e+000
 5.133114899779528e-001	 3.765171061275875e+000	 8.577211404390381e+000
 4.760032218313728e-001	 3.770069300050974e+000	 8.560189361247407e+000
 4.387745148085148e-001	 3.774583186974590e+000	 8.553179732654934e+000
 4.016306067658446e-001	 3.778715895869458e+000	 8.557449627181104e+000
 3.645766368840204e-001	 3.782470680913030e+000	 8.574979520666739e+000
 7.437085735771903e-001	 3.753698998915595e+000	 8.858086068953453e+000
 7.057739705410575e-001	 3.761016092060141e+000	 8.820471322295754e+000
 6.678858267728055e-001	 3.767928834578494e+000	 8.762685887158153e+000
 6.300499843049376e-001	 3.774439871364630e+000	 8.704828501278215e+000
 5.922721945631075e-001	 3.780551946934928e+000	 8.659640005674591e+000
 5.545581166363180e-001	 3.786267902349411e+000	 8.625202338055990e+000
 5.169133156558523e-001	 3.791590672112294e+000	 8.600238792462394e+000
 4.793432612823781e-001	 3.796523281055854e+000	 8.584169939048010e+000
 4.418533263005021e-001	 3.801068841211559e+000	 8.577135341878167e+000
 4.044487853199053e-001	 3.805230548672323e+000	 8.579997111474562e+000
 3.671348135820682e-001	 3.809011680449607e+000	 8.594329291534530e+000
 7.488906970709289e-001	 3.779854582499195e+000	 8.875630388102360e+000
 7.106917676512464e-001	 3.787222660776613e+000	 8.838036897406221e+000
 6.725396212252711e-001	 3.794183570933372e+000	 8.782191611829074e+000
 6.344401405324956e-001	 3.800739976292896e+000	 8.725250166775815e+000
 5.963991170742168e-001	 3.806894640495176e+000	 8.681638802158918e+000
 5.584222493716851e-001	 3.812650424396559e+000	 8.649092339759729e+000
 5.205151413337386e-001	 3.818010282948694e+000	 8.625811262077642e+000
 4.826833007333645e-001	 3.822977262060701e+000	 8.610754514492397e+000
 4.449321377924628e-001	 3.827554495448490e+000	 8.603640296857853e+000
 4.072669638739285e-001	 3.831745201475147e+000	 8.604928684037139e+000
 3.696929902800646e-001	 3.835552679986150e+000	 8.615790291516081e+000
 7.540728205646027e-001	 3.806010166082880e+000	 8.892804244298590e+000
 7.156095647613880e-001	 3.813429229493175e+000	 8.855496835292291e+000
 6.771934156777034e-001	 3.820438307288330e+000	 8.801823633495024e+000
 6.388302967600286e-001	 3.827040081221221e+000	 8.746437361365706e+000
 6.005260395853054e-001	 3.833237334055454e+000	 8.704610487864574e+000
 5.622863821070316e-001	 3.839032946443703e+000	 8.674020959882308e+000
 5.241169670115983e-001	 3.844429893785061e+000	 8.652354177506417e+000
 4.860233401843138e-001	 3.849431243065490e+000	 8.638118962809346e+000
 4.480109492843702e-001	 3.854040149685346e+000	 8.630626146271368e+000
 4.100851424278769e-001	 3.858259854277893e+000	 8.629948992760069e+000
 3.722511669779586e-001	 3.862093679522626e+000	 8.636869908433733e+000
 7.592549440581791e-001	 3.832165749666732e+000	 8.909070278687457e+000
 7.205273618714591e-001	 3.839635798209898e+000	 8.872227762632706e+000
 6.818472101300850e-001	 3.846693043643424e+000	 8.820849258179706e+000
 6.432204529875243e-001	 3.853340186149642e+000	 8.767452461302600e+000
 6.046529620963635e-001	 3.859580027615782e+000	 8.727432251099074e+000
 5.661505148423461e-001	 3.865415468490847e+000	 8.698648214655174e+000
 5.277187926894182e-001	 3.870849504621382e+000	 8.678290651681211e+000
 4.893633796352074e-001	 3.875885224070195e+000	 8.664442138885093e+000
 4.510897607761977e-001	 3.880525803922092e+000	 8.656032573938703e+000
 4.129033209817128e-001	 3.884774507080522e+000	 8.652776087151034e+000
 3.748093436756991e-001	 3.888634679059003e+000	 8.655094496209443e+000
 7.644370675516263e-001	 3.858321333250832e+000	 8.923862472559121e+000
 7.254451589814354e-001	 3.865842366926856e+000	 8.887577501187202e+000
 6.865010045823983e-001	 3.872947779998714e+000	 8.838507899780169e+000
 6.476106092149704e-001	 3.879640291078204e+000	 8.787337989636281e+000
 6.087798846073803e-001	 3.885922721176180e+000	 8.748967933777335e+000
 5.700146475776188e-001	 3.891797990537994e+000	 8.721626601656066e+000
 5.313206183671851e-001	 3.897269115457639e+000	 8.702041611668127e+000
 4.927034190860264e-001	 3.902339205074782e+000	 8.687905737559658e+000
 4.541685722679184e-001	 3.907011458158686e+000	 8.677807013199244e+000
 4.157214995353986e-001	 3.911289159882991e+000	 8.671140751869137e+000
 3.773675203732346e-001	 3.915175678595245e+000	 8.668008398459778e+000
 3.517857533948060e-001	 3.649765683230813e+000	 8.598603216960624e+000
 3.161181078051911e-001	 3.653027746903922e+000	 8.638982410129719e+000
 2.805469763476744e-001	 3.655931540248671e+000	 8.665429656058498e+000
 2.450771001425687e-001	 3.658480420160160e+000	 8.680565586141757e+000
 2.097131192376733e-001	 3.660677809123401e+000	 8.688055902029330e+000
 1.744595719637188e-001	 3.662527192196826e+000	 8.692670171893825e+000
 1.393208943850408e-001	 3.664032114011716e+000	 8.700339421392826e+000
 1.043014198436543e-001	 3.665196175790536e+000	 8.718214227829670e+000
 6.940537859482046e-002	 3.666023032386947e+000	 8.754724831590703e+000
 3.463689753212482e-002	 3.666516389350228e+000	 8.819644583122797e+000
 0.000000000000000e+000	 3.666680000016666e+000	 8.924157863301099e+000
 3.543439300923417e-001	 3.676306682767058e+000	 8.569268242781256e+000
 3.184169103270729e-001	 3.679592468080790e+000	 8.603567074861878e+000
 2.825871065421273e-001	 3.682517377733703e+000	 8.623122615037740e+000
 2.468592943351135e-001	 3.685084793032176e+000	 8.631032130965442e+000
 2.112381474961305e-001	 3.687298161349476e+000	 8.631387203034215e+000
 1.757282373585245e-001	 3.689160993087311e+000	 8.629319361758324e+000
 1.403340322455686e-001	 3.690676858653458e+000	 8.631045436111201e+000
 1.050598970112213e-001	 3.691849385458404e+000	 8.643914413289291e+000
 6.991009267304291e-002	 3.692682254933840e+000	 8.676457403332531e+000
 3.488877613527512e-002	 3.693179199575722e+000	 8.738442093655770e+000
 0.000000000000000e+000	 3.693344000014533e+000	 8.840932884501880e+000
 3.569021067900821e-001	 3.702847682303435e+000	 8.554830282012482e+000
 3.207157128492248e-001	 3.706157189257729e+000	 8.583718523266562e+000
 2.846272367369185e-001	 3.709103215218714e+000	 8.597002322532164e+000
 2.486414885280597e-001	 3.711689165904061e+000	 8.598163937635137e+000
 2.127631757550383e-001	 3.713918513575290e+000	 8.591624945808135e+000
 1.769969027538079e-001	 3.715794793977405e+000	 8.582778039518583e+000
 1.413471701065711e-001	 3.717321603294685e+000	 8.578019499357120e+000
 1.058183741792213e-001	 3.718502595125647e+000	 8.584784240009691e+000
 7.041480675161065e-002	 3.719341477480015e+000	 8.611585105127722e+000
 3.514065473862889e-002	 3.719842009800439e+000	 8.668057865467041e+000
 0.000000000000000e+000	 3.720008000011599e+000	 8.765013166492702e+000
 3.594602834879763e-001	 3.729388681839912e+000	 8.552685196469634e+000
 3.230145153715792e-001	 3.732721910434722e+000	 8.576625169414079e+000
 2.866673669319635e-001	 3.735689052703709e+000	 8.584067962049572e+000
 2.504236827213069e-001	 3.738293538775842e+000	 8.578800864328610e+000
 2.142882040142840e-001	 3.740538865800908e+000	 8.565491036887442e+000
 1.782655681494497e-001	 3.742428594867207e+000	 8.549702740861701e+000
 1.423603079679294e-001	 3.743966347935524e+000	 8.537916262989629e+000
 1.065768513475461e-001	 3.745155804792419e+000	 8.537550531245415e+000
 7.091952083043732e-002	 3.746000700025650e+000	 8.556991182338406e+000
 3.539253334213530e-002	 3.746504820024575e+000	 8.605625607354119e+000
 0.000000000000000e+000	 3.746672000008066e+000	 8.693886279035359e+000
 3.620184601859728e-001	 3.755929681376454e+000	 8.560253589278382e+000
 3.253133178940685e-001	 3.759286631611750e+000	 8.579508552643647e+000
 2.887074971271778e-001	 3.762274890188694e+000	 8.581361890215051e+000
 2.522058769147549e-001	 3.764897911647556e+000	 8.569837785011465e+000
 2.158132322737550e-001	 3.767159218026397e+000	 8.549776163438894e+000
 1.795342335453303e-001	 3.769062395756812e+000	 8.526834592057361e+000
 1.433734458295250e-001	 3.770611092576106e+000	 8.507492942271979e+000
 1.073353285160875e-001	 3.771809014458875e+000	 8.499062921200112e+000
 7.142423490943663e-002	 3.772659922570928e+000	 8.509704318796979e+000
 3.564441194574342e-002	 3.773167630248318e+000	 8.548449572113315e+000
 0.000000000000000e+000	 3.773336000004134e+000	 8.625238009640869e+000
 3.645766368840204e-001	 3.782470680913030e+000	 8.574979520666739e+000
 3.276121204166254e-001	 3.785851352788797e+000	 8.589621631676840e+000
 2.907476273224767e-001	 3.788860727673674e+000	 8.585967458295414e+000
 2.539880711083032e-001	 3.791502284519237e+000	 8.568221894551904e+000
 2.173382605333388e-001	 3.793779570251820e+000	 8.541336545179689e+000
 1.808028989413304e-001	 3.795696196646321e+000	 8.510995478883672e+000
 1.443865836912393e-001	 3.797255837216559e+000	 8.483604878916296e+000
 1.080938056847371e-001	 3.798462224125175e+000	 8.466288796123948e+000
 7.192894898852230e-002	 3.799319145116026e+000	 8.466892946629606e+000
 3.589629054940242e-002	 3.799830440471868e+000	 8.493998232388050e+000
 0.000000000000000e+000	 3.800000000000001e+000	 8.556945409257599e+000
 3.671348135820682e-001	 3.809011680449607e+000	 8.594329291534530e+000
 3.299109229391823e-001	 3.812416073965843e+000	 8.604247163106031e+000
 2.927877575177755e-001	 3.815446565158654e+000	 8.595006936403564e+000
 2.557702653018515e-001	 3.818106657390918e+000	 8.570950136358885e+000
 2.188632887929225e-001	 3.820399922477242e+000	 8.537090830043425e+000
 1.820715643373305e-001	 3.822329997535829e+000	 8.499084381730999e+000
 1.453997215529536e-001	 3.823900581857012e+000	 8.463201293777917e+000
 1.088522828533867e-001	 3.825115433791474e+000	 8.436308449418865e+000
 7.243366306760793e-002	 3.825978367661123e+000	 8.425859795162470e+000
 3.614816915306143e-002	 3.826493250695419e+000	 8.439898221232085e+000
 0.000000000000000e+000	 3.826663999995868e+000	 8.487070128701639e+000
 3.696929902800646e-001	 3.835552679986150e+000	 8.615790291516081e+000
 3.322097254616717e-001	 3.838980795142871e+000	 8.620696160170017e+000
 2.948278877129898e-001	 3.842032402643637e+000	 8.605639535409706e+000
 2.575524594952994e-001	 3.844711030262633e+000	 8.575066746612468e+000
 2.203883170523936e-001	 3.847020274702731e+000	 8.534017126630893e+000
 1.833402297332110e-001	 3.848963798425434e+000	 8.488073868831803e+000
 1.464128594145492e-001	 3.850545326497594e+000	 8.443321220014614e+000
 1.096107600219280e-001	 3.851768643457931e+000	 8.406310440384239e+000
 7.293837714660725e-002	 3.852637590206400e+000	 8.384036667325280e+000
 3.640004775666957e-002	 3.853156060919164e+000	 8.383928524562730e+000
 0.000000000000000e+000	 3.853327999991935e+000	 8.413852031748700e+000
 3.722511669779586e-001	 3.862093679522626e+000	 8.636869908433733e+000
 3.345085279840260e-001	 3.865545516319864e+000	 8.636306427954880e+000
 2.968680179080347e-001	 3.868618240128633e+000	 8.615059521858203e+000
 2.593346536885468e-001	 3.871315403134416e+000	 8.577660909477304e+000
 2.219133453116393e-001	 3.873640626928348e+000	 8.529150166864660e+000
 1.846088951288528e-001	 3.875597599315237e+000	 8.475006740012779e+000
 1.474259972759075e-001	 3.877190071138433e+000	 8.421089608030814e+000
 1.103692371902528e-001	 3.878421853124702e+000	 8.373587146808664e+000
 7.344309122543394e-002	 3.879296812752036e+000	 8.338979432615966e+000
 3.665192636017595e-002	 3.879818871143298e+000	 8.324014913388037e+000
 0.000000000000000e+000	 3.879991999988402e+000	 8.335703071577219e+000
 3.748093436756991e-001	 3.888634679059003e+000	 8.655094496209442e+000
 3.368073305061778e-001	 3.892110237496803e+000	 8.648441171369521e+000
 2.989081481028261e-001	 3.895204077613644e+000	 8.620494421448424e+000
 2.611168478814930e-001	 3.897919776006299e+000	 8.575864517996097e+000
 2.234383735705471e-001	 3.900260979154164e+000	 8.519578592628141e+000
 1.858775605241363e-001	 3.902231400205331e+000	 8.456992813775797e+000
 1.484391351369099e-001	 3.903834815779660e+000	 8.393713593997099e+000
 1.111277143582529e-001	 3.905075062791944e+000	 8.335530502142827e+000
 7.394780530400166e-002	 3.905956035298211e+000	 8.288363226272612e+000
 3.690380496352973e-002	 3.906481681368015e+000	 8.258224604352305e+000
 0.000000000000000e+000	 3.906655999985469e+000	 8.251201417981235e+000
 3.773675203732346e-001	 3.915175678595245e+000	 8.668008398459778e+000
 3.391061330280596e-001	 3.918674958673670e+000	 8.654487672440531e+000
 3.009482782972789e-001	 3.921789915098675e+000	 8.619203306873782e+000
 2.628990420740376e-001	 3.924524148878315e+000	 8.566850035647670e+000
 2.249634018290041e-001	 3.926881331380236e+000	 8.502442360503483e+000
 1.871462259189420e-001	 3.928865201095816e+000	 8.431205850906487e+000
 1.494522729974377e-001	 3.930479560421402e+000	 8.358478924184116e+000
 1.118861915258198e-001	 3.931728272459813e+000	 8.289627908498412e+000
 7.445251938222409e-002	 3.932615257845103e+000	 8.229977844871277e+000
 3.715568356668002e-002	 3.933144491593509e+000	 8.184761137766039e+000
 0.000000000000000e+000	 3.933319999983334e+000	 8.159085823452791e+000
 3.933319999983334e+000	 0.000000000000000e+000	 1.055287648824288e+001
 3.933144491593509e+000	 3.715568356668014e-002	 1.060639374598478e+001
 3.932615257845103e+000	 7.445251938222434e-002	 1.063059467583432e+001
 3.931728272459812e+000	 1.118861915258195e-001	 1.063306518277825e+001
 3.930479560421403e+000	 1.494522729974376e-001	 1.062104604974832e+001
 3.928865201095816e+000	 1.871462259189419e-001	 1.060141718764568e+001
 3.926881331380236e+000	 2.249634018290042e-001	 1.058067593874349e+001
 3.924524148878316e+000	 2.628990420740378e-001	 1.056490971949397e+001
 3.921789915098675e+000	 3.009482782972785e-001	 1.055976338849931e+001
 3.918674958673671e+000	 3.391061330280594e-001	 1.057040183356400e+001
 3.915175678595246e+000	 3.773675203732345e-001	 1.060146838338011e+001
 3.959987999982150e+000	 0.000000000000000e+000	 1.058006682128450e+001
 3.959811301641444e+000	 3.740759995516202e-002	 1.062722882022145e+001
 3.959278479676159e+000	 7.495730917472705e-002	 1.064733525576416e+001
 3.958385480509717e+000	 1.126447824758346e-001	 1.064735165743874e+001
 3.957128302175166e+000	 1.504655628432892e-001	 1.063396386224793e+001
 3.955502997456446e+000	 1.884150816320309e-001	 1.061356102311746e+001
 3.953505677058800e+000	 2.264886588640513e-001	 1.059221201827100e+001
 3.951132512805530e+000	 2.646815036219777e-001	 1.057563554529516e+001
 3.948379740858182e+000	 3.029887145414693e-001	 1.056916428921165e+001
 3.945243664957141e+000	 3.414052804044880e-001	 1.057770366758188e+001
 3.941720659679418e+000	 3.799260808354097e-001	 1.060568577309784e+001
 3.986655999981866e+000	 0.000000000000000e+000	 1.057156908974592e+001
 3.986478111690256e+000	 3.765951634344035e-002	 1.061716256902560e+001
 3.985941701508023e+000	 7.546209896688422e-002	 1.063752390428465e+001
 3.985042688560327e+000	 1.134033734254160e-001	 1.063898752499290e+001
 3.983777043929509e+000	 1.514788526886650e-001	 1.062767845585949e+001
 3.982140793817519e+000	 1.896839373446401e-001	 1.060949400355804e+001
 3.980130022737659e+000	 2.280139158986443e-001	 1.059007815860574e+001
 3.977740876732896e+000	 2.664639651695105e-001	 1.057478899350388e+001
 3.974969566617713e+000	 3.050291507853134e-001	 1.056865944979981e+001
 3.971812371240533e+000	 3.437044277806347e-001	 1.057635202620507e+001
 3.968265640763441e+000	 3.824846412973638e-001	 1.060210800334222e+001
 4.013323999982382e+000	 0.000000000000000e+000	 1.052511602825306e+001
 4.013144921739844e+000	 3.791143273156598e-002	 1.057388323020976e+001
 4.012604923340605e+000	 7.596688875878213e-002	 1.059863136173496e+001
 4.011699896611567e+000	 1.141619643746716e-001	 1.060520354405171e+001
 4.010425785684371e+000	 1.524921425336828e-001	 1.059927587696280e+001
 4.008778590178979e+000	 1.909527930568868e-001	 1.058632985460697e+001
 4.006754368416777e+000	 2.295391729328923e-001	 1.057162196785888e+001
 4.004349240660397e+000	 2.682464267167314e-001	 1.056015024545182e+001
 4.001559392377266e+000	 3.070695870288871e-001	 1.055661746080716e+001
 3.998381077523853e+000	 3.460035751565556e-001	 1.056538002801243e+001
 3.994810621847332e+000	 3.850432017591319e-001	 1.059039304112670e+001
 4.039991999983599e+000	 0.000000000000000e+000	 1.047782496053823e+001
 4.039811731790116e+000	 3.816334911958979e-002	 1.052876340179190e+001
 4.039268145173817e+000	 7.647167855050699e-002	 1.055678344958774e+001
 4.038357104663356e+000	 1.149205553237095e-001	 1.056733760360058e+001
 4.037074527439683e+000	 1.535054323784602e-001	 1.056572921982549e+001
 4.035416386540783e+000	 1.922216487688887e-001	 1.055708615686678e+001
 4.033378714096124e+000	 2.310644299669047e-001	 1.054633168124465e+001
 4.030957604588014e+000	 2.700288882637349e-001	 1.053815237832124e+001
 4.028149218136838e+000	 3.091100232722672e-001	 1.053696278919943e+001
 4.024949783807112e+000	 3.483027225323063e-001	 1.054686646969979e+001
 4.021355602931107e+000	 3.876017622207494e-001	 1.057161314313841e+001
 4.066659999985416e+000	 0.000000000000000e+000	 1.043762203212052e+001
 4.066478541840970e+000	 3.841526550756264e-002	 1.048893575626171e+001
 4.065931367007566e+000	 7.697646834214497e-002	 1.051863021274070e+001
 4.065014312715617e+000	 1.156791462726372e-001	 1.053175825658446e+001
 4.063723269195385e+000	 1.545187222231149e-001	 1.053324044919941e+001
 4.062054182902881e+000	 1.934905044807632e-001	 1.052783996909604e+001
 4.060003059775669e+000	 2.325896870007906e-001	 1.052013486365631e+001
 4.057565968515734e+000	 2.718113498106163e-001	 1.051448738329238e+001
 4.054739043896424e+000	 3.111504595155297e-001	 1.051501011184110e+001
 4.051518490090317e+000	 3.506018699079425e-001	 1.052552858113651e+001
 4.047900584014782e+000	 3.901603226822512e-001	 1.054954003159240e+001
 4.093327999987731e+000	 0.000000000000000e+000	 1.040586330113797e+001
 4.093145351892312e+000	 3.866718189553542e-002	 1.045583362918795e+001
 4.092594588841764e+000	 7.748125813378227e-002	 1.048568071428321e+001
 4.091671520768268e+000	 1.164377372215629e-001	 1.050004909214202e+001
 4.090372010951406e+000	 1.555320120677646e-001	 1.050346677238039e+001
 4.088691979265223e+000	 1.947593601926277e-001	 1.050032144738872e+001
 4.086627405455375e+000	 2.341149440346594e-001	 1.049483413429124e+001
 4.084174332443538e+000	 2.735938113574702e-001	 1.049102998630854e+001
 4.081328869656023e+000	 3.131908957587514e-001	 1.049270598099534e+001
 4.078087196373478e+000	 3.529010172835201e-001	 1.050339516520037e+001
 4.074445565098373e+000	 3.927188831436725e-001	 1.052632710867827e+001
 4.119995999990449e+000	 0.000000000000000e+000	 1.038398224540680e+001
 4.119812161944040e+000	 3.891909828355897e-002	 1.043095028660606e+001
 4.119257810676322e+000	 7.798604792550518e-002	 1.045948734855348e+001
 4.118328728821235e+000	 1.171963281705942e-001	 1.047382131220659e+001
 4.117020752707688e+000	 1.565453019125268e-001	 1.047807816002272e+001
 4.115329775627761e+000	 1.960282159045999e-001	 1.047625951650227e+001
 4.113251751135212e+000	 2.356402010686202e-001	 1.047221772423399e+001
 4.110782696371409e+000	 2.753762729043918e-001	 1.046962818697433e+001
 4.107918695415634e+000	 3.152313320020084e-001	 1.047195868100904e+001
 4.104655902656603e+000	 3.552001646590953e-001	 1.048243530661928e+001
 4.100990546181900e+000	 3.952774436050482e-001	 1.050400472168523e+001
 4.146663999993465e+000	 0.000000000000000e+000	 1.037348727291466e+001
 4.146478971996062e+000	 3.917101467168417e-002	 1.041583669860009e+001
 4.145921032511151e+000	 7.849083771739990e-002	 1.044164388325390e+001
 4.144985936874439e+000	 1.179549191198392e-001	 1.045471204775013e+001
 4.143669494464162e+000	 1.575585917575192e-001	 1.045875594223310e+001
 4.141967571990445e+000	 1.972970716167970e-001	 1.045738075162196e+001
 4.139876096815146e+000	 2.371654581027823e-001	 1.045405864978891e+001
 4.137391060299331e+000	 2.771587344514758e-001	 1.045210272941126e+001
 4.134508521175254e+000	 3.172717682453773e-001	 1.045463800267429e+001
 4.131224608939702e+000	 3.574993120347234e-001	 1.046456913671316e+001
 4.127535527265377e+000	 3.978360040664135e-001	 1.048454455593310e+001
 4.173331999996682e+000	 0.000000000000000e+000	 1.037595932776409e+001
 4.173145782048277e+000	 3.942293105996187e-002	 1.041209939848760e+001
 4.172584254346157e+000	 7.899562750955259e-002	 1.043378357760278e+001
 4.171643144927797e+000	 1.187135100694056e-001	 1.044438274176198e+001
 4.170318236220768e+000	 1.585718816028597e-001	 1.044719146235215e+001
 4.168605368353229e+000	 1.985659273293367e-001	 1.044540830901313e+001
 4.166500442495146e+000	 2.386907151372550e-001	 1.044211392614086e+001
 4.163999424227287e+000	 2.789411959988172e-001	 1.044024660510583e+001
 4.161098346934876e+000	 3.193122044889346e-001	 1.044257504146535e+001
 4.157793315222783e+000	 3.597984594104604e-001	 1.045166793321560e+001
 4.154080508348820e+000	 4.003945645278036e-001	 1.046986004234718e+001
 4.200000000000001e+000	 0.000000000000000e+000	 1.039304958732217e+001
 4.199812592100591e+000	 3.967484744844298e-002	 1.042139842380672e+001
 4.199247476181254e+000	 7.950041730204951e-002	 1.043757737314256e+001
 4.198300352981237e+000	 1.194721010194014e-001	 1.044451759599442e+001
 4.196966977977437e+000	 1.595851714486656e-001	 1.044508478585894e+001
 4.195243164716060e+000	 1.998347830423366e-001	 1.044206090338997e+001
 4.193124788175180e+000	 2.402159721721477e-001	 1.043812381955006e+001
 4.190607788155260e+000	 2.807236575465109e-001	 1.043582458632926e+001
 4.187688172694504e+000	 3.213526407327567e-001	 1.043756201858985e+001
 4.184362021505856e+000	 3.620976067863622e-001	 1.044555423534980e+001
 4.180625489432249e+000	 4.029531249892535e-001	 1.046180677291402e+001
 3.915175678595246e+000	 3.773675203732345e-001	 1.060146838338011e+001
 3.911289159882991e+000	 4.157214995353987e-001	 1.063680289607577e+001
 3.907011458158685e+000	 4.541685722679180e-001	 1.065935198829577e+001
 3.902339205074782e+000	 4.927034190860264e-001	 1.067158450375345e+001
 3.897269115457639e+000	 5.313206183671849e-001	 1.067540249929875e+001
 3.891797990537994e+000	 5.700146475776188e-001	 1.067209580076915e+001
 3.885922721176181e+000	 6.087798846073804e-001	 1.066229830844208e+001
 3.879640291078204e+000	 6.476106092149703e-001	 1.064594744782558e+001
 3.872947779998714e+000	 6.865010045823983e-001	 1.062495753393450e+001
 3.865842366926857e+000	 7.254451589814351e-001	 1.061546499987364e+001
 3.858321333250832e+000	 7.644370675516264e-001	 1.062293904626972e+001
 3.941720659679418e+000	 3.799260808354097e-001	 1.060568577309784e+001
 3.937807790280955e+000	 4.185401008579659e-001	 1.063793832792216e+001
 3.933501085640565e+000	 4.572478456274203e-001	 1.065837351990370e+001
 3.928797154573237e+000	 4.960439595927763e-001	 1.066927516018372e+001
 3.923692689631787e+000	 5.349229843727675e-001	 1.067238813723687e+001
 3.918184470359235e+000	 5.738793599907123e-001	 1.066886606470907e+001
 3.912269366535888e+000	 6.129074262186267e-001	 1.065922027230327e+001
 3.905944341417220e+000	 6.520014240316406e-001	 1.064327159385342e+001
 3.899206454958562e+000	 6.911554971736033e-001	 1.062377723366827e+001
 3.892052867022555e+000	 7.303636938346295e-001	 1.061517728130989e+001
 3.884480840565159e+000	 7.696199684411721e-001	 1.062166503714708e+001
 3.968265640763441e+000	 3.824846412973638e-001	 1.060210800334222e+001
 3.964326420678744e+000	 4.213587021803618e-001	 1.063180286189351e+001
 3.959990713122277e+000	 4.603271189867886e-001	 1.065039646757705e+001
 3.955255104071564e+000	 4.993845000994172e-001	 1.066004541836660e+001
 3.950116263805866e+000	 5.385253503782557e-001	 1.066239708658914e+001
 3.944570950180483e+000	 5.777440724037150e-001	 1.065852989244970e+001
 3.938616011895684e+000	 6.170349678297757e-001	 1.064889448639442e+001
 3.932248391756403e+000	 6.563922388481975e-001	 1.063325735490435e+001
 3.925465129918650e+000	 6.958099897646696e-001	 1.061522045583809e+001
 3.918263367118544e+000	 7.352822286876528e-001	 1.060722419061473e+001
 3.910640347879802e+000	 7.748028693305062e-001	 1.061261328781917e+001
 3.994810621847332e+000	 3.850432017591319e-001	 1.059039304112669e+001
 3.990845051076375e+000	 4.241773035026022e-001	 1.061861866900839e+001
 3.986480340603841e+000	 4.634063923460213e-001	 1.063614051261709e+001
 3.981713053569776e+000	 5.027250406059335e-001	 1.064504846828826e+001
 3.976539837979888e+000	 5.421277163836207e-001	 1.064695490890640e+001
 3.970957430001741e+000	 5.816087848165876e-001	 1.064292710305703e+001
 3.964962657255564e+000	 6.211625094407804e-001	 1.063342008009071e+001
 3.958552442095746e+000	 6.607830536645895e-001	 1.061821151823996e+001
 3.951723804878960e+000	 7.004644823555440e-001	 1.060168405583005e+001
 3.944473867214805e+000	 7.402007635404504e-001	 1.059414566278561e+001
 3.936799855194743e+000	 7.799857702195772e-001	 1.059842574746754e+001
 4.021355602931107e+000	 3.876017622207494e-001	 1.057161314313841e+001
 4.017363681473869e+000	 4.269959048247033e-001	 1.059911831578023e+001
 4.012969968085275e+000	 4.664856657051180e-001	 1.061643902934465e+001
 4.008171003067891e+000	 5.060655811123093e-001	 1.062545208410115e+001
 4.002963412153861e+000	 5.457300823888341e-001	 1.062761807797611e+001
 3.997343909823011e+000	 5.854734972292921e-001	 1.062392878295985e+001
 3.991309302615524e+000	 6.252900510515952e-001	 1.061491751309247e+001
 3.984856492435233e+000	 6.651738684807650e-001	 1.060045216273120e+001
 3.977982479839473e+000	 7.051189749461716e-001	 1.058557943481978e+001
 3.970684367311317e+000	 7.451192983929695e-001	 1.057849203879062e+001
 3.962959362509964e+000	 7.851686711083349e-001	 1.058175088227304e+001
 4.047900584014782e+000	 3.901603226822512e-001	 1.054954003159240e+001
 4.043882311871244e+000	 4.298145061466807e-001	 1.057598181905720e+001
 4.039459595566599e+000	 4.695649390640772e-001	 1.059297509736475e+001
 4.034628952565923e+000	 5.094061216185286e-001	 1.060225187228729e+001
 4.029386986327793e+000	 5.493324483938677e-001	 1.060516060943333e+001
 4.023730389644293e+000	 5.893382096417900e-001	 1.060260432175356e+001
 4.017655947975552e+000	 6.294175926621729e-001	 1.059497211654884e+001
 4.011160542774849e+000	 6.695646832966722e-001	 1.058208813955307e+001
 4.004241154800173e+000	 7.097734675364990e-001	 1.056929572075694e+001
 3.996894867408061e+000	 7.500378332451562e-001	 1.056282370381972e+001
 3.989118869825450e+000	 7.903515719967292e-001	 1.056524320915247e+001
 4.074445565098373e+000	 3.927188831436725e-001	 1.052632710867827e+001
 4.070400942268521e+000	 4.326331074685511e-001	 1.055144707863280e+001
 4.065949223047831e+000	 4.726442124228984e-001	 1.056794293977572e+001
 4.061086902063884e+000	 5.127466621245758e-001	 1.057741039785838e+001
 4.055810560501691e+000	 5.529348143986932e-001	 1.058109330908635e+001
 4.050116869465589e+000	 5.932029220540418e-001	 1.057982350737121e+001
 4.044002593335647e+000	 6.335451342724678e-001	 1.057395405248763e+001
 4.037464593114587e+000	 6.739554981122600e-001	 1.056341361513093e+001
 4.030499829761044e+000	 7.144279601264721e-001	 1.055338676265962e+001
 4.023105367505020e+000	 7.549563680969565e-001	 1.054854114592310e+001
 4.015278377141184e+000	 7.955344728847097e-001	 1.055105970060225e+001
 4.100990546181900e+000	 3.952774436050482e-001	 1.050400472168523e+001
 4.096919572665721e+000	 4.354517087903299e-001	 1.052759808100724e+001
 4.092438850528989e+000	 4.757234857815803e-001	 1.054346407010833e+001
 4.087544851561791e+000	 5.160872026304351e-001	 1.055306983624438e+001
 4.082234134675567e+000	 5.565371804032819e-001	 1.055756136147442e+001
 4.076503349286900e+000	 5.970676344660097e-001	 1.055770510898902e+001
 4.070349238695803e+000	 6.376726758824337e-001	 1.055382306036251e+001
 4.063768643454428e+000	 6.783463129274764e-001	 1.054598418588783e+001
 4.056758504722066e+000	 7.190824527160370e-001	 1.053886489857203e+001
 4.049315867602173e+000	 7.598749029483172e-001	 1.053598015892531e+001
 4.041437884457146e+000	 8.007173737722259e-001	 1.053929990216415e+001
 4.127535527265377e+000	 3.978360040664135e-001	 1.048454455593310e+001
 4.123438203062861e+000	 4.382703101120334e-001	 1.050645137041616e+001
 4.118928478010090e+000	 4.788027591401218e-001	 1.052158488896008e+001
 4.114002801059660e+000	 5.194277431360904e-001	 1.053129066901182e+001
 4.108657708849427e+000	 5.601395464076056e-001	 1.053662274372657e+001
 4.102889829108228e+000	 6.009323468776551e-001	 1.053828717118390e+001
 4.096695884056011e+000	 6.418002174920235e-001	 1.053657895357805e+001
 4.090072693794363e+000	 6.827371277422706e-001	 1.053169669264595e+001
 4.083017179683222e+000	 7.237369453051398e-001	 1.052758833369657e+001
 4.075526367699502e+000	 7.647934377991846e-001	 1.052692150964645e+001
 4.067597391773322e+000	 8.059002746592269e-001	 1.053145603453874e+001
 4.154080508348820e+000	 4.003945645278036e-001	 1.046986004234718e+001
 4.149956833459963e+000	 4.410889114336775e-001	 1.048995676367474e+001
 4.145418105491158e+000	 4.818820324985224e-001	 1.050427769873624e+001
 4.140460750557502e+000	 5.227682836415259e-001	 1.051405299057447e+001
 4.135081283023280e+000	 5.637419124116356e-001	 1.052024981574220e+001
 4.129276308929573e+000	 6.047970592889388e-001	 1.052351792476460e+001
 4.123042529416265e+000	 6.459277591011916e-001	 1.052412854108417e+001
 4.116376744134380e+000	 6.871279425565907e-001	 1.052236252321487e+001
 4.109275854644496e+000	 7.283914378937263e-001	 1.052132728108379e+001
 4.101736867796986e+000	 7.697119726495050e-001	 1.052307585501391e+001
 4.093756899089693e+000	 8.110831755456631e-001	 1.052916061596912e+001
 4.180625489432249e+000	 4.029531249892535e-001	 1.046180677291402e+001
 4.176475463857044e+000	 4.439075127552786e-001	 1.047999806595591e+001
 4.171907732972210e+000	 4.849613058567809e-001	 1.049344171305337e+001
 4.166918700055335e+000	 5.261088241467261e-001	 1.050325780397655e+001
 4.161504857197135e+000	 5.673442784153436e-001	 1.051033089454267e+001
 4.155662788750936e+000	 6.086617716998225e-001	 1.051525763129769e+001
 4.149389174776560e+000	 6.500553007098914e-001	 1.051828773308445e+001
 4.142680794474464e+000	 6.915187573703855e-001	 1.051970921698360e+001
 4.135534529605870e+000	 7.330459304817428e-001	 1.052176573053219e+001
 4.127947367894608e+000	 7.746305074992249e-001	 1.052606610291167e+001
 4.119916406406245e+000	 8.162660764314833e-001	 1.053395773045590e+001
 3.858321333250832e+000	 7.644370675516264e-001	 1.062293904626972e+001
 3.850380843942109e+000	 8.034764911172418e-001	 1.064001231266323e+001
 3.842019493278809e+000	 8.425513879866889e-001	 1.065804301659143e+001
 3.833234890918528e+000	 8.816554735420564e-001	 1.067771477936590e+001
 3.824024761409275e+000	 9.207823780247851e-001	 1.069935667951020e+001
 3.814386947187075e+000	 9.599256488797630e-001	 1.072292697937498e+001
 3.804319411526238e+000	 9.990787532115453e-001	 1.074799818827634e+001
 3.793820241437710e+000	 1.038235080352055e+000	 1.077374145409524e+001
 3.782887650511028e+000	 1.077387944538931e+000	 1.079892635255058e+001
 3.771519981695345e+000	 1.116530587703505e+000	 1.082189474161821e+001
 3.759715710014934e+000	 1.155656182367169e+000	 1.084056908499678e+001
 3.884480840565159e+000	 7.696199684411721e-001	 1.062166503714708e+001
 3.876486514556274e+000	 8.089240801958826e-001	 1.063678725303704e+001
 3.868068473743194e+000	 8.482639057642207e-001	 1.065292203278780e+001
 3.859224311576942e+000	 8.876331179184213e-001	 1.067077139445562e+001
 3.849951737177909e+000	 9.270253037128126e-001	 1.069069567186328e+001
 3.840248578353792e+000	 9.664339668438116e-001	 1.071269529640989e+001
 3.830112784569850e+000	 1.005852530122790e+000	 1.073639382737947e+001
 3.819542429866924e+000	 1.045274338061189e+000	 1.076102060289110e+001
 3.808535715722648e+000	 1.084692659567023e+000	 1.078540681086602e+001
 3.797090973851327e+000	 1.124100690751761e+000	 1.080795974990988e+001
 3.785206668937873e+000	 1.163491557846334e+000	 1.082666707759775e+001
 3.910640347879802e+000	 7.748028693305062e-001	 1.061261328781917e+001
 3.902592185170744e+000	 8.143716692742634e-001	 1.062577711966666e+001
 3.894117454207847e+000	 8.539764235414398e-001	 1.064004045981704e+001
 3.885213732235560e+000	 8.936107622944155e-001	 1.065613350383461e+001
 3.875878712946665e+000	 9.332682294004112e-001	 1.067445724903968e+001
 3.866110209520530e+000	 9.729422848073702e-001	 1.069506318394971e+001
 3.855906157613377e+000	 1.012626307033486e+000	 1.071763131851015e+001
 3.845264618295935e+000	 1.052313595769716e+000	 1.074146496430288e+001
 3.834183780933947e+000	 1.091997374594454e+000	 1.076545497731344e+001
 3.822661966006884e+000	 1.131670793799310e+000	 1.078808209079588e+001
 3.810697627860288e+000	 1.171326933324751e+000	 1.080740307983933e+001
 3.936799855194743e+000	 7.799857702195772e-001	 1.059842574746754e+001
 3.928697855785512e+000	 8.198192583523399e-001	 1.060968870556594e+001
 3.920166434672769e+000	 8.596889413183102e-001	 1.062213673904408e+001
 3.911203152894398e+000	 8.995884066700153e-001	 1.063653892948367e+001
 3.901805688715572e+000	 9.395111550875679e-001	 1.065334733175454e+001
 3.891971840687339e+000	 9.794506027704418e-001	 1.067267441908002e+001
 3.881699530656881e+000	 1.019400083943650e+000	 1.069426918144817e+001
 3.870986806724833e+000	 1.059352853477671e+000	 1.071750770347610e+001
 3.859831846145038e+000	 1.099302089621277e+000	 1.074135784668094e+001
 3.848232958162134e+000	 1.139240896846218e+000	 1.076437694288306e+001
 3.836188586782309e+000	 1.179162308802503e+000	 1.078469604040040e+001
 3.962959362509964e+000	 7.851686711083349e-001	 1.058175088227304e+001
 3.954803526400566e+000	 8.252668474300684e-001	 1.059123162743098e+001
 3.946215415137962e+000	 8.654014590947966e-001	 1.060194858362395e+001
 3.937192573553473e+000	 9.055660510451958e-001	 1.061472138319299e+001
 3.927732664484666e+000	 9.457540807742725e-001	 1.063006454758102e+001
 3.917833471854273e+000	 9.859589207330297e-001	 1.064816253146399e+001
 3.907492903700438e+000	 1.026173860853301e+000	 1.066884367587653e+001
 3.896708995153702e+000	 1.066392111185088e+000	 1.069156663575284e+001
 3.885479911356018e+000	 1.106606804647541e+000	 1.071538497704448e+001
 3.873803950317198e+000	 1.146810999892552e+000	 1.073894031127296e+001
 3.861679545704069e+000	 1.186997684279673e+000	 1.076044437822476e+001
 3.989118869825450e+000	 7.903515719967292e-001	 1.056524320915247e+001
 3.980909197015897e+000	 8.307144365074038e-001	 1.057311773179979e+001
 3.972264395603426e+000	 8.711139768708636e-001	 1.058221223711061e+001
 3.963181994212799e+000	 9.115436954199335e-001	 1.059340955804090e+001
 3.953659640253977e+000	 9.519970064605123e-001	 1.060729913613984e+001
 3.943695103021376e+000	 9.924672386951351e-001	 1.062414950352737e+001
 3.933286276744112e+000	 1.032947637762458e+000	 1.064387987733841e+001
 3.922431183582630e+000	 1.073431368892000e+000	 1.066604246260470e+001
 3.911127976566998e+000	 1.113911519673297e+000	 1.068978646745135e+001
 3.899374942472197e+000	 1.154381102938380e+000	 1.071384673028491e+001
 3.887170504625702e+000	 1.194833059756341e+000	 1.073652339412412e+001
 4.015278377141184e+000	 7.955344728847097e-001	 1.055105970060225e+001
 4.007014867631494e+000	 8.361620255843024e-001	 1.055795988216997e+001
 3.998313376069162e+000	 8.768264946464753e-001	 1.056566169586741e+001
 3.989171414872387e+000	 9.175213397942025e-001	 1.057532618489030e+001
 3.979586616023536e+000	 9.582399321462761e-001	 1.058773182116535e+001
 3.969556734188702e+000	 9.989755566567616e-001	 1.060324444002052e+001
 3.959079649787975e+000	 1.039721414671136e+000	 1.062188684445031e+001
 3.948153372011706e+000	 1.080470626598443e+000	 1.064331698386067e+001
 3.936776041778080e+000	 1.121216234698595e+000	 1.066679091630941e+001
 3.924945934627249e+000	 1.161951205983767e+000	 1.069114695192391e+001
 3.912661463547339e+000	 1.202668435232591e+000	 1.071478267379074e+001
 4.041437884457146e+000	 8.007173737722259e-001	 1.053929990216415e+001
 4.033120538247349e+000	 8.416096146607200e-001	 1.054625011524520e+001
 4.024362356535170e+000	 8.825390124215965e-001	 1.055374887588179e+001
 4.015160835532259e+000	 9.234989841679794e-001	 1.056274074508796e+001
 4.005513591793375e+000	 9.644828578315521e-001	 1.057398193013183e+001
 3.995418365356301e+000	 1.005483874617912e+000	 1.058804220834549e+001
 3.984873022832094e+000	 1.046495191579357e+000	 1.060535604212159e+001
 3.973875560441019e+000	 1.087509884304450e+000	 1.062575128730421e+001
 3.962424106989368e+000	 1.128520949723485e+000	 1.064860336135516e+001
 3.950516926782475e+000	 1.169521309028779e+000	 1.067286562073877e+001
 3.938152422469113e+000	 1.210503810708505e+000	 1.069704348260740e+001
 4.067597391773322e+000	 8.059002746592269e-001	 1.053145603453874e+001
 4.059226208863447e+000	 8.470572037366113e-001	 1.053896176529309e+001
 4.050411337001455e+000	 8.882515301961920e-001	 1.054679287752904e+001
 4.041150256192424e+000	 9.294766285412385e-001	 1.055584882904980e+001
 4.031440567563525e+000	 9.707257835163288e-001	 1.056685592453078e+001
 4.021279996524220e+000	 1.011992192578588e+000	 1.058033981556593e+001
 4.010666395876541e+000	 1.053268968487136e+000	 1.059660357657966e+001
 3.999597748870652e+000	 1.094549142010055e+000	 1.061568391665831e+001
 3.988072172200968e+000	 1.135825664748018e+000	 1.063740320203075e+001
 3.976087918937997e+000	 1.177091412073484e+000	 1.066099893568358e+001
 3.963643381391156e+000	 1.218339186184163e+000	 1.068509615262620e+001
 4.093756899089693e+000	 8.110831755456631e-001	 1.052916061596912e+001
 4.085331879479782e+000	 8.525047928119331e-001	 1.053763308609658e+001
 4.076460317468012e+000	 8.939640479702253e-001	 1.054621876526482e+001
 4.067139676852903e+000	 9.354542729139562e-001	 1.055576924235482e+001
 4.057367543334021e+000	 9.769687092005943e-001	 1.056697713596782e+001
 4.047141627692514e+000	 1.018500510538794e+000	 1.058034926052393e+001
 4.036459768921380e+000	 1.060042745394492e+000	 1.059618395116924e+001
 4.025319937300696e+000	 1.101588399715292e+000	 1.061452929976731e+001
 4.013720237412985e+000	 1.143130379772244e+000	 1.063515493965836e+001
 4.001658911093933e+000	 1.184661515117947e+000	 1.065751075298210e+001
 3.989134340313600e+000	 1.226174561659649e+000	 1.068069746206505e+001
 4.119916406406245e+000	 8.162660764314833e-001	 1.053395773045590e+001
 4.111437550096344e+000	 8.579523818866409e-001	 1.054371397440984e+001
 4.102509297934843e+000	 8.996765657436617e-001	 1.055336930576461e+001
 4.093129097513706e+000	 9.414319172861080e-001	 1.056372447154061e+001
 4.083294519104891e+000	 9.832116348843372e-001	 1.057543440116612e+001
 4.073003258861229e+000	 1.025008828498531e+000	 1.058898202975933e+001
 4.062253141966685e+000	 1.066816522301443e+000	 1.060465506740193e+001
 4.051042125731239e+000	 1.108627657420195e+000	 1.062250619482630e+001
 4.039368302625527e+000	 1.150435094796214e+000	 1.064232401438529e+001
 4.027229903250404e+000	 1.192231618162235e+000	 1.066359235322447e+001
 4.014625299236578e+000	 1.234009937135045e+000	 1.068544724632248e+001
 3.759715710014934e+000	 1.155656182367169e+000	 1.084056908499678e+001
 3.747473444274480e+000	 1.194757834072111e+000	 1.085551439994032e+001
 3.734791926805089e+000	 1.233828582715533e+000	 1.086643090631939e+001
 3.721670038772552e+000	 1.272861407380663e+000	 1.086925651271546e+001
 3.708106803531545e+000	 1.311849230209201e+000	 1.085944811573536e+001
 3.694101388953216e+000	 1.350784919814787e+000	 1.083520095432368e+001
 3.679653109660587e+000	 1.389661294793495e+000	 1.081620917959203e+001
 3.664761429167448e+000	 1.428471127328699e+000	 1.080537479027026e+001
 3.649425961916560e+000	 1.467207146887431e+000	 1.080073528693740e+001
 3.633646475212943e+000	 1.505862044005179e+000	 1.080007360532569e+001
 3.617422891048259e+000	 1.544428474155829e+000	 1.080092018199814e+001
 3.785206668937873e+000	 1.163491557846334e+000	 1.082666707759775e+001
 3.772881400354629e+000	 1.202858319648345e+000	 1.084160678160053e+001
 3.760113901905669e+000	 1.242193968865346e+000	 1.085202578991229e+001
 3.746903047171049e+000	 1.281491436978598e+000	 1.085396970358791e+001
 3.733247852883756e+000	 1.320743598141761e+000	 1.084299210380581e+001
 3.719147481273076e+000	 1.359943272617522e+000	 1.082102502064238e+001
 3.704601242315142e+000	 1.399083230311878e+000	 1.080592887309538e+001
 3.689608595886351e+000	 1.438156194403447e+000	 1.079759648254960e+001
 3.674169153815358e+000	 1.477154845064890e+000	 1.079421940411155e+001
 3.658282681829496e+000	 1.516071823273362e+000	 1.079373952869603e+001
 3.641949101391516e+000	 1.554899734706702e+000	 1.079385072571899e+001
 3.810697627860288e+000	 1.171326933324751e+000	 1.080740307983933e+001
 3.798289356434169e+000	 1.210958805223801e+000	 1.082299316356173e+001
 3.785435877005572e+000	 1.250559355014358e+000	 1.083362941221168e+001
 3.772136055568818e+000	 1.290121466575712e+000	 1.083546694826715e+001
 3.758388902235206e+000	 1.329637966073492e+000	 1.082415807874738e+001
 3.744193573592157e+000	 1.369101625419422e+000	 1.080622785848562e+001
 3.729549374968920e+000	 1.408505165829424e+000	 1.079503972095603e+001
 3.714455762604491e+000	 1.447841261477359e+000	 1.078928868233001e+001
 3.698912345713430e+000	 1.487102543241513e+000	 1.078731288219848e+001
 3.682918888445374e+000	 1.526281602540710e+000	 1.078720667766119e+001
 3.666475311734168e+000	 1.565370995256741e+000	 1.078682186547983e+001
 3.836188586782309e+000	 1.179162308802503e+000	 1.078469604040040e+001
 3.823697312513242e+000	 1.219059290798574e+000	 1.080138942129575e+001
 3.810757852104945e+000	 1.258924741162679e+000	 1.081276536434394e+001
 3.797369063966007e+000	 1.298751496172132e+000	 1.081509166949780e+001
 3.783529951586039e+000	 1.338532334004527e+000	 1.080433222758957e+001
 3.769239665910597e+000	 1.378259978220629e+000	 1.079147888229169e+001
 3.754497507622050e+000	 1.417927101346283e+000	 1.078410424683332e+001
 3.739302929321989e+000	 1.457526328550590e+000	 1.078092270406613e+001
 3.723655537610877e+000	 1.497050241417461e+000	 1.078041186030697e+001
 3.707555095060664e+000	 1.536491381807390e+000	 1.078081239193128e+001
 3.691001522076283e+000	 1.575842255806114e+000	 1.078012884802955e+001
 3.861679545704069e+000	 1.186997684279673e+000	 1.076044437822476e+001
 3.849105268591986e+000	 1.227159776372762e+000	 1.077848952426904e+001
 3.836079827203931e+000	 1.267290127310417e+000	 1.079093353294116e+001
 3.822602072362763e+000	 1.307381525767979e+000	 1.079416139291856e+001
 3.808671000936400e+000	 1.347426701935000e+000	 1.078541511905273e+001
 3.794285758228536e+000	 1.387418331021288e+000	 1.077744528779140e+001
 3.779445640274659e+000	 1.427349036862606e+000	 1.077368357938963e+001
 3.764150096038960e+000	 1.467211395623299e+000	 1.077296886271170e+001
 3.748398729507805e+000	 1.506997939592899e+000	 1.077391144767214e+001
 3.732191301675452e+000	 1.546701161073566e+000	 1.077489252792204e+001
 3.715527732417928e+000	 1.586313516354986e+000	 1.077406456362908e+001
 3.887170504625702e+000	 1.194833059756341e+000	 1.073652339412412e+001
 3.874513224670546e+000	 1.235260261946463e+000	 1.075596265496281e+001
 3.861401802302679e+000	 1.275655513457684e+000	 1.076960693986926e+001
 3.847835080759229e+000	 1.316011555363373e+000	 1.077396432143312e+001
 3.833812050286429e+000	 1.356321069865043e+000	 1.076830307984797e+001
 3.819331850546111e+000	 1.396576683821539e+000	 1.076479071269682e+001
 3.804393772926877e+000	 1.436770972378545e+000	 1.076433598242585e+001
 3.788997262755523e+000	 1.476896462695642e+000	 1.076589488645162e+001
 3.773141921404314e+000	 1.516945637767987e+000	 1.076820403238876e+001
 3.756827508289828e+000	 1.556910940339404e+000	 1.076977967713820e+001
 3.740053942759174e+000	 1.596784776903525e+000	 1.076891768797256e+001
 3.912661463547339e+000	 1.202668435232591e+000	 1.071478267379074e+001
 3.899921180749059e+000	 1.243360747519771e+000	 1.073545032503504e+001
 3.886723777401333e+000	 1.284020899604590e+000	 1.075022858433810e+001
 3.873068089155554e+000	 1.324641584958439e+000	 1.075575591670334e+001
 3.858953099636274e+000	 1.365215437794790e+000	 1.075377374193687e+001
 3.844377942863459e+000	 1.405735036621528e+000	 1.075417391246179e+001
 3.829341905578835e+000	 1.446192907894251e+000	 1.075661540328611e+001
 3.813844429471796e+000	 1.486581529767779e+000	 1.076016435037305e+001
 3.797885113300513e+000	 1.526893335942890e+000	 1.076367761321933e+001
 3.781463714903873e+000	 1.567120719605069e+000	 1.076580140923097e+001
 3.764580153100085e+000	 1.607256037451897e+000	 1.076497084983578e+001
 3.938152422469113e+000	 1.210503810708505e+000	 1.069704348260740e+001
 3.925329136827668e+000	 1.251461233092785e+000	 1.071856348875271e+001
 3.912045752500035e+000	 1.292386285751245e+000	 1.073420828728523e+001
 3.898301097551885e+000	 1.333271614553299e+000	 1.074075548744336e+001
 3.884094148986077e+000	 1.374109805724376e+000	 1.074259771072517e+001
 3.869424035180721e+000	 1.414893389421397e+000	 1.074624745043156e+001
 3.854290038230659e+000	 1.455614843409874e+000	 1.075107003870440e+001
 3.838691596187895e+000	 1.496266596839866e+000	 1.075623513012726e+001
 3.822628305196501e+000	 1.536841034117768e+000	 1.076071415343327e+001
 3.806099921517679e+000	 1.577330498870728e+000	 1.076327853861048e+001
 3.789106363440732e+000	 1.617727298000268e+000	 1.076249882328634e+001
 3.963643381391156e+000	 1.218339186184163e+000	 1.068509615262620e+001
 3.950737092906511e+000	 1.259561718665599e+000	 1.070687965381858e+001
 3.937367727598935e+000	 1.300751671897758e+000	 1.072291953793189e+001
 3.923534105948365e+000	 1.341901644148074e+000	 1.073043368078419e+001
 3.909235198335982e+000	 1.383004173653933e+000	 1.073553740173489e+001
 3.894470127498032e+000	 1.424051742221287e+000	 1.074165640173385e+001
 3.879238170882482e+000	 1.465036778925566e+000	 1.074824091730694e+001
 3.863538762903939e+000	 1.505951663912062e+000	 1.075455787468176e+001
 3.847371497092383e+000	 1.546788732292785e+000	 1.075968795568412e+001
 3.830736128131332e+000	 1.587540278136545e+000	 1.076252341355422e+001
 3.813632573781182e+000	 1.628198558548805e+000	 1.076176674334970e+001
 3.989134340313600e+000	 1.226174561659649e+000	 1.068069746206505e+001
 3.976145048985732e+000	 1.267662204238311e+000	 1.070193998970850e+001
 3.962689702698176e+000	 1.309117058044240e+000	 1.071769634241455e+001
 3.948767114345144e+000	 1.350531673742888e+000	 1.072605860294274e+001
 3.934376247686132e+000	 1.391898541583594e+000	 1.073334588716481e+001
 3.919516219815531e+000	 1.433210095021344e+000	 1.074103707029616e+001
 3.904186303534432e+000	 1.474458714441479e+000	 1.074866049802634e+001
 3.888385929620047e+000	 1.515636730984523e+000	 1.075557449730947e+001
 3.872114688988263e+000	 1.556736430468103e+000	 1.076096405698452e+001
 3.855372334744916e+000	 1.597750057402686e+000	 1.076383822680378e+001
 3.838158784121502e+000	 1.638669819097676e+000	 1.076302834408244e+001
 4.014625299236578e+000	 1.234009937135045e+000	 1.068544724632248e+001
 4.001553005065471e+000	 1.275762689811019e+000	 1.070524614634451e+001
 3.988011677797905e+000	 1.317482444190801e+000	 1.071983007439945e+001
 3.974000122742365e+000	 1.359161703337862e+000	 1.072850134471128e+001
 3.959517297036671e+000	 1.400792909513493e+000	 1.073676575189945e+001
 3.944562312133359e+000	 1.442368447821711e+000	 1.074501571840666e+001
 3.929134436186638e+000	 1.483880649957763e+000	 1.075285128371970e+001
 3.913233096336334e+000	 1.525321798057408e+000	 1.075971668400350e+001
 3.896857880884244e+000	 1.566684128643885e+000	 1.076489664288514e+001
 3.880008541358523e+000	 1.607959836669317e+000	 1.076751334669577e+001
 3.862684994461763e+000	 1.649141079647046e+000	 1.076652421805572e+001
 3.617422891048259e+000	 1.544428474155829e+000	 1.080092018199814e+001
 3.600757821582671e+000	 1.582893299281493e+000	 1.080775010777139e+001
 3.583649105312324e+000	 1.621254913125378e+000	 1.082531713744788e+001
 3.566097140681105e+000	 1.659505895371513e+000	 1.085129812745047e+001
 3.548102486840681e+000	 1.697638806993271e+000	 1.088326403582854e+001
 3.529665864868949e+000	 1.735646194488917e+000	 1.091868789105844e+001
 3.510788158857956e+000	 1.773520594178442e+000	 1.095495392894757e+001
 3.491470416868223e+000	 1.811254536557092e+000	 1.098936795307264e+001
 3.471713851746570e+000	 1.848840550700881e+000	 1.101916896961302e+001
 3.451519841804725e+000	 1.886271168719184e+000	 1.104154214202962e+001
 3.430889931356198e+000	 1.923538930249378e+000	 1.105363310478532e+001
 3.641949101391516e+000	 1.554899734706702e+000	 1.079385072571899e+001
 3.625171042372079e+000	 1.593625352230693e+000	 1.080001054621387e+001
 3.607946328612285e+000	 1.632247058698082e+000	 1.081771175645836e+001
 3.590275361257489e+000	 1.670757383482981e+000	 1.084441892028850e+001
 3.572158703250427e+000	 1.709148837121984e+000	 1.087747175760750e+001
 3.553597080557928e+000	 1.747413915578442e+000	 1.091409308771364e+001
 3.534591383266208e+000	 1.785545104568416e+000	 1.095139800071096e+001
 3.515142666541674e+000	 1.823534883943736e+000	 1.098640431700251e+001
 3.495252151454281e+000	 1.861375732127374e+000	 1.101604439018024e+001
 3.474921225660750e+000	 1.899060130596229e+000	 1.103717830305483e+001
 3.454151443945081e+000	 1.936580568406245e+000	 1.104660850011041e+001
 3.666475311734168e+000	 1.565370995256741e+000	 1.078682186547983e+001
 3.649584263160967e+000	 1.604357405179059e+000	 1.079245381205921e+001
 3.632243551911827e+000	 1.643239204269950e+000	 1.081021074799361e+001
 3.614453581833563e+000	 1.682008871593611e+000	 1.083737245261755e+001
 3.596214919659974e+000	 1.720658867249862e+000	 1.087107586805620e+001
 3.577528296246815e+000	 1.759181636667133e+000	 1.090832296133999e+001
 3.558394607674471e+000	 1.797569614957564e+000	 1.094598987275436e+001
 3.538814916215225e+000	 1.835815231329566e+000	 1.098083741524186e+001
 3.518790451162161e+000	 1.873910913553071e+000	 1.100952298488097e+001
 3.498322609516990e+000	 1.911849092472505e+000	 1.102861393674295e+001
 3.477412956534195e+000	 1.949622206562376e+000	 1.103460247377094e+001
 3.691001522076283e+000	 1.575842255806114e+000	 1.078012884802955e+001
 3.673997483949385e+000	 1.615089458126757e+000	 1.078534974020360e+001
 3.656540775210977e+000	 1.654231349841147e+000	 1.080307475700760e+001
 3.638631802409331e+000	 1.693260359703563e+000	 1.083042607216138e+001
 3.620271136069302e+000	 1.732168897377055e+000	 1.086436596118760e+001
 3.601459511935572e+000	 1.770949357755138e+000	 1.090170452570046e+001
 3.582197832082684e+000	 1.809594125346024e+000	 1.093910876027704e+001
 3.562487165888796e+000	 1.848095578714712e+000	 1.097311303179947e+001
 3.542328750870121e+000	 1.886446094978093e+000	 1.100013103626887e+001
 3.521723993373348e+000	 1.924638054348121e+000	 1.101646929222100e+001
 3.500674469123442e+000	 1.962663844717872e+000	 1.101834222302477e+001
 3.715527732417928e+000	 1.586313516354986e+000	 1.077406456362908e+001
 3.698410704737381e+000	 1.625821511073953e+000	 1.077896452914372e+001
 3.680837998509759e+000	 1.665223495411833e+000	 1.079655912937526e+001
 3.662810022984793e+000	 1.704511847812997e+000	 1.082383980290883e+001
 3.644327352478393e+000	 1.743678927503718e+000	 1.085762194188116e+001
 3.625390727624157e+000	 1.782717078842601e+000	 1.089455242091998e+001
 3.606001056490789e+000	 1.821618635733935e+000	 1.093111852322838e+001
 3.586159415562316e+000	 1.860375926099302e+000	 1.096365833903641e+001
 3.565867050578072e+000	 1.898981276402559e+000	 1.098837270666740e+001
 3.545125377229727e+000	 1.937427016223188e+000	 1.100133876045724e+001
 3.523935981712723e+000	 1.975705482872835e+000	 1.099852514273014e+001
 3.740053942759174e+000	 1.596784776903525e+000	 1.076891768797256e+001
 3.722823925524999e+000	 1.636553564020810e+000	 1.077355882025781e+001
 3.705135221808200e+000	 1.676215640982174e+000	 1.079091194190585e+001
 3.686988243559954e+000	 1.715763335922070e+000	 1.081786433890397e+001
 3.668383568887227e+000	 1.755188957630004e+000	 1.085111199615157e+001
 3.649321943312529e+000	 1.794484799929669e+000	 1.088716687257759e+001
 3.629804280898727e+000	 1.833643146121435e+000	 1.092236562619874e+001
 3.609831665235705e+000	 1.872656273483467e+000	 1.095287986994625e+001
 3.589405350285926e+000	 1.911516457826590e+000	 1.097472803403131e+001
 3.568526761086031e+000	 1.950215978097816e+000	 1.098378890448431e+001
 3.547197494301936e+000	 1.988747121027364e+000	 1.097581690028442e+001
 3.764580153100085e+000	 1.607256037451897e+000	 1.076497084983578e+001
 3.747237146312289e+000	 1.647285616967498e+000	 1.076938580333094e+001
 3.729432445106323e+000	 1.687207786552331e+000	 1.078637205860275e+001
 3.711166464134817e+000	 1.727014824030942e+000	 1.081273906378603e+001
 3.692439785295785e+000	 1.766698987756068e+000	 1.084509058619013e+001
 3.673253159000652e+000	 1.806252521016491e+000	 1.087983167413248e+001
 3.653607505306437e+000	 1.845667656508661e+000	 1.091317711976200e+001
 3.633503914908891e+000	 1.884936620867336e+000	 1.094116150958062e+001
 3.612943649993593e+000	 1.924051639250306e+000	 1.095965094424377e+001
 3.591928144942162e+000	 1.963004939972116e+000	 1.096435650296382e+001
 3.570459006890980e+000	 2.001788759181559e+000	 1.095088727730598e+001
 3.789106363440732e+000	 1.617727298000268e+000	 1.076249882328634e+001
 3.771650367099297e+000	 1.658017669914180e+000	 1.076668934713560e+001
 3.753729668404155e+000	 1.698199932122468e+000	 1.078316721197976e+001
 3.735344684709383e+000	 1.738266312139772e+000	 1.080869009491212e+001
 3.716496001704046e+000	 1.778209017882060e+000	 1.083979646905637e+001
 3.697184374688481e+000	 1.818020242103210e+000	 1.087281219162691e+001
 3.677410729713860e+000	 1.857692166895753e+000	 1.090385864229763e+001
 3.657176164581798e+000	 1.897216968251039e+000	 1.092886250475265e+001
 3.636481949700988e+000	 1.936586820673828e+000	 1.094356727910357e+001
 3.615329528798024e+000	 1.975793901846200e+000	 1.094354660648782e+001
 3.593720519479760e+000	 2.014830397335523e+000	 1.092672061343277e+001
 3.813632573781182e+000	 1.628198558548805e+000	 1.076176674334970e+001
 3.796063587886068e+000	 1.668749722861022e+000	 1.076570215393959e+001
 3.778026891701722e+000	 1.709192077692748e+000	 1.078151210830640e+001
 3.759522905283656e+000	 1.749517800248717e+000	 1.080592835095610e+001
 3.740552218111992e+000	 1.789719048008136e+000	 1.083545073795535e+001
 3.721115590375978e+000	 1.829787963189973e+000	 1.086635338966227e+001
 3.701213954120939e+000	 1.869716677282848e+000	 1.089469244137037e+001
 3.680848414254348e+000	 1.909497315634706e+000	 1.091631549119571e+001
 3.660020249408020e+000	 1.949122002097276e+000	 1.092687283929707e+001
 3.638730912653521e+000	 1.988582863720177e+000	 1.092183060604395e+001
 3.616982032068172e+000	 2.027872035489355e+000	 1.090498726861015e+001
 3.838158784121502e+000	 1.638669819097676e+000	 1.076302834408244e+001
 3.820476808672654e+000	 1.679481775808191e+000	 1.076664393687089e+001
 3.802324114999044e+000	 1.720184223263334e+000	 1.078160655571169e+001
 3.783701125857638e+000	 1.760769288357938e+000	 1.080464764193355e+001
 3.764608434519604e+000	 1.801229078134447e+000	 1.083225488509009e+001
 3.745046806063103e+000	 1.841555684276927e+000	 1.086067787769754e+001
 3.725017178527611e+000	 1.881741187670086e+000	 1.088593541379292e+001
 3.704520663926468e+000	 1.921777663018466e+000	 1.090382453739641e+001
 3.683558549114604e+000	 1.961657183520769e+000	 1.090993144168388e+001
 3.662132296508556e+000	 2.001371825594157e+000	 1.089966341452345e+001
 3.640243544656117e+000	 2.040913673643154e+000	 1.088577122377372e+001
 3.862684994461763e+000	 1.649141079647046e+000	 1.076652421805572e+001
 3.844890029459100e+000	 1.690213828755853e+000	 1.076971961912383e+001
 3.826621338296152e+000	 1.731176368834391e+000	 1.078363361413017e+001
 3.807879346431334e+000	 1.772020776467594e+000	 1.080502278065617e+001
 3.788664650926863e+000	 1.812739108261148e+000	 1.083038888513072e+001
 3.768978021749815e+000	 1.853323405364218e+000	 1.085598397576669e+001
 3.748820402933820e+000	 1.893765698057605e+000	 1.087781716354068e+001
 3.728192913598082e+000	 1.934058010402449e+000	 1.089166320436065e+001
 3.707096848820650e+000	 1.974192364944430e+000	 1.089307299026019e+001
 3.685533680363033e+000	 2.014160787468251e+000	 1.087933607320935e+001
 3.663505057243499e+000	 2.053955311797023e+000	 1.086911928597546e+001
 3.430889931356198e+000	 1.923538930249378e+000	 1.105363310478532e+001
 3.409822639161488e+000	 1.960641939370820e+000	 1.104869635592918e+001
 3.388322907875672e+000	 1.997567159735842e+000	 1.101991170982653e+001
 3.366392785299044e+000	 2.034307179775804e+000	 1.098237563647643e+001
 3.344034485992657e+000	 2.070854613836993e+000	 1.095778428755133e+001
 3.321250391072290e+000	 2.107202106807173e+000	 1.094504295286437e+001
 3.298043047850050e+000	 2.143342338751271e+000	 1.094087288767412e+001
 3.274415169322649e+000	 2.179268029550415e+000	 1.094321974578524e+001
 3.250369633505694e+000	 2.214971943538432e+000	 1.095026089284264e+001
 3.225909482613576e+000	 2.250446894129934e+000	 1.096013252268369e+001
 3.201037922084772e+000	 2.285685748434004e+000	 1.097093824196642e+001
 3.454151443945081e+000	 1.936580568406245e+000	 1.104660850011041e+001
 3.432941315024939e+000	 1.973935136782385e+000	 1.103700265739754e+001
 3.411295815066716e+000	 2.011110710990247e+000	 1.100300019201908e+001
 3.389217005754840e+000	 2.048099829210576e+000	 1.097086131952135e+001
 3.366707116665132e+000	 2.084895055714759e+000	 1.094963541554303e+001
 3.343768545057394e+000	 2.121488985522725e+000	 1.093866334302287e+001
 3.320403855514564e+000	 2.157874249070071e+000	 1.093677075384378e+001
 3.296615779427529e+000	 2.194043516878546e+000	 1.094042253358146e+001
 3.272407214324911e+000	 2.229989504223994e+000	 1.094765101750799e+001
 3.247781223047381e+000	 2.265704975795809e+000	 1.095675871834500e+001
 3.222741032766358e+000	 2.301182750341904e+000	 1.096602434949855e+001
 3.477412956534195e+000	 1.949622206562376e+000	 1.103460247377094e+001
 3.456059990888607e+000	 1.987228334193261e+000	 1.101972607591911e+001
 3.434268722257934e+000	 2.024654262244012e+000	 1.098523459968456e+001
 3.412041226210740e+000	 2.061892478644770e+000	 1.095806569929025e+001
 3.389379747337627e+000	 2.098935497592009e+000	 1.093993483530961e+001
 3.366286699042418e+000	 2.135775864237826e+000	 1.093029205158724e+001
 3.342764663178889e+000	 2.172406159388485e+000	 1.092858004840374e+001
 3.318816389532113e+000	 2.208819004206358e+000	 1.093354126070788e+001
 3.294444795143723e+000	 2.245007064909298e+000	 1.094137227036060e+001
 3.269652963480678e+000	 2.280963057461482e+000	 1.095023629653163e+001
 3.244444143447349e+000	 2.316679752249656e+000	 1.095855543238997e+001
 3.500674469123442e+000	 1.962663844717872e+000	 1.101834222302477e+001
 3.479178666752395e+000	 2.000521531603535e+000	 1.099770392241037e+001
 3.457241629449238e+000	 2.038197813497221e+000	 1.096717668151865e+001
 3.434865446666673e+000	 2.075685128078454e+000	 1.094451542200928e+001
 3.412052378010083e+000	 2.112975939468804e+000	 1.092924976300403e+001
 3.388804853027324e+000	 2.150062742952529e+000	 1.092091312347460e+001
 3.365125470843007e+000	 2.186938069706559e+000	 1.091904062985419e+001
 3.341016999636398e+000	 2.223594491533885e+000	 1.092316638773099e+001
 3.316482375962149e+000	 2.260024625594372e+000	 1.093181022240654e+001
 3.291524703913511e+000	 2.296221139126977e+000	 1.094093490571777e+001
 3.266147254127807e+000	 2.332176754157270e+000	 1.094887465784302e+001
 3.523935981712723e+000	 1.975705482872835e+000	 1.099852514273014e+001
 3.502297342616207e+000	 2.013814729013301e+000	 1.097421010980736e+001
 3.480214536640536e+000	 2.051741364749952e+000	 1.094925333729026e+001
 3.457689667122557e+000	 2.089477777511701e+000	 1.093068981275967e+001
 3.434725008682438e+000	 2.127016381345206e+000	 1.091809906999463e+001
 3.411323007012064e+000	 2.164349621666887e+000	 1.091107251559941e+001
 3.387486278506896e+000	 2.201469980024336e+000	 1.090921132062323e+001
 3.363217609740386e+000	 2.238369978861166e+000	 1.091212362977375e+001
 3.338519956780215e+000	 2.275042186279247e+000	 1.091942107770933e+001
 3.313396444345926e+000	 2.311479220792314e+000	 1.092919676724181e+001
 3.287850364807801e+000	 2.347673756064768e+000	 1.093729895147984e+001
 3.547197494301936e+000	 1.988747121027364e+000	 1.097581690028442e+001
 3.525416018479945e+000	 2.027107926422647e+000	 1.095182269597519e+001
 3.503187443831741e+000	 2.065284916002287e+000	 1.093184651019833e+001
 3.480513887578316e+000	 2.103270426944581e+000	 1.091702191252078e+001
 3.457397639354630e+000	 2.141056823221275e+000	 1.090695438184311e+001
 3.433841160996598e+000	 2.178636500380949e+000	 1.090126832731606e+001
 3.409847086170532e+000	 2.216001890341861e+000	 1.089960500586432e+001
 3.385418219844079e+000	 2.253145466188234e+000	 1.090161971151110e+001
 3.360557537597944e+000	 2.290059746963950e+000	 1.090697822452128e+001
 3.335268184777967e+000	 2.326737302457518e+000	 1.091535251595751e+001
 3.309553475487395e+000	 2.363170757972164e+000	 1.092411978299003e+001
 3.570459006890980e+000	 2.001788759181559e+000	 1.095088727730598e+001
 3.548534694343512e+000	 2.040401123831664e+000	 1.093081726077586e+001
 3.526160351022761e+000	 2.078828467254305e+000	 1.091529415165927e+001
 3.503338108033874e+000	 2.117063076377164e+000	 1.090389951660365e+001
 3.480070270026597e+000	 2.155097265097074e+000	 1.089624117686465e+001
 3.456359314980884e+000	 2.192923379094772e+000	 1.089195194597112e+001
 3.432207893833895e+000	 2.230533800659177e+000	 1.089068761513521e+001
 3.407618829947475e+000	 2.267920953515127e+000	 1.089212416529123e+001
 3.382595118415355e+000	 2.305077307648510e+000	 1.089595419217605e+001
 3.357139925209682e+000	 2.341995384122610e+000	 1.090188253880488e+001
 3.331256586166656e+000	 2.378667759879475e+000	 1.090960395001171e+001
 3.593720519479760e+000	 2.014830397335523e+000	 1.092672061343277e+001
 3.571653370206811e+000	 2.053694321240442e+000	 1.091142789728016e+001
 3.549133258213510e+000	 2.092372018506088e+000	 1.089989118962604e+001
 3.526162328489153e+000	 2.130855725809522e+000	 1.089166621441251e+001
 3.502742900698278e+000	 2.169137706972663e+000	 1.088633988428967e+001
 3.478877468964877e+000	 2.207210257808406e+000	 1.088352919079187e+001
 3.454568701496962e+000	 2.245065710976327e+000	 1.088287929972448e+001
 3.429819440050576e+000	 2.282696440841880e+000	 1.088406082855337e+001
 3.404632699232478e+000	 2.320094868332957e+000	 1.088676629046470e+001
 3.379011665641112e+000	 2.357253465787613e+000	 1.089070569807498e+001
 3.352959696845650e+000	 2.394164761786719e+000	 1.089560132844977e+001
 3.616982032068172e+000	 2.027872035489355e+000	 1.090498726861015e+001
 3.594772046069744e+000	 2.066987518649074e+000	 1.089384810119905e+001
 3.572106165403897e+000	 2.105915569757717e+000	 1.088589050028002e+001
 3.548986548944076e+000	 2.144648375241726e+000	 1.088062243047413e+001
 3.525415531369613e+000	 2.183178148848105e+000	 1.087758698204482e+001
 3.501395622948538e+000	 2.221497136521904e+000	 1.087636145518574e+001
 3.476929509159713e+000	 2.259597621293357e+000	 1.087655560760470e+001
 3.452020050153380e+000	 2.297471928168530e+000	 1.087780903995381e+001
 3.426670280049329e+000	 2.335112429017319e+000	 1.087978770188689e+001
 3.400883406072305e+000	 2.372511547452548e+000	 1.088217951021333e+001
 3.374662807524445e+000	 2.409661763693914e+000	 1.088468907969747e+001
 3.640243544656117e+000	 2.040913673643154e+000	 1.088577122377372e+001
 3.617890721932214e+000	 2.080280716057648e+000	 1.087823166599831e+001
 3.595079072593832e+000	 2.119459121009271e+000	 1.087350388294490e+001
 3.571810769398565e+000	 2.158441024673847e+000	 1.087102646667846e+001
 3.548088162040541e+000	 2.197218590723461e+000	 1.087027609417023e+001
 3.523913776931821e+000	 2.235784015235318e+000	 1.087076684752220e+001
 3.499290316822126e+000	 2.274129531610310e+000	 1.087204865611898e+001
 3.474220660255889e+000	 2.312247415495113e+000	 1.087370483286493e+001
 3.448707860865933e+000	 2.350129989701623e+000	 1.087534868525243e+001
 3.422755146503306e+000	 2.387769629117440e+000	 1.087661919108390e+001
 3.396365918203102e+000	 2.425158765601074e+000	 1.087717573815672e+001
 3.663505057243499e+000	 2.053955311797023e+000	 1.086911928597546e+001
 3.641009397794123e+000	 2.093573913466255e+000	 1.086469358344368e+001
 3.618051979783225e+000	 2.133002672260832e+000	 1.086290303807932e+001
 3.594634989852544e+000	 2.172233674105955e+000	 1.086309554567658e+001
 3.570760792710999e+000	 2.211259032598792e+000	 1.086465908788946e+001
 3.546431930914687e+000	 2.250070893948702e+000	 1.086702133046387e+001
 3.521651124484179e+000	 2.288661441927230e+000	 1.086964830250144e+001
 3.496421270358106e+000	 2.327022902821665e+000	 1.087204212636452e+001
 3.470745441682316e+000	 2.365147550385902e+000	 1.087373777678555e+001
 3.444626886934158e+000	 2.403027710782309e+000	 1.087429885721474e+001
 3.418069028881693e+000	 2.440655767508218e+000	 1.087331239134434e+001
 3.201037922084772e+000	 2.285685748434004e+000	 1.097093824196642e+001
 3.175758318549517e+000	 2.320681431073920e+000	 1.097899356592096e+001
 3.150074195862331e+000	 2.355426926386116e+000	 1.098211764690737e+001
 3.123989236422097e+000	 2.389915285194917e+000	 1.098071643022323e+001
 3.097507280498922e+000	 2.424139630075088e+000	 1.097528843281755e+001
 3.070632324500330e+000	 2.458093159808781e+000	 1.096643011827725e+001
 3.043368519087291e+000	 2.491769153792504e+000	 1.095484096977308e+001
 3.015720167141756e+000	 2.525160976388238e+000	 1.094132820653933e+001
 2.987691721587631e+000	 2.558262081212876e+000	 1.092681109128763e+001
 2.959287783067377e+000	 2.591066015360246e+000	 1.091232477823545e+001
 2.930513097476696e+000	 2.623566423550066e+000	 1.089902365414448e+001
 3.222741032766358e+000	 2.301182750341904e+000	 1.096602434949856e+001
 3.197290032937910e+000	 2.336415704514344e+000	 1.097246637122212e+001
 3.171431771308376e+000	 2.371396775083201e+000	 1.097443820552318e+001
 3.145169955243394e+000	 2.406118965757234e+000	 1.097227143057883e+001
 3.118508451050198e+000	 2.440575352482112e+000	 1.096638639231101e+001
 3.091451282232049e+000	 2.474759087927573e+000	 1.095729801995627e+001
 3.064002627591507e+000	 2.508663405924287e+000	 1.094562134039749e+001
 3.036166819184162e+000	 2.542281625844456e+000	 1.093207663404152e+001
 3.007948340124858e+000	 2.575607156920352e+000	 1.091749417690910e+001
 2.979351822248521e+000	 2.608633502494952e+000	 1.090281851596085e+001
 2.950382043628141e+000	 2.641354264199035e+000	 1.088911222749305e+001
 3.244444143447349e+000	 2.316679752249656e+000	 1.095855543238997e+001
 3.218821747325636e+000	 2.352149977954659e+000	 1.096393990583271e+001
 3.192789346753698e+000	 2.387366623780209e+000	 1.096519337784053e+001
 3.166350674063928e+000	 2.422322646319497e+000	 1.096258161237681e+001
 3.139509621600685e+000	 2.457011074889095e+000	 1.095645568709837e+001
 3.112270239962972e+000	 2.491425016046331e+000	 1.094725824803045e+001
 3.084636736094925e+000	 2.525557658056029e+000	 1.093552946277359e+001
 3.056613471225788e+000	 2.559402275300625e+000	 1.092191261217118e+001
 3.028204958661326e+000	 2.592952232627757e+000	 1.090715926231064e+001
 2.999415861428939e+000	 2.626200989629562e+000	 1.089213396116934e+001
 2.970250989778902e+000	 2.659142104847870e+000	 1.087781840713191e+001
 3.266147254127807e+000	 2.332176754157270e+000	 1.094887465784302e+001
 3.240353461712776e+000	 2.367884251394873e+000	 1.095372858839002e+001
 3.214146922198397e+000	 2.403336472477147e+000	 1.095467432360549e+001
 3.187531392883817e+000	 2.438526326881711e+000	 1.095192006687425e+001
 3.160510792150514e+000	 2.473446797296040e+000	 1.094575622799411e+001
 3.133089197693234e+000	 2.508090944165058e+000	 1.093656211616769e+001
 3.105270844597697e+000	 2.542451910187743e+000	 1.092481233025446e+001
 3.077060123266782e+000	 2.576522924756755e+000	 1.091108278328760e+001
 3.048461577197192e+000	 2.610297308335112e+000	 1.089605630027168e+001
 3.019479900608787e+000	 2.643768476764097e+000	 1.088052773080414e+001
 2.990119935929130e+000	 2.676929945496605e+000	 1.086567256904809e+001
 3.287850364807801e+000	 2.347673756064768e+000	 1.093729895147984e+001
 3.261885176099419e+000	 2.383618524835003e+000	 1.094212185844632e+001
 3.235504497642578e+000	 2.419306321174022e+000	 1.094314835321452e+001
 3.208712111703173e+000	 2.454730007443882e+000	 1.094053703608549e+001
 3.181511962699815e+000	 2.489882519702957e+000	 1.093452595039753e+001
 3.153908155422980e+000	 2.524756872283762e+000	 1.092543971374213e+001
 3.125904953099966e+000	 2.559346162319434e+000	 1.091369634411545e+001
 3.097506775307298e+000	 2.593643574212859e+000	 1.089981371501436e+001
 3.068718195732605e+000	 2.627642384042430e+000	 1.088441557557032e+001
 3.039543939788214e+000	 2.661335963898584e+000	 1.086823707443510e+001
 3.009988882078974e+000	 2.694717786145272e+000	 1.085404679868072e+001
 3.309553475487395e+000	 2.363170757972164e+000	 1.092411978299003e+001
 3.283416890485646e+000	 2.399352798275059e+000	 1.092938495088854e+001
 3.256862073086340e+000	 2.435276169870848e+000	 1.093085969431616e+001
 3.229892830522119e+000	 2.470933688006018e+000	 1.092866067476358e+001
 3.202513133248716e+000	 2.506318242109850e+000	 1.092298157463783e+001
 3.174727113152346e+000	 2.541422800402450e+000	 1.091410066730999e+001
 3.146539061601881e+000	 2.576240414451112e+000	 1.090238807870946e+001
 3.117953427347487e+000	 2.610764223668948e+000	 1.088831267140374e+001
 3.088974814267724e+000	 2.644987459749731e+000	 1.087244848426437e+001
 3.059607978967379e+000	 2.678903451033047e+000	 1.085581375668940e+001
 3.029857828228584e+000	 2.712505626793908e+000	 1.084316808132954e+001
 3.331256586166656e+000	 2.378667759879475e+000	 1.090960395001171e+001
 3.304948604871547e+000	 2.415087071715054e+000	 1.091575966950879e+001
 3.278219648529785e+000	 2.451246018567628e+000	 1.091803025832029e+001
 3.251073549340771e+000	 2.487137368568124e+000	 1.091649781289292e+001
 3.223514303797350e+000	 2.522753964516725e+000	 1.091131936728763e+001
 3.195546070881469e+000	 2.558088728521126e+000	 1.090273490337265e+001
 3.167173170103585e+000	 2.593134666582783e+000	 1.089107504809774e+001
 3.138400079387502e+000	 2.627884873125036e+000	 1.087676838564051e+001
 3.109231432802700e+000	 2.662332535457032e+000	 1.086034831446113e+001
 3.079672018146432e+000	 2.696470938167512e+000	 1.084437195629803e+001
 3.049726774378111e+000	 2.730293467442543e+000	 1.083310237362746e+001
 3.352959696845650e+000	 2.394164761786719e+000	 1.089560132844977e+001
 3.326480319257204e+000	 2.430821345154998e+000	 1.090146515976462e+001
 3.299577223973019e+000	 2.467215867264375e+000	 1.090486040681942e+001
 3.272254268159244e+000	 2.503341049130208e+000	 1.090423471866989e+001
 3.244515474345840e+000	 2.539189686923587e+000	 1.089971590340111e+001
 3.216365028610494e+000	 2.574754656639799e+000	 1.089151341236849e+001
 3.187807278605230e+000	 2.610028918714459e+000	 1.087992647408818e+001
 3.158846731427493e+000	 2.645005522581133e+000	 1.086535183421544e+001
 3.129488051337689e+000	 2.679677611164347e+000	 1.084861991958887e+001
 3.099736057325528e+000	 2.714038425301999e+000	 1.083401946681476e+001
 3.069595720527704e+000	 2.748081308091211e+000	 1.082390369612014e+001
 3.374662807524445e+000	 2.409661763693914e+000	 1.088468907969747e+001
 3.348012033642701e+000	 2.446555618594907e+000	 1.088764198735239e+001
 3.320934799416141e+000	 2.483185715961096e+000	 1.089152971792602e+001
 3.293434986977655e+000	 2.519544729692277e+000	 1.089203786194939e+001
 3.265516644894319e+000	 2.555625409330442e+000	 1.088832882963490e+001
 3.237183986339556e+000	 2.591420584758473e+000	 1.088058901383834e+001
 3.208441387106961e+000	 2.626923170846145e+000	 1.086909405561877e+001
 3.179293383467613e+000	 2.662126172037250e+000	 1.085421701250201e+001
 3.149744669872843e+000	 2.697022686871697e+000	 1.083816140904079e+001
 3.119800096504819e+000	 2.731605912436534e+000	 1.082478599507810e+001
 3.089464666677513e+000	 2.765869148739946e+000	 1.081561438591726e+001
 3.396365918203102e+000	 2.425158765601074e+000	 1.087717573815672e+001
 3.369543748028126e+000	 2.462289892034790e+000	 1.087739996110623e+001
 3.342292374859253e+000	 2.499155564657801e+000	 1.087856433921171e+001
 3.314615705796120e+000	 2.535748410254336e+000	 1.088005467813678e+001
 3.286517815442918e+000	 2.572061131737296e+000	 1.087729762821276e+001
 3.258002944068795e+000	 2.608086512877155e+000	 1.087009712271196e+001
 3.229075495608925e+000	 2.643817422977850e+000	 1.085871273942532e+001
 3.199740035508015e+000	 2.679246821493403e+000	 1.084376531538329e+001
 3.170001288408318e+000	 2.714367762579098e+000	 1.082902026848727e+001
 3.139864135684460e+000	 2.749173399571143e+000	 1.081669008756425e+001
 3.109333612827688e+000	 2.783656989388781e+000	 1.080826535027760e+001
 3.418069028881693e+000	 2.440655767508218e+000	 1.087331239134434e+001
 3.391075462413564e+000	 2.478024165474663e+000	 1.087116661879072e+001
 3.363649950302459e+000	 2.515125413354499e+000	 1.086919944639451e+001
 3.335796424614757e+000	 2.551952090816394e+000	 1.086844350768385e+001
 3.307518985991763e+000	 2.588496854144156e+000	 1.086674438169604e+001
 3.278821901798352e+000	 2.624752440995851e+000	 1.086015651666575e+001
 3.249709604111268e+000	 2.660711675109584e+000	 1.084890149193676e+001
 3.220186687548849e+000	 2.696367470949601e+000	 1.083473730827978e+001
 3.190257906944267e+000	 2.731712838286569e+000	 1.082119455316725e+001
 3.159928174864604e+000	 2.766740886705849e+000	 1.080973939427966e+001
 3.129202558978380e+000	 2.801444830037749e+000	 1.080187632108668e+001
 2.930513097476696e+000	 2.623566423550066e+000	 1.089902365414448e+001
 2.901376951840289e+000	 2.655752247797149e+000	 1.088349456897477e+001
 2.871880086178356e+000	 2.687622242784177e+000	 1.086251984440235e+001
 2.842027666154427e+000	 2.719170375440287e+000	 1.084038245816798e+001
 2.811824991326779e+000	 2.750390726063579e+000	 1.081760413389551e+001
 2.781277492018158e+000	 2.781277492018158e+000	 1.079436319366587e+001
 2.750390726063578e+000	 2.811824991326778e+000	 1.077082906178956e+001
 2.719170375440287e+000	 2.842027666154426e+000	 1.074714986219476e+001
 2.687622242784177e+000	 2.871880086178356e+000	 1.072344012949976e+001
 2.655752247797149e+000	 2.901376951840288e+000	 1.069995270532892e+001
 2.623566423550066e+000	 2.930513097476694e+000	 1.067879017271389e+001
 2.950382043628141e+000	 2.641354264199035e+000	 1.088911222749305e+001
 2.921048354254667e+000	 2.673758309074019e+000	 1.087288044056728e+001
 2.891351499165647e+000	 2.705844383359315e+000	 1.085352523803045e+001
 2.861296679047927e+000	 2.737606413079703e+000	 1.083298945397060e+001
 2.830889229390904e+000	 2.769038438397574e+000	 1.081150479411634e+001
 2.800134617335034e+000	 2.800134617335034e+000	 1.078930692706996e+001
 2.769038438397575e+000	 2.830889229390904e+000	 1.076662242565249e+001
 2.737606413079704e+000	 2.861296679047927e+000	 1.074365570414182e+001
 2.705844383359315e+000	 2.891351499165647e+000	 1.072057607249873e+001
 2.673758309074018e+000	 2.921048354254666e+000	 1.069750502829853e+001
 2.641354264199035e+000	 2.950382043628141e+000	 1.067538438043174e+001
 2.970250989778902e+000	 2.659142104847870e+000	 1.087781840713191e+001
 2.940719756668409e+000	 2.691764370350712e+000	 1.086210757496792e+001
 2.910822912152358e+000	 2.724066523934227e+000	 1.084446255466878e+001
 2.880565691940904e+000	 2.756042450718837e+000	 1.082529825607515e+001
 2.849953467454567e+000	 2.787686150731229e+000	 1.080489880406716e+001
 2.818991742651509e+000	 2.818991742651508e+000	 1.078355277874130e+001
 2.787686150731230e+000	 2.849953467454566e+000	 1.076153948214511e+001
 2.756042450718838e+000	 2.880565691940904e+000	 1.073911519851269e+001
 2.724066523934227e+000	 2.910822912152358e+000	 1.071649957475180e+001
 2.691764370350712e+000	 2.940719756668409e+000	 1.069386224755499e+001
 2.659142104847869e+000	 2.970250989778902e+000	 1.067138549008224e+001
 2.990119935929130e+000	 2.676929945496605e+000	 1.086567256904809e+001
 2.960391159081659e+000	 2.709770431627274e+000	 1.085164158951538e+001
 2.930294325138621e+000	 2.742288664508966e+000	 1.083546628465777e+001
 2.899834704833481e+000	 2.774478488357760e+000	 1.081745959908128e+001
 2.869017705517879e+000	 2.806333863064627e+000	 1.079795374286586e+001
 2.837848867967678e+000	 2.837848867967678e+000	 1.077728590709516e+001
 2.806333863064627e+000	 2.869017705517878e+000	 1.075578383842912e+001
 2.774478488357759e+000	 2.899834704833481e+000	 1.073375140455402e+001
 2.742288664508966e+000	 2.930294325138621e+000	 1.071145428310399e+001
 2.709770431627273e+000	 2.960391159081659e+000	 1.068910590627225e+001
 2.676929945496605e+000	 2.990119935929130e+000	 1.066685379181671e+001
 3.009988882078974e+000	 2.694717786145272e+000	 1.085404679868072e+001
 2.980062561494562e+000	 2.727776492903745e+000	 1.084158823415989e+001
 2.949765738124572e+000	 2.760510805083593e+000	 1.082665766822776e+001
 2.919103717725782e+000	 2.792914525996539e+000	 1.080961066835540e+001
 2.888081943580947e+000	 2.824981575397850e+000	 1.079082332965897e+001
 2.856705993283643e+000	 2.856705993283643e+000	 1.077067728863127e+001
 2.824981575397851e+000	 2.888081943580947e+000	 1.074954458706235e+001
 2.792914525996538e+000	 2.919103717725782e+000	 1.072777252397258e+001
 2.760510805083593e+000	 2.949765738124572e+000	 1.070566863419219e+001
 2.727776492903746e+000	 2.980062561494562e+000	 1.068348593184553e+001
 2.694717786145272e+000	 3.009988882078973e+000	 1.066140855543854e+001
 3.029857828228584e+000	 2.712505626793908e+000	 1.084316808132954e+001
 2.999733963907260e+000	 2.745782554180174e+000	 1.083204053800520e+001
 2.969237151110346e+000	 2.778732945658162e+000	 1.081814492979109e+001
 2.938372730617930e+000	 2.811350563635247e+000	 1.080187532632294e+001
 2.907146181643887e+000	 2.843629287730986e+000	 1.078364764184726e+001
 2.875563118599497e+000	 2.875563118599497e+000	 1.076388392815665e+001
 2.843629287730986e+000	 2.907146181643888e+000	 1.074299650841220e+001
 2.811350563635246e+000	 2.938372730617930e+000	 1.072137209586385e+001
 2.778732945658162e+000	 2.969237151110347e+000	 1.069935604234330e+001
 2.745782554180173e+000	 2.999733963907259e+000	 1.067723686103012e+001
 2.712505626793908e+000	 3.029857828228585e+000	 1.065523116638376e+001
 3.049726774378111e+000	 2.730293467442543e+000	 1.083310237362746e+001
 3.019405366319895e+000	 2.763788615456600e+000	 1.082307905217231e+001
 2.988708564096076e+000	 2.796955086232729e+000	 1.081002351269228e+001
 2.957641743510049e+000	 2.829786601273951e+000	 1.079436433890262e+001
 2.926210419706810e+000	 2.862277000064116e+000	 1.077655333312795e+001
 2.894420243915343e+000	 2.894420243915343e+000	 1.075704906848599e+001
 2.862277000064116e+000	 2.926210419706810e+000	 1.073630027219222e+001
 2.829786601273951e+000	 2.957641743510049e+000	 1.071472919038977e+001
 2.796955086232729e+000	 2.988708564096076e+000	 1.069271508582580e+001
 2.763788615456600e+000	 3.019405366319896e+000	 1.067057801932598e+001
 2.730293467442543e+000	 3.049726774378111e+000	 1.064856306436121e+001
 3.069595720527704e+000	 2.748081308091211e+000	 1.082390369612014e+001
 3.039076768732614e+000	 2.781794676733072e+000	 1.081477209339524e+001
 3.008179977081899e+000	 2.815177226807353e+000	 1.080237631439529e+001
 2.976910756402264e+000	 2.848222638912723e+000	 1.078717560207625e+001
 2.945274657769825e+000	 2.880924712397324e+000	 1.076965385136150e+001
 2.913277369231275e+000	 2.913277369231274e+000	 1.075030239964353e+001
 2.880924712397324e+000	 2.945274657769825e+000	 1.072960263816147e+001
 2.848222638912722e+000	 2.976910756402263e+000	 1.070800860126252e+001
 2.815177226807354e+000	 3.008179977081899e+000	 1.068592969152912e+001
 2.781794676733072e+000	 3.039076768732615e+000	 1.066371369838824e+001
 2.748081308091210e+000	 3.069595720527704e+000	 1.064163026611217e+001
 3.089464666677513e+000	 2.765869148739946e+000	 1.081561438591726e+001
 3.058748171145560e+000	 2.799800738009633e+000	 1.080717598831619e+001
 3.027651390067949e+000	 2.833399367382091e+000	 1.079527392208824e+001
 2.996179769294696e+000	 2.866658676551633e+000	 1.078039436858821e+001
 2.964338895833045e+000	 2.899572424730694e+000	 1.076304965627093e+001
 2.932134494547392e+000	 2.932134494547392e+000	 1.074376026758866e+001
 2.899572424730695e+000	 2.964338895833045e+000	 1.072303665602416e+001
 2.866658676551633e+000	 2.996179769294697e+000	 1.070136103708789e+001
 2.833399367382091e+000	 3.027651390067948e+000	 1.067916931814202e+001
 2.799800738009632e+000	 3.058748171145560e+000	 1.065683333155284e+001
 2.765869148739947e+000	 3.089464666677513e+000	 1.063464353391633e+001
 3.109333612827688e+000	 2.783656989388781e+000	 1.080826535027760e+001
 3.078419573558874e+000	 2.817806799286326e+000	 1.080033531844870e+001
 3.047122803054358e+000	 2.851621507956997e+000	 1.078877484868726e+001
 3.015448782187471e+000	 2.885094714190751e+000	 1.077409347476878e+001
 2.983403133896581e+000	 2.918220137064311e+000	 1.075682843698133e+001
 2.950991619863794e+000	 2.950991619863793e+000	 1.073752588248673e+001
 2.918220137064311e+000	 2.983403133896581e+000	 1.071672186456569e+001
 2.885094714190750e+000	 3.015448782187472e+000	 1.069492331161939e+001
 2.851621507956998e+000	 3.047122803054358e+000	 1.067258913789663e+001
 2.817806799286325e+000	 3.078419573558874e+000	 1.065011166756124e+001
 2.783656989388781e+000	 3.109333612827688e+000	 1.062779854190583e+001
 3.129202558978380e+000	 2.801444830037749e+000	 1.080187632108668e+001
 3.098090975972703e+000	 2.835812860563197e+000	 1.079428316577904e+001
 3.066594216041264e+000	 2.869843648532129e+000	 1.078292576922095e+001
 3.034717795080713e+000	 2.903530751830148e+000	 1.076833356747543e+001
 3.002467371960544e+000	 2.936867849398260e+000	 1.075106532940649e+001
 2.969848745180577e+000	 2.969848745180577e+000	 1.073168952654504e+001
 2.936867849398259e+000	 3.002467371960544e+000	 1.071076449005866e+001
 2.903530751830149e+000	 3.034717795080715e+000	 1.068881853297135e+001
 2.869843648532129e+000	 3.066594216041264e+000	 1.066633021694231e+001
 2.835812860563195e+000	 3.098090975972702e+000	 1.064370894256467e+001
 2.801444830037748e+000	 3.129202558978380e+000	 1.062127604028489e+001
 2.623566423550066e+000	 2.930513097476694e+000	 1.067879017271389e+001
 2.591066015360247e+000	 2.959287783067377e+000	 1.065587474511167e+001
 2.558262081212877e+000	 2.987691721587632e+000	 1.062785253830687e+001
 2.525160976388239e+000	 3.015720167141756e+000	 1.059609981407436e+001
 2.491769153792504e+000	 3.043368519087291e+000	 1.056185733359856e+001
 2.458093159808781e+000	 3.070632324500330e+000	 1.052624041994106e+001
 2.424139630075088e+000	 3.097507280498923e+000	 1.049024980074951e+001
 2.389915285194917e+000	 3.123989236422097e+000	 1.045478310850191e+001
 2.355426926386115e+000	 3.150074195862330e+000	 1.042064691166490e+001
 2.320681431073919e+000	 3.175758318549517e+000	 1.038856914733641e+001
 2.285685748434003e+000	 3.201037922084772e+000	 1.035921182425615e+001
 2.641354264199035e+000	 2.950382043628141e+000	 1.067538438043174e+001
 2.608633502494953e+000	 2.979351822248522e+000	 1.065179786233557e+001
 2.575607156920352e+000	 3.007948340124857e+000	 1.062353301861107e+001
 2.542281625844456e+000	 3.036166819184163e+000	 1.059188253247887e+001
 2.508663405924287e+000	 3.064002627591506e+000	 1.055800012053635e+001
 2.474759087927574e+000	 3.091451282232050e+000	 1.052291139547140e+001
 2.440575352482112e+000	 3.118508451050198e+000	 1.048752553902151e+001
 2.406118965757234e+000	 3.145169955243393e+000	 1.045264765625759e+001
 2.371396775083201e+000	 3.171431771308376e+000	 1.041899167818979e+001
 2.336415704514343e+000	 3.197290032937910e+000	 1.038719367676680e+001
 2.301182750341905e+000	 3.222741032766358e+000	 1.035782545458603e+001
 2.659142104847869e+000	 2.970250989778902e+000	 1.067138549008224e+001
 2.626200989629562e+000	 2.999415861428939e+000	 1.064698907210695e+001
 2.592952232627758e+000	 3.028204958661326e+000	 1.061837721203236e+001
 2.559402275300624e+000	 3.056613471225787e+000	 1.058676277929807e+001
 2.525557658056029e+000	 3.084636736094926e+000	 1.055321572307132e+001
 2.491425016046331e+000	 3.112270239962971e+000	 1.051867475813363e+001
 2.457011074889095e+000	 3.139509621600685e+000	 1.048395989292887e+001
 2.422322646319498e+000	 3.166350674063928e+000	 1.044978566442540e+001
 2.387366623780208e+000	 3.192789346753697e+000	 1.041677494018687e+001
 2.352149977954658e+000	 3.218821747325635e+000	 1.038547314499566e+001
 2.316679752249655e+000	 3.244444143447348e+000	 1.035636276754734e+001
 2.676929945496605e+000	 2.990119935929130e+000	 1.066685379181671e+001
 2.643768476764097e+000	 3.019479900608787e+000	 1.064165460164197e+001
 2.610297308335112e+000	 3.048461577197192e+000	 1.061260087027995e+001
 2.576522924756755e+000	 3.077060123266782e+000	 1.058096329804524e+001
 2.542451910187743e+000	 3.105270844597697e+000	 1.054773110479094e+001
 2.508090944165058e+000	 3.133089197693234e+000	 1.051375867547621e+001
 2.473446797296041e+000	 3.160510792150513e+000	 1.047977896926861e+001
 2.438526326881711e+000	 3.187531392883816e+000	 1.044641766268598e+001
 2.403336472477147e+000	 3.214146922198397e+000	 1.041420788034116e+001
 2.367884251394874e+000	 3.240353461712777e+000	 1.038360536367229e+001
 2.332176754157270e+000	 3.266147254127807e+000	 1.035500392613718e+001
 2.694717786145272e+000	 3.009988882078973e+000	 1.066140855543854e+001
 2.661335963898585e+000	 3.039543939788214e+000	 1.063599845375807e+001
 2.627642384042430e+000	 3.068718195732604e+000	 1.060641804733354e+001
 2.593643574212858e+000	 3.097506775307298e+000	 1.057470581271799e+001
 2.559346162319434e+000	 3.125904953099965e+000	 1.054177303804589e+001
 2.524756872283762e+000	 3.153908155422980e+000	 1.050839210033231e+001
 2.489882519702958e+000	 3.181511962699814e+000	 1.047521078274017e+001
 2.454730007443883e+000	 3.208712111703173e+000	 1.044276735488540e+001
 2.419306321174022e+000	 3.235504497642577e+000	 1.041150626267835e+001
 2.383618524835003e+000	 3.261885176099418e+000	 1.038179427087990e+001
 2.347673756064768e+000	 3.287850364807801e+000	 1.035393689956488e+001
 2.712505626793908e+000	 3.029857828228585e+000	 1.065523116638376e+001
 2.678903451033047e+000	 3.059607978967379e+000	 1.063005963649458e+001
 2.644987459749730e+000	 3.088974814267723e+000	 1.060003970891137e+001
 2.610764223668948e+000	 3.117953427347487e+000	 1.056820966126396e+001
 2.576240414451112e+000	 3.146539061601881e+000	 1.053556675983848e+001
 2.541422800402450e+000	 3.174727113152346e+000	 1.050280344741465e+001
 2.506318242109850e+000	 3.202513133248717e+000	 1.047048395138873e+001
 2.470933688006018e+000	 3.229892830522120e+000	 1.043906033132869e+001
 2.435276169870846e+000	 3.256862073086340e+000	 1.040888915956918e+001
 2.399352798275060e+000	 3.283416890485647e+000	 1.038024867057184e+001
 2.363170757972164e+000	 3.309553475487395e+000	 1.035335621270315e+001
 2.730293467442543e+000	 3.049726774378111e+000	 1.064856306436121e+001
 2.696470938167511e+000	 3.079672018146433e+000	 1.062358776619376e+001
 2.662332535457031e+000	 3.109231432802700e+000	 1.059367233870933e+001
 2.627884873125035e+000	 3.138400079387501e+000	 1.056169042562932e+001
 2.593134666582783e+000	 3.167173170103586e+000	 1.052933462422189e+001
 2.558088728521126e+000	 3.195546070881469e+000	 1.049721926646891e+001
 2.522753964516725e+000	 3.223514303797348e+000	 1.046582638877813e+001
 2.487137368568124e+000	 3.251073549340771e+000	 1.043552277809927e+001
 2.451246018567628e+000	 3.278219648529786e+000	 1.040657767618525e+001
 2.415087071715054e+000	 3.304948604871548e+000	 1.037918097001694e+001
 2.378667759879475e+000	 3.331256586166656e+000	 1.035346169424030e+001
 2.748081308091210e+000	 3.069595720527704e+000	 1.064163026611217e+001
 2.714038425301999e+000	 3.099736057325528e+000	 1.061679798447874e+001
 2.679677611164348e+000	 3.129488051337687e+000	 1.058736637325267e+001
 2.645005522581133e+000	 3.158846731427493e+000	 1.055535855854516e+001
 2.610028918714459e+000	 3.187807278605231e+000	 1.052329475136867e+001
 2.574754656639798e+000	 3.216365028610493e+000	 1.049186291214183e+001
 2.539189686923587e+000	 3.244515474345840e+000	 1.046146399304138e+001
 2.503341049130209e+000	 3.272254268159244e+000	 1.043238018353935e+001
 2.467215867264374e+000	 3.299577223973019e+000	 1.040479367252232e+001
 2.430821345154999e+000	 3.326480319257203e+000	 1.037880591534444e+001
 2.394164761786720e+000	 3.352959696845651e+000	 1.035356186453361e+001
 2.765869148739947e+000	 3.089464666677513e+000	 1.063464353391633e+001
 2.731605912436535e+000	 3.119800096504819e+000	 1.060992206610992e+001
 2.697022686871698e+000	 3.149744669872843e+000	 1.058097352594130e+001
 2.662126172037251e+000	 3.179293383467614e+000	 1.054941800719857e+001
 2.626923170846145e+000	 3.208441387106961e+000	 1.051765967345820e+001
 2.591420584758473e+000	 3.237183986339555e+000	 1.048695321071209e+001
 2.555625409330443e+000	 3.265516644894320e+000	 1.045761933294923e+001
 2.519544729692277e+000	 3.293434986977655e+000	 1.042985604201901e+001
 2.483185715961096e+000	 3.320934799416142e+000	 1.040375848310013e+001
 2.446555618594906e+000	 3.348012033642701e+000	 1.037873771492630e+001
 2.409661763693914e+000	 3.374662807524445e+000	 1.035234259088979e+001
 2.783656989388781e+000	 3.109333612827688e+000	 1.062779854190583e+001
 2.749173399571143e+000	 3.139864135684460e+000	 1.060317633574436e+001
 2.714367762579100e+000	 3.170001288408317e+000	 1.057471112850393e+001
 2.679246821493404e+000	 3.199740035508015e+000	 1.054395354008918e+001
 2.643817422977850e+000	 3.229075495608925e+000	 1.051263497752549e+001
 2.608086512877154e+000	 3.258002944068795e+000	 1.048270312382381e+001
 2.572061131737296e+000	 3.286517815442916e+000	 1.045451033113046e+001
 2.535748410254337e+000	 3.314615705796119e+000	 1.042817055511519e+001
 2.499155564657801e+000	 3.342292374859254e+000	 1.040343193802523e+001
 2.462289892034790e+000	 3.369543748028127e+000	 1.037716974634155e+001
 2.425158765601074e+000	 3.396365918203103e+000	 1.034961405573928e+001
 2.801444830037748e+000	 3.129202558978380e+000	 1.062127604028489e+001
 2.766740886705849e+000	 3.159928174864604e+000	 1.059676182360967e+001
 2.731712838286569e+000	 3.190257906944266e+000	 1.056879855945079e+001
 2.696367470949601e+000	 3.220186687548849e+000	 1.053888698264549e+001
 2.660711675109584e+000	 3.249709604111268e+000	 1.050841794540636e+001
 2.624752440995853e+000	 3.278821901798352e+000	 1.047931840935640e+001
 2.588496854144156e+000	 3.307518985991762e+000	 1.045234894457027e+001
 2.551952090816394e+000	 3.335796424614757e+000	 1.042751684358908e+001
 2.515125413354498e+000	 3.363649950302459e+000	 1.040173709235776e+001
 2.478024165474663e+000	 3.391075462413564e+000	 1.037383310359135e+001
 2.440655767508217e+000	 3.418069028881693e+000	 1.034521519931374e+001
 2.285685748434003e+000	 3.201037922084772e+000	 1.035921182425615e+001
 2.250446894129934e+000	 3.225909482613576e+000	 1.033332375847969e+001
 2.214971943538431e+000	 3.250369633505693e+000	 1.030926063718156e+001
 2.179268029550415e+000	 3.274415169322649e+000	 1.028405977556826e+001
 2.143342338751272e+000	 3.298043047850051e+000	 1.025478198192475e+001
 2.107202106807173e+000	 3.321250391072290e+000	 1.021852926160512e+001
 2.070854613836993e+000	 3.344034485992657e+000	 1.017258166719383e+001
 2.034307179775804e+000	 3.366392785299043e+000	 1.011538356317575e+001
 1.997567159735842e+000	 3.388322907875671e+000	 1.004550409125491e+001
 1.960641939370820e+000	 3.409822639161488e+000	 9.977487021573712e+000
 1.923538930249378e+000	 3.430889931356199e+000	 9.921559018660526e+000
 2.301182750341905e+000	 3.222741032766358e+000	 1.035782545458603e+001
 2.265704975795809e+000	 3.247781223047380e+000	 1.033167402907480e+001
 2.229989504223994e+000	 3.272407214324913e+000	 1.030729728886399e+001
 2.194043516878546e+000	 3.296615779427530e+000	 1.028188799619465e+001
 2.157874249070071e+000	 3.320403855514564e+000	 1.025265998450429e+001
 2.121488985522725e+000	 3.343768545057394e+000	 1.021691881377687e+001
 2.084895055714760e+000	 3.366707116665132e+000	 1.017278863121060e+001
 2.048099829210577e+000	 3.389217005754840e+000	 1.011885003174788e+001
 2.011110710990247e+000	 3.411295815066718e+000	 1.005367073090856e+001
 1.973935136782386e+000	 3.432941315024939e+000	 9.982764126601605e+000
 1.936580568406245e+000	 3.454151443945082e+000	 9.924265893493169e+000
 2.316679752249655e+000	 3.244444143447348e+000	 1.035636276754734e+001
 2.280963057461482e+000	 3.269652963480678e+000	 1.033022590310912e+001
 2.245007064909297e+000	 3.294444795143722e+000	 1.030576345868377e+001
 2.208819004206357e+000	 3.318816389532113e+000	 1.028030065740225e+001
 2.172406159388486e+000	 3.342764663178889e+000	 1.025117511127810e+001
 2.135775864237826e+000	 3.366286699042419e+000	 1.021612849731930e+001
 2.098935497592009e+000	 3.389379747337628e+000	 1.017377533572281e+001
 2.061892478644770e+000	 3.412041226210741e+000	 1.012282410999941e+001
 2.024654262244012e+000	 3.434268722257935e+000	 1.006198025907007e+001
 1.987228334193261e+000	 3.456059990888608e+000	 9.991561363973288e+000
 1.949622206562376e+000	 3.477412956534195e+000	 9.930099218044809e+000
 2.332176754157270e+000	 3.266147254127807e+000	 1.035500392613718e+001
 2.296221139126976e+000	 3.291524703913511e+000	 1.032914240017310e+001
 2.260024625594372e+000	 3.316482375962150e+000	 1.030481062604533e+001
 2.223594491533885e+000	 3.341016999636398e+000	 1.027940637626952e+001
 2.186938069706560e+000	 3.365125470843009e+000	 1.025024860761785e+001
 2.150062742952529e+000	 3.388804853027323e+000	 1.021590034432470e+001
 2.112975939468804e+000	 3.412052378010083e+000	 1.017520115217981e+001
 2.075685128078455e+000	 3.434865446666672e+000	 1.012698380308829e+001
 2.038197813497221e+000	 3.457241629449239e+000	 1.007007340990758e+001
 2.000521531603536e+000	 3.479178666752396e+000	 1.000328700145609e+001
 1.962663844717872e+000	 3.500674469123442e+000	 9.938537899483858e+000
 2.347673756064768e+000	 3.287850364807801e+000	 1.035393689956488e+001
 2.311479220792314e+000	 3.313396444345925e+000	 1.032859602415118e+001
 2.275042186279247e+000	 3.338519956780215e+000	 1.030456974431415e+001
 2.238369978861165e+000	 3.363217609740386e+000	 1.027877131111115e+001
 2.201469980024336e+000	 3.387486278506896e+000	 1.024956454146745e+001
 2.164349621666887e+000	 3.411323007012064e+000	 1.021590799484520e+001
 2.127016381345206e+000	 3.434725008682438e+000	 1.017675105610361e+001
 2.089477777511701e+000	 3.457689667122556e+000	 1.013103243676027e+001
 2.051741364749952e+000	 3.480214536640536e+000	 1.007767915339122e+001
 2.013814729013301e+000	 3.502297342616207e+000	 1.001560597766797e+001
 1.975705482872835e+000	 3.523935981712723e+000	 9.949070692142232e+000
 2.363170757972164e+000	 3.309553475487395e+000	 1.035335621270315e+001
 2.326737302457517e+000	 3.335268184777968e+000	 1.032876103702233e+001
 2.290059746963950e+000	 3.360557537597944e+000	 1.030433036645377e+001
 2.253145466188234e+000	 3.385418219844079e+000	 1.027799459732021e+001
 2.216001890341861e+000	 3.409847086170533e+000	 1.024881687307493e+001
 2.178636500380949e+000	 3.433841160996598e+000	 1.021585014896713e+001
 2.141056823221275e+000	 3.457397639354630e+000	 1.017813502385924e+001
 2.103270426944581e+000	 3.480513887578316e+000	 1.013469808148577e+001
 2.065284916002286e+000	 3.503187443831742e+000	 1.008455074061857e+001
 2.027107926422647e+000	 3.525416018479945e+000	 1.002668860811471e+001
 1.988747121027364e+000	 3.547197494301935e+000	 9.961198469825156e+000
 2.378667759879475e+000	 3.331256586166656e+000	 1.035346169424030e+001
 2.341995384122610e+000	 3.357139925209682e+000	 1.032880623536271e+001
 2.305077307648510e+000	 3.382595118415356e+000	 1.030353689411499e+001
 2.267920953515127e+000	 3.407618829947475e+000	 1.027679568863737e+001
 2.230533800659176e+000	 3.432207893833895e+000	 1.024772386096900e+001
 2.192923379094772e+000	 3.456359314980883e+000	 1.021544994382904e+001
 2.155097265097074e+000	 3.480070270026597e+000	 1.017908742863901e+001
 2.117063076377164e+000	 3.503338108033873e+000	 1.013773297500456e+001
 2.078828467254304e+000	 3.526160351022762e+000	 1.009046516078633e+001
 2.040401123831664e+000	 3.548534694343511e+000	 1.003634376613129e+001
 2.001788759181560e+000	 3.570459006890981e+000	 9.974409579314949e+000
 2.394164761786720e+000	 3.352959696845651e+000	 1.035356186453361e+001
 2.357253465787613e+000	 3.379011665641112e+000	 1.032789082985303e+001
 2.320094868332957e+000	 3.404632699232478e+000	 1.030193864192654e+001
 2.282696440841880e+000	 3.429819440050575e+000	 1.027491739045314e+001
 2.245065710976327e+000	 3.454568701496963e+000	 1.024602742733364e+001
 2.207210257808406e+000	 3.478877468964878e+000	 1.021445433039545e+001
 2.169137706972663e+000	 3.502742900698278e+000	 1.017936643569608e+001
 2.130855725809523e+000	 3.526162328489153e+000	 1.013991294335044e+001
 2.092372018506088e+000	 3.549133258213510e+000	 1.009522259559805e+001
 2.053694321240442e+000	 3.571653370206810e+000	 1.004440291979419e+001
 2.014830397335523e+000	 3.593720519479760e+000	 9.986540023225832e+000
 2.409661763693914e+000	 3.374662807524445e+000	 1.035234259088979e+001
 2.372511547452549e+000	 3.400883406072305e+000	 1.032579762491246e+001
 2.335112429017319e+000	 3.426670280049329e+000	 1.029930717490263e+001
 2.297471928168530e+000	 3.452020050153380e+000	 1.027212522058938e+001
 2.259597621293357e+000	 3.476929509159713e+000	 1.024349252339346e+001
 2.221497136521904e+000	 3.501395622948537e+000	 1.021263344999774e+001
 2.183178148848105e+000	 3.525415531369613e+000	 1.017875339686153e+001
 2.144648375241727e+000	 3.548986548944076e+000	 1.014103682042436e+001
 2.105915569757716e+000	 3.572106165403896e+000	 1.009864587122369e+001
 2.066987518649074e+000	 3.594772046069743e+000	 1.005071962383808e+001
 2.027872035489354e+000	 3.616982032068171e+000	 9.996373888517086e+000
 2.425158765601074e+000	 3.396365918203103e+000	 1.034961405573928e+001
 2.387769629117440e+000	 3.422755146503306e+000	 1.032233044726387e+001
 2.350129989701624e+000	 3.448707860865934e+000	 1.029543567072621e+001
 2.312247415495113e+000	 3.474220660255889e+000	 1.026820677010549e+001
 2.274129531610309e+000	 3.499290316822126e+000	 1.023990649480920e+001
 2.235784015235318e+000	 3.523913776931821e+000	 1.020978001065241e+001
 2.197218590723461e+000	 3.548088162040541e+000	 1.017705224437656e+001
 2.158441024673848e+000	 3.571810769398565e+000	 1.014092586618098e+001
 2.119459121009271e+000	 3.595079072593830e+000	 1.010057990792025e+001
 2.080280716057648e+000	 3.617890721932214e+000	 1.005516900802110e+001
 2.040913673643154e+000	 3.640243544656117e+000	 1.000382326784713e+001
 2.440655767508217e+000	 3.418069028881693e+000	 1.034521519931374e+001
 2.403027710782309e+000	 3.444626886934158e+000	 1.031731351495298e+001
 2.365147550385903e+000	 3.470745441682317e+000	 1.029013828187139e+001
 2.327022902821665e+000	 3.496421270358104e+000	 1.026297106412795e+001
 2.288661441927230e+000	 3.521651124484178e+000	 1.023507844708294e+001
 2.250070893948702e+000	 3.546431930914687e+000	 1.020570866316663e+001
 2.211259032598793e+000	 3.570760792711000e+000	 1.017408888407064e+001
 2.172233674105955e+000	 3.594634989852545e+000	 1.013942318349003e+001
 2.133002672260832e+000	 3.618051979783225e+000	 1.010089116741766e+001
 2.093573913466255e+000	 3.641009397794124e+000	 1.005764726209696e+001
 2.053955311797024e+000	 3.663505057243499e+000	 1.000882064313732e+001
 1.923538930249378e+000	 3.430889931356199e+000	 9.921559018660526e+000
 1.886271168719185e+000	 3.451519841804724e+000	 9.875487646401586e+000
 1.848840550700881e+000	 3.471713851746570e+000	 9.837484729446524e+000
 1.811254536557092e+000	 3.491470416868223e+000	 9.805743411838616e+000
 1.773520594178441e+000	 3.510788158857956e+000	 9.778516439382971e+000
 1.735646194488917e+000	 3.529665864868950e+000	 9.754113995350672e+000
 1.697638806993271e+000	 3.548102486840682e+000	 9.730901658524369e+000
 1.659505895371513e+000	 3.566097140681105e+000	 9.707298560976399e+000
 1.621254913125377e+000	 3.583649105312324e+000	 9.681775814739835e+000
 1.582893299281493e+000	 3.600757821582674e+000	 9.652855267779469e+000
 1.544428474155829e+000	 3.617422891048259e+000	 9.619108640503720e+000
 1.936580568406245e+000	 3.454151443945082e+000	 9.924265893493168e+000
 1.899060130596229e+000	 3.474921225660750e+000	 9.877133336043773e+000
 1.861375732127374e+000	 3.495252151454281e+000	 9.839237040522429e+000
 1.823534883943736e+000	 3.515142666541675e+000	 9.808480716411847e+000
 1.785545104568417e+000	 3.534591383266208e+000	 9.782835590459452e+000
 1.747413915578442e+000	 3.553597080557927e+000	 9.760338157442176e+000
 1.709148837121985e+000	 3.572158703250428e+000	 9.739088067104548e+000
 1.670757383482980e+000	 3.590275361257489e+000	 9.717246229058846e+000
 1.632247058698082e+000	 3.607946328612285e+000	 9.693033208743863e+000
 1.593625352230694e+000	 3.625171042372080e+000	 9.664727978294911e+000
 1.554899734706702e+000	 3.641949101391516e+000	 9.630667076502535e+000
 1.949622206562376e+000	 3.477412956534195e+000	 9.930099218044811e+000
 1.911849092472506e+000	 3.498322609516991e+000	 9.881355266211354e+000
 1.873910913553071e+000	 3.518790451162160e+000	 9.842942133022749e+000
 1.835815231329566e+000	 3.538814916215224e+000	 9.812508379090913e+000
 1.797569614957565e+000	 3.558394607674471e+000	 9.787777632434084e+000
 1.759181636667133e+000	 3.577528296246814e+000	 9.766546168911964e+000
 1.720658867249861e+000	 3.596214919659974e+000	 9.746680645974179e+000
 1.682008871593610e+000	 3.614453581833564e+000	 9.726116076220539e+000
 1.643239204269950e+000	 3.632243551911827e+000	 9.702854118088826e+000
 1.604357405179059e+000	 3.649584263160969e+000	 9.674961751222703e+000
 1.565370995256741e+000	 3.666475311734168e+000	 9.640570393859226e+000
 1.962663844717872e+000	 3.500674469123442e+000	 9.938537899483858e+000
 1.924638054348121e+000	 3.521723993373348e+000	 9.887703381742840e+000
 1.886446094978093e+000	 3.542328750870120e+000	 9.848218451531928e+000
 1.848095578714712e+000	 3.562487165888798e+000	 9.817510309921611e+000
 1.809594125346025e+000	 3.582197832082684e+000	 9.793088411336857e+000
 1.770949357755138e+000	 3.601459511935572e+000	 9.772541787349647e+000
 1.732168897377055e+000	 3.620271136069303e+000	 9.753536544294102e+000
 1.693260359703563e+000	 3.638631802409330e+000	 9.733813626231171e+000
 1.654231349841147e+000	 3.656540775210977e+000	 9.711186925085011e+000
 1.615089458126757e+000	 3.673997483949385e+000	 9.683541809465664e+000
 1.575842255806114e+000	 3.691001522076283e+000	 9.648834132907885e+000
 1.975705482872835e+000	 3.523935981712723e+000	 9.949070692142234e+000
 1.937427016223188e+000	 3.545125377229726e+000	 9.895734347932489e+000
 1.898981276402560e+000	 3.565867050578072e+000	 9.854688056905783e+000
 1.860375926099302e+000	 3.586159415562315e+000	 9.823170980551382e+000
 1.821618635733935e+000	 3.606001056490789e+000	 9.798511356303909e+000
 1.782717078842601e+000	 3.625390727624157e+000	 9.778123477402726e+000
 1.743678927503718e+000	 3.644327352478393e+000	 9.759504870515594e+000
 1.704511847812996e+000	 3.662810022984794e+000	 9.740233768005684e+000
 1.665223495411833e+000	 3.680837998509759e+000	 9.717966961467145e+000
 1.625821511073953e+000	 3.698410704737381e+000	 9.690438112270558e+000
 1.586313516354986e+000	 3.715527732417929e+000	 9.655456583473606e+000
 1.988747121027364e+000	 3.547197494301935e+000	 9.961198469825158e+000
 1.950215978097817e+000	 3.568526761086030e+000	 9.905013798344506e+000
 1.911516457826590e+000	 3.589405350285925e+000	 9.861978847741099e+000
 1.872656273483467e+000	 3.609831665235706e+000	 9.829177617086025e+000
 1.833643146121435e+000	 3.629804280898727e+000	 9.803789641137668e+000
 1.794484799929670e+000	 3.649321943312530e+000	 9.783086537944190e+000
 1.755188957630005e+000	 3.668383568887227e+000	 9.764428781649297e+000
 1.715763335922069e+000	 3.686988243559954e+000	 9.745262803062762e+000
 1.676215640982173e+000	 3.705135221808200e+000	 9.723118509727556e+000
 1.636553564020811e+000	 3.722823925524999e+000	 9.695607305721579e+000
 1.596784776903525e+000	 3.740053942759174e+000	 9.660420679415360e+000
 2.001788759181560e+000	 3.570459006890981e+000	 9.974409579314949e+000
 1.963004939972117e+000	 3.591928144942161e+000	 9.915118575007206e+000
 1.924051639250307e+000	 3.612943649993593e+000	 9.869726772439606e+000
 1.884936620867336e+000	 3.633503914908892e+000	 9.835222381833241e+000
 1.845667656508661e+000	 3.653607505306437e+000	 9.808668333146393e+000
 1.806252521016491e+000	 3.673253159000651e+000	 9.787225215034129e+000
 1.766698987756068e+000	 3.692439785295785e+000	 9.768147556987398e+000
 1.727014824030942e+000	 3.711166464134818e+000	 9.748780476261430e+000
 1.687207786552331e+000	 3.729432445106324e+000	 9.726556786739323e+000
 1.647285616967498e+000	 3.747237146312289e+000	 9.698994654743709e+000
 1.607256037451896e+000	 3.764580153100085e+000	 9.663695874127555e+000
 2.014830397335523e+000	 3.593720519479760e+000	 9.986540023225832e+000
 1.975793901846201e+000	 3.615329528798024e+000	 9.925638961332531e+000
 1.936586820673828e+000	 3.636481949700988e+000	 9.877578032292826e+000
 1.897216968251039e+000	 3.657176164581797e+000	 9.841004544436926e+000
 1.857692166895753e+000	 3.677410729713860e+000	 9.812896529840000e+000
 1.818020242103209e+000	 3.697184374688481e+000	 9.790334801319444e+000
 1.778209017882060e+000	 3.716496001704045e+000	 9.770498656983584e+000
 1.738266312139771e+000	 3.735344684709383e+000	 9.750661990573232e+000
 1.698199932122467e+000	 3.753729668404155e+000	 9.728189910471684e+000
 1.658017669914180e+000	 3.771650367099296e+000	 9.700535957453544e+000
 1.617727298000268e+000	 3.789106363440732e+000	 9.665239997863397e+000
 2.027872035489354e+000	 3.616982032068171e+000	 9.996373888517086e+000
 1.988582863720177e+000	 3.638730912653521e+000	 9.936180908087831e+000
 1.949122002097276e+000	 3.660020249408020e+000	 9.885191275991776e+000
 1.909497315634706e+000	 3.680848414254348e+000	 9.846232642879469e+000
 1.869716677282848e+000	 3.701213954120939e+000	 9.816229484028181e+000
 1.829787963189973e+000	 3.721115590375979e+000	 9.792213722482215e+000
 1.789719048008136e+000	 3.740552218111991e+000	 9.771319767958829e+000
 1.749517800248717e+000	 3.759522905283656e+000	 9.750780006608842e+000
 1.709192077692748e+000	 3.778026891701722e+000	 9.727920850558911e+000
 1.668749722861022e+000	 3.796063587886068e+000	 9.700159442652806e+000
 1.628198558548805e+000	 3.813632573781181e+000	 9.665001097698019e+000
 2.040913673643154e+000	 3.640243544656117e+000	 1.000382326784713e+001
 2.001371825594157e+000	 3.662132296508555e+000	 9.946354640238003e+000
 1.961657183520769e+000	 3.683558549114604e+000	 9.892239785945410e+000
 1.921777663018466e+000	 3.704520663926468e+000	 9.850626634805591e+000
 1.881741187670086e+000	 3.725017178527611e+000	 9.818430717840137e+000
 1.841555684276927e+000	 3.745046806063103e+000	 9.792665611315799e+000
 1.801229078134447e+000	 3.764608434519604e+000	 9.770450833267118e+000
 1.760769288357938e+000	 3.783701125857639e+000	 9.749006627580922e+000
 1.720184223263335e+000	 3.802324114999045e+000	 9.725649363444727e+000
 1.679481775808191e+000	 3.820476808672654e+000	 9.697787651217904e+000
 1.638669819097675e+000	 3.838158784121502e+000	 9.662919260908266e+000
 2.053955311797024e+000	 3.663505057243499e+000	 1.000882064313732e+001
 2.014160787468252e+000	 3.685533680363033e+000	 9.954460952755538e+000
 1.974192364944430e+000	 3.707096848820648e+000	 9.898413656771544e+000
 1.934058010402449e+000	 3.728192913598081e+000	 9.853920039597661e+000
 1.893765698057606e+000	 3.748820402933820e+000	 9.819274126157993e+000
 1.853323405364218e+000	 3.768978021749815e+000	 9.791501369978851e+000
 1.812739108261148e+000	 3.788664650926862e+000	 9.767736071522787e+000
 1.772020776467593e+000	 3.807879346431334e+000	 9.745215370350600e+000
 1.731176368834391e+000	 3.826621338296152e+000	 9.721273912788181e+000
 1.690213828755852e+000	 3.844890029459100e+000	 9.693339302101771e+000
 1.649141079647045e+000	 3.862684994461763e+000	 9.658928422505856e+000
 1.544428474155829e+000	 3.617422891048259e+000	 9.619108640503720e+000
 1.505862044005179e+000	 3.633646475212943e+000	 9.579988382428068e+000
 1.467207146887432e+000	 3.649425961916560e+000	 9.535412250210991e+000
 1.428471127328698e+000	 3.664761429167448e+000	 9.484774007419517e+000
 1.389661294793495e+000	 3.679653109660585e+000	 9.427604745750937e+000
 1.350784919814787e+000	 3.694101388953216e+000	 9.363572402824680e+000
 1.311849230209201e+000	 3.708106803531543e+000	 9.295848665541897e+000
 1.272861407380663e+000	 3.721670038772552e+000	 9.239876155051432e+000
 1.233828582715532e+000	 3.734791926805090e+000	 9.195196357033757e+000
 1.194757834072111e+000	 3.747473444274481e+000	 9.158957020623594e+000
 1.155656182367169e+000	 3.759715710014934e+000	 9.128329061059741e+000
 1.554899734706702e+000	 3.641949101391516e+000	 9.630667076502533e+000
 1.516071823273362e+000	 3.658282681829495e+000	 9.590823434944472e+000
 1.477154845064890e+000	 3.674169153815358e+000	 9.545943465723457e+000
 1.438156194403447e+000	 3.689608595886352e+000	 9.495650106513045e+000
 1.399083230311878e+000	 3.704601242315142e+000	 9.439698857998270e+000
 1.359943272617522e+000	 3.719147481273074e+000	 9.377976933725682e+000
 1.320743598141761e+000	 3.733247852883756e+000	 9.311563479266699e+000
 1.281491436978598e+000	 3.746903047171049e+000	 9.254611452220349e+000
 1.242193968865346e+000	 3.760113901905669e+000	 9.209388137344064e+000
 1.202858319648345e+000	 3.772881400354630e+000	 9.173122761171978e+000
 1.163491557846333e+000	 3.785206668937872e+000	 9.143092348176893e+000
 1.565370995256741e+000	 3.666475311734168e+000	 9.640570393859225e+000
 1.526281602540710e+000	 3.682918888445374e+000	 9.600130726331939e+000
 1.487102543241513e+000	 3.698912345713429e+000	 9.555135029447953e+000
 1.447841261477359e+000	 3.714455762604492e+000	 9.505403717919366e+000
 1.408505165829424e+000	 3.729549374968920e+000	 9.450883633083047e+000
 1.369101625419422e+000	 3.744193573592156e+000	 9.391646885666440e+000
 1.329637966073492e+000	 3.758388902235207e+000	 9.327972891181330e+000
 1.290121466575712e+000	 3.772136055568817e+000	 9.270799584585532e+000
 1.250559355014358e+000	 3.785435877005572e+000	 9.225750701940267e+000
 1.210958805223801e+000	 3.798289356434168e+000	 9.190113099024400e+000
 1.171326933324751e+000	 3.810697627860288e+000	 9.161247798461693e+000
 1.575842255806114e+000	 3.691001522076283e+000	 9.648834132907885e+000
 1.536491381807390e+000	 3.707555095060664e+000	 9.607942309697480e+000
 1.497050241417462e+000	 3.723655537610877e+000	 9.563015207679969e+000
 1.457526328550590e+000	 3.739302929321990e+000	 9.514039704396192e+000
 1.417927101346283e+000	 3.754497507622050e+000	 9.461121593795555e+000
 1.378259978220630e+000	 3.769239665910598e+000	 9.404484181488115e+000
 1.338532334004527e+000	 3.783529951586039e+000	 9.344467461820038e+000
 1.298751496172133e+000	 3.797369063966007e+000	 9.287834556732163e+000
 1.258924741162678e+000	 3.810757852104945e+000	 9.243504791510663e+000
 1.219059290798574e+000	 3.823697312513241e+000	 9.208954585334668e+000
 1.179162308802503e+000	 3.836188586782309e+000	 9.181608533712574e+000
 1.586313516354986e+000	 3.715527732417929e+000	 9.655456583473606e+000
 1.546701161073566e+000	 3.732191301675452e+000	 9.614271428588339e+000
 1.506997939592899e+000	 3.748398729507804e+000	 9.569592506245046e+000
 1.467211395623298e+000	 3.764150096038961e+000	 9.521542815235538e+000
 1.427349036862606e+000	 3.779445640274658e+000	 9.470355383323916e+000
 1.387418331021288e+000	 3.794285758228537e+000	 9.416371673273044e+000
 1.347426701935000e+000	 3.808671000936399e+000	 9.360040650094602e+000
 1.307381525767979e+000	 3.822602072362762e+000	 9.305123355013928e+000
 1.267290127310417e+000	 3.836079827203932e+000	 9.261887720056565e+000
 1.227159776372762e+000	 3.849105268591987e+000	 9.228693937085076e+000
 1.186997684279672e+000	 3.861679545704069e+000	 9.203011443451764e+000
 1.596784776903525e+000	 3.740053942759174e+000	 9.660420679415360e+000
 1.556910940339404e+000	 3.756827508289827e+000	 9.619114344205320e+000
 1.516945637767987e+000	 3.773141921404314e+000	 9.574857413448070e+000
 1.476896462695642e+000	 3.788997262755524e+000	 9.527879328668346e+000
 1.436770972378545e+000	 3.804393772926877e+000	 9.478509291493582e+000
 1.396576683821540e+000	 3.819331850546112e+000	 9.427174537462193e+000
 1.356321069865043e+000	 3.833812050286429e+000	 9.374399354631745e+000
 1.316011555363373e+000	 3.847835080759229e+000	 9.322086568588011e+000
 1.275655513457684e+000	 3.861401802302679e+000	 9.280153933035457e+000
 1.235260261946462e+000	 3.874513224670545e+000	 9.248398510146656e+000
 1.194833059756341e+000	 3.887170504625702e+000	 9.224317551599532e+000
 1.607256037451896e+000	 3.764580153100085e+000	 9.663695874127555e+000
 1.567120719605069e+000	 3.781463714903873e+000	 9.622452143502384e+000
 1.526893335942890e+000	 3.797885113300513e+000	 9.578784124537590e+000
 1.486581529767779e+000	 3.813844429471796e+000	 9.532998677093229e+000
 1.446192907894250e+000	 3.829341905578835e+000	 9.485490765798136e+000
 1.405735036621528e+000	 3.844377942863460e+000	 9.436741657368525e+000
 1.365215437794790e+000	 3.858953099636274e+000	 9.387317950600540e+000
 1.324641584958439e+000	 3.873068089155554e+000	 9.338159004874667e+000
 1.284020899604590e+000	 3.886723777401333e+000	 9.297575564309698e+000
 1.243360747519771e+000	 3.899921180749059e+000	 9.267156776071666e+000
 1.202668435232591e+000	 3.912661463547339e+000	 9.244412392330787e+000
 1.617727298000268e+000	 3.789106363440732e+000	 9.665239997863397e+000
 1.577330498870728e+000	 3.806099921517680e+000	 9.624252529038820e+000
 1.536841034117768e+000	 3.822628305196501e+000	 9.581332248522550e+000
 1.496266596839867e+000	 3.838691596187896e+000	 9.536835055906785e+000
 1.455614843409874e+000	 3.854290038230659e+000	 9.491191907910098e+000
 1.414893389421396e+000	 3.869424035180721e+000	 9.444906993656829e+000
 1.374109805724376e+000	 3.884094148986077e+000	 9.398556834926293e+000
 1.333271614553298e+000	 3.898301097551884e+000	 9.352790299693812e+000
 1.292386285751244e+000	 3.912045752500035e+000	 9.313442991954664e+000
 1.251461233092784e+000	 3.925329136827668e+000	 9.284078802449727e+000
 1.210503810708504e+000	 3.938152422469113e+000	 9.262206394697259e+000
 1.628198558548805e+000	 3.813632573781181e+000	 9.665001097698019e+000
 1.587540278136545e+000	 3.830736128131332e+000	 9.624471591405131e+000
 1.546788732292785e+000	 3.847371497092383e+000	 9.582448498136177e+000
 1.505951663912061e+000	 3.863538762903940e+000	 9.539309016674491e+000
 1.465036778925567e+000	 3.879238170882482e+000	 9.495490956326012e+000
 1.424051742221288e+000	 3.894470127498032e+000	 9.451490943331899e+000
 1.383004173653933e+000	 3.909235198335982e+000	 9.407863649095798e+000
 1.341901644148074e+000	 3.923534105948366e+000	 9.365222024355239e+000
 1.300751671897757e+000	 3.937367727598935e+000	 9.327065392977715e+000
 1.259561718665599e+000	 3.950737092906512e+000	 9.298296736666361e+000
 1.218339186184163e+000	 3.963643381391156e+000	 9.276635275620741e+000
 1.638669819097675e+000	 3.838158784121502e+000	 9.662919260908266e+000
 1.597750057402686e+000	 3.855372334744917e+000	 9.623055565002517e+000
 1.556736430468104e+000	 3.872114688988262e+000	 9.582068363700826e+000
 1.515636730984523e+000	 3.888385929620046e+000	 9.540329045342041e+000
 1.474458714441479e+000	 3.904186303534432e+000	 9.498253755765379e+000
 1.433210095021344e+000	 3.919516219815531e+000	 9.456301687749049e+000
 1.391898541583594e+000	 3.934376247686132e+000	 9.414974493788384e+000
 1.350531673742887e+000	 3.948767114345144e+000	 9.374816804740028e+000
 1.309117058044239e+000	 3.962689702698176e+000	 9.337771296995900e+000
 1.267662204238311e+000	 3.976145048985732e+000	 9.308965292912060e+000
 1.226174561659649e+000	 3.989134340313600e+000	 9.286660440882592e+000
 1.649141079647045e+000	 3.862684994461763e+000	 9.658928422505856e+000
 1.607959836669317e+000	 3.880008541358522e+000	 9.619942567915711e+000
 1.566684128643885e+000	 3.896857880884244e+000	 9.580117771609068e+000
 1.525321798057408e+000	 3.913233096336334e+000	 9.539793126152329e+000
 1.483880649957763e+000	 3.929134436186638e+000	 9.499335213912655e+000
 1.442368447821710e+000	 3.944562312133359e+000	 9.459136530135110e+000
 1.400792909513493e+000	 3.959517297036671e+000	 9.419615135696134e+000
 1.359161703337863e+000	 3.974000122742366e+000	 9.381215520299881e+000
 1.317482444190801e+000	 3.988011677797904e+000	 9.344909138919048e+000
 1.275762689811018e+000	 4.001553005065471e+000	 9.315267475791675e+000
 1.234009937135045e+000	 4.014625299236578e+000	 9.291925547790619e+000
 1.155656182367169e+000	 3.759715710014934e+000	 9.128329061059741e+000
 1.116530587703505e+000	 3.771519981695344e+000	 9.102673109287883e+000
 1.077387944538932e+000	 3.782887650511029e+000	 9.081883535376139e+000
 1.038235080352055e+000	 3.793820241437709e+000	 9.064130741280973e+000
 9.990787532115453e-001	 3.804319411526238e+000	 9.047795175021255e+000
 9.599256488797626e-001	 3.814386947187074e+000	 9.031518125694893e+000
 9.207823780247851e-001	 3.824024761409275e+000	 9.014213220225496e+000
 8.816554735420569e-001	 3.833234890918529e+000	 8.995098391001516e+000
 8.425513879866883e-001	 3.842019493278808e+000	 8.973707883925631e+000
 8.034764911172414e-001	 3.850380843942109e+000	 8.949900503145120e+000
 7.644370675516263e-001	 3.858321333250832e+000	 8.923862472559121e+000
 1.163491557846333e+000	 3.785206668937872e+000	 9.143092348176893e+000
 1.124100690751761e+000	 3.797090973851327e+000	 9.118329541841906e+000
 1.084692659567023e+000	 3.808535715722647e+000	 9.098289377737489e+000
 1.045274338061189e+000	 3.819542429866925e+000	 9.081111475408637e+000
 1.005852530122790e+000	 3.830112784569851e+000	 9.065160734891876e+000
 9.664339668438114e-001	 3.840248578353792e+000	 9.049074023508084e+000
 9.270253037128128e-001	 3.849951737177909e+000	 9.031771456580525e+000
 8.876331179184214e-001	 3.859224311576942e+000	 9.012484026119617e+000
 8.482639057642203e-001	 3.868068473743193e+000	 8.990762868417713e+000
 8.089240801958820e-001	 3.876486514556273e+000	 8.966484272599445e+000
 7.696199684411721e-001	 3.884480840565159e+000	 8.939849190677817e+000
 1.171326933324751e+000	 3.810697627860288e+000	 9.161247798461693e+000
 1.131670793799310e+000	 3.822661966006884e+000	 9.137808910524676e+000
 1.091997374594454e+000	 3.834183780933947e+000	 9.118783992180513e+000
 1.052313595769715e+000	 3.845264618295934e+000	 9.102296959617309e+000
 1.012626307033486e+000	 3.855906157613378e+000	 9.086717925181629e+000
 9.729422848073700e-001	 3.866110209520529e+000	 9.070691739548416e+000
 9.332682294004113e-001	 3.875878712946665e+000	 9.053176523365240e+000
 8.936107622944156e-001	 3.885213732235561e+000	 9.033438875843627e+000
 8.539764235414393e-001	 3.894117454207846e+000	 9.011074092014411e+000
 8.143716692742630e-001	 3.902592185170743e+000	 8.986004865023906e+000
 7.748028693305061e-001	 3.910640347879802e+000	 8.958477170671163e+000
 1.179162308802503e+000	 3.836188586782309e+000	 9.181608533712574e+000
 1.139240896846218e+000	 3.848232958162135e+000	 9.159710050796042e+000
 1.099302089621277e+000	 3.859831846145037e+000	 9.141769086537515e+000
 1.059352853477670e+000	 3.870986806724833e+000	 9.125910197191601e+000
 1.019400083943650e+000	 3.881699530656881e+000	 9.110524804806326e+000
 9.794506027704419e-001	 3.891971840687340e+000	 9.094297484773067e+000
 9.395111550875679e-001	 3.901805688715573e+000	 9.076239326082808e+000
 8.995884066700155e-001	 3.911203152894399e+000	 9.055682520620845e+000
 8.596889413183100e-001	 3.920166434672770e+000	 9.032295261693140e+000
 8.198192583523397e-001	 3.928697855785512e+000	 9.006077051849189e+000
 7.799857702195771e-001	 3.936799855194743e+000	 8.977350678966374e+000
 1.186997684279672e+000	 3.861679545704069e+000	 9.203011443451764e+000
 1.146810999892553e+000	 3.873803950317198e+000	 9.182658749659570e+000
 1.106606804647542e+000	 3.885479911356019e+000	 9.165675672806039e+000
 1.066392111185087e+000	 3.896708995153701e+000	 9.150205050435583e+000
 1.026173860853301e+000	 3.907492903700438e+000	 9.134680311138551e+000
 9.859589207330294e-001	 3.917833471854272e+000	 9.117849190197399e+000
 9.457540807742724e-001	 3.927732664484666e+000	 9.098801874510905e+000
 9.055660510451961e-001	 3.937192573553473e+000	 9.076964386509525e+000
 8.654014590947963e-001	 3.946215415137962e+000	 9.052108071518203e+000
 8.252668474300681e-001	 3.954803526400567e+000	 9.024341177539656e+000
 7.851686711083348e-001	 3.962959362509964e+000	 8.994096630880362e+000
 1.194833059756341e+000	 3.887170504625702e+000	 9.224317551599532e+000
 1.154381102938380e+000	 3.899374942472197e+000	 9.205307999934778e+000
 1.113911519673297e+000	 3.911127976566997e+000	 9.188964217917294e+000
 1.073431368892000e+000	 3.922431183582631e+000	 9.173466297200587e+000
 1.032947637762457e+000	 3.933286276744112e+000	 9.157311764367291e+000
 9.924672386951353e-001	 3.943695103021376e+000	 9.139336404251610e+000
 9.519970064605124e-001	 3.953659640253977e+000	 9.118737115868880e+000
 9.115436954199336e-001	 3.963181994212798e+000	 9.095063524943299e+000
 8.711139768708629e-001	 3.972264395603426e+000	 9.068221940178495e+000
 8.307144365074037e-001	 3.980909197015899e+000	 9.038462866469644e+000
 7.903515719967293e-001	 3.989118869825450e+000	 9.006364278786368e+000
 1.202668435232591e+000	 3.912661463547339e+000	 9.244412392330787e+000
 1.161951205983767e+000	 3.924945934627250e+000	 9.226338269097818e+000
 1.121216234698595e+000	 3.936776041778079e+000	 9.210124813826674e+000
 1.080470626598442e+000	 3.948153372011706e+000	 9.194009710856294e+000
 1.039721414671136e+000	 3.959079649787976e+000	 9.176578107309082e+000
 9.989755566567614e-001	 3.969556734188701e+000	 9.156780219926102e+000
 9.582399321462762e-001	 3.979586616023536e+000	 9.133948800001701e+000
 9.175213397942027e-001	 3.989171414872387e+000	 9.107788426112538e+000
 8.768264946464748e-001	 3.998313376069162e+000	 9.078373783117014e+000
 8.361620255843021e-001	 4.007014867631495e+000	 9.046561936867857e+000
 7.955344728847096e-001	 4.015278377141183e+000	 9.013898273861864e+000
 1.210503810708504e+000	 3.938152422469113e+000	 9.262206394697259e+000
 1.169521309028779e+000	 3.950516926782475e+000	 9.244457782030185e+000
 1.128520949723485e+000	 3.962424106989368e+000	 9.227677366051104e+000
 1.087509884304450e+000	 3.973875560441019e+000	 9.210182162642726e+000
 1.046495191579356e+000	 3.984873022832095e+000	 9.190669929974742e+000
 1.005483874617912e+000	 3.995418365356301e+000	 9.168233230356323e+000
 9.644828578315521e-001	 4.005513591793374e+000	 9.142599997694797e+000
 9.234989841679795e-001	 4.015160835532258e+000	 9.114839496190944e+000
 8.825390124215962e-001	 4.024362356535170e+000	 9.085408512721491e+000
 8.416096146607194e-001	 4.033120538247348e+000	 9.054798043629116e+000
 8.007173737722254e-001	 4.041437884457145e+000	 9.023658402260118e+000
 1.218339186184163e+000	 3.963643381391156e+000	 9.276635275620741e+000
 1.177091412073484e+000	 3.976087918937997e+000	 9.258402817049678e+000
 1.135825664748019e+000	 3.988072172200968e+000	 9.240171799822212e+000
 1.094549142010054e+000	 3.999597748870652e+000	 9.220361745395666e+000
 1.053268968487136e+000	 4.010666395876541e+000	 9.198519326577133e+000
 1.011992192578588e+000	 4.021279996524220e+000	 9.174957235533906e+000
 9.707257835163287e-001	 4.031440567563524e+000	 9.149581459758094e+000
 9.294766285412390e-001	 4.041150256192425e+000	 9.122512280467506e+000
 8.882515301961914e-001	 4.050411337001454e+000	 9.094051710353051e+000
 8.470572037366110e-001	 4.059226208863447e+000	 9.064670334711513e+000
 8.059002746592268e-001	 4.067597391773322e+000	 9.034987413398161e+000
 1.226174561659649e+000	 3.989134340313600e+000	 9.286660440882592e+000
 1.184661515117946e+000	 4.001658911093932e+000	 9.266948430186860e+000
 1.143130379772245e+000	 4.013720237412986e+000	 9.247072984258876e+000
 1.101588399715292e+000	 4.025319937300696e+000	 9.226540797750392e+000
 1.060042745394492e+000	 4.036459768921380e+000	 9.204798255512829e+000
 1.018500510538793e+000	 4.047141627692513e+000	 9.181541493572802e+000
 9.769687092005943e-001	 4.057367543334020e+000	 9.156688339718476e+000
 9.354542729139564e-001	 4.067139676852902e+000	 9.130361302196601e+000
 8.939640479702249e-001	 4.076460317468011e+000	 9.102855952772796e+000
 8.525047928119328e-001	 4.085331879479782e+000	 9.074626563207277e+000
 8.110831755456627e-001	 4.093756899089693e+000	 9.046266427413261e+000
 1.234009937135045e+000	 4.014625299236578e+000	 9.291925547790619e+000
 1.192231618162235e+000	 4.027229903250403e+000	 9.271811027410884e+000
 1.150435094796215e+000	 4.039368302625527e+000	 9.251928410129667e+000
 1.108627657420195e+000	 4.051042125731239e+000	 9.231484208177854e+000
 1.066816522301443e+000	 4.062253141966685e+000	 9.209954746576401e+000
 1.025008828498531e+000	 4.073003258861230e+000	 9.187057795873653e+000
 9.832116348843374e-001	 4.083294519104892e+000	 9.162724752068494e+000
 9.414319172861082e-001	 4.093129097513706e+000	 9.137082364936790e+000
 8.996765657436613e-001	 4.102509297934844e+000	 9.110422675641248e+000
 8.579523818866406e-001	 4.111437550096344e+000	 9.083187602961107e+000
 8.162660764314832e-001	 4.119916406406245e+000	 9.055949436663951e+000
 7.644370675516263e-001	 3.858321333250832e+000	 8.923862472559121e+000
 7.254451589814354e-001	 3.865842366926856e+000	 8.887577501187202e+000
 6.865010045823983e-001	 3.872947779998714e+000	 8.838507899780169e+000
 6.476106092149704e-001	 3.879640291078204e+000	 8.787337989636278e+000
 6.087798846073803e-001	 3.885922721176180e+000	 8.748967933777337e+000
 5.700146475776188e-001	 3.891797990537994e+000	 8.721626601656066e+000
 5.313206183671851e-001	 3.897269115457639e+000	 8.702041611668127e+000
 4.927034190860264e-001	 3.902339205074782e+000	 8.687905737559658e+000
 4.541685722679184e-001	 3.907011458158686e+000	 8.677807013199244e+000
 4.157214995353986e-001	 3.911289159882991e+000	 8.671140751869135e+000
 3.773675203732346e-001	 3.915175678595245e+000	 8.668008398459778e+000
 7.696199684411721e-001	 3.884480840565159e+000	 8.939849190677819e+000
 7.303636938346297e-001	 3.892052867022554e+000	 8.903970187030403e+000
 6.911554971736030e-001	 3.899206454958563e+000	 8.856968239953446e+000
 6.520014240316410e-001	 3.905944341417220e+000	 8.808012445596988e+000
 6.129074262186264e-001	 3.912269366535887e+000	 8.771068078492409e+000
 5.738793599907122e-001	 3.918184470359234e+000	 8.744948558246556e+000
 5.349229843727678e-001	 3.923692689631786e+000	 8.726042313011263e+000
 4.960439595927762e-001	 3.928797154573237e+000	 8.711780069931914e+000
 4.572478456274206e-001	 3.933501085640565e+000	 8.700538429675987e+000
 4.185401008579657e-001	 3.937807790280956e+000	 8.691525425474405e+000
 3.799260808354098e-001	 3.941720659679418e+000	 8.684653237542348e+000
 7.748028693305061e-001	 3.910640347879802e+000	 8.958477170671163e+000
 7.352822286876530e-001	 3.918263367118544e+000	 8.922680863548575e+000
 6.958099897646695e-001	 3.925465129918650e+000	 8.877358205278819e+000
 6.563922388481979e-001	 3.932248391756403e+000	 8.830501122534813e+000
 6.170349678297755e-001	 3.938616011895684e+000	 8.794868645717331e+000
 5.777440724037148e-001	 3.944570950180484e+000	 8.770098779969922e+000
 5.385253503782560e-001	 3.950116263805866e+000	 8.752453516597411e+000
 4.993845000994172e-001	 3.955255104071564e+000	 8.739318779297038e+000
 4.603271189867887e-001	 3.959990713122276e+000	 8.729079691508373e+000
 4.213587021803617e-001	 3.964326420678744e+000	 8.720977925922298e+000
 3.824846412973639e-001	 3.968265640763441e+000	 8.714956569331161e+000
 7.799857702195771e-001	 3.936799855194743e+000	 8.977350678966374e+000
 7.402007635404505e-001	 3.944473867214804e+000	 8.941333969767134e+000
 7.004644823555437e-001	 3.951723804878959e+000	 8.897355056683335e+000
 6.607830536645897e-001	 3.958552442095747e+000	 8.852512498856992e+000
 6.211625094407802e-001	 3.964962657255565e+000	 8.818172543567497e+000
 5.816087848165875e-001	 3.970957430001741e+000	 8.794982068989363e+000
 5.421277163836210e-001	 3.976539837979888e+000	 8.779299263434025e+000
 5.027250406059334e-001	 3.981713053569776e+000	 8.768692511568624e+000
 4.634063923460216e-001	 3.986480340603840e+000	 8.761785517479762e+000
 4.241773035026020e-001	 3.990845051076375e+000	 8.758084636321797e+000
 3.850432017591321e-001	 3.994810621847332e+000	 8.757794120147809e+000
 7.851686711083348e-001	 3.962959362509964e+000	 8.994096630880362e+000
 7.451192983929696e-001	 3.970684367311316e+000	 8.957573186120952e+000
 7.051189749461714e-001	 3.977982479839472e+000	 8.914651439173170e+000
 6.651738684807651e-001	 3.984856492435232e+000	 8.871770238513655e+000
 6.252900510515949e-001	 3.991309302615523e+000	 8.838797550229909e+000
 5.854734972292921e-001	 3.997343909823010e+000	 8.817515757460672e+000
 5.457300823888345e-001	 4.002963412153861e+000	 8.804655030384163e+000
 5.060655811123092e-001	 4.008171003067890e+000	 8.798249968946131e+000
 4.664856657051182e-001	 4.012969968085276e+000	 8.796920281674474e+000
 4.269959048247031e-001	 4.017363681473869e+000	 8.800011907981203e+000
 3.876017622207496e-001	 4.021355602931107e+000	 8.807461449825242e+000
 7.903515719967293e-001	 3.989118869825450e+000	 9.006364278786368e+000
 7.500378332451563e-001	 3.996894867408061e+000	 8.969061116908376e+000
 7.097734675364987e-001	 4.004241154800174e+000	 8.927108988158519e+000
 6.695646832966722e-001	 4.011160542774849e+000	 8.887005791236950e+000
 6.294175926621726e-001	 4.017655947975553e+000	 8.856916648862422e+000
 5.893382096417900e-001	 4.023730389644293e+000	 8.839278876493909e+000
 5.493324483938681e-001	 4.029386986327793e+000	 8.830667729720590e+000
 5.094061216185285e-001	 4.034628952565923e+000	 8.828779400074682e+000
 4.695649390640774e-001	 4.039459595566599e+000	 8.832245744104734e+000
 4.298145061466805e-001	 4.043882311871244e+000	 8.840442001171581e+000
 3.901603226822515e-001	 4.047900584014783e+000	 8.853308785135289e+000
 7.955344728847096e-001	 4.015278377141183e+000	 9.013898273861864e+000
 7.549563680969569e-001	 4.023105367505020e+000	 8.978211292613437e+000
 7.144279601264719e-001	 4.030499829761045e+000	 8.940036236927178e+000
 6.739554981122601e-001	 4.037464593114587e+000	 8.904413541750605e+000
 6.335451342724675e-001	 4.044002593335647e+000	 8.877986674627589e+000
 5.932029220540419e-001	 4.050116869465589e+000	 8.863620454275281e+000
 5.529348143986934e-001	 4.055810560501691e+000	 8.858134989098943e+000
 5.127466621245758e-001	 4.061086902063884e+000	 8.859334436741516e+000
 4.726442124228987e-001	 4.065949223047830e+000	 8.865926189345196e+000
 4.326331074685508e-001	 4.070400942268520e+000	 8.877331792683544e+000
 3.927188831436725e-001	 4.074445565098373e+000	 8.893512347961723e+000
 8.007173737722254e-001	 4.041437884457145e+000	 9.023658402260118e+000
 7.598749029483174e-001	 4.049315867602173e+000	 8.990379294927742e+000
 7.190824527160368e-001	 4.056758504722065e+000	 8.955686438775285e+000
 6.783463129274767e-001	 4.063768643454428e+000	 8.923972152020248e+000
 6.376726758824334e-001	 4.070349238695802e+000	 8.900666042184339e+000
 5.970676344660097e-001	 4.076503349286900e+000	 8.888707148858259e+000
 5.565371804032823e-001	 4.082234134675567e+000	 8.885223079463412e+000
 5.160872026304350e-001	 4.087544851561791e+000	 8.888142404650901e+000
 4.757234857815805e-001	 4.092438850528989e+000	 8.896263316691742e+000
 4.354517087903297e-001	 4.096919572665722e+000	 8.909068072289983e+000
 3.952774436050484e-001	 4.100990546181900e+000	 8.926552123163161e+000
 8.059002746592268e-001	 4.067597391773322e+000	 9.034987413398161e+000
 7.647934377991849e-001	 4.075526367699502e+000	 9.003905243122334e+000
 7.237369453051394e-001	 4.083017179683221e+000	 8.972280367810688e+000
 6.827371277422707e-001	 4.090072693794364e+000	 8.943882805035967e+000
 6.418002174920232e-001	 4.096695884056009e+000	 8.923118549117762e+000
 6.009323468776550e-001	 4.102889829108227e+000	 8.912724677257387e+000
 5.601395464076058e-001	 4.108657708849426e+000	 8.910157909849797e+000
 5.194277431360902e-001	 4.114002801059661e+000	 8.913485083080587e+000
 4.788027591401222e-001	 4.118928478010091e+000	 8.921607818337103e+000
 4.382703101120333e-001	 4.123438203062862e+000	 8.934080826898285e+000
 3.978360040664137e-001	 4.127535527265377e+000	 8.950945103438645e+000
 8.110831755456627e-001	 4.093756899089693e+000	 9.046266427413261e+000
 7.697119726495051e-001	 4.101736867796985e+000	 9.017118467484774e+000
 7.283914378937261e-001	 4.109275854644495e+000	 8.988110722841787e+000
 6.871279425565910e-001	 4.116376744134380e+000	 8.962416302746350e+000
 6.459277591011915e-001	 4.123042529416265e+000	 8.943576294974305e+000
 6.047970592889386e-001	 4.129276308929572e+000	 8.933922354107281e+000
 5.637419124116360e-001	 4.135081283023280e+000	 8.931224141613269e+000
 5.227682836415258e-001	 4.140460750557502e+000	 8.933697957041062e+000
 4.818820324985227e-001	 4.145418105491159e+000	 8.940358783865332e+000
 4.410889114336774e-001	 4.149956833459963e+000	 8.950842810419584e+000
 4.003945645278038e-001	 4.154080508348820e+000	 8.965245036252357e+000
 8.162660764314832e-001	 4.119916406406245e+000	 9.055949436663951e+000
 7.746305074992251e-001	 4.127947367894609e+000	 9.028420286779163e+000
 7.330459304817425e-001	 4.135534529605869e+000	 9.001540658677827e+000
 6.915187573703857e-001	 4.142680794474465e+000	 8.977911728947309e+000
 6.500553007098910e-001	 4.149389174776561e+000	 8.960338590932437e+000
 6.086617716998224e-001	 4.155662788750935e+000	 8.950612103535502e+000
 5.673442784153442e-001	 4.161504857197135e+000	 8.946764319148514e+000
 5.261088241467260e-001	 4.166918700055335e+000	 8.947169482144055e+000
 4.849613058567812e-001	 4.171907732972209e+000	 8.950963113224217e+000
 4.439075127552784e-001	 4.176475463857045e+000	 8.957869117452482e+000
 4.029531249892538e-001	 4.180625489432248e+000	 8.968042169491143e+000
 3.773675203732346e-001	 3.915175678595245e+000	 8.668008398459778e+000
 3.391061330280596e-001	 3.918674958673670e+000	 8.654487672440531e+000
 3.009482782972789e-001	 3.921789915098675e+000	 8.619203306873782e+000
 2.628990420740376e-001	 3.924524148878315e+000	 8.566850035647670e+000
 2.249634018290041e-001	 3.926881331380236e+000	 8.502442360503483e+000
 1.871462259189420e-001	 3.928865201095816e+000	 8.431205850906487e+000
 1.494522729974377e-001	 3.930479560421402e+000	 8.358478924184116e+000
 1.118861915258198e-001	 3.931728272459813e+000	 8.289627908498412e+000
 7.445251938222409e-002	 3.932615257845103e+000	 8.229977844871277e+000
 3.715568356668002e-002	 3.933144491593509e+000	 8.184761137766039e+000
 0.000000000000000e+000	 3.933319999983334e+000	 8.159085823452793e+000
 3.799260808354098e-001	 3.941720659679418e+000	 8.684653237542349e+000
 3.414052804044881e-001	 3.945243664957141e+000	 8.666781705128331e+000
 3.029887145414698e-001	 3.948379740858184e+000	 8.627580769791861e+000
 2.646815036219775e-001	 3.951132512805529e+000	 8.571868283373863e+000
 2.264886588640513e-001	 3.953505677058801e+000	 8.504678902886878e+000
 1.884150816320309e-001	 3.955502997456446e+000	 8.431133374744686e+000
 1.504655628432893e-001	 3.957128302175167e+000	 8.356319821363350e+000
 1.126447824758348e-001	 3.958385480509716e+000	 8.285189965739539e+000
 7.495730917472680e-002	 3.959278479676159e+000	 8.222472864590603e+000
 3.740759995516190e-002	 3.959811301641445e+000	 8.172608355421238e+000
 0.000000000000000e+000	 3.959987999982150e+000	 8.139702063462428e+000
 3.824846412973639e-001	 3.968265640763441e+000	 8.714956569331161e+000
 3.437044277806350e-001	 3.971812371240532e+000	 8.698886358220063e+000
 3.050291507853137e-001	 3.974969566617713e+000	 8.663613499717147e+000
 2.664639651695104e-001	 3.977740876732895e+000	 8.614149938324223e+000
 2.280139158986443e-001	 3.980130022737658e+000	 8.555615830506186e+000
 1.896839373446401e-001	 3.982140793817518e+000	 8.493085582391052e+000
 1.514788526886652e-001	 3.983777043929510e+000	 8.431447487265640e+000
 1.134033734254162e-001	 3.985042688560327e+000	 8.375280036435319e+000
 7.546209896688400e-002	 3.985941701508024e+000	 8.328747592630503e+000
 3.765951634344023e-002	 3.986478111690256e+000	 8.295517730696911e+000
 0.000000000000000e+000	 3.986655999981866e+000	 8.278702171117839e+000
 3.850432017591321e-001	 3.994810621847332e+000	 8.757794120147810e+000
 3.460035751565559e-001	 3.998381077523853e+000	 8.750027262528954e+000
 3.070695870288875e-001	 4.001559392377267e+000	 8.726882475581204e+000
 2.682464267167312e-001	 4.004349240660396e+000	 8.693182388349340e+000
 2.295391729328923e-001	 4.006754368416778e+000	 8.653894363767972e+000
 1.909527930568868e-001	 4.008778590178979e+000	 8.613943285083396e+000
 1.524921425336830e-001	 4.010425785684370e+000	 8.578040037977388e+000
 1.141619643746719e-001	 4.011699896611567e+000	 8.550560908551727e+000
 7.596688875878188e-002	 4.012604923340605e+000	 8.535433974216447e+000
 3.791143273156587e-002	 4.013144921739845e+000	 8.536031831485818e+000
 0.000000000000000e+000	 4.013323999982382e+000	 8.555070062582271e+000
 3.876017622207496e-001	 4.021355602931107e+000	 8.807461449825242e+000
 3.483027225323065e-001	 4.024949783807112e+000	 8.809040378397102e+000
 3.091100232722676e-001	 4.028149218136837e+000	 8.797558586743406e+000
 2.700288882637348e-001	 4.030957604588014e+000	 8.777969496125900e+000
 2.310644299669047e-001	 4.033378714096125e+000	 8.755265202880544e+000
 1.922216487688887e-001	 4.035416386540782e+000	 8.734342554676523e+000
 1.535054323784604e-001	 4.037074527439684e+000	 8.719877597141426e+000
 1.149205553237097e-001	 4.038357104663355e+000	 8.716207588926006e+000
 7.647167855050675e-002	 4.039268145173817e+000	 8.727219839672941e+000
 3.816334911958967e-002	 4.039811731790116e+000	 8.756246684150801e+000
 0.000000000000000e+000	 4.039991999983599e+000	 8.805965967631341e+000
 3.901603226822515e-001	 4.047900584014783e+000	 8.853308785135290e+000
 3.506018699079427e-001	 4.051518490090317e+000	 8.861597914911354e+000
 3.111504595155301e-001	 4.054739043896424e+000	 8.859035855172214e+000
 2.718113498106161e-001	 4.057565968515733e+000	 8.850460006732527e+000
 2.325896870007905e-001	 4.060003059775668e+000	 8.840735970606716e+000
 1.934905044807632e-001	 4.062054182902880e+000	 8.834626882447994e+000
 1.545187222231151e-001	 4.063723269195385e+000	 8.836670999662758e+000
 1.156791462726375e-001	 4.065014312715616e+000	 8.851066698808840e+000
 7.697646834214469e-002	 4.065931367007567e+000	 8.881564101636375e+000
 3.841526550756252e-002	 4.066478541840969e+000	 8.931362611294093e+000
 0.000000000000000e+000	 4.066659999985416e+000	 9.003013706179203e+000
 3.927188831436725e-001	 4.074445565098373e+000	 8.893512347961725e+000
 3.529010172835206e-001	 4.078087196373478e+000	 8.906198304302892e+000
 3.131908957587517e-001	 4.081328869656023e+000	 8.909946752824023e+000
 2.735938113574701e-001	 4.084174332443537e+000	 8.909369198248445e+000
 2.341149440346593e-001	 4.086627405455375e+000	 8.909096821461249e+000
 1.947593601926277e-001	 4.088691979265223e+000	 8.913653492671900e+000
 1.555320120677647e-001	 4.090372010951406e+000	 8.927336897266262e+000
 1.164377372215631e-001	 4.091671520768268e+000	 8.954106890074055e+000
 7.748125813378200e-002	 4.092594588841764e+000	 8.997480259086077e+000
 3.866718189553529e-002	 4.093145351892309e+000	 9.060431147389572e+000
 0.000000000000000e+000	 4.093327999987731e+000	 9.145296452402992e+000
 3.952774436050484e-001	 4.100990546181900e+000	 8.926552123163161e+000
 3.552001646590955e-001	 4.104655902656603e+000	 8.941413787527624e+000
 3.152313320020088e-001	 4.107918695415634e+000	 8.948947465689841e+000
 2.753762729043917e-001	 4.110782696371410e+000	 8.953428840700630e+000
 2.356402010686201e-001	 4.113251751135212e+000	 8.959146721659591e+000
 1.960282159045999e-001	 4.115329775627761e+000	 8.970280166956085e+000
 1.565453019125270e-001	 4.117020752707689e+000	 8.990783557298487e+000
 1.171963281705945e-001	 4.118328728821235e+000	 9.024278690919829e+000
 7.798604792550493e-002	 4.119257810676323e+000	 9.073953043425108e+000
 3.891909828355884e-002	 4.119812161944039e+000	 9.142463407254345e+000
 0.000000000000000e+000	 4.119995999990449e+000	 9.231844200622547e+000
 3.978360040664137e-001	 4.127535527265377e+000	 8.950945103438645e+000
 3.574993120347237e-001	 4.131224608939702e+000	 8.965847137804051e+000
 3.172717682453777e-001	 4.134508521175254e+000	 8.974718017098025e+000
 2.771587344514757e-001	 4.137391060299332e+000	 8.981387507375644e+000
 2.371654581027822e-001	 4.139876096815146e+000	 8.989693949814111e+000
 1.972970716167970e-001	 4.141967571990445e+000	 9.003365936487475e+000
 1.575585917575194e-001	 4.143669494464162e+000	 9.025911749472760e+000
 1.179549191198395e-001	 4.144985936874437e+000	 9.060515590852294e+000
 7.849083771739961e-002	 4.145921032511149e+000	 9.109939706231812e+000
 3.917101467168404e-002	 4.146478971996061e+000	 9.176431581888721e+000
 0.000000000000000e+000	 4.146663999993465e+000	 9.261635475351582e+000
 4.003945645278038e-001	 4.154080508348820e+000	 8.965245036252357e+000
 3.597984594104606e-001	 4.157793315222784e+000	 8.978131589643882e+000
 3.193122044889351e-001	 4.161098346934876e+000	 8.985962378611740e+000
 2.789411959988171e-001	 4.163999424227288e+000	 8.992010868073077e+000
 2.386907151372550e-001	 4.166500442495146e+000	 8.999556573760298e+000
 1.985659273293368e-001	 4.168605368353228e+000	 9.011771744370751e+000
 1.585718816028598e-001	 4.170318236220767e+000	 9.031615596386081e+000
 1.187135100694059e-001	 4.171643144927797e+000	 9.061735082774133e+000
 7.899562750955232e-002	 4.172584254346155e+000	 9.104371257043447e+000
 3.942293105996174e-002	 4.173145782048278e+000	 9.161270376813464e+000
 0.000000000000000e+000	 4.173331999996682e+000	 9.233598975783782e+000
 4.029531249892538e-001	 4.180625489432248e+000	 8.968042169491143e+000
 3.620976067863624e-001	 4.184362021505855e+000	 8.976930761337925e+000
 3.213526407327571e-001	 4.187688172694503e+000	 8.981408569072562e+000
 2.807236575465107e-001	 4.190607788155261e+000	 8.984081965105229e+000
 2.402159721721477e-001	 4.193124788175180e+000	 8.987562904573352e+000
 1.998347830423366e-001	 4.195243164716059e+000	 8.994361079389858e+000
 1.595851714486658e-001	 4.196966977977436e+000	 9.006783389419640e+000
 1.194721010194017e-001	 4.198300352981236e+000	 9.026839664086641e+000
 7.950041730204928e-002	 4.199247476181253e+000	 9.056153653394469e+000
 3.967484744844285e-002	 4.199812592100591e+000	 9.095878395458103e+000
 0.000000000000000e+000	 4.200000000000001e+000	 9.146615157629027e+000
 4.200000000000001e+000	 0.000000000000000e+000	 1.039304958732217e+001
 4.199812592100591e+000	 3.967484744844298e-002	 1.042139842380672e+001
 4.199247476181254e+000	 7.950041730204951e-002	 1.043757737314256e+001
 4.198300352981237e+000	 1.194721010194014e-001	 1.044451759599442e+001
 4.196966977977437e+000	 1.595851714486656e-001	 1.044508478585894e+001
 4.195243164716060e+000	 1.998347830423366e-001	 1.044206090338997e+001
 4.193124788175180e+000	 2.402159721721477e-001	 1.043812381955006e+001
 4.190607788155260e+000	 2.807236575465109e-001	 1.043582458632926e+001
 4.187688172694504e+000	 3.213526407327567e-001	 1.043756201858985e+001
 4.184362021505856e+000	 3.620976067863622e-001	 1.044555423534980e+001
 4.180625489432249e+000	 4.029531249892535e-001	 1.046180677291402e+001
 4.226668000003317e+000	 0.000000000000000e+000	 1.041657820325596e+001
 4.226479402152905e+000	 3.992676383716136e-002	 1.043711294399355e+001
 4.225910698016349e+000	 8.000520709494818e-002	 1.044770903320876e+001
 4.224957561034674e+000	 1.202306919698985e-001	 1.045086971278904e+001
 4.223615719734106e+000	 1.605984612950158e-001	 1.044904298753338e+001
 4.221880961078891e+000	 2.011036387558750e-001	 1.044460481187617e+001
 4.219749133855213e+000	 2.417412292075336e-001	 1.043984033166558e+001
 4.217216152083234e+000	 2.825061190946210e-001	 1.043692289600678e+001
 4.214277998454134e+000	 3.233930769768958e-001	 1.043789051718137e+001
 4.210930727788929e+000	 3.643967541624678e-001	 1.044461941931201e+001
 4.207170470515677e+000	 4.055116854507894e-001	 1.045879427834122e+001
 4.253336000006533e+000	 0.000000000000000e+000	 1.043678634042705e+001
 4.253146212205121e+000	 4.017868022608315e-002	 1.045099951822214e+001
 4.252573919851357e+000	 8.050999688819119e-002	 1.045720807444171e+001
 4.251614769088036e+000	 1.209892829208253e-001	 1.045751780432191e+001
 4.250264461490711e+000	 1.616117511418325e-001	 1.045398959148442e+001
 4.248518757441675e+000	 2.023724944698755e-001	 1.044862405756434e+001
 4.246373479535218e+000	 2.432664862433427e-001	 1.044334442238736e+001
 4.243824516011197e+000	 2.842885806430889e-001	 1.043997728622431e+001
 4.240867824213766e+000	 3.254335132213078e-001	 1.044023100674332e+001
 4.237499434072025e+000	 3.666959015387498e-001	 1.044567130376565e+001
 4.233715451599139e+000	 4.080702459124010e-001	 1.045769368455593e+001
 4.280004000009551e+000	 0.000000000000000e+000	 1.045310172378888e+001
 4.279813022257142e+000	 4.043059661515750e-002	 1.046240565330090e+001
 4.279237141686183e+000	 8.101478668169247e-002	 1.046536287958739e+001
 4.278271977141237e+000	 1.217478738720743e-001	 1.046371179537656e+001
 4.276913203247188e+000	 1.626250409889992e-001	 1.045915621011175e+001
 4.275156553804367e+000	 2.036413501842226e-001	 1.045335147286128e+001
 4.272997825215164e+000	 2.447917432794693e-001	 1.044788897098964e+001
 4.270432879939135e+000	 2.860710421918251e-001	 1.044427871289699e+001
 4.267457649973411e+000	 3.274739494659243e-001	 1.044392966222436e+001
 4.264068140355160e+000	 3.689950489151640e-001	 1.044812744916342e+001
 4.260260432682666e+000	 4.106288063740697e-001	 1.045800904177099e+001
 4.306672000012267e+000	 0.000000000000000e+000	 1.046507390504899e+001
 4.306479832308872e+000	 4.068251300433352e-002	 1.047078584038766e+001
 4.305900363520743e+000	 8.151957647536590e-002	 1.047155450333483e+001
 4.304929185194208e+000	 1.225064648235383e-001	 1.046878050959869e+001
 4.303561945003476e+000	 1.636383308363991e-001	 1.046384012805242e+001
 4.301794350166916e+000	 2.049102058988005e-001	 1.045807288715221e+001
 4.299622170895022e+000	 2.463170003158075e-001	 1.045276773250301e+001
 4.297041243867040e+000	 2.878535037407402e-001	 1.044914744093367e+001
 4.294047475733072e+000	 3.295143857106775e-001	 1.044835095344060e+001
 4.290636846638357e+000	 3.712941962916665e-001	 1.045141324527579e+001
 4.286805413766293e+000	 4.131873668357764e-001	 1.045924230627067e+001
 4.333340000014584e+000	 0.000000000000000e+000	 1.047237051397288e+001
 4.333146642360213e+000	 4.093442939356041e-002	 1.047569797823925e+001
 4.332563585354944e+000	 8.202436626912543e-002	 1.047525328706471e+001
 4.331586393246865e+000	 1.232650557751097e-001	 1.047212849484390e+001
 4.330210686759509e+000	 1.646516206839158e-001	 1.046740135673673e+001
 4.328432146529278e+000	 2.061790616134940e-001	 1.046212442864157e+001
 4.326246516574763e+000	 2.478422573522515e-001	 1.045731290434432e+001
 4.323649607794899e+000	 2.896359652897447e-001	 1.045393089254927e+001
 4.320637301492754e+000	 3.315548219554990e-001	 1.045287579131189e+001
 4.317205552921638e+000	 3.735933436682132e-001	 1.045496037090367e+001
 4.313350394850049e+000	 4.157459272975019e-001	 1.046089212842138e+001
 4.360008000016401e+000	 0.000000000000000e+000	 1.047477364726099e+001
 4.359813452411068e+000	 4.118634578278727e-002	 1.047679992795680e+001
 4.359226807188694e+000	 8.252915606288491e-002	 1.047601559876160e+001
 4.358243601299131e+000	 1.240236467266810e-001	 1.047323296711688e+001
 4.356859428515223e+000	 1.656649105314324e-001	 1.046925980073505e+001
 4.355069942891405e+000	 2.074479173281874e-001	 1.046488993097061e+001
 4.352870862254358e+000	 2.493675143886955e-001	 1.046089279051102e+001
 4.350257971722702e+000	 2.914184268387492e-001	 1.045800158574494e+001
 4.347227127252464e+000	 3.335952582003203e-001	 1.045689975670143e+001
 4.343774259205020e+000	 3.758924910447598e-001	 1.045820532847473e+001
 4.339895375933968e+000	 4.183044877592276e-001	 1.046245270770912e+001
 4.386676000017618e+000	 0.000000000000000e+000	 1.047217638914469e+001
 4.386480262461337e+000	 4.143826217196327e-002	 1.047384619363042e+001
 4.385890029021907e+000	 8.303394585655828e-002	 1.047348069276348e+001
 4.384900809350929e+000	 1.247822376781449e-001	 1.047164086805419e+001
 4.383508170270558e+000	 1.666782003788322e-001	 1.046889253113766e+001
 4.381707739253251e+000	 2.087167730427653e-001	 1.046579844015305e+001
 4.379495207933779e+000	 2.508927714250337e-001	 1.046290955918835e+001
 4.376866335650435e+000	 2.932008883876641e-001	 1.046075515911981e+001
 4.373816953012211e+000	 3.356356944450734e-001	 1.045983140834305e+001
 4.370342965488526e+000	 3.781916384212622e-001	 1.046058805033748e+001
 4.366440357018084e+000	 4.208630482209341e-001	 1.046341271195173e+001
 4.413344000018133e+000	 0.000000000000000e+000	 1.046457945812971e+001
 4.413147072510928e+000	 4.169017856103756e-002	 1.046668472355879e+001
 4.412553250854495e+000	 8.353873565005951e-002	 1.046736768427940e+001
 4.411558017402181e+000	 1.255408286293939e-001	 1.046696603114838e+001
 4.410156912025450e+000	 1.676914902259988e-001	 1.046583116144006e+001
 4.408345535614768e+000	 2.099856287571122e-001	 1.046432181758562e+001
 4.406119553612993e+000	 2.524180284611601e-001	 1.046279708981821e+001
 4.403474699578092e+000	 2.949833499364003e-001	 1.046160847936213e+001
 4.400406778771991e+000	 3.376761306896900e-001	 1.046109066651094e+001
 4.396911671772176e+000	 3.804907857976765e-001	 1.046155057371929e+001
 4.392985338102428e+000	 4.234216086826028e-001	 1.046325425797112e+001
 4.440012000017850e+000	 0.000000000000000e+000	 1.045208797458306e+001
 4.439813882559738e+000	 4.194209494995928e-002	 1.045525382697343e+001
 4.439216472686361e+000	 8.404352544330236e-002	 1.045747263385028e+001
 4.438215225452806e+000	 1.262994195803206e-001	 1.045888645214130e+001
 4.436805653779830e+000	 1.687047800728155e-001	 1.045965932162464e+001
 4.434983331975912e+000	 2.112544844711125e-001	 1.045997243509410e+001
 4.432743899291975e+000	 2.539432854969692e-001	 1.046001890586805e+001
 4.430083063505655e+000	 2.967658114848681e-001	 1.045999782794358e+001
 4.426996604531820e+000	 3.397165669341018e-001	 1.046010726924728e+001
 4.423480378055991e+000	 3.827899331739585e-001	 1.046053578146228e+001
 4.419530319187035e+000	 4.259801691442145e-001	 1.046145195114130e+001
 4.466680000016666e+000	 0.000000000000000e+000	 1.043490834411337e+001
 4.466480692607678e+000	 4.219401133867761e-002	 1.043957920144091e+001
 4.465879694517425e+000	 8.454831523620093e-002	 1.044366573715771e+001
 4.464872433502731e+000	 1.270580105308174e-001	 1.044714165923333e+001
 4.463454395533637e+000	 1.697180699191653e-001	 1.045001022633427e+001
 4.461621128336632e+000	 2.125233401846509e-001	 1.045230095816801e+001
 4.459368244970698e+000	 2.554685425323549e-001	 1.045406618971835e+001
 4.456691427433116e+000	 2.985482730329781e-001	 1.045537716370672e+001
 4.453586430291698e+000	 3.417570031782408e-001	 1.045631929811508e+001
 4.450049084339993e+000	 3.850890805500641e-001	 1.045698620578725e+001
 4.446075300271936e+000	 4.285387296057503e-001	 1.045747198135159e+001
 4.180625489432249e+000	 4.029531249892535e-001	 1.046180677291402e+001
 4.176475463857044e+000	 4.439075127552786e-001	 1.047999806595591e+001
 4.171907732972210e+000	 4.849613058567809e-001	 1.049344171305337e+001
 4.166918700055335e+000	 5.261088241467261e-001	 1.050325780397655e+001
 4.161504857197135e+000	 5.673442784153436e-001	 1.051033089454267e+001
 4.155662788750936e+000	 6.086617716998225e-001	 1.051525763129769e+001
 4.149389174776560e+000	 6.500553007098914e-001	 1.051828773308445e+001
 4.142680794474464e+000	 6.915187573703855e-001	 1.051970921698360e+001
 4.135534529605870e+000	 7.330459304817428e-001	 1.052176573053219e+001
 4.127947367894608e+000	 7.746305074992249e-001	 1.052606610291167e+001
 4.119916406406245e+000	 8.162660764314833e-001	 1.053395773045590e+001
 4.207170470515677e+000	 4.055116854507894e-001	 1.045879427834122e+001
 4.202994094254132e+000	 4.467261140768506e-001	 1.047493519402652e+001
 4.198397360453264e+000	 4.880405792149010e-001	 1.048731983662886e+001
 4.193376649553178e+000	 5.294493646516859e-001	 1.049696797282063e+001
 4.187928431371006e+000	 5.709466444187180e-001	 1.050469043786870e+001
 4.182049268572324e+000	 6.125264841102887e-001	 1.051103894258186e+001
 4.175735820136896e+000	 6.541828423181010e-001	 1.051624924535875e+001
 4.168984844814609e+000	 6.959095721836307e-001	 1.052052849463997e+001
 4.161793204567331e+000	 7.377004230691650e-001	 1.052531111508836e+001
 4.154157867992349e+000	 7.795490423483209e-001	 1.053188658853844e+001
 4.146075913722957e+000	 8.214489773166679e-001	 1.054140716036661e+001
 4.233715451599139e+000	 4.080702459124010e-001	 1.045769368455593e+001
 4.229512724651258e+000	 4.495447153984008e-001	 1.047164171801081e+001
 4.224886987934366e+000	 4.911198525729065e-001	 1.048272725115535e+001
 4.219834599051070e+000	 5.327899051564446e-001	 1.049188371278752e+001
 4.214352005544933e+000	 5.745490104218120e-001	 1.049986166026431e+001
 4.208435748393774e+000	 6.163911965204039e-001	 1.050718087188333e+001
 4.202082465497299e+000	 6.583103839258993e-001	 1.051407582232537e+001
 4.195288895154834e+000	 7.003003869964145e-001	 1.052057919825441e+001
 4.188051879528886e+000	 7.423549156560877e-001	 1.052743183920086e+001
 4.180368368090208e+000	 7.844675771968940e-001	 1.053569202019458e+001
 4.172235421039816e+000	 8.266318782013202e-001	 1.054633387616140e+001
 4.260260432682666e+000	 4.106288063740697e-001	 1.045800904177099e+001
 4.256031355048466e+000	 4.523633167199346e-001	 1.046971492240365e+001
 4.251376615415561e+000	 4.941991259308262e-001	 1.047935299189369e+001
 4.246292548549062e+000	 5.361304456610526e-001	 1.048778331060023e+001
 4.240775579718958e+000	 5.781513764246955e-001	 1.049570852719799e+001
 4.234822228215323e+000	 6.202559089302560e-001	 1.050362836445917e+001
 4.228429110857804e+000	 6.624379255333882e-001	 1.051178751628121e+001
 4.221592945495160e+000	 7.046912018088519e-001	 1.051994515326296e+001
 4.214310554490549e+000	 7.470094082426364e-001	 1.052830318468564e+001
 4.206578868188181e+000	 7.893861120450735e-001	 1.053774103856238e+001
 4.198394928356806e+000	 8.318147790855721e-001	 1.054907135279558e+001
 4.286805413766293e+000	 4.131873668357764e-001	 1.045924230627067e+001
 4.282549985445800e+000	 4.551819180414574e-001	 1.046874078802273e+001
 4.277866242896896e+000	 4.972783992886886e-001	 1.047686645578346e+001
 4.272750498047201e+000	 5.394709861655601e-001	 1.048441793534341e+001
 4.267199153893132e+000	 5.817537424274391e-001	 1.049206124035074e+001
 4.261208708037016e+000	 6.241206213399325e-001	 1.050028676432915e+001
 4.254775756218444e+000	 6.665654671406718e-001	 1.050935972284137e+001
 4.247896995835610e+000	 7.090820166210586e-001	 1.051866722899861e+001
 4.240569229452331e+000	 7.516639008289350e-001	 1.052805224390512e+001
 4.232789368286272e+000	 7.943046468929923e-001	 1.053823949489478e+001
 4.224554435673913e+000	 8.369976799695581e-001	 1.054989630439283e+001
 4.313350394850049e+000	 4.157459272975019e-001	 1.046089212842138e+001
 4.309068615843296e+000	 4.580005193629748e-001	 1.046829311683248e+001
 4.304355870378412e+000	 5.003576726465224e-001	 1.047491686549272e+001
 4.299208447545528e+000	 5.428115266700171e-001	 1.048151144352624e+001
 4.293622728067492e+000	 5.853561084301129e-001	 1.048871638482947e+001
 4.287595187858888e+000	 6.279853337495214e-001	 1.049702230410309e+001
 4.281122401579249e+000	 6.706930087478523e-001	 1.050671466182883e+001
 4.274201046176213e+000	 7.134728314331501e-001	 1.051674375967841e+001
 4.266827904414244e+000	 7.563183934151092e-001	 1.052675860343700e+001
 4.258999868384476e+000	 7.992231817407798e-001	 1.053734139330559e+001
 4.250713942991122e+000	 8.421805808534110e-001	 1.054902988068909e+001
 4.339895375933968e+000	 4.183044877592276e-001	 1.046245270770912e+001
 4.335587246240998e+000	 4.608191206844922e-001	 1.046793271601894e+001
 4.330845497860159e+000	 5.034369460043562e-001	 1.047313278523369e+001
 4.325666397044096e+000	 5.461520671744742e-001	 1.047876022872702e+001
 4.320046302242091e+000	 5.889584744327863e-001	 1.048543711408711e+001
 4.313981667680984e+000	 6.318500461591105e-001	 1.049366262595683e+001
 4.307469046940256e+000	 6.748205503550326e-001	 1.050372187026589e+001
 4.300505096516986e+000	 7.178636462452411e-001	 1.051413098441498e+001
 4.293086579376300e+000	 7.609728860012833e-001	 1.052445504120761e+001
 4.285210368482795e+000	 8.041417165885675e-001	 1.053514984131239e+001
 4.276873450308417e+000	 8.473634817372634e-001	 1.054663886687239e+001
 4.366440357018084e+000	 4.208630482209341e-001	 1.046341271195173e+001
 4.362105876638948e+000	 4.636377220060151e-001	 1.046720663879341e+001
 4.357335125342182e+000	 5.065162193622186e-001	 1.047112168614133e+001
 4.352124346542950e+000	 5.494926076789815e-001	 1.047583311392242e+001
 4.346469876416969e+000	 5.925608404355300e-001	 1.048195337094440e+001
 4.340368147503342e+000	 6.357147585687870e-001	 1.048999733243075e+001
 4.333815692301494e+000	 6.789480919623160e-001	 1.050021869397020e+001
 4.326809146857958e+000	 7.222544610574481e-001	 1.051074350544289e+001
 4.319345254338513e+000	 7.656273785875819e-001	 1.052112823651673e+001
 4.311420868581225e+000	 8.090602514364861e-001	 1.053171800828069e+001
 4.303032957625782e+000	 8.525463826212496e-001	 1.054283688667416e+001
 4.392985338102428e+000	 4.234216086826028e-001	 1.046325425797112e+001
 4.388624507037182e+000	 4.664563233275488e-001	 1.046564747952563e+001
 4.383824752824527e+000	 5.095954927201384e-001	 1.046846955911868e+001
 4.378582296042137e+000	 5.528331481835895e-001	 1.047237128469572e+001
 4.372893450592175e+000	 5.961632064384138e-001	 1.047796214318668e+001
 4.366754627326002e+000	 6.395794709786391e-001	 1.048577856578985e+001
 4.360162337663001e+000	 6.830756335698054e-001	 1.049600616412315e+001
 4.353113197199151e+000	 7.266452758698855e-001	 1.050645476378949e+001
 4.345603929300892e+000	 7.702818711741306e-001	 1.051671949240909e+001
 4.337631368679769e+000	 8.139787862846662e-001	 1.052705009143577e+001
 4.329192464943203e+000	 8.577292835055018e-001	 1.053768560857451e+001
 4.419530319187035e+000	 4.259801691442145e-001	 1.046145195114130e+001
 4.415143137435748e+000	 4.692749246490990e-001	 1.046277272092215e+001
 4.410314380307235e+000	 5.126747660781439e-001	 1.046474057315261e+001
 4.405040245541704e+000	 5.561736886883483e-001	 1.046798826160512e+001
 4.399317024767751e+000	 5.997655724415077e-001	 1.047312775228153e+001
 4.393141107149004e+000	 6.434441833887548e-001	 1.048072161474432e+001
 4.386508983024807e+000	 6.872031751776035e-001	 1.049084923800278e+001
 4.379417247540587e+000	 7.310360906826693e-001	 1.050109753165699e+001
 4.371862604263452e+000	 7.749363637610534e-001	 1.051112546987303e+001
 4.363841868778422e+000	 8.188973211332392e-001	 1.052110228912352e+001
 4.355351972260665e+000	 8.629121843901541e-001	 1.053119595499068e+001
 4.446075300271936e+000	 4.285387296057503e-001	 1.045747198135159e+001
 4.441661767834682e+000	 4.720935259706711e-001	 1.045808413107422e+001
 4.436804007790361e+000	 5.157540394362641e-001	 1.045947677719979e+001
 4.431498195041699e+000	 5.595142291933083e-001	 1.046226991007568e+001
 4.425740598943744e+000	 6.033679384448822e-001	 1.046708217383324e+001
 4.419527586972393e+000	 6.473088957992210e-001	 1.047450554738729e+001
 4.412855628386947e+000	 6.913307167858135e-001	 1.048447706814193e+001
 4.405721297882294e+000	 7.354269054959151e-001	 1.049446442081733e+001
 4.398121279226208e+000	 7.795908563484759e-001	 1.050419893337257e+001
 4.390052368877188e+000	 8.238158559823358e-001	 1.051378378101788e+001
 4.381511479578153e+000	 8.680950852753392e-001	 1.052332931432422e+001
 4.119916406406245e+000	 8.162660764314833e-001	 1.053395773045590e+001
 4.111437550096344e+000	 8.579523818866409e-001	 1.054371397440984e+001
 4.102509297934843e+000	 8.996765657436617e-001	 1.055336930576461e+001
 4.093129097513706e+000	 9.414319172861080e-001	 1.056372447154061e+001
 4.083294519104891e+000	 9.832116348843372e-001	 1.057543440116612e+001
 4.073003258861229e+000	 1.025008828498531e+000	 1.058898202975933e+001
 4.062253141966685e+000	 1.066816522301443e+000	 1.060465506740193e+001
 4.051042125731239e+000	 1.108627657420195e+000	 1.062250619482630e+001
 4.039368302625527e+000	 1.150435094796214e+000	 1.064232401438529e+001
 4.027229903250404e+000	 1.192231618162235e+000	 1.066359235322447e+001
 4.014625299236578e+000	 1.234009937135045e+000	 1.068544724632248e+001
 4.146075913722957e+000	 8.214489773166679e-001	 1.054140716036661e+001
 4.137543220713117e+000	 8.633999709607193e-001	 1.055231839320500e+001
 4.128558278401947e+000	 9.053890835164926e-001	 1.056290956576977e+001
 4.119118518174838e+000	 9.474095616576926e-001	 1.057393240460761e+001
 4.109221494876151e+000	 9.894545605675654e-001	 1.058600548023799e+001
 4.098864890030392e+000	 1.031517146457817e+000	 1.059958869125670e+001
 4.088046515012491e+000	 1.073590299208018e+000	 1.061495966037471e+001
 4.076764314162331e+000	 1.115666915124804e+000	 1.063217570512514e+001
 4.065016367838656e+000	 1.157739809819977e+000	 1.065104417050167e+001
 4.052800895407486e+000	 1.199801721206408e+000	 1.067108233457392e+001
 4.040116258160177e+000	 1.241845312610418e+000	 1.069147464968495e+001
 4.172235421039816e+000	 8.266318782013202e-001	 1.054633387616140e+001
 4.163648891330076e+000	 8.688475600342713e-001	 1.055793819434657e+001
 4.154607258869276e+000	 9.111016012888170e-001	 1.056900559429110e+001
 4.145107938836247e+000	 9.533872060288049e-001	 1.058024534634669e+001
 4.135148470647740e+000	 9.956974862503657e-001	 1.059224626413214e+001
 4.124726521199935e+000	 1.038025464416730e+000	 1.060545186503797e+001
 4.113839888058725e+000	 1.080364076114282e+000	 1.062013656448866e+001
 4.102486502593892e+000	 1.122706172829172e+000	 1.063636927240876e+001
 4.090664433052283e+000	 1.165044524843574e+000	 1.065398330819936e+001
 4.078371887565092e+000	 1.207371824250492e+000	 1.067253692608131e+001
 4.065607217084311e+000	 1.249680688085785e+000	 1.069127087408264e+001
 4.198394928356806e+000	 8.318147790855721e-001	 1.054907135279558e+001
 4.189754561947186e+000	 8.742951491074279e-001	 1.056097906666275e+001
 4.180656239336789e+000	 9.168141190607618e-001	 1.057213866670932e+001
 4.171097359497876e+000	 9.593648503995625e-001	 1.058322322601977e+001
 4.161075446419581e+000	 1.001940411932846e+000	 1.059479806841738e+001
 4.150588152369765e+000	 1.044533782375364e+000	 1.060729662681300e+001
 4.139633261105279e+000	 1.087137853020315e+000	 1.062099659330703e+001
 4.128208691025804e+000	 1.129745430533360e+000	 1.063598502057671e+001
 4.116312498266289e+000	 1.172349239867047e+000	 1.065212800405950e+001
 4.103942879723094e+000	 1.214941927294513e+000	 1.066903185222610e+001
 4.091098176008842e+000	 1.257516063561146e+000	 1.068600102610796e+001
 4.224554435673913e+000	 8.369976799695581e-001	 1.054989630439283e+001
 4.215860232564423e+000	 8.797427381803210e-001	 1.056178643140599e+001
 4.206705219804441e+000	 9.225266368324538e-001	 1.057272658119276e+001
 4.197086780159656e+000	 9.653424947700836e-001	 1.058335956932514e+001
 4.187002422191599e+000	 1.008183337615112e+000	 1.059423314710237e+001
 4.176449783539792e+000	 1.051042100333811e+000	 1.060577658467706e+001
 4.165426634152051e+000	 1.093911629926192e+000	 1.061827692258483e+001
 4.153930879457953e+000	 1.136784688237429e+000	 1.063184548292317e+001
 4.141960563480546e+000	 1.179653954890438e+000	 1.064638748981537e+001
 4.129513871881355e+000	 1.222512030338490e+000	 1.066156391729155e+001
 4.116589134933640e+000	 1.265351439036504e+000	 1.067674987529738e+001
 4.250713942991122e+000	 8.421805808534110e-001	 1.054902988068909e+001
 4.241965903181751e+000	 8.851903272530826e-001	 1.056064689284054e+001
 4.232754200272183e+000	 9.282391546040192e-001	 1.057112536789294e+001
 4.223076200821531e+000	 9.713201391404873e-001	 1.058108347037799e+001
 4.212929397963710e+000	 1.014426263297271e+000	 1.059105624811677e+001
 4.202311414709921e+000	 1.057550418292166e+000	 1.060147638799818e+001
 4.191220007198933e+000	 1.100685406831993e+000	 1.061264387258766e+001
 4.179653067890218e+000	 1.143823945941438e+000	 1.062470066076410e+001
 4.167608628694930e+000	 1.186958669913788e+000	 1.063759698980567e+001
 4.155084864039748e+000	 1.230082133382446e+000	 1.065105462379152e+001
 4.142080093858573e+000	 1.273186814511861e+000	 1.066452575529803e+001
 4.276873450308417e+000	 8.473634817372634e-001	 1.054663886687239e+001
 4.268071573799144e+000	 8.906379163258444e-001	 1.055778968755311e+001
 4.258803180739969e+000	 9.339516723755845e-001	 1.056763099220130e+001
 4.249065621483434e+000	 9.772977835108906e-001	 1.057676155310102e+001
 4.238856373735842e+000	 1.020669188979430e+000	 1.058570969145284e+001
 4.228173045880061e+000	 1.064058736250520e+000	 1.059491421645102e+001
 4.217013380245823e+000	 1.107459183737793e+000	 1.060469566594860e+001
 4.205375256322487e+000	 1.150863203645447e+000	 1.061523105300992e+001
 4.193256693909314e+000	 1.194263384937138e+000	 1.062652102479912e+001
 4.180655856198142e+000	 1.237652236426401e+000	 1.063835375271337e+001
 4.167571052783504e+000	 1.281022189987216e+000	 1.065026442231449e+001
 4.303032957625782e+000	 8.525463826212496e-001	 1.054283688667416e+001
 4.294177244416570e+000	 8.960855053987377e-001	 1.055338813254134e+001
 4.284852161207753e+000	 9.396641901472765e-001	 1.056248105231973e+001
 4.275055042145304e+000	 9.832754278814120e-001	 1.057069992247652e+001
 4.264783349507913e+000	 1.026912114661696e+000	 1.057857109288773e+001
 4.254034677050120e+000	 1.070567054208968e+000	 1.058654425004234e+001
 4.242806753292610e+000	 1.114232960643671e+000	 1.059496516210403e+001
 4.231097444754642e+000	 1.157902461349516e+000	 1.060405065792063e+001
 4.218904759123573e+000	 1.201568099960529e+000	 1.061385668362126e+001
 4.206226848356404e+000	 1.245222339470378e+000	 1.062424290720091e+001
 4.193062011708302e+000	 1.288857565462575e+000	 1.063483287265350e+001
 4.329192464943203e+000	 8.577292835055018e-001	 1.053768560857451e+001
 4.320282915033995e+000	 9.015330944718943e-001	 1.054756107213179e+001
 4.310901141675489e+000	 9.453767079192216e-001	 1.055585647138583e+001
 4.301044462807080e+000	 9.892530722521699e-001	 1.056314610608846e+001
 4.290710325279849e+000	 1.033155040344177e+000	 1.056995870032463e+001
 4.279896308220005e+000	 1.077075372167601e+000	 1.057675912093194e+001
 4.268600126339194e+000	 1.121006737549704e+000	 1.058392256929897e+001
 4.256819633186567e+000	 1.164941719053704e+000	 1.059170994821942e+001
 4.244552824337582e+000	 1.208872814984002e+000	 1.060023686394526e+001
 4.231797840514404e+000	 1.252792442514398e+000	 1.060943902122456e+001
 4.218552970632834e+000	 1.296692940937936e+000	 1.061903312109684e+001
 4.355351972260665e+000	 8.629121843901541e-001	 1.053119595499068e+001
 4.346388585651393e+000	 9.069806835454463e-001	 1.054037432377664e+001
 4.336950122143130e+000	 9.510892256915464e-001	 1.054788318438149e+001
 4.327033883468699e+000	 9.952307166232823e-001	 1.055429098636315e+001
 4.316637301051570e+000	 1.039397966026977e+000	 1.056013274701895e+001
 4.305757939389625e+000	 1.083583690126515e+000	 1.056589234781467e+001
 4.294393499385466e+000	 1.127780514455969e+000	 1.057197813510531e+001
 4.282541821618144e+000	 1.171980976758072e+000	 1.057869882068538e+001
 4.270200889551217e+000	 1.216177530007600e+000	 1.058623348354347e+001
 4.257368832672011e+000	 1.260362545558484e+000	 1.059459783471000e+001
 4.244043929556965e+000	 1.304528316413302e+000	 1.060360594174890e+001
 4.381511479578153e+000	 8.680950852753392e-001	 1.052332931432422e+001
 4.372494256268734e+000	 9.124282726195251e-001	 1.053184212277625e+001
 4.362999102610631e+000	 9.568017434643775e-001	 1.053863382004319e+001
 4.353023304130100e+000	 1.001208360994867e+000	 1.054427072389701e+001
 4.342564276822998e+000	 1.045640891710206e+000	 1.054929762028529e+001
 4.331619570558887e+000	 1.090092008085801e+000	 1.055422075359234e+001
 4.320186872431323e+000	 1.134554291362543e+000	 1.055948481635069e+001
 4.308264010049258e+000	 1.179020234462681e+000	 1.056544952129141e+001
 4.295848954764352e+000	 1.223482245031362e+000	 1.057236066323381e+001
 4.282939824829096e+000	 1.267932648602656e+000	 1.058031733652761e+001
 4.269534888480566e+000	 1.312363691888676e+000	 1.058923457292743e+001
 4.014625299236578e+000	 1.234009937135045e+000	 1.068544724632248e+001
 4.001553005065471e+000	 1.275762689811019e+000	 1.070524614634451e+001
 3.988011677797905e+000	 1.317482444190801e+000	 1.071983007439945e+001
 3.974000122742365e+000	 1.359161703337862e+000	 1.072850134471128e+001
 3.959517297036671e+000	 1.400792909513493e+000	 1.073676575189945e+001
 3.944562312133359e+000	 1.442368447821711e+000	 1.074501571840666e+001
 3.929134436186638e+000	 1.483880649957763e+000	 1.075285128371970e+001
 3.913233096336334e+000	 1.525321798057408e+000	 1.075971668400350e+001
 3.896857880884244e+000	 1.566684128643885e+000	 1.076489664288514e+001
 3.880008541358523e+000	 1.607959836669317e+000	 1.076751334669577e+001
 3.862684994461763e+000	 1.649141079647046e+000	 1.076652421805572e+001
 4.040116258160177e+000	 1.241845312610418e+000	 1.069147464968495e+001
 4.026960961145822e+000	 1.283863175383798e+000	 1.070958876856816e+001
 4.013333652898217e+000	 1.325847830337527e+000	 1.072237955512976e+001
 3.999233131140133e+000	 1.367791732933090e+000	 1.073061667585242e+001
 3.984658346387703e+000	 1.409687277443729e+000	 1.073875042771229e+001
 3.969608404451609e+000	 1.451526800622489e+000	 1.074672010655086e+001
 3.954082568839193e+000	 1.493302585474527e+000	 1.075418695516970e+001
 3.938080263052889e+000	 1.535006865130829e+000	 1.076066967872396e+001
 3.921601072780403e+000	 1.576631826820246e+000	 1.076554031894877e+001
 3.904644747972214e+000	 1.618169615936556e+000	 1.076802077935212e+001
 3.887211204802014e+000	 1.659612340197034e+000	 1.076718012015748e+001
 4.065607217084311e+000	 1.249680688085785e+000	 1.069127087408264e+001
 4.052368917226699e+000	 1.291963660956650e+000	 1.070766376495916e+001
 4.038655627999037e+000	 1.334213216484404e+000	 1.071883177348827e+001
 4.024466139538371e+000	 1.376421762528545e+000	 1.072651812831638e+001
 4.009799395739160e+000	 1.418581645374264e+000	 1.073370754799326e+001
 3.994654496770230e+000	 1.460685153423632e+000	 1.074075607110132e+001
 3.979030701492055e+000	 1.502724520991713e+000	 1.074753414104481e+001
 3.962927429769677e+000	 1.544691932204722e+000	 1.075359229791347e+001
 3.946344264676717e+000	 1.586579524997117e+000	 1.075836976997122e+001
 3.929280954585979e+000	 1.628379395204330e+000	 1.076116516043412e+001
 3.911737415142254e+000	 1.670083600747572e+000	 1.076113322215509e+001
 4.091098176008842e+000	 1.257516063561146e+000	 1.068600102610796e+001
 4.077776873307970e+000	 1.300064146529557e+000	 1.070070626420121e+001
 4.063977603100237e+000	 1.342578602631396e+000	 1.071061074178776e+001
 4.049699147936962e+000	 1.385051792124171e+000	 1.071785545393192e+001
 4.034940445090934e+000	 1.427476013305023e+000	 1.072418042033032e+001
 4.019700589089125e+000	 1.469843506225049e+000	 1.072999331821086e+001
 4.003978834145141e+000	 1.512146456509219e+000	 1.073560298864129e+001
 3.987774596486632e+000	 1.554376999278973e+000	 1.074106517353364e+001
 3.971087456573137e+000	 1.596527223174379e+000	 1.074580815494577e+001
 3.953917161199784e+000	 1.638589174472521e+000	 1.074917537556800e+001
 3.936263625482468e+000	 1.680554861298542e+000	 1.075038198661666e+001
 4.116589134933640e+000	 1.265351439036504e+000	 1.067674987529738e+001
 4.103184829389506e+000	 1.308164632102501e+000	 1.068987025212968e+001
 4.089299578201687e+000	 1.350943988778463e+000	 1.069887698745819e+001
 4.074932156335789e+000	 1.393681821719911e+000	 1.070573133099329e+001
 4.060081494442918e+000	 1.436370381235934e+000	 1.071145748967739e+001
 4.044746681408201e+000	 1.479001859026653e+000	 1.071648253616300e+001
 4.028926966798368e+000	 1.521568392026945e+000	 1.072114540374445e+001
 4.012621763203688e+000	 1.564062066353473e+000	 1.072568450844750e+001
 3.995830648469615e+000	 1.606474921351917e+000	 1.073020932982948e+001
 3.978553367813597e+000	 1.648798953741010e+000	 1.073421286131257e+001
 3.960789835822633e+000	 1.691026121849827e+000	 1.073686019754002e+001
 4.142080093858573e+000	 1.273186814511861e+000	 1.066452575529803e+001
 4.128592785471174e+000	 1.316265117675463e+000	 1.067623274243693e+001
 4.114621553303264e+000	 1.359309374925568e+000	 1.068462875703734e+001
 4.100165164734732e+000	 1.402311851315711e+000	 1.069120212252824e+001
 4.085222543795005e+000	 1.445264749166923e+000	 1.069661594623472e+001
 4.069792773727361e+000	 1.488160211828356e+000	 1.070130325024114e+001
 4.053875099451659e+000	 1.530990327544788e+000	 1.070561703656274e+001
 4.037468929920784e+000	 1.573747133428113e+000	 1.070981783277864e+001
 4.020573840366099e+000	 1.616422619529614e+000	 1.071406041734654e+001
 4.003189574427382e+000	 1.659008733009677e+000	 1.071837972285880e+001
 3.985316046162736e+000	 1.701497382401312e+000	 1.072243669124911e+001
 4.167571052783504e+000	 1.281022189987216e+000	 1.065026442231449e+001
 4.154000741552841e+000	 1.324365603248425e+000	 1.066079790067863e+001
 4.139943528404841e+000	 1.367674761072674e+000	 1.066882113161566e+001
 4.125398173133672e+000	 1.410941880911511e+000	 1.067527978152024e+001
 4.110363593147087e+000	 1.454159117097919e+000	 1.068068822532231e+001
 4.094838866046510e+000	 1.497318564630069e+000	 1.068547215628014e+001
 4.078823232104933e+000	 1.540412263062650e+000	 1.068998282394451e+001
 4.062316096637851e+000	 1.583432200502780e+000	 1.069448449053722e+001
 4.045317032262542e+000	 1.626370317707352e+000	 1.069914103607132e+001
 4.027825781041109e+000	 1.669218512278404e+000	 1.070400170874830e+001
 4.009842256502755e+000	 1.711968642952877e+000	 1.070898602139627e+001
 4.193062011708302e+000	 1.288857565462575e+000	 1.063483287265350e+001
 4.179408697634375e+000	 1.332466088821368e+000	 1.064450112356839e+001
 4.165265503506290e+000	 1.376040147219743e+000	 1.065236764264611e+001
 4.150631181532491e+000	 1.419571910507259e+000	 1.065893353257747e+001
 4.135504642499055e+000	 1.463053485028845e+000	 1.066466372777117e+001
 4.119884958365555e+000	 1.506476917431703e+000	 1.066996347489717e+001
 4.103771364758109e+000	 1.549834198580428e+000	 1.067516664408871e+001
 4.087163263354824e+000	 1.593117267577364e+000	 1.068052308389161e+001
 4.070060224158895e+000	 1.636318015885015e+000	 1.068618509795609e+001
 4.052461987654741e+000	 1.679428291547071e+000	 1.069219303831464e+001
 4.034368466842676e+000	 1.722439903504408e+000	 1.069846001436671e+001
 4.218552970632834e+000	 1.296692940937936e+000	 1.061903312109684e+001
 4.204816653715645e+000	 1.340566574394276e+000	 1.062821074601002e+001
 4.190587478607484e+000	 1.384405533366737e+000	 1.063614184228221e+001
 4.175864189931072e+000	 1.428201940102895e+000	 1.064309150647577e+001
 4.160645691850804e+000	 1.471947852959630e+000	 1.064949049252618e+001
 4.144931050684400e+000	 1.515635270233172e+000	 1.065571063610876e+001
 4.128719497411106e+000	 1.559256134098022e+000	 1.066205298725340e+001
 4.112010430071639e+000	 1.602802334651755e+000	 1.066873505231888e+001
 4.094803416055106e+000	 1.646265714062486e+000	 1.067587713461957e+001
 4.077098194268249e+000	 1.689638070815560e+000	 1.068348776688585e+001
 4.058894677182479e+000	 1.732911164055787e+000	 1.069144823305733e+001
 4.244043929556965e+000	 1.304528316413302e+000	 1.060360594174890e+001
 4.230224609796522e+000	 1.348667059967129e+000	 1.061270005346147e+001
 4.215909453708299e+000	 1.392770919513618e+000	 1.062097883015627e+001
 4.201097198329294e+000	 1.436831969698365e+000	 1.062864232955784e+001
 4.185786741202223e+000	 1.480842220890200e+000	 1.063607682346974e+001
 4.169977143002949e+000	 1.524793623034385e+000	 1.064360791847752e+001
 4.153667630063845e+000	 1.568678069615330e+000	 1.065148858224177e+001
 4.136857596788231e+000	 1.612487401725842e+000	 1.065988626158596e+001
 4.119546607951128e+000	 1.656213412239648e+000	 1.066886908002541e+001
 4.101734400881598e+000	 1.699847850083750e+000	 1.067839110628389e+001
 4.083420887522148e+000	 1.743382424606897e+000	 1.068827668968937e+001
 4.269534888480566e+000	 1.312363691888676e+000	 1.058923457292743e+001
 4.255632565876872e+000	 1.356767545539909e+000	 1.059868156832283e+001
 4.241231428808608e+000	 1.401136305660351e+000	 1.060767673841813e+001
 4.226330206727042e+000	 1.445461999293613e+000	 1.061643666987462e+001
 4.210927790553208e+000	 1.489736588820483e+000	 1.062529287237954e+001
 4.195023235321111e+000	 1.533951975835254e+000	 1.063451204468946e+001
 4.178615762716243e+000	 1.578100005132252e+000	 1.064428398051351e+001
 4.161704763504535e+000	 1.622172468799514e+000	 1.065470855244312e+001
 4.144289799846913e+000	 1.666161110416385e+000	 1.066578175996249e+001
 4.126370607494755e+000	 1.710057629351524e+000	 1.067738083147337e+001
 4.107947097861664e+000	 1.753853685157622e+000	 1.068924837463147e+001
 3.862684994461763e+000	 1.649141079647046e+000	 1.076652421805572e+001
 3.844890029459100e+000	 1.690213828755853e+000	 1.076971961912383e+001
 3.826621338296152e+000	 1.731176368834391e+000	 1.078363361413017e+001
 3.807879346431334e+000	 1.772020776467594e+000	 1.080502278065617e+001
 3.788664650926863e+000	 1.812739108261148e+000	 1.083038888513072e+001
 3.768978021749815e+000	 1.853323405364218e+000	 1.085598397576669e+001
 3.748820402933820e+000	 1.893765698057605e+000	 1.087781716354068e+001
 3.728192913598082e+000	 1.934058010402449e+000	 1.089166320436065e+001
 3.707096848820650e+000	 1.974192364944430e+000	 1.089307299026019e+001
 3.685533680363033e+000	 2.014160787468251e+000	 1.087933607320935e+001
 3.663505057243499e+000	 2.053955311797023e+000	 1.086911928597546e+001
 3.887211204802014e+000	 1.659612340197034e+000	 1.076718012015748e+001
 3.869303250245444e+000	 1.700945881704125e+000	 1.077033651798186e+001
 3.850918561593066e+000	 1.742168514406036e+000	 1.078350138338455e+001
 3.832057567004748e+000	 1.783272264577802e+000	 1.080346863409911e+001
 3.812720867333758e+000	 1.824249138388355e+000	 1.082676742090299e+001
 3.792909237436087e+000	 1.865091126451960e+000	 1.084966661822220e+001
 3.772623627339523e+000	 1.905790208445514e+000	 1.086818104507766e+001
 3.751865163269136e+000	 1.946338357786760e+000	 1.087807953684337e+001
 3.730635148526093e+000	 1.986727546368357e+000	 1.087489498295684e+001
 3.708935064216884e+000	 2.026949749342556e+000	 1.086069233817526e+001
 3.686766569830242e+000	 2.066996949951050e+000	 1.085369325841040e+001
 3.911737415142254e+000	 1.670083600747572e+000	 1.076113322215509e+001
 3.893716471031692e+000	 1.711677934652946e+000	 1.076497887092171e+001
 3.875215784889801e+000	 1.753160659978216e+000	 1.077806759406286e+001
 3.856235787577899e+000	 1.794523752688520e+000	 1.079722991271631e+001
 3.836777083740312e+000	 1.835759168516035e+000	 1.081902302362953e+001
 3.816840453121951e+000	 1.876858847540135e+000	 1.083973466981221e+001
 3.796426851744760e+000	 1.917814718833813e+000	 1.085538878167121e+001
 3.775537412939671e+000	 1.958618705171413e+000	 1.086175301663731e+001
 3.754173448230980e+000	 1.999262727792576e+000	 1.085434831995450e+001
 3.732336448070155e+000	 2.039738711217104e+000	 1.084248889474995e+001
 3.710028082416403e+000	 2.080038588105279e+000	 1.083838942357962e+001
 3.936263625482468e+000	 1.680554861298542e+000	 1.075038198661666e+001
 3.918129691817839e+000	 1.722409987602205e+000	 1.075540879635149e+001
 3.899513008186363e+000	 1.764152805550830e+000	 1.076888199337678e+001
 3.880414008150813e+000	 1.805775240799661e+000	 1.078766823800101e+001
 3.860833300146564e+000	 1.847269198644123e+000	 1.080835368333518e+001
 3.840771668807452e+000	 1.888626568628696e+000	 1.082724720662951e+001
 3.820230076149580e+000	 1.929839229222470e+000	 1.084038544908933e+001
 3.799209662609751e+000	 1.970899052556393e+000	 1.084353979994566e+001
 3.777711747935383e+000	 2.011797909217094e+000	 1.083335590875050e+001
 3.755737831922926e+000	 2.052527673091919e+000	 1.082508123387928e+001
 3.733289595002064e+000	 2.093080226259743e+000	 1.082354545030923e+001
 3.960789835822633e+000	 1.691026121849827e+000	 1.073686019754002e+001
 3.942542912603886e+000	 1.733142040551793e+000	 1.074332668765103e+001
 3.923810231482769e+000	 1.775144951123781e+000	 1.075743501408253e+001
 3.904592228723509e+000	 1.817026728911143e+000	 1.077608779271515e+001
 3.884889516552546e+000	 1.858779228772551e+000	 1.079590130082347e+001
 3.864702884492635e+000	 1.900394289717593e+000	 1.081320804796089e+001
 3.844033300554041e+000	 1.941863739611454e+000	 1.082406119119190e+001
 3.822881912279439e+000	 1.983179399941691e+000	 1.082424093844791e+001
 3.801250047639373e+000	 2.024333090641914e+000	 1.081383214686806e+001
 3.779139215775277e+000	 2.065316634967020e+000	 1.080878044989765e+001
 3.756551107587308e+000	 2.106121864414475e+000	 1.080945530761015e+001
 3.985316046162736e+000	 1.701497382401312e+000	 1.072243669124911e+001
 3.966956133389826e+000	 1.743874093501599e+000	 1.073037073677047e+001
 3.948107454779023e+000	 1.786137096696969e+000	 1.074515710833103e+001
 3.928770449296013e+000	 1.828278217022881e+000	 1.076373448266296e+001
 3.908945732958295e+000	 1.870289258901252e+000	 1.078275069515268e+001
 3.888634100177546e+000	 1.912162010806776e+000	 1.079856462733741e+001
 3.867836524958197e+000	 1.953888250000736e+000	 1.080724997250207e+001
 3.846554161948798e+000	 1.995459747327294e+000	 1.080460103139837e+001
 3.824788347343020e+000	 2.036868272067042e+000	 1.079608898444590e+001
 3.802540599627279e+000	 2.078105596842430e+000	 1.079385437252991e+001
 3.779812620172218e+000	 2.119163502569507e+000	 1.079637041438610e+001
 4.009842256502755e+000	 1.711968642952877e+000	 1.070898602139627e+001
 3.991369354175657e+000	 1.754606146451514e+000	 1.071811642946291e+001
 3.972404678075141e+000	 1.797129242270298e+000	 1.073341805830904e+001
 3.952948669868348e+000	 1.839529705134791e+000	 1.075179507977525e+001
 3.933001949363844e+000	 1.881799289030159e+000	 1.076992859630527e+001
 3.912565315862232e+000	 1.923929731896198e+000	 1.078420685202317e+001
 3.891639749362105e+000	 1.965912760390285e+000	 1.079072832182635e+001
 3.870226411617892e+000	 2.007740094713190e+000	 1.078570274703853e+001
 3.848326647046395e+000	 2.049403453492485e+000	 1.078039033443417e+001
 3.825941983479015e+000	 2.090894558718166e+000	 1.078052869398284e+001
 3.803074132756878e+000	 2.132205140724873e+000	 1.078450078432508e+001
 4.034368466842676e+000	 1.722439903504408e+000	 1.069846001436671e+001
 4.015782574961378e+000	 1.765338199401428e+000	 1.070824139703973e+001
 3.996701901371128e+000	 1.808121387843667e+000	 1.072352626465935e+001
 3.977126890440536e+000	 1.850781193246789e+000	 1.074139634729971e+001
 3.957058165769226e+000	 1.893309319159202e+000	 1.075840262368021e+001
 3.936496531546734e+000	 1.935697452985806e+000	 1.077096595143497e+001
 3.915442973765818e+000	 1.977937270780072e+000	 1.077521406730456e+001
 3.893898661286784e+000	 2.020020442099369e+000	 1.076948424074429e+001
 3.871864946749569e+000	 2.061938634918248e+000	 1.076695782999645e+001
 3.849343367330560e+000	 2.103683520594251e+000	 1.076898809133545e+001
 3.826335645341370e+000	 2.145246778880603e+000	 1.077401616617937e+001
 4.058894677182479e+000	 1.732911164055787e+000	 1.069144823305733e+001
 4.040195795746983e+000	 1.776070252351231e+000	 1.070219692554031e+001
 4.020999124666998e+000	 1.819113533416977e+000	 1.071699285905766e+001
 4.001305111012599e+000	 1.862032681358789e+000	 1.073360562986808e+001
 3.981114382174480e+000	 1.904819349288316e+000	 1.074908025100819e+001
 3.960427747231099e+000	 1.947465174075554e+000	 1.075961331496045e+001
 3.939246198169390e+000	 1.989961781170066e+000	 1.076136506325210e+001
 3.917570910955537e+000	 2.032300789485816e+000	 1.075632761511329e+001
 3.895403246452611e+000	 2.074473816344336e+000	 1.075597193861527e+001
 3.872744751181992e+000	 2.116472482470704e+000	 1.075937734442661e+001
 3.849597157925777e+000	 2.158288417036733e+000	 1.076504717962919e+001
 4.083420887522148e+000	 1.743382424606897e+000	 1.068827668968937e+001
 4.064609016532470e+000	 1.786802305300813e+000	 1.070019953630383e+001
 4.045296347962761e+000	 1.830105678990131e+000	 1.071474686562654e+001
 4.025483331584564e+000	 1.873284169470709e+000	 1.072977614667736e+001
 4.005170598579635e+000	 1.916329379417432e+000	 1.074282922321062e+001
 3.984358962915372e+000	 1.959232895165391e+000	 1.075085931962103e+001
 3.963049422572877e+000	 2.001986291560236e+000	 1.074979853735357e+001
 3.941243160624216e+000	 2.044581136872523e+000	 1.074642901307280e+001
 3.918941546155594e+000	 2.087008997770753e+000	 1.074757307125343e+001
 3.896146135033390e+000	 2.129261444347548e+000	 1.075180244942967e+001
 3.872858670510183e+000	 2.171330055193294e+000	 1.075768644691566e+001
 4.107947097861664e+000	 1.753853685157622e+000	 1.068924837463147e+001
 4.089022237317836e+000	 1.797534358250065e+000	 1.070237089843965e+001
 4.069593571258428e+000	 1.841097824563030e+000	 1.071675729778575e+001
 4.049661552156451e+000	 1.884535657582464e+000	 1.073035147972730e+001
 4.029226814984733e+000	 1.927839409546484e+000	 1.074079417509521e+001
 4.008290178599602e+000	 1.971000616255271e+000	 1.074540334450205e+001
 3.986852646976334e+000	 2.014010801950552e+000	 1.074194755863995e+001
 3.964915410292882e+000	 2.056861484259474e+000	 1.073994387592041e+001
 3.942479845858591e+000	 2.099544179197508e+000	 1.074186268677822e+001
 3.919547518884828e+000	 2.142050406224803e+000	 1.074633172829408e+001
 3.896120183094670e+000	 2.184371693350319e+000	 1.075198972041975e+001
 3.663505057243499e+000	 2.053955311797023e+000	 1.086911928597546e+001
 3.641009397794123e+000	 2.093573913466255e+000	 1.086469358344368e+001
 3.618051979783225e+000	 2.133002672260832e+000	 1.086290303807932e+001
 3.594634989852544e+000	 2.172233674105955e+000	 1.086309554567658e+001
 3.570760792710999e+000	 2.211259032598792e+000	 1.086465908788946e+001
 3.546431930914687e+000	 2.250070893948702e+000	 1.086702133046387e+001
 3.521651124484179e+000	 2.288661441927230e+000	 1.086964830250144e+001
 3.496421270358106e+000	 2.327022902821665e+000	 1.087204212636452e+001
 3.470745441682316e+000	 2.365147550385902e+000	 1.087373777678555e+001
 3.444626886934158e+000	 2.403027710782309e+000	 1.087429885721474e+001
 3.418069028881693e+000	 2.440655767508218e+000	 1.087331239134434e+001
 3.686766569830242e+000	 2.066996949951050e+000	 1.085369325841040e+001
 3.664128073655406e+000	 2.106867110874977e+000	 1.085199754897140e+001
 3.641024886972017e+000	 2.146546223512473e+000	 1.085286022147265e+001
 3.617459210305964e+000	 2.186026323538118e+000	 1.085553493546401e+001
 3.593433423380952e+000	 2.225299474474158e+000	 1.085931694333705e+001
 3.568950084897113e+000	 2.264357772662105e+000	 1.086354297975300e+001
 3.544011932145869e+000	 2.303193352244160e+000	 1.086759019055313e+001
 3.518621880460040e+000	 2.341798390148221e+000	 1.087087406810440e+001
 3.492783022498507e+000	 2.380165111070182e+000	 1.087284536936543e+001
 3.466498627364912e+000	 2.418285792447179e+000	 1.087298600283331e+001
 3.439772139560280e+000	 2.456152769415361e+000	 1.087080388086616e+001
 3.710028082416403e+000	 2.080038588105279e+000	 1.083838942357962e+001
 3.687246749516120e+000	 2.120160308283865e+000	 1.083909271746129e+001
 3.663997794160270e+000	 2.160089774764248e+000	 1.084229090972778e+001
 3.640283430758890e+000	 2.199818972970387e+000	 1.084715719777104e+001
 3.616106054050469e+000	 2.239339916349607e+000	 1.085290784154025e+001
 3.591468238879172e+000	 2.278644651375573e+000	 1.085880232890096e+001
 3.566372739807267e+000	 2.317725262561141e+000	 1.086414253715723e+001
 3.540822490561769e+000	 2.356573877474814e+000	 1.086827085497562e+001
 3.514820603314580e+000	 2.395182671754490e+000	 1.087056723867313e+001
 3.488370367795640e+000	 2.433543874112070e+000	 1.087044518712697e+001
 3.461475250238931e+000	 2.471649771322522e+000	 1.086734663034386e+001
 3.733289595002064e+000	 2.093080226259743e+000	 1.082354545030923e+001
 3.710365425376351e+000	 2.133453505692957e+000	 1.082631055961893e+001
 3.686970701348076e+000	 2.173633326016202e+000	 1.083151935097483e+001
 3.663107651211413e+000	 2.213611622402809e+000	 1.083827791151274e+001
 3.638778684719642e+000	 2.253380358225186e+000	 1.084573683133711e+001
 3.613986392860958e+000	 2.292931530089150e+000	 1.085309163045584e+001
 3.588733547468467e+000	 2.332257172878211e+000	 1.085958213673375e+001
 3.563023100663378e+000	 2.371349364801481e+000	 1.086449077632574e+001
 3.536858184130617e+000	 2.410200232438856e+000	 1.086713974818129e+001
 3.510242108226416e+000	 2.448801955777007e+000	 1.086688706494205e+001
 3.483178360917712e+000	 2.487146773229715e+000	 1.086312145379601e+001
 3.756551107587308e+000	 2.106121864414475e+000	 1.080945530761015e+001
 3.733484101236188e+000	 2.146746703102298e+000	 1.081393928619897e+001
 3.709943608535523e+000	 2.187176877268379e+000	 1.082082702259178e+001
 3.685931871663629e+000	 2.227404271835431e+000	 1.082917042721518e+001
 3.661451315388570e+000	 2.267420800100942e+000	 1.083806733272811e+001
 3.636504546842562e+000	 2.307218408802882e+000	 1.084666216909363e+001
 3.611094355129560e+000	 2.346789083195411e+000	 1.085414554264195e+001
 3.585223710764961e+000	 2.386124852128256e+000	 1.085975267774219e+001
 3.558895764946704e+000	 2.425217793123311e+000	 1.086276069025038e+001
 3.532113848657316e+000	 2.464060037442009e+000	 1.086248467308183e+001
 3.504881471596689e+000	 2.502643775136960e+000	 1.085827258597803e+001
 3.779812620172218e+000	 2.119163502569507e+000	 1.079637041438610e+001
 3.756602777095718e+000	 2.160039900511925e+000	 1.080222502189032e+001
 3.732916515722703e+000	 2.200720428520828e+000	 1.081045382613890e+001
 3.708756092115631e+000	 2.241196921268303e+000	 1.082006707959335e+001
 3.684123946057342e+000	 2.281461241976923e+000	 1.083012236341899e+001
 3.659022700824080e+000	 2.321505287516809e+000	 1.083972549817804e+001
 3.633455162790639e+000	 2.361320993512781e+000	 1.084803030954670e+001
 3.607424320866600e+000	 2.400900339455173e+000	 1.085423720475738e+001
 3.580933345762922e+000	 2.440235353807876e+000	 1.085759052645202e+001
 3.553985589088418e+000	 2.479318119107103e+000	 1.085737466228182e+001
 3.526584582275933e+000	 2.518140777044271e+000	 1.085290890080491e+001
 3.803074132756878e+000	 2.132205140724873e+000	 1.078450078432508e+001
 3.779721452955027e+000	 2.173333097921881e+000	 1.079137297420211e+001
 3.755889422909708e+000	 2.214263979773591e+000	 1.080059927718444e+001
 3.731580312567512e+000	 2.254989570701472e+000	 1.081116039499289e+001
 3.706796576726056e+000	 2.295501683853173e+000	 1.082208576028956e+001
 3.681540854805605e+000	 2.335792166230978e+000	 1.083245467140824e+001
 3.655815970451795e+000	 2.375852903830360e+000	 1.084139623114160e+001
 3.629624930968386e+000	 2.415675826782265e+000	 1.084808804229319e+001
 3.602970926579353e+000	 2.455252914492587e+000	 1.085175362413820e+001
 3.575857329519796e+000	 2.494576200772307e+000	 1.085165852606953e+001
 3.548287692955508e+000	 2.533637778951668e+000	 1.084710512743548e+001
 3.826335645341370e+000	 2.145246778880603e+000	 1.077401616617937e+001
 3.802840128814207e+000	 2.186626295332207e+000	 1.078154859756299e+001
 3.778862330096631e+000	 2.227807531026718e+000	 1.079142369023893e+001
 3.754404533019363e+000	 2.268782220134982e+000	 1.080260429391398e+001
 3.729469207394803e+000	 2.309542125729742e+000	 1.081410339600536e+001
 3.704059008787232e+000	 2.350079044945431e+000	 1.082498546976376e+001
 3.678176778113120e+000	 2.390384814148187e+000	 1.083436657342540e+001
 3.651825541070408e+000	 2.430451314109565e+000	 1.084141315002657e+001
 3.625008507396081e+000	 2.470270475177468e+000	 1.084533948941698e+001
 3.597729069951527e+000	 2.509834282437646e+000	 1.084540382664109e+001
 3.569990803635482e+000	 2.549134780859165e+000	 1.084090306411771e+001
 3.849597157925777e+000	 2.158288417036733e+000	 1.076504717962919e+001
 3.825958804673342e+000	 2.199919492742945e+000	 1.077287875283633e+001
 3.801835237283558e+000	 2.241351082280251e+000	 1.078304935900511e+001
 3.777228753471282e+000	 2.282574869568885e+000	 1.079451528882560e+001
 3.752141838063679e+000	 2.323582567606674e+000	 1.080628439097681e+001
 3.726577162769054e+000	 2.364365923660214e+000	 1.081741762394489e+001
 3.700537585774705e+000	 2.404916724466300e+000	 1.082702930372067e+001
 3.674026151172752e+000	 2.445226801437110e+000	 1.083428599384859e+001
 3.647046088213190e+000	 2.485288035862547e+000	 1.083840399668583e+001
 3.619600810383686e+000	 2.525092364103141e+000	 1.083864541788068e+001
 3.591693914315921e+000	 2.564631782766781e+000	 1.083431278988953e+001
 3.872858670510183e+000	 2.171330055193294e+000	 1.075768644691566e+001
 3.849077480532519e+000	 2.213212690154133e+000	 1.076545286244397e+001
 3.824808144470582e+000	 2.254894633534237e+000	 1.077556173214004e+001
 3.800052973923359e+000	 2.296367519003227e+000	 1.078697367746809e+001
 3.774814468732779e+000	 2.337623009484017e+000	 1.079870232086212e+001
 3.749095316751165e+000	 2.378652802375369e+000	 1.080981603249860e+001
 3.722898393436643e+000	 2.419448634784743e+000	 1.081943831561317e+001
 3.696226761275508e+000	 2.460002288764933e+000	 1.082674677358112e+001
 3.669083669030763e+000	 2.500305596547855e+000	 1.083097061486813e+001
 3.641472550816348e+000	 2.540350445768814e+000	 1.083138666564338e+001
 3.613397024996892e+000	 2.580128784674530e+000	 1.082731387422568e+001
 3.896120183094670e+000	 2.184371693350319e+000	 1.075198972041975e+001
 3.872196156391829e+000	 2.226505887565815e+000	 1.075932406128217e+001
 3.847781051657800e+000	 2.268438184788724e+000	 1.076901058471765e+001
 3.822877194375688e+000	 2.310160168438054e+000	 1.078002473183262e+001
 3.797487099402197e+000	 2.351663451361818e+000	 1.079139641979972e+001
 3.771613470733660e+000	 2.392939681090943e+000	 1.080221197580990e+001
 3.745259201099025e+000	 2.433980545103553e+000	 1.081161464998278e+001
 3.718427371378763e+000	 2.474777776093069e+000	 1.081880364710778e+001
 3.691121249848879e+000	 2.515323157233418e+000	 1.082303163048993e+001
 3.663344291249592e+000	 2.555608527434690e+000	 1.082360066541537e+001
 3.635100135678463e+000	 2.595625786582434e+000	 1.081985658471607e+001
 3.418069028881693e+000	 2.440655767508218e+000	 1.087331239134434e+001
 3.391075462413564e+000	 2.478024165474663e+000	 1.087116661879072e+001
 3.363649950302459e+000	 2.515125413354499e+000	 1.086919944639451e+001
 3.335796424614757e+000	 2.551952090816394e+000	 1.086844350768385e+001
 3.307518985991763e+000	 2.588496854144156e+000	 1.086674438169604e+001
 3.278821901798352e+000	 2.624752440995851e+000	 1.086015651666575e+001
 3.249709604111268e+000	 2.660711675109584e+000	 1.084890149193676e+001
 3.220186687548849e+000	 2.696367470949601e+000	 1.083473730827978e+001
 3.190257906944267e+000	 2.731712838286569e+000	 1.082119455316725e+001
 3.159928174864604e+000	 2.766740886705849e+000	 1.080973939427966e+001
 3.129202558978380e+000	 2.801444830037749e+000	 1.080187632108668e+001
 3.439772139560280e+000	 2.456152769415361e+000	 1.087080388086616e+001
 3.412607176799093e+000	 2.493758438914534e+000	 1.086666508406436e+001
 3.385007525745849e+000	 2.531095262051197e+000	 1.086194385695969e+001
 3.356977143433667e+000	 2.568155771378457e+000	 1.085768312575253e+001
 3.328520156540966e+000	 2.604932576551026e+000	 1.085481582490430e+001
 3.299640859528343e+000	 2.641418369114569e+000	 1.084915704858690e+001
 3.270343712614111e+000	 2.677605927241352e+000	 1.083847722972802e+001
 3.240633339590238e+000	 2.713488120405851e+000	 1.082595400267058e+001
 3.210514525480813e+000	 2.749057913994119e+000	 1.081371655259293e+001
 3.179992214045370e+000	 2.784308373840670e+000	 1.080318520793388e+001
 3.149071505129704e+000	 2.819232670686875e+000	 1.079587375606796e+001
 3.461475250238931e+000	 2.471649771322522e+000	 1.086734663034386e+001
 3.434138891184774e+000	 2.509492712354418e+000	 1.086160526780304e+001
 3.406365101189477e+000	 2.547065110747905e+000	 1.085459801134614e+001
 3.378157862252897e+000	 2.584359451940527e+000	 1.084735610083464e+001
 3.349521327090561e+000	 2.621368298957909e+000	 1.084091008042702e+001
 3.320459817258791e+000	 2.658084297233306e+000	 1.083547110074225e+001
 3.290977821117469e+000	 2.694500179373152e+000	 1.082659734853526e+001
 3.261079991632188e+000	 2.730608769862155e+000	 1.081617738035484e+001
 3.230771144017953e+000	 2.766402989701747e+000	 1.080559302911036e+001
 3.200056253226749e+000	 2.801875860975600e+000	 1.079625198539011e+001
 3.168940451281643e+000	 2.837020511336151e+000	 1.078965813253902e+001
 3.483178360917712e+000	 2.487146773229715e+000	 1.086312145379601e+001
 3.455670605570664e+000	 2.525226985794328e+000	 1.085613751222002e+001
 3.427722676633387e+000	 2.563034959444631e+000	 1.084728510372494e+001
 3.399338581072477e+000	 2.600563132502615e+000	 1.083756214923978e+001
 3.370522497640568e+000	 2.637804021364807e+000	 1.082796580112524e+001
 3.341278774989704e+000	 2.674750225352066e+000	 1.081955355413929e+001
 3.311611929621332e+000	 2.711394431504984e+000	 1.081326012203880e+001
 3.281526643674674e+000	 2.747729419318505e+000	 1.080535022687052e+001
 3.251027762555652e+000	 2.783748065409441e+000	 1.079676896149345e+001
 3.220120292408699e+000	 2.819443348110628e+000	 1.078889203732337e+001
 3.188809397434150e+000	 2.854808351985561e+000	 1.078319464616795e+001
 3.504881471596689e+000	 2.502643775136960e+000	 1.085827258597803e+001
 3.477202319956819e+000	 2.540961259234274e+000	 1.085037661520640e+001
 3.449080252077624e+000	 2.579004808141385e+000	 1.084009371480962e+001
 3.420519299892435e+000	 2.616766813064722e+000	 1.082836719029586e+001
 3.391523668190996e+000	 2.654239743771722e+000	 1.081613981044853e+001
 3.362097732721078e+000	 2.691416153470843e+000	 1.080500053306933e+001
 3.332246038125687e+000	 2.728288683636842e+000	 1.079840180179486e+001
 3.301973295717675e+000	 2.764850068774896e+000	 1.079340635292409e+001
 3.271284381093876e+000	 2.801093141117198e+000	 1.078718030152918e+001
 3.240184331591173e+000	 2.837010835245739e+000	 1.078104844412706e+001
 3.208678343587173e+000	 2.872596192635086e+000	 1.077643890175026e+001
 3.526584582275933e+000	 2.518140777044271e+000	 1.085290890080491e+001
 3.498734034343295e+000	 2.556695532674269e+000	 1.084440303268896e+001
 3.470437827522229e+000	 2.594974656838175e+000	 1.083307899867213e+001
 3.441700018712804e+000	 2.632970493626855e+000	 1.081980451842792e+001
 3.412524838741869e+000	 2.670675466178660e+000	 1.080546164754545e+001
 3.382916690452920e+000	 2.708082081589644e+000	 1.079259973419508e+001
 3.352880146630525e+000	 2.745182935768729e+000	 1.078382733035236e+001
 3.322419947761166e+000	 2.781970718231322e+000	 1.078027087364042e+001
 3.291540999632590e+000	 2.818438216825004e+000	 1.077675423706933e+001
 3.260248370774131e+000	 2.854578322380924e+000	 1.077265530617576e+001
 3.228547289740663e+000	 2.890384033284712e+000	 1.076933715441219e+001
 3.548287692955508e+000	 2.533637778951668e+000	 1.084710512743548e+001
 3.520265748730149e+000	 2.572429806114325e+000	 1.083826407946652e+001
 3.491795402967247e+000	 2.610944505535007e+000	 1.082626386878202e+001
 3.462880737533611e+000	 2.649174174189020e+000	 1.081187597512249e+001
 3.433526009293199e+000	 2.687111188585622e+000	 1.079622431381043e+001
 3.403735648185229e+000	 2.724748009708466e+000	 1.078221680108464e+001
 3.373514255135836e+000	 2.762077187900637e+000	 1.077169953800454e+001
 3.342866599805126e+000	 2.799091367687780e+000	 1.076630877211431e+001
 3.311797618171760e+000	 2.835783292532855e+000	 1.076540945666383e+001
 3.280312409957527e+000	 2.872145809516171e+000	 1.076363799561437e+001
 3.248416235894569e+000	 2.908171873934421e+000	 1.076182655212810e+001
 3.569990803635482e+000	 2.549134780859165e+000	 1.084090306411771e+001
 3.541797463117435e+000	 2.588164079554456e+000	 1.083197512858934e+001
 3.513152978412721e+000	 2.626914354231893e+000	 1.081964018330188e+001
 3.484061456354890e+000	 2.665377854751221e+000	 1.080455312078182e+001
 3.454527179845004e+000	 2.703546910992610e+000	 1.078843326902145e+001
 3.424554605918008e+000	 2.741413937827308e+000	 1.077369266156663e+001
 3.394148363641605e+000	 2.778971440032568e+000	 1.076185480746866e+001
 3.363313251849526e+000	 2.816212017144263e+000	 1.075446323679311e+001
 3.332054236711354e+000	 2.853128368240739e+000	 1.075305641570913e+001
 3.300376449141319e+000	 2.889713296651466e+000	 1.075391340960790e+001
 3.268285182048842e+000	 2.925959714584197e+000	 1.075383537949606e+001
 3.591693914315921e+000	 2.564631782766781e+000	 1.083431278988953e+001
 3.563329177505210e+000	 2.603898352994673e+000	 1.082552080934348e+001
 3.534510553858697e+000	 2.642884202928837e+000	 1.081316992967067e+001
 3.505242175176668e+000	 2.681581535313464e+000	 1.079791678050605e+001
 3.475528350397301e+000	 2.719982633399626e+000	 1.078191929594195e+001
 3.445373563651263e+000	 2.758079865946172e+000	 1.076684486438287e+001
 3.414782472147824e+000	 2.795865692164516e+000	 1.075410112574244e+001
 3.383759903894348e+000	 2.833332666600768e+000	 1.074512047252211e+001
 3.352310855251333e+000	 2.870473443948652e+000	 1.074134098911541e+001
 3.320440488325464e+000	 2.907280783786796e+000	 1.074339022499039e+001
 3.288154128203432e+000	 2.943747555234022e+000	 1.074528330271843e+001
 3.613397024996892e+000	 2.580128784674530e+000	 1.082731387422568e+001
 3.584860891893530e+000	 2.619632626434988e+000	 1.081885620389849e+001
 3.555868129305216e+000	 2.658854051625854e+000	 1.080678640850457e+001
 3.526422893998978e+000	 2.697785215875753e+000	 1.079201542591616e+001
 3.496529520950103e+000	 2.736418355806673e+000	 1.077649054373788e+001
 3.466192521384992e+000	 2.774745794065057e+000	 1.076146891664760e+001
 3.435416580654481e+000	 2.812759944296481e+000	 1.074822488011419e+001
 3.404206555939567e+000	 2.850453316057287e+000	 1.073806158287777e+001
 3.372567473791665e+000	 2.887818519656581e+000	 1.073229160829170e+001
 3.340504527509917e+000	 2.924848270922151e+000	 1.073221612515448e+001
 3.308023074358290e+000	 2.961535395883882e+000	 1.073608161573664e+001
 3.635100135678463e+000	 2.595625786582434e+000	 1.081985658471607e+001
 3.606392606282453e+000	 2.635366899875415e+000	 1.081190804267446e+001
 3.577225704752324e+000	 2.674823900322948e+000	 1.080042346358461e+001
 3.547603612821848e+000	 2.713988896438097e+000	 1.078665224922030e+001
 3.517530691503431e+000	 2.752854078213755e+000	 1.077193387435732e+001
 3.487011479119200e+000	 2.791411722183962e+000	 1.075733962207928e+001
 3.456050689161567e+000	 2.829654196428459e+000	 1.074399218919277e+001
 3.424653207985159e+000	 2.867573965513815e+000	 1.073304768078117e+001
 3.392824092332316e+000	 2.905163595364521e+000	 1.072567593387739e+001
 3.360568566694637e+000	 2.942415758057519e+000	 1.072303929110414e+001
 3.327892020513366e+000	 2.979323236533758e+000	 1.072613348747218e+001
 3.129202558978380e+000	 2.801444830037749e+000	 1.080187632108668e+001
 3.098090975972703e+000	 2.835812860563197e+000	 1.079428316577904e+001
 3.066594216041264e+000	 2.869843648532129e+000	 1.078292576922095e+001
 3.034717795080713e+000	 2.903530751830148e+000	 1.076833356747543e+001
 3.002467371960544e+000	 2.936867849398260e+000	 1.075106532940649e+001
 2.969848745180577e+000	 2.969848745180577e+000	 1.073168952654504e+001
 2.936867849398259e+000	 3.002467371960544e+000	 1.071076449005866e+001
 2.903530751830149e+000	 3.034717795080715e+000	 1.068881853297135e+001
 2.869843648532129e+000	 3.066594216041264e+000	 1.066633021694231e+001
 2.835812860563195e+000	 3.098090975972702e+000	 1.064370894256467e+001
 2.801444830037748e+000	 3.129202558978380e+000	 1.062127604028489e+001
 3.149071505129704e+000	 2.819232670686875e+000	 1.079587375606796e+001
 3.117762378387155e+000	 2.853818921840275e+000	 1.078856555829632e+001
 3.086065629028769e+000	 2.888065789107530e+000	 1.077734256884666e+001
 3.053986807974516e+000	 2.921966789469875e+000	 1.076276223752479e+001
 3.021531610025019e+000	 2.955515561732601e+000	 1.074541309242337e+001
 2.988705870497814e+000	 2.988705870497813e+000	 1.072589423339040e+001
 2.955515561732601e+000	 3.021531610025019e+000	 1.070479460021175e+001
 2.921966789469875e+000	 3.053986807974516e+000	 1.068267220120889e+001
 2.888065789107531e+000	 3.086065629028768e+000	 1.066003348918499e+001
 2.853818921840275e+000	 3.117762378387155e+000	 1.063731307131181e+001
 2.819232670686875e+000	 3.149071505129704e+000	 1.061485393763712e+001
 3.168940451281643e+000	 2.837020511336151e+000	 1.078965813253902e+001
 3.137433780802209e+000	 2.871824983117554e+000	 1.078270514764725e+001
 3.105537042016849e+000	 2.906287929683184e+000	 1.077162125413762e+001
 3.073255820868855e+000	 2.940402827109916e+000	 1.075701130489837e+001
 3.040595848089982e+000	 2.974163274067317e+000	 1.073951314757671e+001
 3.007562995815484e+000	 3.007562995815484e+000	 1.071977617407561e+001
 2.974163274067317e+000	 3.040595848089982e+000	 1.069843963168450e+001
 2.940402827109914e+000	 3.073255820868856e+000	 1.067611088943240e+001
 2.906287929683185e+000	 3.105537042016849e+000	 1.065334385455541e+001
 2.871824983117554e+000	 3.137433780802210e+000	 1.063061773363918e+001
 2.837020511336150e+000	 3.168940451281644e+000	 1.060831633102985e+001
 3.188809397434150e+000	 2.854808351985561e+000	 1.078319464616795e+001
 3.157105183217814e+000	 2.889831044395010e+000	 1.077668378891588e+001
 3.125008455005451e+000	 2.924510070259066e+000	 1.076576187525499e+001
 3.092524833763677e+000	 2.958838864750235e+000	 1.075110027057347e+001
 3.059660086155382e+000	 2.992810986402366e+000	 1.073340542443032e+001
 3.026420121133540e+000	 3.026420121133540e+000	 1.071339640785056e+001
 2.992810986402366e+000	 3.059660086155382e+000	 1.069178219846670e+001
 2.958838864750234e+000	 3.092524833763677e+000	 1.066923891532064e+001
 2.924510070259066e+000	 3.125008455005450e+000	 1.064638720651819e+001
 2.889831044395010e+000	 3.157105183217814e+000	 1.062376999260747e+001
 2.854808351985561e+000	 3.188809397434150e+000	 1.060183076652947e+001
 3.208678343587173e+000	 2.872596192635086e+000	 1.077643890175026e+001
 3.176776585633916e+000	 2.907837105672620e+000	 1.077047327689652e+001
 3.144479867994520e+000	 2.942732210835146e+000	 1.075975390393029e+001
 3.111793846658930e+000	 2.977274902390801e+000	 1.074503750203565e+001
 3.078724324221172e+000	 3.011458698737709e+000	 1.072711813899087e+001
 3.045277246451941e+000	 3.045277246451941e+000	 1.070680368734665e+001
 3.011458698737709e+000	 3.078724324221171e+000	 1.068489201393832e+001
 2.977274902390800e+000	 3.111793846658930e+000	 1.066214711311582e+001
 2.942732210835144e+000	 3.144479867994519e+000	 1.063927539553226e+001
 2.907837105672620e+000	 3.176776585633916e+000	 1.061690234402078e+001
 2.872596192635086e+000	 3.208678343587173e+000	 1.059554974601119e+001
 3.228547289740663e+000	 2.890384033284712e+000	 1.076933715441219e+001
 3.196447988050458e+000	 2.925843166950362e+000	 1.076403558061362e+001
 3.163951280984001e+000	 2.960954351411395e+000	 1.075357646196705e+001
 3.131062859554559e+000	 2.995710940031576e+000	 1.073882045621070e+001
 3.097788562287297e+000	 3.030106411073305e+000	 1.072066801130200e+001
 3.064134371770637e+000	 3.064134371770636e+000	 1.070003467084870e+001
 3.030106411073305e+000	 3.097788562287298e+000	 1.067782609761921e+001
 2.995710940031576e+000	 3.131062859554560e+000	 1.065491303443623e+001
 2.960954351411395e+000	 3.163951280984001e+000	 1.063210642329671e+001
 2.925843166950362e+000	 3.196447988050459e+000	 1.061013290326245e+001
 2.890384033284712e+000	 3.228547289740663e+000	 1.058961090552887e+001
 3.248416235894569e+000	 2.908171873934421e+000	 1.076182655212810e+001
 3.216119390467393e+000	 2.943849228228216e+000	 1.075732307883972e+001
 3.183422693973840e+000	 2.979176491987786e+000	 1.074719855038494e+001
 3.150331872450513e+000	 3.014146977672529e+000	 1.073243590265336e+001
 3.116852800353711e+000	 3.048754123409113e+000	 1.071406048288915e+001
 3.082991497089581e+000	 3.082991497089581e+000	 1.069311413400118e+001
 3.048754123409115e+000	 3.116852800353711e+000	 1.067062898093636e+001
 3.014146977672528e+000	 3.150331872450513e+000	 1.064760114769851e+001
 2.979176491987786e+000	 3.183422693973840e+000	 1.062496463521784e+001
 2.943849228228216e+000	 3.216119390467392e+000	 1.060356558999229e+001
 2.908171873934421e+000	 3.248416235894569e+000	 1.058413719122469e+001
 3.268285182048842e+000	 2.925959714584197e+000	 1.075383537949606e+001
 3.235790792884662e+000	 2.961855289506158e+000	 1.075027879656916e+001
 3.202894106963983e+000	 2.997398632564291e+000	 1.074057927917911e+001
 3.169600885346736e+000	 3.032583015313622e+000	 1.072586014698180e+001
 3.135917038420363e+000	 3.067401835745095e+000	 1.070728993406164e+001
 3.101848622408732e+000	 3.101848622408731e+000	 1.068605518097305e+001
 3.067401835745095e+000	 3.135917038420363e+000	 1.066333291205039e+001
 3.032583015313622e+000	 3.169600885346737e+000	 1.064026303620896e+001
 2.997398632564291e+000	 3.202894106963983e+000	 1.061792091117301e+001
 2.961855289506158e+000	 3.235790792884662e+000	 1.059729031079622e+001
 2.925959714584196e+000	 3.268285182048841e+000	 1.057923703288353e+001
 3.288154128203432e+000	 2.943747555234022e+000	 1.074528330271843e+001
 3.255462195302213e+000	 2.979861350784167e+000	 1.074283664240703e+001
 3.222365519954375e+000	 3.015620773140882e+000	 1.073366809766842e+001
 3.188869898243178e+000	 3.051019052954823e+000	 1.071905925454757e+001
 3.154981276487200e+000	 3.086049548081208e+000	 1.070033990107772e+001
 3.120705747728039e+000	 3.120705747728038e+000	 1.067885945510406e+001
 3.086049548081208e+000	 3.154981276487199e+000	 1.065595805978126e+001
 3.051019052954824e+000	 3.188869898243179e+000	 1.063293759498018e+001
 3.015620773140882e+000	 3.222365519954374e+000	 1.061103285464330e+001
 2.979861350784166e+000	 3.255462195302214e+000	 1.059138313987465e+001
 2.943747555234023e+000	 3.288154128203432e+000	 1.057500451523188e+001
 3.308023074358290e+000	 2.961535395883882e+000	 1.073608161573664e+001
 3.275133597719994e+000	 2.997867412062219e+000	 1.073492164683478e+001
 3.241836932944962e+000	 3.033842913717531e+000	 1.072640502540819e+001
 3.208138911139784e+000	 3.069455090596099e+000	 1.071198927433088e+001
 3.174045514554174e+000	 3.104697260417412e+000	 1.069318329317884e+001
 3.139562873047459e+000	 3.139562873047459e+000	 1.067151734905415e+001
 3.104697260417412e+000	 3.174045514554175e+000	 1.064851271667090e+001
 3.069455090596098e+000	 3.208138911139783e+000	 1.062565122632648e+001
 3.033842913717530e+000	 3.241836932944962e+000	 1.060434498028377e+001
 2.997867412062220e+000	 3.275133597719995e+000	 1.058590649785231e+001
 2.961535395883882e+000	 3.308023074358290e+000	 1.057151954707564e+001
 3.327892020513366e+000	 2.979323236533758e+000	 1.072613348747218e+001
 3.294805000137952e+000	 3.015873473340294e+000	 1.072645020131604e+001
 3.261308345935689e+000	 3.052065054294208e+000	 1.071872088364344e+001
 3.227407924036499e+000	 3.087891128237413e+000	 1.070459646305224e+001
 3.193109752621236e+000	 3.123344972753669e+000	 1.068578260949805e+001
 3.158419998366947e+000	 3.158419998366946e+000	 1.066400821447694e+001
 3.123344972753669e+000	 3.193109752621236e+000	 1.064099350121891e+001
 3.087891128237412e+000	 3.227407924036499e+000	 1.061841803428918e+001
 3.052065054294209e+000	 3.261308345935690e+000	 1.059788889999641e+001
 3.015873473340295e+000	 3.294805000137951e+000	 1.058090932878801e+001
 2.979323236533757e+000	 3.327892020513365e+000	 1.056884802836758e+001
 2.801444830037748e+000	 3.129202558978380e+000	 1.062127604028489e+001
 2.766740886705849e+000	 3.159928174864604e+000	 1.059676182360967e+001
 2.731712838286569e+000	 3.190257906944266e+000	 1.056879855945079e+001
 2.696367470949601e+000	 3.220186687548849e+000	 1.053888698264549e+001
 2.660711675109584e+000	 3.249709604111268e+000	 1.050841794540636e+001
 2.624752440995853e+000	 3.278821901798352e+000	 1.047931840935640e+001
 2.588496854144156e+000	 3.307518985991762e+000	 1.045234894457027e+001
 2.551952090816394e+000	 3.335796424614757e+000	 1.042751684358908e+001
 2.515125413354498e+000	 3.363649950302459e+000	 1.040173709235776e+001
 2.478024165474663e+000	 3.391075462413564e+000	 1.037383310359135e+001
 2.440655767508217e+000	 3.418069028881693e+000	 1.034521519931374e+001
 2.819232670686875e+000	 3.149071505129704e+000	 1.061485393763712e+001
 2.784308373840670e+000	 3.179992214045370e+000	 1.059059547563684e+001
 2.749057913994120e+000	 3.210514525480813e+000	 1.056333189092192e+001
 2.713488120405852e+000	 3.240633339590237e+000	 1.053450715624801e+001
 2.677605927241350e+000	 3.270343712614112e+000	 1.050542885809151e+001
 2.641418369114568e+000	 3.299640859528343e+000	 1.047751247709286e+001
 2.604932576551026e+000	 3.328520156540966e+000	 1.045207391672444e+001
 2.568155771378458e+000	 3.356977143433668e+000	 1.042702445312239e+001
 2.531095262051196e+000	 3.385007525745849e+000	 1.039920327087989e+001
 2.493758438914534e+000	 3.412607176799092e+000	 1.036986155685488e+001
 2.456152769415361e+000	 3.439772139560280e+000	 1.034036226015699e+001
 2.837020511336150e+000	 3.168940451281644e+000	 1.060831633102985e+001
 2.801875860975600e+000	 3.200056253226749e+000	 1.058459929049695e+001
 2.766402989701746e+000	 3.230771144017952e+000	 1.055840974321159e+001
 2.730608769862155e+000	 3.261079991632188e+000	 1.053111721549112e+001
 2.694500179373152e+000	 3.290977821117469e+000	 1.050394769520291e+001
 2.658084297233307e+000	 3.320459817258793e+000	 1.047799411364459e+001
 2.621368298957908e+000	 3.349521327090561e+000	 1.045354588284386e+001
 2.584359451940528e+000	 3.378157862252897e+000	 1.042631443795038e+001
 2.547065110747905e+000	 3.406365101189477e+000	 1.039683800739095e+001
 2.509492712354418e+000	 3.434138891184774e+000	 1.036639152623407e+001
 2.471649771322522e+000	 3.461475250238931e+000	 1.033627088590290e+001
 2.854808351985561e+000	 3.188809397434150e+000	 1.060183076652947e+001
 2.819443348110627e+000	 3.220120292408698e+000	 1.057895882847738e+001
 2.783748065409441e+000	 3.251027762555651e+000	 1.055423187452414e+001
 2.747729419318505e+000	 3.281526643674674e+000	 1.052892767694860e+001
 2.711394431504983e+000	 3.311611929621332e+000	 1.050417274047869e+001
 2.674750225352066e+000	 3.341278774989703e+000	 1.048064578870438e+001
 2.637804021364806e+000	 3.370522497640566e+000	 1.045439673029235e+001
 2.600563132502615e+000	 3.399338581072477e+000	 1.042530194107202e+001
 2.563034959444631e+000	 3.427722676633387e+000	 1.039454273452675e+001
 2.525226985794328e+000	 3.455670605570664e+000	 1.036330804735373e+001
 2.487146773229715e+000	 3.483178360917711e+000	 1.033280734200419e+001
 2.872596192635086e+000	 3.208678343587173e+000	 1.059554974601119e+001
 2.837010835245739e+000	 3.240184331591172e+000	 1.057384422510427e+001
 2.801093141117197e+000	 3.271284381093875e+000	 1.055098237215828e+001
 2.764850068774895e+000	 3.301973295717676e+000	 1.052813326967358e+001
 2.728288683636842e+000	 3.332246038125688e+000	 1.050630642283041e+001
 2.691416153470845e+000	 3.362097732721078e+000	 1.048264881881279e+001
 2.654239743771723e+000	 3.391523668190996e+000	 1.045447694130498e+001
 2.616766813064722e+000	 3.420519299892435e+000	 1.042391786554813e+001
 2.579004808141385e+000	 3.449080252077623e+000	 1.039223527931156e+001
 2.540961259234273e+000	 3.477202319956819e+000	 1.036051326720628e+001
 2.502643775136960e+000	 3.504881471596689e+000	 1.032985579625921e+001
 2.890384033284712e+000	 3.228547289740663e+000	 1.058961090552887e+001
 2.854578322380925e+000	 3.260248370774131e+000	 1.056941035863114e+001
 2.818438216825004e+000	 3.291540999632588e+000	 1.054882980568351e+001
 2.781970718231322e+000	 3.322419947761167e+000	 1.052891307092954e+001
 2.745182935768730e+000	 3.352880146630527e+000	 1.050874345829843e+001
 2.708082081589644e+000	 3.382916690452919e+000	 1.048326577895114e+001
 2.670675466178660e+000	 3.412524838741869e+000	 1.045373884288572e+001
 2.632970493626855e+000	 3.441700018712804e+000	 1.042210827458871e+001
 2.594974656838174e+000	 3.470437827522229e+000	 1.038984924905313e+001
 2.556695532674268e+000	 3.498734034343295e+000	 1.035792581497965e+001
 2.518140777044271e+000	 3.526584582275933e+000	 1.032731767396048e+001
 2.908171873934421e+000	 3.248416235894569e+000	 1.058413719122469e+001
 2.872145809516170e+000	 3.280312409957526e+000	 1.056579701483663e+001
 2.835783292532855e+000	 3.311797618171761e+000	 1.054792737732413e+001
 2.799091367687780e+000	 3.342866599805125e+000	 1.053098598591097e+001
 2.762077187900638e+000	 3.373514255135836e+000	 1.050937575193922e+001
 2.724748009708466e+000	 3.403735648185227e+000	 1.048250461523165e+001
 2.687111188585623e+000	 3.433526009293199e+000	 1.045208114114717e+001
 2.649174174189020e+000	 3.462880737533612e+000	 1.041983378996451e+001
 2.610944505535007e+000	 3.491795402967248e+000	 1.038733341604443e+001
 2.572429806114326e+000	 3.520265748730149e+000	 1.035548017223935e+001
 2.533637778951669e+000	 3.548287692955509e+000	 1.032511101299939e+001
 2.925959714584196e+000	 3.268285182048841e+000	 1.057923703288353e+001
 2.889713296651465e+000	 3.300376449141319e+000	 1.056312904924564e+001
 2.853128368240741e+000	 3.332054236711353e+000	 1.054841306966962e+001
 2.816212017144263e+000	 3.363313251849527e+000	 1.053141735407634e+001
 2.778971440032567e+000	 3.394148363641605e+000	 1.050822076578261e+001
 2.741413937827308e+000	 3.424554605918009e+000	 1.048038420534616e+001
 2.703546910992609e+000	 3.454527179845005e+000	 1.044947996136440e+001
 2.665377854751221e+000	 3.484061456354890e+000	 1.041706898881377e+001
 2.626914354231892e+000	 3.513152978412723e+000	 1.038465110112311e+001
 2.588164079554456e+000	 3.541797463117435e+000	 1.035312604249181e+001
 2.549134780859165e+000	 3.569990803635482e+000	 1.032316981892919e+001
 2.943747555234023e+000	 3.288154128203432e+000	 1.057500451523188e+001
 2.907280783786796e+000	 3.320440488325464e+000	 1.056151654688322e+001
 2.870473443948652e+000	 3.352310855251332e+000	 1.054859325561739e+001
 2.833332666600767e+000	 3.383759903894349e+000	 1.052967083480273e+001
 2.795865692164516e+000	 3.414782472147824e+000	 1.050531115934380e+001
 2.758079865946173e+000	 3.445373563651262e+000	 1.047693376364924e+001
 2.719982633399626e+000	 3.475528350397300e+000	 1.044595817502841e+001
 2.681581535313463e+000	 3.505242175176668e+000	 1.041378864327698e+001
 2.642884202928838e+000	 3.534510553858697e+000	 1.038177955613696e+001
 2.603898352994673e+000	 3.563329177505211e+000	 1.035082772015588e+001
 2.564631782766780e+000	 3.591693914315921e+000	 1.032144341998749e+001
 2.961535395883882e+000	 3.308023074358290e+000	 1.057151954707564e+001
 2.924848270922151e+000	 3.340504527509917e+000	 1.056079002520416e+001
 2.887818519656582e+000	 3.372567473791665e+000	 1.054623643247168e+001
 2.850453316057286e+000	 3.404206555939566e+000	 1.052578868497908e+001
 2.812759944296481e+000	 3.435416580654481e+000	 1.050068908125789e+001
 2.774745794065056e+000	 3.466192521384992e+000	 1.047219224412399e+001
 2.736418355806673e+000	 3.496529520950103e+000	 1.044154874835351e+001
 2.697785215875753e+000	 3.526422893998977e+000	 1.040998969667707e+001
 2.658854051625854e+000	 3.555868129305217e+000	 1.037870934536113e+001
 2.619632626434987e+000	 3.584860891893531e+000	 1.034856345896659e+001
 2.580128784674530e+000	 3.613397024996892e+000	 1.031989582208061e+001
 2.979323236533757e+000	 3.327892020513365e+000	 1.056884802836758e+001
 2.942415758057520e+000	 3.360568566694637e+000	 1.055802137926174e+001
 2.905163595364522e+000	 3.392824092332316e+000	 1.054138257718555e+001
 2.867573965513814e+000	 3.424653207985159e+000	 1.051982192861103e+001
 2.829654196428458e+000	 3.456050689161565e+000	 1.049440557926269e+001
 2.791411722183963e+000	 3.487011479119200e+000	 1.046620774131953e+001
 2.752854078213755e+000	 3.517530691503430e+000	 1.043629413294411e+001
 2.713988896438097e+000	 3.547603612821848e+000	 1.040570641798225e+001
 2.674823900322948e+000	 3.577225704752323e+000	 1.037544775299423e+001
 2.635366899875414e+000	 3.606392606282453e+000	 1.034632483983540e+001
 2.595625786582433e+000	 3.635100135678463e+000	 1.031850506373083e+001
 2.440655767508217e+000	 3.418069028881693e+000	 1.034521519931374e+001
 2.403027710782309e+000	 3.444626886934158e+000	 1.031731351495298e+001
 2.365147550385903e+000	 3.470745441682317e+000	 1.029013828187139e+001
 2.327022902821665e+000	 3.496421270358104e+000	 1.026297106412795e+001
 2.288661441927230e+000	 3.521651124484178e+000	 1.023507844708294e+001
 2.250070893948702e+000	 3.546431930914687e+000	 1.020570866316663e+001
 2.211259032598793e+000	 3.570760792711000e+000	 1.017408888407064e+001
 2.172233674105955e+000	 3.594634989852545e+000	 1.013942318349003e+001
 2.133002672260832e+000	 3.618051979783225e+000	 1.010089116741766e+001
 2.093573913466255e+000	 3.641009397794124e+000	 1.005764726209696e+001
 2.053955311797024e+000	 3.663505057243499e+000	 1.000882064313732e+001
 2.456152769415361e+000	 3.439772139560280e+000	 1.034036226015699e+001
 2.418285792447178e+000	 3.466498627364912e+000	 1.031199203494899e+001
 2.380165111070181e+000	 3.492783022498506e+000	 1.028464985687310e+001
 2.341798390148221e+000	 3.518621880460040e+000	 1.025761785571994e+001
 2.303193352244160e+000	 3.544011932145869e+000	 1.023016271153475e+001
 2.264357772662105e+000	 3.568950084897113e+000	 1.020153219794917e+001
 2.225299474474157e+000	 3.593433423380952e+000	 1.017095242572731e+001
 2.186026323538119e+000	 3.617459210305963e+000	 1.013762579027971e+001
 2.146546223512473e+000	 3.641024886972018e+000	 1.010072961945554e+001
 2.106867110874978e+000	 3.664128073655407e+000	 1.005941551072487e+001
 2.066996949951050e+000	 3.686766569830242e+000	 1.001280933997136e+001
 2.471649771322522e+000	 3.461475250238931e+000	 1.033627088590290e+001
 2.433543874112069e+000	 3.488370367795640e+000	 1.030760717394334e+001
 2.395182671754490e+000	 3.514820603314579e+000	 1.028019605534490e+001
 2.356573877474814e+000	 3.540822490561769e+000	 1.025333049343635e+001
 2.317725262561141e+000	 3.566372739807267e+000	 1.022628756794987e+001
 2.278644651375573e+000	 3.591468238879172e+000	 1.019832491442921e+001
 2.239339916349607e+000	 3.616106054050469e+000	 1.016867789916660e+001
 2.199818972970387e+000	 3.640283430758890e+000	 1.013655753306135e+001
 2.160089774764248e+000	 3.663997794160270e+000	 1.010114912002138e+001
 2.120160308283865e+000	 3.687246749516119e+000	 1.006161162801497e+001
 2.080038588105280e+000	 3.710028082416403e+000	 1.001707776368897e+001
 2.487146773229715e+000	 3.483178360917711e+000	 1.033280734200419e+001
 2.448801955777006e+000	 3.510242108226416e+000	 1.030400643048798e+001
 2.410200232438857e+000	 3.536858184130617e+000	 1.027660760407854e+001
 2.371349364801481e+000	 3.563023100663378e+000	 1.024992465445546e+001
 2.332257172878211e+000	 3.588733547468468e+000	 1.022325508554176e+001
 2.292931530089150e+000	 3.613986392860957e+000	 1.019587642784457e+001
 2.253380358225186e+000	 3.638778684719643e+000	 1.016704332521054e+001
 2.213611622402809e+000	 3.663107651211413e+000	 1.013598539704105e+001
 2.173633326016202e+000	 3.686970701348076e+000	 1.010190587089883e+001
 2.133453505692958e+000	 3.710365425376351e+000	 1.006398097259723e+001
 2.093080226259744e+000	 3.733289595002065e+000	 1.002136005336019e+001
 2.502643775136960e+000	 3.504881471596689e+000	 1.032985579625921e+001
 2.464060037442010e+000	 3.532113848657317e+000	 1.030105601034611e+001
 2.425217793123311e+000	 3.558895764946705e+000	 1.027373470488281e+001
 2.386124852128256e+000	 3.585223710764960e+000	 1.024723622650796e+001
 2.346789083195411e+000	 3.611094355129560e+000	 1.022088825195901e+001
 2.307218408802882e+000	 3.636504546842562e+000	 1.019399795654112e+001
 2.267420800100942e+000	 3.661451315388569e+000	 1.016584899351833e+001
 2.227404271835432e+000	 3.685931871663630e+000	 1.013569928713526e+001
 2.187176877268379e+000	 3.709943608535522e+000	 1.010277963350974e+001
 2.146746703102297e+000	 3.733484101236188e+000	 1.006629309545602e+001
 2.106121864414475e+000	 3.756551107587308e+000	 1.002541516947328e+001
 2.518140777044271e+000	 3.526584582275933e+000	 1.032731767396048e+001
 2.479318119107102e+000	 3.553985589088418e+000	 1.029864016718594e+001
 2.440235353807877e+000	 3.580933345762920e+000	 1.027144636359252e+001
 2.400900339455172e+000	 3.607424320866600e+000	 1.024512062779315e+001
 2.361320993512781e+000	 3.633455162790639e+000	 1.021903028651898e+001
 2.321505287516809e+000	 3.659022700824079e+000	 1.019252163074849e+001
 2.281461241976922e+000	 3.684123946057341e+000	 1.016491676894004e+001
 2.241196921268304e+000	 3.708756092115631e+000	 1.013551133374754e+001
 2.200720428520828e+000	 3.732916515722704e+000	 1.010357303576443e+001
 2.160039900511925e+000	 3.756602777095718e+000	 1.006834104930778e+001
 2.119163502569507e+000	 3.779812620172219e+000	 1.002902620709473e+001
 2.533637778951669e+000	 3.548287692955509e+000	 1.032511101299939e+001
 2.494576200772307e+000	 3.575857329519796e+000	 1.029666054382019e+001
 2.455252914492587e+000	 3.602970926579353e+000	 1.026962972014364e+001
 2.415675826782263e+000	 3.629624930968387e+000	 1.024345212841865e+001
 2.375852903830360e+000	 3.655815970451795e+000	 1.021754395536510e+001
 2.335792166230977e+000	 3.681540854805605e+000	 1.019129980362949e+001
 2.295501683853174e+000	 3.706796576726056e+000	 1.016408940045075e+001
 2.254989570701472e+000	 3.731580312567512e+000	 1.013525520139431e+001
 2.214263979773591e+000	 3.755889422909708e+000	 1.010411088199857e+001
 2.173333097921881e+000	 3.779721452955029e+000	 1.006994070127844e+001
 2.132205140724873e+000	 3.803074132756878e+000	 1.003199971252401e+001
 2.549134780859165e+000	 3.569990803635482e+000	 1.032316981892919e+001
 2.509834282437646e+000	 3.597729069951527e+000	 1.029503551396809e+001
 2.470270475177469e+000	 3.625008507396082e+000	 1.026818937966895e+001
 2.430451314109564e+000	 3.651825541070408e+000	 1.024212317329821e+001
 2.390384814148186e+000	 3.678176778113120e+000	 1.021631088846609e+001
 2.350079044945431e+000	 3.704059008787232e+000	 1.019020436450687e+001
 2.309542125729742e+000	 3.729469207394803e+000	 1.016322983255487e+001
 2.268782220134983e+000	 3.754404533019364e+000	 1.013478540005830e+001
 2.227807531026718e+000	 3.778862330096631e+000	 1.010423946586559e+001
 2.186626295332208e+000	 3.802840128814207e+000	 1.007093004874025e+001
 2.145246778880603e+000	 3.826335645341369e+000	 1.003416500329438e+001
 2.564631782766780e+000	 3.591693914315921e+000	 1.032144341998749e+001
 2.525092364103141e+000	 3.619600810383686e+000	 1.029369952451803e+001
 2.485288035862548e+000	 3.647046088213191e+000	 1.026704674457138e+001
 2.445226801437110e+000	 3.674026151172752e+000	 1.024104370644642e+001
 2.404916724466301e+000	 3.700537585774706e+000	 1.021523089837904e+001
 2.364365923660214e+000	 3.726577162769055e+000	 1.018912605417488e+001
 2.323582567606674e+000	 3.752141838063679e+000	 1.016222051905631e+001
 2.282574869568885e+000	 3.777228753471282e+000	 1.013397659915431e+001
 2.241351082280251e+000	 3.801835237283559e+000	 1.010382588605920e+001
 2.199919492742944e+000	 3.825958804673341e+000	 1.007116853817447e+001
 2.158288417036733e+000	 3.849597157925777e+000	 1.003537349137826e+001
 2.580128784674530e+000	 3.613397024996892e+000	 1.031989582208061e+001
 2.540350445768814e+000	 3.641472550816348e+000	 1.029260243826943e+001
 2.500305596547855e+000	 3.669083669030762e+000	 1.026613934753352e+001
 2.460002288764932e+000	 3.696226761275509e+000	 1.024014049661119e+001
 2.419448634784743e+000	 3.722898393436643e+000	 1.021422130070222e+001
 2.378652802375369e+000	 3.749095316751165e+000	 1.018797378220827e+001
 2.337623009484017e+000	 3.774814468732779e+000	 1.016096273909514e+001
 2.296367519003227e+000	 3.800052973923358e+000	 1.013272294399750e+001
 2.254894633534237e+000	 3.824808144470584e+000	 1.010275736474744e+001
 2.213212690154133e+000	 3.849077480532520e+000	 1.007053638693249e+001
 2.171330055193294e+000	 3.872858670510183e+000	 1.003549800946235e+001
 2.595625786582433e+000	 3.635100135678463e+000	 1.031850506373083e+001
 2.555608527434690e+000	 3.663344291249593e+000	 1.029170887713416e+001
 2.515323157233419e+000	 3.691121249848880e+000	 1.026542018542458e+001
 2.474777776093069e+000	 3.718427371378763e+000	 1.023935646418850e+001
 2.433980545103553e+000	 3.745259201099026e+000	 1.021321623614705e+001
 2.392939681090943e+000	 3.771613470733660e+000	 1.018667394618519e+001
 2.351663451361818e+000	 3.797487099402197e+000	 1.015937591535578e+001
 2.310160168438054e+000	 3.822877194375687e+000	 1.013093737466955e+001
 2.268438184788723e+000	 3.847781051657798e+000	 1.010094056860468e+001
 2.226505887565815e+000	 3.872196156391829e+000	 1.006893390777442e+001
 2.184371693350319e+000	 3.896120183094671e+000	 1.003443214016430e+001
 2.053955311797024e+000	 3.663505057243499e+000	 1.000882064313732e+001
 2.014160787468252e+000	 3.685533680363033e+000	 9.954460952755538e+000
 1.974192364944430e+000	 3.707096848820648e+000	 9.898413656771544e+000
 1.934058010402449e+000	 3.728192913598081e+000	 9.853920039597661e+000
 1.893765698057606e+000	 3.748820402933820e+000	 9.819274126157993e+000
 1.853323405364218e+000	 3.768978021749815e+000	 9.791501369978851e+000
 1.812739108261148e+000	 3.788664650926862e+000	 9.767736071522787e+000
 1.772020776467593e+000	 3.807879346431334e+000	 9.745215370350600e+000
 1.731176368834391e+000	 3.826621338296152e+000	 9.721273912788181e+000
 1.690213828755852e+000	 3.844890029459100e+000	 9.693339302101771e+000
 1.649141079647045e+000	 3.862684994461763e+000	 9.658928422505856e+000
 2.066996949951050e+000	 3.686766569830242e+000	 1.001280933997136e+001
 2.026949749342556e+000	 3.708935064216883e+000	 9.961213059783955e+000
 1.986727546368358e+000	 3.730635148526094e+000	 9.905410769588816e+000
 1.946338357786760e+000	 3.751865163269136e+000	 9.858176843295404e+000
 1.905790208445515e+000	 3.772623627339524e+000	 9.821218052959692e+000
 1.865091126451960e+000	 3.792909237436087e+000	 9.791586013680504e+000
 1.824249138388354e+000	 3.812720867333757e+000	 9.766443127596457e+000
 1.783272264577802e+000	 3.832057567004748e+000	 9.743055728555930e+000
 1.742168514406036e+000	 3.850918561593067e+000	 9.718787967319621e+000
 1.700945881704125e+000	 3.869303250245444e+000	 9.691096550483136e+000
 1.659612340197034e+000	 3.887211204802014e+000	 9.657526429789247e+000
 2.080038588105280e+000	 3.710028082416403e+000	 1.001707776368897e+001
 2.039738711217104e+000	 3.732336448070155e+000	 9.968116170965082e+000
 1.999262727792577e+000	 3.754173448230980e+000	 9.914687831865971e+000
 1.958618705171412e+000	 3.775537412939670e+000	 9.865157154394570e+000
 1.917814718833813e+000	 3.796426851744760e+000	 9.826344535892764e+000
 1.876858847540136e+000	 3.816840453121951e+000	 9.795326490280337e+000
 1.835759168516035e+000	 3.836777083740311e+000	 9.769290884469815e+000
 1.794523752688518e+000	 3.856235787577900e+000	 9.745529210165882e+000
 1.753160659978216e+000	 3.875215784889800e+000	 9.721429666439105e+000
 1.711677934652947e+000	 3.893716471031692e+000	 9.694471172622615e+000
 1.670083600747572e+000	 3.911737415142255e+000	 9.662218413689470e+000
 2.093080226259744e+000	 3.733289595002065e+000	 1.002136005336019e+001
 2.052527673091920e+000	 3.755737831922926e+000	 9.974883983366551e+000
 2.011797909217094e+000	 3.777711747935385e+000	 9.924810533544310e+000
 1.970899052556393e+000	 3.799209662609751e+000	 9.874174417507064e+000
 1.929839229222469e+000	 3.820230076149579e+000	 9.833895784772626e+000
 1.888626568628697e+000	 3.840771668807451e+000	 9.801876793457614e+000
 1.847269198644123e+000	 3.860833300146565e+000	 9.775328437980308e+000
 1.805775240799660e+000	 3.880414008150812e+000	 9.751563633785830e+000
 1.764152805550830e+000	 3.899513008186364e+000	 9.727989475275082e+000
 1.722409987602206e+000	 3.918129691817841e+000	 9.702100506153922e+000
 1.680554861298542e+000	 3.936263625482468e+000	 9.671473109997502e+000
 2.106121864414475e+000	 3.756551107587308e+000	 1.002541516947328e+001
 2.065316634967021e+000	 3.779139215775277e+000	 9.981255855385701e+000
 2.024333090641914e+000	 3.801250047639374e+000	 9.934362743809389e+000
 1.983179399941691e+000	 3.822881912279439e+000	 9.884575851438587e+000
 1.941863739611455e+000	 3.844033300554042e+000	 9.843146949277045e+000
 1.900394289717594e+000	 3.864702884492636e+000	 9.810423441989952e+000
 1.858779228772551e+000	 3.884889516552547e+000	 9.783637422788516e+000
 1.817026728911142e+000	 3.904592228723509e+000	 9.760119807289133e+000
 1.775144951123781e+000	 3.923810231482768e+000	 9.737291742897646e+000
 1.733142040551793e+000	 3.942542912603885e+000	 9.712657118310933e+000
 1.691026121849827e+000	 3.960789835822633e+000	 9.683796286723863e+000
 2.119163502569507e+000	 3.779812620172219e+000	 1.002902620709473e+001
 2.078105596842430e+000	 3.802540599627279e+000	 9.986996118246305e+000
 2.036868272067042e+000	 3.824788347343020e+000	 9.943069630796348e+000
 1.995459747327293e+000	 3.846554161948798e+000	 9.895744189853215e+000
 1.953888250000736e+000	 3.867836524958197e+000	 9.853407737522154e+000
 1.912162010806777e+000	 3.888634100177547e+000	 9.820186963588697e+000
 1.870289258901252e+000	 3.908945732958296e+000	 9.793333349012430e+000
 1.828278217022880e+000	 3.928770449296013e+000	 9.770192704989562e+000
 1.786137096696969e+000	 3.948107454779024e+000	 9.748195707975219e+000
 1.743874093501599e+000	 3.966956133389826e+000	 9.724849628228023e+000
 1.701497382401312e+000	 3.985316046162736e+000	 9.697731371422096e+000
 2.132205140724873e+000	 3.803074132756878e+000	 1.003199971252401e+001
 2.090894558718166e+000	 3.825941983479015e+000	 9.991893391411939e+000
 2.049403453492485e+000	 3.848326647046395e+000	 9.950685190998435e+000
 2.007740094713190e+000	 3.870226411617892e+000	 9.906818847023928e+000
 1.965912760390286e+000	 3.891639749362105e+000	 9.864024042623209e+000
 1.923929731896198e+000	 3.912565315862232e+000	 9.830423389007217e+000
 1.881799289030159e+000	 3.933001949363844e+000	 9.803566951886930e+000
 1.839529705134790e+000	 3.952948669868349e+000	 9.780812661053190e+000
 1.797129242270298e+000	 3.972404678075140e+000	 9.759596524344529e+000
 1.754606146451515e+000	 3.991369354175658e+000	 9.737423553284865e+000
 1.711968642952877e+000	 4.009842256502755e+000	 9.711688372372759e+000
 2.145246778880603e+000	 3.826335645341369e+000	 1.003416500329438e+001
 2.103683520594251e+000	 3.849343367330560e+000	 9.995759901748825e+000
 2.061938634918248e+000	 3.871864946749569e+000	 9.956988251421484e+000
 2.020020442099368e+000	 3.893898661286785e+000	 9.916340293450531e+000
 1.977937270780072e+000	 3.915442973765817e+000	 9.874379576899969e+000
 1.935697452985807e+000	 3.936496531546734e+000	 9.840425755984997e+000
 1.893309319159202e+000	 3.957058165769227e+000	 9.813525553894088e+000
 1.850781193246788e+000	 3.977126890440536e+000	 9.791046578458603e+000
 1.808121387843667e+000	 3.996701901371128e+000	 9.770426305646671e+000
 1.765338199401428e+000	 4.015782574961377e+000	 9.748700609817895e+000
 1.722439903504408e+000	 4.034368466842676e+000	 9.722991001952966e+000
 2.158288417036733e+000	 3.849597157925777e+000	 1.003537349137826e+001
 2.116472482470704e+000	 3.872744751181992e+000	 9.998430806279959e+000
 2.074473816344336e+000	 3.895403246452611e+000	 9.961781781198171e+000
 2.032300789485816e+000	 3.917570910955538e+000	 9.923960550019478e+000
 1.989961781170066e+000	 3.939246198169390e+000	 9.883897513403650e+000
 1.947465174075554e+000	 3.960427747231099e+000	 9.849525622611298e+000
 1.904819349288316e+000	 3.981114382174480e+000	 9.822434438836929e+000
 1.862032681358789e+000	 4.001305111012600e+000	 9.799995493745360e+000
 1.819113533416977e+000	 4.020999124666999e+000	 9.778817177051012e+000
 1.776070252351231e+000	 4.040195795746982e+000	 9.756273221124314e+000
 1.732911164055787e+000	 4.058894677182480e+000	 9.730719678942068e+000
 2.171330055193294e+000	 3.872858670510183e+000	 1.003549800946235e+001
 2.129261444347548e+000	 3.896146135033388e+000	 9.999763518379391e+000
 2.087008997770753e+000	 3.918941546155594e+000	 9.964892207423253e+000
 2.044581136872522e+000	 3.941243160624216e+000	 9.929459382287108e+000
 2.001986291560236e+000	 3.963049422572876e+000	 9.892027524153166e+000
 1.959232895165393e+000	 3.984358962915372e+000	 9.857094589712597e+000
 1.916329379417432e+000	 4.005170598579635e+000	 9.829500911629625e+000
 1.873284169470709e+000	 4.025483331584564e+000	 9.805565391107054e+000
 1.830105678990131e+000	 4.045296347962762e+000	 9.782863632712319e+000
 1.786802305300814e+000	 4.064609016532470e+000	 9.759675982319887e+000
 1.743382424606897e+000	 4.083420887522147e+000	 9.734412785325185e+000
 2.184371693350319e+000	 3.896120183094671e+000	 1.003443214016430e+001
 2.142050406224803e+000	 3.919547518884829e+000	 9.999637037262872e+000
 2.099544179197507e+000	 3.942479845858591e+000	 9.966168735033557e+000
 2.056861484259474e+000	 3.964915410292883e+000	 9.932640878808632e+000
 2.014010801950552e+000	 3.986852646976335e+000	 9.897644315959052e+000
 1.971000616255271e+000	 4.008290178599602e+000	 9.862399494646050e+000
 1.927839409546484e+000	 4.029226814984732e+000	 9.832554916272244e+000
 1.884535657582464e+000	 4.049661552156452e+000	 9.806478698356784e+000
 1.841097824563030e+000	 4.069593571258429e+000	 9.782386887981918e+000
 1.797534358250065e+000	 4.089022237317836e+000	 9.758618211849036e+000
 1.753853685157622e+000	 4.107947097861665e+000	 9.733631387882289e+000
 1.649141079647045e+000	 3.862684994461763e+000	 9.658928422505856e+000
 1.607959836669317e+000	 3.880008541358522e+000	 9.619942567915711e+000
 1.566684128643885e+000	 3.896857880884244e+000	 9.580117771609068e+000
 1.525321798057408e+000	 3.913233096336334e+000	 9.539793126152329e+000
 1.483880649957763e+000	 3.929134436186638e+000	 9.499335213912655e+000
 1.442368447821710e+000	 3.944562312133359e+000	 9.459136530135110e+000
 1.400792909513493e+000	 3.959517297036671e+000	 9.419615135696134e+000
 1.359161703337863e+000	 3.974000122742366e+000	 9.381215520299881e+000
 1.317482444190801e+000	 3.988011677797904e+000	 9.344909138919048e+000
 1.275762689811018e+000	 4.001553005065471e+000	 9.315267475791675e+000
 1.234009937135045e+000	 4.014625299236578e+000	 9.291925547790619e+000
 1.659612340197034e+000	 3.887211204802014e+000	 9.657526429789247e+000
 1.618169615936555e+000	 3.904644747972214e+000	 9.619758126328476e+000
 1.576631826820247e+000	 3.921601072780403e+000	 9.581261882699197e+000
 1.535006865130829e+000	 3.938080263052890e+000	 9.542323926588317e+000
 1.493302585474527e+000	 3.954082568839195e+000	 9.503240943144917e+000
 1.451526800622489e+000	 3.969608404451610e+000	 9.464318641200377e+000
 1.409687277443730e+000	 3.984658346387703e+000	 9.425871658359249e+000
 1.367791732933090e+000	 3.999233131140132e+000	 9.388224783934920e+000
 1.325847830337527e+000	 4.013333652898218e+000	 9.352081372998562e+000
 1.283863175383798e+000	 4.026960961145822e+000	 9.321865587018669e+000
 1.241845312610418e+000	 4.040116258160178e+000	 9.298291020086667e+000
 1.670083600747572e+000	 3.911737415142255e+000	 9.662218413689470e+000
 1.628379395204329e+000	 3.929280954585979e+000	 9.626025351951638e+000
 1.586579524997117e+000	 3.946344264676716e+000	 9.588985924494489e+000
 1.544691932204722e+000	 3.962927429769678e+000	 9.551318603689451e+000
 1.502724520991713e+000	 3.979030701492055e+000	 9.513237145082849e+000
 1.460685153423631e+000	 3.994654496770230e+000	 9.474949265739799e+000
 1.418581645374264e+000	 4.009799395739160e+000	 9.436680743165036e+000
 1.376421762528546e+000	 4.024466139538372e+000	 9.399131727108788e+000
 1.334213216484404e+000	 4.038655627999038e+000	 9.363445918449727e+000
 1.291963660956650e+000	 4.052368917226700e+000	 9.332817618967509e+000
 1.249680688085785e+000	 4.065607217084311e+000	 9.308817053584692e+000
 1.680554861298542e+000	 3.936263625482468e+000	 9.671473109997502e+000
 1.638589174472520e+000	 3.953917161199783e+000	 9.637052484053754e+000
 1.596527223174380e+000	 3.971087456573137e+000	 9.601469381808402e+000
 1.554376999278973e+000	 3.987774596486632e+000	 9.564859896058023e+000
 1.512146456509218e+000	 4.003978834145139e+000	 9.527330291463420e+000
 1.469843506225049e+000	 4.019700589089125e+000	 9.488950683054025e+000
 1.427476013305023e+000	 4.034940445090934e+000	 9.450536993802237e+000
 1.385051792124171e+000	 4.049699147936963e+000	 9.413146987849256e+000
 1.342578602631395e+000	 4.063977603100238e+000	 9.377887438196687e+000
 1.300064146529557e+000	 4.077776873307971e+000	 9.346954678300572e+000
 1.257516063561146e+000	 4.091098176008841e+000	 9.322399878057851e+000
 1.691026121849827e+000	 3.960789835822633e+000	 9.683796286723863e+000
 1.648798953741009e+000	 3.978553367813596e+000	 9.651186481816042e+000
 1.606474921351918e+000	 3.995830648469615e+000	 9.616931458575545e+000
 1.564062066353473e+000	 4.012621763203689e+000	 9.580907629878707e+000
 1.521568392026944e+000	 4.028926966798368e+000	 9.543189039813306e+000
 1.479001859026653e+000	 4.044746681408201e+000	 9.504671737670323e+000
 1.436370381235935e+000	 4.060081494442918e+000	 9.466327114229575e+000
 1.393681821719912e+000	 4.074932156335789e+000	 9.429171670671879e+000
 1.350943988778462e+000	 4.089299578201687e+000	 9.394262732926007e+000
 1.308164632102501e+000	 4.103184829389508e+000	 9.363172612919064e+000
 1.265351439036504e+000	 4.116589134933640e+000	 9.337999638268791e+000
 1.701497382401312e+000	 3.985316046162736e+000	 9.697731371422096e+000
 1.659008733009677e+000	 4.003189574427382e+000	 9.666796654508470e+000
 1.616422619529614e+000	 4.020573840366099e+000	 9.633104818798399e+000
 1.573747133428113e+000	 4.037468929920784e+000	 9.597011180361601e+000
 1.530990327544788e+000	 4.053875099451660e+000	 9.559357654726091e+000
 1.488160211828356e+000	 4.069792773727361e+000	 9.521033963905150e+000
 1.445264749166924e+000	 4.085222543795005e+000	 9.482973120761448e+000
 1.402311851315711e+000	 4.100165164734731e+000	 9.446147061321685e+000
 1.359309374925568e+000	 4.114621553303265e+000	 9.411562429407562e+000
 1.316265117675463e+000	 4.128592785471173e+000	 9.380428749094373e+000
 1.273186814511861e+000	 4.142080093858573e+000	 9.354637354634800e+000
 1.711968642952877e+000	 4.009842256502755e+000	 9.711688372372759e+000
 1.669218512278404e+000	 4.027825781041109e+000	 9.681265887080096e+000
 1.626370317707353e+000	 4.045317032262544e+000	 9.647804785888722e+000
 1.583432200502779e+000	 4.062316096637850e+000	 9.612063411604769e+000
 1.540412263062650e+000	 4.078823232104933e+000	 9.574848320377189e+000
 1.497318564630068e+000	 4.094838866046509e+000	 9.537009668549676e+000
 1.454159117097919e+000	 4.110363593147087e+000	 9.499436743508912e+000
 1.410941880911512e+000	 4.125398173133672e+000	 9.463053640826225e+000
 1.367674761072674e+000	 4.139943528404842e+000	 9.428815091674238e+000
 1.324365603248425e+000	 4.154000741552840e+000	 9.397738665581146e+000
 1.281022189987216e+000	 4.167571052783504e+000	 9.371391917467943e+000
 1.722439903504408e+000	 4.034368466842676e+000	 9.722991001952966e+000
 1.679428291547071e+000	 4.052461987654741e+000	 9.693060104048326e+000
 1.636318015885016e+000	 4.070060224158895e+000	 9.660218237558601e+000
 1.593117267577364e+000	 4.087163263354825e+000	 9.625181065016369e+000
 1.549834198580428e+000	 4.103771364758110e+000	 9.588710316458350e+000
 1.506476917431703e+000	 4.119884958365555e+000	 9.551609208557998e+000
 1.463053485028845e+000	 4.135504642499055e+000	 9.514718002629962e+000
 1.419571910507259e+000	 4.150631181532491e+000	 9.478909703362398e+000
 1.376040147219742e+000	 4.165265503506291e+000	 9.445085901977963e+000
 1.332466088821368e+000	 4.179408697634375e+000	 9.414173003138117e+000
 1.288857565462575e+000	 4.193062011708301e+000	 9.387397113361249e+000
 1.732911164055787e+000	 4.058894677182480e+000	 9.730719678942068e+000
 1.689638070815559e+000	 4.077098194268250e+000	 9.701544982093143e+000
 1.646265714062487e+000	 4.094803416055106e+000	 9.669589558759792e+000
 1.602802334651755e+000	 4.112010430071640e+000	 9.635514927369290e+000
 1.559256134098022e+000	 4.128719497411107e+000	 9.600028613341275e+000
 1.515635270233171e+000	 4.144931050684400e+000	 9.563879585643711e+000
 1.471947852959630e+000	 4.160645691850804e+000	 9.527853823092306e+000
 1.428201940102896e+000	 4.175864189931072e+000	 9.492770011898239e+000
 1.384405533366737e+000	 4.190587478607486e+000	 9.459475377986717e+000
 1.340566574394276e+000	 4.204816653715645e+000	 9.428841659561646e+000
 1.296692940937935e+000	 4.218552970632833e+000	 9.401838682361534e+000
 1.743382424606897e+000	 4.083420887522147e+000	 9.734412785325185e+000
 1.699847850083750e+000	 4.101734400881598e+000	 9.706113644081537e+000
 1.656213412239648e+000	 4.119546607951128e+000	 9.675193537394911e+000
 1.612487401725841e+000	 4.136857596788231e+000	 9.642248481703822e+000
 1.568678069615330e+000	 4.153667630063846e+000	 9.607922503258145e+000
 1.524793623034385e+000	 4.169977143002951e+000	 9.572903077712958e+000
 1.480842220890201e+000	 4.185786741202223e+000	 9.537916686329211e+000
 1.436831969698366e+000	 4.201097198329295e+000	 9.503724490021527e+000
 1.392770919513618e+000	 4.215909453708301e+000	 9.471118124699082e+000
 1.348667059967129e+000	 4.230224609796522e+000	 9.440915623481070e+000
 1.304528316413302e+000	 4.244043929556965e+000	 9.413951404634302e+000
 1.753853685157622e+000	 4.107947097861665e+000	 9.733631387882289e+000
 1.710057629351524e+000	 4.126370607494756e+000	 9.706185437058775e+000
 1.666161110416385e+000	 4.144289799846914e+000	 9.676334085658873e+000
 1.622172468799514e+000	 4.161704763504537e+000	 9.644596591227296e+000
 1.578100005132252e+000	 4.178615762716244e+000	 9.611544265993617e+000
 1.533951975835255e+000	 4.195023235321111e+000	 9.577795905594048e+000
 1.489736588820484e+000	 4.210927790553209e+000	 9.544013317246602e+000
 1.445461999293614e+000	 4.226330206727043e+000	 9.510896948442818e+000
 1.401136305660350e+000	 4.241231428808610e+000	 9.479181619625264e+000
 1.356767545539909e+000	 4.255632565876874e+000	 9.449632366651002e+000
 1.312363691888676e+000	 4.269534888480566e+000	 9.423016215388504e+000
 1.234009937135045e+000	 4.014625299236578e+000	 9.291925547790619e+000
 1.192231618162235e+000	 4.027229903250403e+000	 9.271811027410884e+000
 1.150435094796215e+000	 4.039368302625527e+000	 9.251928410129667e+000
 1.108627657420195e+000	 4.051042125731239e+000	 9.231484208177854e+000
 1.066816522301443e+000	 4.062253141966685e+000	 9.209954746576401e+000
 1.025008828498531e+000	 4.073003258861230e+000	 9.187057795873653e+000
 9.832116348843374e-001	 4.083294519104892e+000	 9.162724752068494e+000
 9.414319172861082e-001	 4.093129097513706e+000	 9.137082364936790e+000
 8.996765657436613e-001	 4.102509297934844e+000	 9.110422675641248e+000
 8.579523818866406e-001	 4.111437550096344e+000	 9.083187602961107e+000
 8.162660764314832e-001	 4.119916406406245e+000	 9.055949436663951e+000
 1.241845312610418e+000	 4.040116258160178e+000	 9.298291020086667e+000
 1.199801721206407e+000	 4.052800895407485e+000	 9.278027781288460e+000
 1.157739809819977e+000	 4.065016367838656e+000	 9.258037003030772e+000
 1.115666915124803e+000	 4.076764314162330e+000	 9.237562810044452e+000
 1.073590299208018e+000	 4.088046515012492e+000	 9.216111305743006e+000
 1.031517146457816e+000	 4.098864890030392e+000	 9.193422122922954e+000
 9.894545605675654e-001	 4.109221494876151e+000	 9.169440819348363e+000
 9.474095616576930e-001	 4.119118518174838e+000	 9.144299530681543e+000
 9.053890835164922e-001	 4.128558278401947e+000	 9.118288246556055e+000
 8.633999709607189e-001	 4.137543220713116e+000	 9.091838499674829e+000
 8.214489773166679e-001	 4.146075913722957e+000	 9.065504004044918e+000
 1.249680688085785e+000	 4.065607217084311e+000	 9.308817053584692e+000
 1.207371824250493e+000	 4.078371887565093e+000	 9.288135401373138e+000
 1.165044524843574e+000	 4.090664433052284e+000	 9.267775715635496e+000
 1.122706172829171e+000	 4.102486502593892e+000	 9.247020870162611e+000
 1.080364076114282e+000	 4.113839888058725e+000	 9.225407616438444e+000
 1.038025464416730e+000	 4.124726521199935e+000	 9.202698093192558e+000
 9.956974862503660e-001	 4.135148470647740e+000	 9.178852435344622e+000
 9.533872060288052e-001	 4.145107938836248e+000	 9.154008533617231e+000
 9.111016012888167e-001	 4.154607258869276e+000	 9.128454477584793e+000
 8.688475600342709e-001	 4.163648891330075e+000	 9.102611501071843e+000
 8.266318782013200e-001	 4.172235421039815e+000	 9.077014760854697e+000
 1.257516063561146e+000	 4.091098176008841e+000	 9.322399878057851e+000
 1.214941927294513e+000	 4.103942879723094e+000	 9.301108180051374e+000
 1.172349239867047e+000	 4.116312498266290e+000	 9.280192499518609e+000
 1.129745430533360e+000	 4.128208691025804e+000	 9.258975472236950e+000
 1.087137853020315e+000	 4.139633261105280e+000	 9.237025264576179e+000
 1.044533782375364e+000	 4.150588152369766e+000	 9.214127084308307e+000
 1.001940411932846e+000	 4.161075446419583e+000	 9.190256006697638e+000
 9.593648503995628e-001	 4.171097359497876e+000	 9.165556006356425e+000
 9.168141190607614e-001	 4.180656239336790e+000	 9.140313421570030e+000
 8.742951491074273e-001	 4.189754561947185e+000	 9.114939294729304e+000
 8.318147790855720e-001	 4.198394928356807e+000	 9.089950291375271e+000
 1.265351439036504e+000	 4.116589134933640e+000	 9.337999638268791e+000
 1.222512030338491e+000	 4.129513871881357e+000	 9.315983028419526e+000
 1.179653954890438e+000	 4.141960563480546e+000	 9.294396567367697e+000
 1.136784688237429e+000	 4.153930879457952e+000	 9.272603525515459e+000
 1.093911629926192e+000	 4.165426634152051e+000	 9.250204132132170e+000
 1.051042100333811e+000	 4.176449783539791e+000	 9.227007131388223e+000
 1.008183337615112e+000	 4.187002422191599e+000	 9.203002835053551e+000
 9.653424947700844e-001	 4.197086780159657e+000	 9.178341577406764e+000
 9.225266368324533e-001	 4.206705219804441e+000	 9.153308078479695e+000
 8.797427381803207e-001	 4.215860232564423e+000	 9.128303305165273e+000
 8.369976799695581e-001	 4.224554435673913e+000	 9.103825534401699e+000
 1.273186814511861e+000	 4.142080093858573e+000	 9.354637354634800e+000
 1.230082133382446e+000	 4.155084864039749e+000	 9.331856668769721e+000
 1.186958669913788e+000	 4.167608628694931e+000	 9.309555812283820e+000
 1.143823945941437e+000	 4.179653067890219e+000	 9.287139405728162e+000
 1.100685406831993e+000	 4.191220007198934e+000	 9.264240254384962e+000
 1.057550418292166e+000	 4.202311414709921e+000	 9.240690995102126e+000
 1.014426263297271e+000	 4.212929397963709e+000	 9.216497958127293e+000
 9.713201391404875e-001	 4.223076200821530e+000	 9.191816343937155e+000
 9.282391546040187e-001	 4.232754200272183e+000	 9.166931061799932e+000
 8.851903272530822e-001	 4.241965903181751e+000	 9.142232547922465e+000
 8.421805808534109e-001	 4.250713942991122e+000	 9.118200819000791e+000
 1.281022189987216e+000	 4.167571052783504e+000	 9.371391917467943e+000
 1.237652236426401e+000	 4.180655856198142e+000	 9.347882856859309e+000
 1.194263384937138e+000	 4.193256693909315e+000	 9.324894253168894e+000
 1.150863203645446e+000	 4.205375256322486e+000	 9.301872618506518e+000
 1.107459183737793e+000	 4.217013380245822e+000	 9.278483696120276e+000
 1.064058736250520e+000	 4.228173045880061e+000	 9.254584245264066e+000
 1.020669188979431e+000	 4.238856373735842e+000	 9.230196040097486e+000
 9.772977835108908e-001	 4.249065621483434e+000	 9.205481353457763e+000
 9.339516723755841e-001	 4.258803180739971e+000	 9.180723270649843e+000
 8.906379163258440e-001	 4.268071573799145e+000	 9.156302486255099e+000
 8.473634817372634e-001	 4.276873450308417e+000	 9.132680899825758e+000
 1.288857565462575e+000	 4.193062011708301e+000	 9.387397113361249e+000
 1.245222339470378e+000	 4.206226848356404e+000	 9.363269632696779e+000
 1.201568099960529e+000	 4.218904759123572e+000	 9.339689505089817e+000
 1.157902461349515e+000	 4.231097444754642e+000	 9.316145484327745e+000
 1.114232960643671e+000	 4.242806753292610e+000	 9.292336445992342e+000
 1.070567054208968e+000	 4.254034677050119e+000	 9.268143359296371e+000
 1.026912114661696e+000	 4.264783349507912e+000	 9.243603468171996e+000
 9.832754278814122e-001	 4.275055042145304e+000	 9.218886094034303e+000
 9.396641901472760e-001	 4.284852161207754e+000	 9.194272567374229e+000
 8.960855053987374e-001	 4.294177244416569e+000	 9.170133890308254e+000
 8.525463826212494e-001	 4.303032957625782e+000	 9.146913992005086e+000
 1.296692940937935e+000	 4.218552970632833e+000	 9.401838682361534e+000
 1.252792442514398e+000	 4.231797840514404e+000	 9.377276598637966e+000
 1.208872814984002e+000	 4.244552824337582e+000	 9.353270273562767e+000
 1.164941719053704e+000	 4.256819633186568e+000	 9.329350844072909e+000
 1.121006737549704e+000	 4.268600126339194e+000	 9.305250328274546e+000
 1.077075372167601e+000	 4.279896308220005e+000	 9.280873834936374e+000
 1.033155040344177e+000	 4.290710325279848e+000	 9.256273973446108e+000
 9.892530722521703e-001	 4.301044462807081e+000	 9.231626992675341e+000
 9.453767079192210e-001	 4.310901141675489e+000	 9.207212460382582e+000
 9.015330944718941e-001	 4.320282915033996e+000	 9.183391698684339e+000
 8.577292835055019e-001	 4.329192464943204e+000	 9.160590805623940e+000
 1.304528316413302e+000	 4.244043929556965e+000	 9.413951404634302e+000
 1.260362545558484e+000	 4.257368832672012e+000	 9.389212223644215e+000
 1.216177530007600e+000	 4.270200889551218e+000	 9.365013871752195e+000
 1.171980976758072e+000	 4.282541821618144e+000	 9.340929784332513e+000
 1.127780514455968e+000	 4.294393499385465e+000	 9.316724931267814e+000
 1.083583690126515e+000	 4.305757939389624e+000	 9.292328316587016e+000
 1.039397966026977e+000	 4.316637301051570e+000	 9.267807665569242e+000
 9.952307166232824e-001	 4.327033883468700e+000	 9.243345921549274e+000
 9.510892256915459e-001	 4.336950122143130e+000	 9.219220792013871e+000
 9.069806835454459e-001	 4.346388585651395e+000	 9.195783882295922e+000
 8.629121843901538e-001	 4.355351972260665e+000	 9.173443579814894e+000
 1.312363691888676e+000	 4.269534888480566e+000	 9.423016215388504e+000
 1.267932648602657e+000	 4.282939824829096e+000	 9.398431172609305e+000
 1.223482245031363e+000	 4.295848954764352e+000	 9.374343759626635e+000
 1.179020234462681e+000	 4.308264010049258e+000	 9.350369381634049e+000
 1.134554291362543e+000	 4.320186872431324e+000	 9.326305551670915e+000
 1.090092008085801e+000	 4.331619570558885e+000	 9.302104734740867e+000
 1.045640891710206e+000	 4.342564276822999e+000	 9.277849361987267e+000
 1.001208360994867e+000	 4.353023304130099e+000	 9.253728711703465e+000
 9.568017434643769e-001	 4.362999102610631e+000	 9.230018431216616e+000
 9.124282726195250e-001	 4.372494256268735e+000	 9.207060310409689e+000
 8.680950852753391e-001	 4.381511479578151e+000	 9.185245116474532e+000
 8.162660764314832e-001	 4.119916406406245e+000	 9.055949436663951e+000
 7.746305074992251e-001	 4.127947367894609e+000	 9.028420286779163e+000
 7.330459304817425e-001	 4.135534529605869e+000	 9.001540658677827e+000
 6.915187573703857e-001	 4.142680794474465e+000	 8.977911728947309e+000
 6.500553007098910e-001	 4.149389174776561e+000	 8.960338590932437e+000
 6.086617716998224e-001	 4.155662788750935e+000	 8.950612103535502e+000
 5.673442784153442e-001	 4.161504857197135e+000	 8.946764319148514e+000
 5.261088241467260e-001	 4.166918700055335e+000	 8.947169482144055e+000
 4.849613058567812e-001	 4.171907732972209e+000	 8.950963113224217e+000
 4.439075127552784e-001	 4.176475463857045e+000	 8.957869117452482e+000
 4.029531249892538e-001	 4.180625489432248e+000	 8.968042169491143e+000
 8.214489773166679e-001	 4.146075913722957e+000	 9.065504004044918e+000
 7.795490423483210e-001	 4.154157867992348e+000	 9.039296355229990e+000
 7.377004230691648e-001	 4.161793204567332e+000	 9.014121241153529e+000
 6.959095721836308e-001	 4.168984844814609e+000	 8.992044878747018e+000
 6.541828423181006e-001	 4.175735820136897e+000	 8.975249590285072e+000
 6.125264841102887e-001	 4.182049268572325e+000	 8.964925341723534e+000
 5.709466444187183e-001	 4.187928431371006e+000	 8.959297116410289e+000
 5.294493646516858e-001	 4.193376649553176e+000	 8.956914506038709e+000
 4.880405792149012e-001	 4.198397360453264e+000	 8.957049410116062e+000
 4.467261140768504e-001	 4.202994094254131e+000	 8.959528105635563e+000
 4.055116854507895e-001	 4.207170470515678e+000	 8.964578781191287e+000
 8.266318782013200e-001	 4.172235421039815e+000	 9.077014760854697e+000
 7.844675771968939e-001	 4.180368368090208e+000	 9.051913428756949e+000
 7.423549156560875e-001	 4.188051879528887e+000	 9.028148637897807e+000
 7.003003869964146e-001	 4.195288895154834e+000	 9.007300333308582e+000
 6.583103839258989e-001	 4.202082465497299e+000	 8.991027273213231e+000
 6.163911965204039e-001	 4.208435748393775e+000	 8.979928270672476e+000
 5.745490104218124e-001	 4.214352005544932e+000	 8.972336320412992e+000
 5.327899051564446e-001	 4.219834599051070e+000	 8.967002344091384e+000
 4.911198525729068e-001	 4.224886987934367e+000	 8.963358790512038e+000
 4.495447153984006e-001	 4.229512724651258e+000	 8.961357045671530e+000
 4.080702459124012e-001	 4.233715451599140e+000	 8.961320490203892e+000
 8.318147790855720e-001	 4.198394928356807e+000	 9.089950291375271e+000
 7.893861120450737e-001	 4.206578868188181e+000	 9.065780664873717e+000
 7.470094082426360e-001	 4.214310554490548e+000	 9.043186074868961e+000
 7.046912018088520e-001	 4.221592945495159e+000	 9.023308058814628e+000
 6.624379255333880e-001	 4.228429110857804e+000	 9.007356677626003e+000
 6.202559089302560e-001	 4.234822228215323e+000	 8.995401535792254e+000
 5.781513764246962e-001	 4.240775579718960e+000	 8.985775119969432e+000
 5.361304456610525e-001	 4.246292548549063e+000	 8.977452348020384e+000
 4.941991259308264e-001	 4.251376615415562e+000	 8.970047035398693e+000
 4.523633167199344e-001	 4.256031355048466e+000	 8.963655042036104e+000
 4.106288063740699e-001	 4.260260432682666e+000	 8.958713244875700e+000
 8.369976799695581e-001	 4.224554435673913e+000	 9.103825534401699e+000
 7.943046468929925e-001	 4.232789368286273e+000	 9.080450780014186e+000
 7.516639008289349e-001	 4.240569229452331e+000	 9.058836903188103e+000
 7.090820166210586e-001	 4.247896995835609e+000	 9.039734090378719e+000
 6.665654671406717e-001	 4.254775756218443e+000	 9.023956413371717e+000
 6.241206213399322e-001	 4.261208708037015e+000	 9.011152752020076e+000
 5.817537424274395e-001	 4.267199153893132e+000	 8.999527028529252e+000
 5.394709861655601e-001	 4.272750498047199e+000	 8.988297450002753e+000
 4.972783992886888e-001	 4.277866242896895e+000	 8.977276605657959e+000
 4.551819180414574e-001	 4.282549985445801e+000	 8.966720765095571e+000
 4.131873668357766e-001	 4.286805413766293e+000	 8.957195175302662e+000
 8.421805808534109e-001	 4.250713942991122e+000	 9.118200819000791e+000
 7.992231817407802e-001	 4.258999868384477e+000	 9.095519267982018e+000
 7.563183934151089e-001	 4.266827904414242e+000	 9.074744007908901e+000
 7.134728314331503e-001	 4.274201046176213e+000	 9.056280138001558e+000
 6.706930087478520e-001	 4.281122401579249e+000	 9.040588086587135e+000
 6.279853337495213e-001	 4.287595187858888e+000	 9.027016583086898e+000
 5.853561084301131e-001	 4.293622728067493e+000	 9.013526140485926e+000
 5.428115266700170e-001	 4.299208447545529e+000	 8.999584608370755e+000
 5.003576726465228e-001	 4.304355870378412e+000	 8.985217287920239e+000
 4.580005193629747e-001	 4.309068615843296e+000	 8.970853306306610e+000
 4.157459272975020e-001	 4.313350394850049e+000	 8.957197665497386e+000
 8.473634817372634e-001	 4.276873450308417e+000	 9.132680899825758e+000
 8.041417165885678e-001	 4.285210368482794e+000	 9.110623614714225e+000
 7.609728860012828e-001	 4.293086579376300e+000	 9.090589209420006e+000
 7.178636462452411e-001	 4.300505096516986e+000	 9.072683181060674e+000
 6.748205503550323e-001	 4.307469046940256e+000	 9.057058337092165e+000
 6.318500461591106e-001	 4.313981667680984e+000	 9.042854799967849e+000
 5.889584744327866e-001	 4.320046302242091e+000	 9.027727361458359e+000
 5.461520671744742e-001	 4.325666397044096e+000	 9.011375221750521e+000
 5.034369460043564e-001	 4.330845497860159e+000	 8.994046803028398e+000
 4.608191206844920e-001	 4.335587246240998e+000	 8.976352989919608e+000
 4.183044877592277e-001	 4.339895375933969e+000	 8.959146375700831e+000
 8.525463826212494e-001	 4.303032957625782e+000	 9.146913992005086e+000
 8.090602514364863e-001	 4.311420868581226e+000	 9.125442509516168e+000
 7.656273785875816e-001	 4.319345254338512e+000	 9.106092657793534e+000
 7.222544610574481e-001	 4.326809146857958e+000	 9.088715051821051e+000
 6.789480919623159e-001	 4.333815692301495e+000	 9.073200171142984e+000
 6.357147585687870e-001	 4.340368147503342e+000	 9.058556319403477e+000
 5.925608404355304e-001	 4.346469876416972e+000	 9.042106613654639e+000
 5.494926076789813e-001	 4.352124346542950e+000	 9.023745512985583e+000
 5.065162193622189e-001	 4.357335125342182e+000	 9.003951378702949e+000
 4.636377220060149e-001	 4.362105876638947e+000	 8.983522143036820e+000
 4.208630482209342e-001	 4.366440357018083e+000	 8.963462216961444e+000
 8.577292835055019e-001	 4.329192464943204e+000	 9.160590805623940e+000
 8.139787862846666e-001	 4.337631368679769e+000	 9.139695052917039e+000
 7.702818711741304e-001	 4.345603929300893e+000	 9.121012220377764e+000
 7.266452758698856e-001	 4.353113197199152e+000	 9.104182008431714e+000
 6.830756335698049e-001	 4.360162337663001e+000	 9.088877138536802e+000
 6.395794709786391e-001	 4.366754627326000e+000	 9.074037223334043e+000
 5.961632064384143e-001	 4.372893450592176e+000	 9.056661017372106e+000
 5.528331481835894e-001	 4.378582296042136e+000	 9.036786884123808e+000
 5.095954927201386e-001	 4.383824752824525e+000	 9.015126287923421e+000
 4.664563233275486e-001	 4.388624507037183e+000	 8.992665825786876e+000
 4.234216086826029e-001	 4.392985338102428e+000	 8.970562279999951e+000
 8.629121843901538e-001	 4.355351972260665e+000	 9.173443579814894e+000
 8.188973211332394e-001	 4.363841868778422e+000	 9.153139961287542e+000
 7.749363637610531e-001	 4.371862604263454e+000	 9.135142862918146e+000
 7.310360906826695e-001	 4.379417247540587e+000	 9.118924297849578e+000
 6.872031751776031e-001	 4.386508983024806e+000	 9.103983089372791e+000
 6.434441833887548e-001	 4.393141107149004e+000	 9.089240760050046e+000
 5.997655724415082e-001	 4.399317024767751e+000	 9.071409049636884e+000
 5.561736886883482e-001	 4.405040245541704e+000	 9.050606243683934e+000
 5.126747660781442e-001	 4.410314380307236e+000	 9.027776354467154e+000
 4.692749246490988e-001	 4.415143137435748e+000	 9.004092523292300e+000
 4.259801691442147e-001	 4.419530319187034e+000	 8.980860720282454e+000
 8.680950852753391e-001	 4.381511479578151e+000	 9.185245116474532e+000
 8.238158559823361e-001	 4.390052368877189e+000	 9.165574768355437e+000
 7.795908563484760e-001	 4.398121279226209e+000	 9.148316024476870e+000
 7.354269054959154e-001	 4.405721297882294e+000	 9.132815709111954e+000
 6.913307167858134e-001	 4.412855628386947e+000	 9.118441909980758e+000
 6.473088957992209e-001	 4.419527586972392e+000	 9.104137327822764e+000
 6.033679384448826e-001	 4.425740598943745e+000	 9.086390680938843e+000
 5.595142291933083e-001	 4.431498195041700e+000	 9.065326307360840e+000
 5.157540394362644e-001	 4.436804007790360e+000	 9.042116426978240e+000
 4.720935259706708e-001	 4.441661767834681e+000	 9.018114801027483e+000
 4.285387296057504e-001	 4.446075300271935e+000	 8.994769601131640e+000
 4.029531249892538e-001	 4.180625489432248e+000	 8.968042169491143e+000
 3.620976067863624e-001	 4.184362021505855e+000	 8.976930761337925e+000
 3.213526407327571e-001	 4.187688172694503e+000	 8.981408569072562e+000
 2.807236575465107e-001	 4.190607788155261e+000	 8.984081965105229e+000
 2.402159721721477e-001	 4.193124788175180e+000	 8.987562904573352e+000
 1.998347830423366e-001	 4.195243164716059e+000	 8.994361079389858e+000
 1.595851714486658e-001	 4.196966977977436e+000	 9.006783389419640e+000
 1.194721010194017e-001	 4.198300352981236e+000	 9.026839664086641e+000
 7.950041730204928e-002	 4.199247476181253e+000	 9.056153653394469e+000
 3.967484744844285e-002	 4.199812592100591e+000	 9.095878395458103e+000
 0.000000000000000e+000	 4.200000000000001e+000	 9.146615157629027e+000
 4.055116854507895e-001	 4.207170470515678e+000	 8.964578781191287e+000
 3.643967541624681e-001	 4.210930727788929e+000	 8.968512989672417e+000
 3.233930769768961e-001	 4.214277998454132e+000	 8.968586417788780e+000
 2.825061190946209e-001	 4.217216152083235e+000	 8.966732487133781e+000
 2.417412292075336e-001	 4.219749133855214e+000	 8.964889755886691e+000
 2.011036387558750e-001	 4.221880961078892e+000	 8.964899910379259e+000
 1.605984612950160e-001	 4.223615719734105e+000	 8.968412819274413e+000
 1.202306919698988e-001	 4.224957561034674e+000	 8.976797534134919e+000
 8.000520709494793e-002	 4.225910698016350e+000	 8.991058211481873e+000
 3.992676383716123e-002	 4.226479402152904e+000	 9.011754025190502e+000
 0.000000000000000e+000	 4.226668000003317e+000	 9.038922233548153e+000
 4.080702459124012e-001	 4.233715451599140e+000	 8.961320490203892e+000
 3.666959015387499e-001	 4.237499434072024e+000	 8.960419785299832e+000
 3.254335132213082e-001	 4.240867824213765e+000	 8.956339888324854e+000
 2.842885806430887e-001	 4.243824516011196e+000	 8.950437588365707e+000
 2.432664862433427e-001	 4.246373479535219e+000	 8.944072393750989e+000
 2.023724944698756e-001	 4.248518757441675e+000	 8.938510628580540e+000
 1.616117511418327e-001	 4.250264461490711e+000	 8.934836324179100e+000
 1.209892829208255e-001	 4.251614769088035e+000	 8.933867738064851e+000
 8.050999688819097e-002	 4.252573919851358e+000	 8.936078430186736e+000
 4.017868022608303e-002	 4.253146212205121e+000	 8.941521925780583e+000
 0.000000000000000e+000	 4.253336000006533e+000	 8.949759095375230e+000
 4.106288063740699e-001	 4.260260432682666e+000	 8.958713244875700e+000
 3.689950489151643e-001	 4.264068140355160e+000	 8.953234985821714e+000
 3.274739494659248e-001	 4.267457649973411e+000	 8.945368340535243e+000
 2.860710421918249e-001	 4.270432879939134e+000	 8.935985140093131e+000
 2.447917432794692e-001	 4.272997825215163e+000	 8.925955639710372e+000
 2.036413501842226e-001	 4.275156553804367e+000	 8.916059002349932e+000
 1.626250409889994e-001	 4.276913203247188e+000	 8.906900295557014e+000
 1.217478738720746e-001	 4.278271977141238e+000	 8.898832781212327e+000
 8.101478668169221e-002	 4.279237141686184e+000	 8.891884381128810e+000
 4.043059661515737e-002	 4.279813022257143e+000	 8.885687307063357e+000
 0.000000000000000e+000	 4.280004000009551e+000	 8.879409950829471e+000
 4.131873668357766e-001	 4.286805413766293e+000	 8.957195175302662e+000
 3.712941962916668e-001	 4.290636846638357e+000	 8.947527125448259e+000
 3.295143857106780e-001	 4.294047475733071e+000	 8.936348439972747e+000
 2.878535037407400e-001	 4.297041243867040e+000	 8.924133002544757e+000
 2.463170003158075e-001	 4.299622170895022e+000	 8.911347042298418e+000
 2.049102058988005e-001	 4.301794350166915e+000	 8.898366301562056e+000
 1.636383308363993e-001	 4.303561945003477e+000	 8.885399420238342e+000
 1.225064648235386e-001	 4.304929185194208e+000	 8.872416261896280e+000
 8.151957647536566e-002	 4.305900363520745e+000	 8.859080016145144e+000
 4.068251300433339e-002	 4.306479832308872e+000	 8.844682023784340e+000
 0.000000000000000e+000	 4.306672000012267e+000	 8.828078384493038e+000
 4.157459272975020e-001	 4.313350394850049e+000	 8.957197665497386e+000
 3.735933436682135e-001	 4.317205552921639e+000	 8.943850723264063e+000
 3.315548219554992e-001	 4.320637301492754e+000	 8.929935652141230e+000
 2.896359652897446e-001	 4.323649607794899e+000	 8.915610712449865e+000
 2.478422573522515e-001	 4.326246516574762e+000	 8.901018742720630e+000
 2.061790616134940e-001	 4.328432146529279e+000	 8.886211323746405e+000
 1.646516206839160e-001	 4.330210686759509e+000	 8.871078846971749e+000
 1.232650557751100e-001	 4.331586393246865e+000	 8.855285155861989e+000
 8.202436626912517e-002	 4.332563585354943e+000	 8.838205544917214e+000
 4.093442939356026e-002	 4.333146642360212e+000	 8.818867019416848e+000
 0.000000000000000e+000	 4.333340000014584e+000	 8.795889838642484e+000
 4.183044877592277e-001	 4.339895375933969e+000	 8.959146375700831e+000
 3.758924910447601e-001	 4.343774259205020e+000	 8.942747515307980e+000
 3.335952582003206e-001	 4.347227127252465e+000	 8.926765674562438e+000
 2.914184268387489e-001	 4.350257971722702e+000	 8.911121102811409e+000
 2.493675143886955e-001	 4.352870862254359e+000	 8.895709267594270e+000
 2.074479173281874e-001	 4.355069942891405e+000	 8.880332342646289e+000
 1.656649105314326e-001	 4.356859428515224e+000	 8.864636271293568e+000
 1.240236467266813e-001	 4.358243601299131e+000	 8.848052015647804e+000
 8.252915606288463e-002	 4.359226807188695e+000	 8.829739724772784e+000
 4.118634578278713e-002	 4.359813452411068e+000	 8.808534680147179e+000
 0.000000000000000e+000	 4.360008000016401e+000	 8.782894003036306e+000
 4.208630482209342e-001	 4.366440357018083e+000	 8.963462216961444e+000
 3.781916384212626e-001	 4.370342965488527e+000	 8.944747632856393e+000
 3.356356944450737e-001	 4.373816953012210e+000	 8.927455809303682e+000
 2.932008883876640e-001	 4.376866335650436e+000	 8.911341857772905e+000
 2.508927714250336e-001	 4.379495207933778e+000	 8.896125251851183e+000
 2.087167730427654e-001	 4.381707739253252e+000	 8.881428982500241e+000
 1.666782003788324e-001	 4.383508170270559e+000	 8.866723942228898e+000
 1.247822376781452e-001	 4.384900809350929e+000	 8.851277088495547e+000
 8.303394585655800e-002	 4.385890029021907e+000	 8.834102066400790e+000
 4.143826217196314e-002	 4.386480262461337e+000	 8.813911102851026e+000
 0.000000000000000e+000	 4.386676000017618e+000	 8.789067117532815e+000
 4.234216086826029e-001	 4.392985338102428e+000	 8.970562279999951e+000
 3.804907857976769e-001	 4.396911671772176e+000	 8.950370729187521e+000
 3.376761306896904e-001	 4.400406778771993e+000	 8.932606278484165e+000
 2.949833499364001e-001	 4.403474699578090e+000	 8.916927005324480e+000
 2.524180284611601e-001	 4.406119553612994e+000	 8.902943094756495e+000
 2.099856287571123e-001	 4.408345535614769e+000	 8.890164021188626e+000
 1.676914902259990e-001	 4.410156912025449e+000	 8.877950594130928e+000
 1.255408286293942e-001	 4.411558017402181e+000	 8.865470356250214e+000
 8.353873565005922e-002	 4.412553250854495e+000	 8.851654959034891e+000
 4.169017856103743e-002	 4.413147072510928e+000	 8.835158280698305e+000
 0.000000000000000e+000	 4.413344000018133e+000	 8.814314191225609e+000
 4.259801691442147e-001	 4.419530319187034e+000	 8.980860720282454e+000
 3.827899331739587e-001	 4.423480378055990e+000	 8.960127056991249e+000
 3.397165669341023e-001	 4.426996604531820e+000	 8.942801485157768e+000
 2.967658114848678e-001	 4.430083063505653e+000	 8.928508350461845e+000
 2.539432854969691e-001	 4.432743899291976e+000	 8.916810551855955e+000
 2.112544844711126e-001	 4.434983331975912e+000	 8.907165125235634e+000
 1.687047800728156e-001	 4.436805653779828e+000	 8.898883306806136e+000
 1.262994195803208e-001	 4.438215225452806e+000	 8.891093500528847e+000
 8.404352544330211e-002	 4.439216472686363e+000	 8.882705718492824e+000
 4.194209494995915e-002	 4.439813882559738e+000	 8.872376209850570e+000
 0.000000000000000e+000	 4.440012000017850e+000	 8.858471141606445e+000
 4.285387296057504e-001	 4.446075300271935e+000	 8.994769601131640e+000
 3.850890805500643e-001	 4.450049084339991e+000	 8.974518498488225e+000
 3.417570031782413e-001	 4.453586430291698e+000	 8.958611221855399e+000
 2.985482730329779e-001	 4.456691427433116e+000	 8.946696851286578e+000
 2.554685425323549e-001	 4.459368244970696e+000	 8.938348265529415e+000
 2.125233401846509e-001	 4.461621128336633e+000	 8.933026519515089e+000
 1.697180699191656e-001	 4.463454395533640e+000	 8.930049296922171e+000
 1.270580105308178e-001	 4.464872433502731e+000	 8.928561796281660e+000
 8.454831523620064e-002	 4.465879694517425e+000	 8.927508561294420e+000
 4.219401133867746e-002	 4.466480692607675e+000	 8.925604920547993e+000
 0.000000000000000e+000	 4.466680000016666e+000	 8.921306857097861e+000
 4.466680000016666e+000	 0.000000000000000e+000	 1.043490834411337e+001
 4.466480692607678e+000	 4.219401133867761e-002	 1.043957920144091e+001
 4.465879694517425e+000	 8.454831523620093e-002	 1.044366573715771e+001
 4.464872433502731e+000	 1.270580105308174e-001	 1.044714165923333e+001
 4.463454395533637e+000	 1.697180699191653e-001	 1.045001022633427e+001
 4.461621128336632e+000	 2.125233401846509e-001	 1.045230095816801e+001
 4.459368244970698e+000	 2.554685425323549e-001	 1.045406618971835e+001
 4.456691427433116e+000	 2.985482730329781e-001	 1.045537716370672e+001
 4.453586430291698e+000	 3.417570031782408e-001	 1.045631929811508e+001
 4.450049084339993e+000	 3.850890805500641e-001	 1.045698620578725e+001
 4.446075300271936e+000	 4.285387296057503e-001	 1.045747198135159e+001
 4.493344001125478e+000	 0.000000000000000e+000	 1.041637013785315e+001
 4.493143503944068e+000	 4.244588995207979e-002	 1.042238923389570e+001
 4.492538918175068e+000	 8.505302933503604e-002	 1.042814203601515e+001
 4.491525644281115e+000	 1.278164877294522e-001	 1.043346275690762e+001
 4.490099141285576e+000	 1.707312078212957e-001	 1.043822085489711e+001
 4.488254930336908e+000	 2.137920056316579e-001	 1.044231926329857e+001
 4.485988598306077e+000	 2.569935708536612e-001	 1.044569272463737e+001
 4.483295801413886e+000	 3.003304672990532e-001	 1.044830592356143e+001
 4.480172268884857e+000	 3.437971334569228e-001	 1.045015105204071e+001
 4.476613806624296e+000	 3.873878831668750e-001	 1.045124437768993e+001
 4.472616300914868e+000	 4.310969064089002e-001	 1.045162132117045e+001
 4.520008008899155e+000	 0.000000000000000e+000	 1.039974631910275e+001
 4.519806321945047e+000	 4.269776862821971e-002	 1.040651478825749e+001
 4.519198148496463e+000	 8.555774355965612e-002	 1.041333550772271e+001
 4.518178861721835e+000	 1.285749651172135e-001	 1.041993351328755e+001
 4.516743893697841e+000	 1.717443459761730e-001	 1.042607175984103e+001
 4.514888738994899e+000	 2.150606713952958e-001	 1.043155081951891e+001
 4.512608958295947e+000	 2.585185995557294e-001	 1.043620896147422e+001
 4.509900182045277e+000	 3.021126620102522e-001	 1.043992230717513e+001
 4.506758114124131e+000	 3.458372642453049e-001	 1.044260469205580e+001
 4.503178535549549e+000	 3.896866863581595e-001	 1.044420679855112e+001
 4.499157308192905e+000	 4.336550838514770e-001	 1.044471405745736e+001
 4.546672030003566e+000	 0.000000000000000e+000	 1.038531409786424e+001
 4.546469153276179e+000	 4.294964743008928e-002	 1.039226526808481e+001
 4.545857392146254e+000	 8.606245803627632e-002	 1.039958051128585e+001
 4.544832092488003e+000	 1.293334428837648e-001	 1.040690555732118e+001
 4.543388659431392e+000	 1.727574846371274e-001	 1.041392361470200e+001
 4.541522560968784e+000	 2.163293377927727e-001	 1.042035648748874e+001
 4.539229331595075e+000	 2.600436290198506e-001	 1.042596636690316e+001
 4.536504575978026e+000	 3.038948576121461e-001	 1.043055799221434e+001
 4.533343972655578e+000	 3.478773960534280e-001	 1.043398080944374e+001
 4.529743277756488e+000	 3.919854906986114e-001	 1.043613068750457e+001
 4.525698328740825e+000	 4.362132625730023e-001	 1.043695067998795e+001
 4.573336071104578e+000	 0.000000000000000e+000	 1.037344552542249e+001
 4.573132004603027e+000	 4.320152642068042e-002	 1.038002564071457e+001
 4.572516655789086e+000	 8.656717289111188e-002	 1.038726921121830e+001
 4.571485343242733e+000	 1.300919212187695e-001	 1.039477209191918e+001
 4.570033445147191e+000	 1.737706240574890e-001	 1.040216396651869e+001
 4.568156402916756e+000	 2.175980051412970e-001	 1.040911083318672e+001
 4.565849724858240e+000	 2.615686596273152e-001	 1.041531847499694e+001
 4.563108989862871e+000	 3.056770545503059e-001	 1.042053661085010e+001
 4.559929851125256e+000	 3.499175293913336e-001	 1.042456335365301e+001
 4.556308039885856e+000	 3.942842967629248e-001	 1.042724953035792e+001
 4.552239369193409e+000	 4.387714432129977e-001	 1.042850234363953e+001
 4.600000138868055e+000	 0.000000000000000e+000	 1.036460475607752e+001
 4.599794882591152e+000	 4.345340566298505e-002	 1.037025399075153e+001
 4.599175946089608e+000	 8.707188825037808e-002	 1.037684941697334e+001
 4.598138620649134e+000	 1.308504003118912e-001	 1.038396601310785e+001
 4.596678257506200e+000	 1.747837644905879e-001	 1.039120562806112e+001
 4.594790271496990e+000	 2.188666737580766e-001	 1.039820078612176e+001
 4.592470144740218e+000	 2.630936917594146e-001	 1.040461980386159e+001
 4.589713430350549e+000	 3.074592532703026e-001	 1.041017291676989e+001
 4.586515756179225e+000	 3.519576647690627e-001	 1.041461904113352e+001
 4.582872828578392e+000	 3.965831051257931e-001	 1.041777272117493e+001
 4.578780436185433e+000	 4.413296264109848e-001	 1.041951073309736e+001
 4.626664239959867e+000	 0.000000000000000e+000	 1.035934540404538e+001
 4.626457793906115e+000	 4.370528521999508e-002	 1.036347915876188e+001
 4.625835269712468e+000	 8.757660424029021e-002	 1.036882249825955e+001
 4.624791931370330e+000	 1.316088803527934e-001	 1.037495809640216e+001
 4.623323103169381e+000	 1.757969061897542e-001	 1.038148512928085e+001
 4.621424173367672e+000	 2.201353439603201e-001	 1.038802434944438e+001
 4.619090597895790e+000	 2.646187257974394e-001	 1.039422481753540e+001
 4.616317904091795e+000	 3.092414542177068e-001	 1.039977199151363e+001
 4.613101694463548e+000	 3.539978026966565e-001	 1.040439679826154e+001
 4.609437650474842e+000	 3.988819163619110e-001	 1.040788523342479e+001
 4.605321536351673e+000	 4.438878128064857e-001	 1.041008795332770e+001
 4.653328381045878e+000	 0.000000000000000e+000	 1.035830799170622e+001
 4.653120745213482e+000	 4.395716515470247e-002	 1.036029846174785e+001
 4.652494633322307e+000	 8.808132098706338e-002	 1.036374137319030e+001
 4.651445282069430e+000	 1.323673615311397e-001	 1.036825524769490e+001
 4.649967988797696e+000	 1.768100494083182e-001	 1.037346122559944e+001
 4.648058115186988e+000	 2.214040160652356e-001	 1.037898935986750e+001
 4.645711090979728e+000	 2.661437621226807e-001	 1.038448693132780e+001
 4.642922417737346e+000	 3.110236578380899e-001	 1.038962848854802e+001
 4.639687672624278e+000	 3.560379436841560e-001	 1.039412723697824e+001
 4.636002512215940e+000	 4.011807310459719e-001	 1.039774731950480e+001
 4.631862676326912e+000	 4.464460030390216e-001	 1.040031644477725e+001
 4.679992568791956e+000	 0.000000000000000e+000	 1.036200530653993e+001
 4.679783743178811e+000	 4.420904553009910e-002	 1.036134825616153e+001
 4.679154043583775e+000	 8.858603861691294e-002	 1.036232058493575e+001
 4.678098679409549e+000	 1.331258440365935e-001	 1.036458729178140e+001
 4.676612921052107e+000	 1.778231943996098e-001	 1.036781335627081e+001
 4.674692103613120e+000	 2.226726903900312e-001	 1.037167083453623e+001
 4.672331630646809e+000	 2.676688011164292e-001	 1.037584648308842e+001
 4.669526977937935e+000	 3.128058645770228e-001	 1.038004996868562e+001
 4.666273697307479e+000	 3.580780882416026e-001	 1.038402216182901e+001
 4.662567420442431e+000	 4.034795497526699e-001	 1.038749423749807e+001
 4.658403862745927e+000	 4.490041977481146e-001	 1.039024892230683e+001
 4.706656809863968e+000	 0.000000000000000e+000	 1.036831927663179e+001
 4.706446794467666e+000	 4.446092640917691e-002	 1.036573023764265e+001
 4.705813507161521e+000	 8.909075725605414e-002	 1.036472449829319e+001
 4.704752130053802e+000	 1.338843280588184e-001	 1.036501400607687e+001
 4.703257906593572e+000	 1.788363414169591e-001	 1.036631022013904e+001
 4.701326145304251e+000	 2.239413672519153e-001	 1.036833096475955e+001
 4.698952223551813e+000	 2.691938431599761e-001	 1.037080779411905e+001
 4.696131591344302e+000	 3.145880748800765e-001	 1.037349392825757e+001
 4.692859775159207e+000	 3.601182368790375e-001	 1.037617282537440e+001
 4.689132381795057e+000	 4.057783730566991e-001	 1.037866746076904e+001
 4.684945102243493e+000	 4.515623975732859e-001	 1.038085038772426e+001
 4.733321110927780e+000	 0.000000000000000e+000	 1.037371224311372e+001
 4.733109905745614e+000	 4.471280785492782e-002	 1.037044754676273e+001
 4.732473030720188e+000	 8.959547703070217e-002	 1.036847233006375e+001
 4.731405640665302e+000	 1.346428137874779e-001	 1.036757065384273e+001
 4.729902952083056e+000	 1.798494907136964e-001	 1.036752465515809e+001
 4.727960246918567e+000	 2.252100469680961e-001	 1.036812108380569e+001
 4.725572876349514e+000	 2.707188886346120e-001	 1.036915833214796e+001
 4.722736264607185e+000	 3.163702891928218e-001	 1.037045402008943e+001
 4.719445912825525e+000	 3.621583901065016e-001	 1.037185320257161e+001
 4.715697402914556e+000	 4.080772015327532e-001	 1.037323727242727e+001
 4.711486401454396e+000	 4.541206031540578e-001	 1.037453363675628e+001
 4.446075300271936e+000	 4.285387296057503e-001	 1.045747198135159e+001
 4.441661767834682e+000	 4.720935259706711e-001	 1.045808413107422e+001
 4.436804007790361e+000	 5.157540394362641e-001	 1.045947677719979e+001
 4.431498195041699e+000	 5.595142291933083e-001	 1.046226991007568e+001
 4.425740598943744e+000	 6.033679384448822e-001	 1.046708217383324e+001
 4.419527586972393e+000	 6.473088957992210e-001	 1.047450554738729e+001
 4.412855628386947e+000	 6.913307167858135e-001	 1.048447706814193e+001
 4.405721297882294e+000	 7.354269054959151e-001	 1.049446442081733e+001
 4.398121279226208e+000	 7.795908563484759e-001	 1.050419893337257e+001
 4.390052368877188e+000	 8.238158559823358e-001	 1.051378378101788e+001
 4.381511479578153e+000	 8.680950852753392e-001	 1.052332931432422e+001
 4.472616300914868e+000	 4.310969064089002e-001	 1.045162132117045e+001
 4.468176421743035e+000	 4.749117046406274e-001	 1.045188870013268e+001
 4.463289663131958e+000	 5.188328510548873e-001	 1.045301258345480e+001
 4.457952177150323e+000	 5.628542687816454e-001	 1.045560092079738e+001
 4.452160210882960e+000	 6.069697642707739e-001	 1.046027858164801e+001
 4.445910110121298e+000	 6.511730286932238e-001	 1.046766547872281e+001
 4.439198323047760e+000	 6.954576394661729e-001	 1.047752158651256e+001
 4.432021403909766e+000	 7.398170619033307e-001	 1.048729822285039e+001
 4.424376016678721e+000	 7.842446509914089e-001	 1.049679223858678e+001
 4.416258938689485e+000	 8.287336532936123e-001	 1.050605132674926e+001
 4.407667064255488e+000	 8.732772089808063e-001	 1.051513778833164e+001
 4.499157308192905e+000	 4.336550838514770e-001	 1.044471405745736e+001
 4.494691082279964e+000	 4.777298840151175e-001	 1.044494294378524e+001
 4.489775325094918e+000	 5.219116634433038e-001	 1.044607581522199e+001
 4.484406165872398e+000	 5.661943092051770e-001	 1.044870479045060e+001
 4.478579829427026e+000	 6.105715909973927e-001	 1.045345589805136e+001
 4.472292639865749e+000	 6.550371625536072e-001	 1.046097080518742e+001
 4.465541024294119e+000	 6.995845631786763e-001	 1.047080126100948e+001
 4.458321516512072e+000	 7.442072194087523e-001	 1.048047778298823e+001
 4.450630760694662e+000	 7.888984467982982e-001	 1.048984484328018e+001
 4.442465515053096e+000	 8.336514518348713e-001	 1.049890140631197e+001
 4.433822655471317e+000	 8.784593339823469e-001	 1.050766742719699e+001
 4.525698328740825e+000	 4.362132625730023e-001	 1.043695067998795e+001
 4.521205756073643e+000	 4.805480647986484e-001	 1.043738804278841e+001
 4.516261000300145e+000	 5.249904773711638e-001	 1.043875655494438e+001
 4.510860167820908e+000	 5.695343512988462e-001	 1.044162756553726e+001
 4.504999461180328e+000	 6.141734195251155e-001	 1.044662196546840e+001
 4.498675182800866e+000	 6.589012983463134e-001	 1.045439568979376e+001
 4.491883738711193e+000	 7.037114889549527e-001	 1.046426955319718e+001
 4.484621642263761e+000	 7.485973791096093e-001	 1.047393980927394e+001
 4.476885517837253e+000	 7.935522449324756e-001	 1.048327660551099e+001
 4.468672104519222e+000	 8.385692528354408e-001	 1.049223657444516e+001
 4.459978259764122e+000	 8.836414615753685e-001	 1.050080262941166e+001
 4.552239369193409e+000	 4.387714432129977e-001	 1.042850234363953e+001
 4.547720449752237e+000	 4.833662476957265e-001	 1.042933143581855e+001
 4.542746695368543e+000	 5.280692936081171e-001	 1.043110762755782e+001
 4.537314189608826e+000	 5.728743958975963e-001	 1.043437538354499e+001
 4.531419112747249e+000	 6.177752507543191e-001	 1.043974289923945e+001
 4.525057745521771e+000	 6.627654370372837e-001	 1.044787155078796e+001
 4.518226472884162e+000	 7.078384178266318e-001	 1.045783772219716e+001
 4.510921787739378e+000	 7.529875421033310e-001	 1.046757696432489e+001
 4.503140294669723e+000	 7.982060465572731e-001	 1.047696207663301e+001
 4.494878713639076e+000	 8.434870575246495e-001	 1.048591339040014e+001
 4.486133883672388e+000	 8.888235930552790e-001	 1.049438167093860e+001
 4.578780436185433e+000	 4.413296264109848e-001	 1.041951073309736e+001
 4.574235169943915e+000	 4.861844334108586e-001	 1.042084690514286e+001
 4.569232416921015e+000	 5.311481129238141e-001	 1.042314491255121e+001
 4.563768237849136e+000	 5.762144438363704e-001	 1.042691501632748e+001
 4.557838790732178e+000	 6.213770855853804e-001	 1.043274386673190e+001
 4.551440334623584e+000	 6.666295795924608e-001	 1.044128808035853e+001
 4.544569233398201e+000	 7.119653508253427e-001	 1.045137540933206e+001
 4.537221959513468e+000	 7.573777094873466e-001	 1.046123862054592e+001
 4.529395097755288e+000	 8.028598528360238e-001	 1.047073142718737e+001
 4.521085348963855e+000	 8.484048671318256e-001	 1.047974351434838e+001
 4.512289533734597e+000	 8.940057297174857e-001	 1.048819797168945e+001
 4.605321536351673e+000	 4.438878128064857e-001	 1.041008795332770e+001
 4.600749923276847e+000	 4.890026226485517e-001	 1.041197468470751e+001
 4.595718171578466e+000	 5.342269360879051e-001	 1.041484767527063e+001
 4.590222319154813e+000	 5.795544959501117e-001	 1.041917442973540e+001
 4.584258501739503e+000	 6.249789249186765e-001	 1.042550987989149e+001
 4.577822956701428e+000	 6.704937269777870e-001	 1.043448278561872e+001
 4.570912026838485e+000	 7.160922889827146e-001	 1.044471123114646e+001
 4.563522164160577e+000	 7.617678823590853e-001	 1.045473162146052e+001
 4.555649933657178e+000	 8.075136649320591e-001	 1.046437137684684e+001
 4.547292017044766e+000	 8.533226828862969e-001	 1.047349480597239e+001
 4.538445216489230e+000	 8.991878728573967e-001	 1.048200136251347e+001
 4.631862676326912e+000	 4.464460030390216e-001	 1.040031644477725e+001
 4.627264716379196e+000	 4.918208161133120e-001	 1.040272158973837e+001
 4.622203965961801e+000	 5.373057638700399e-001	 1.040615891669164e+001
 4.616676440138840e+000	 5.828945530737638e-001	 1.041104335884327e+001
 4.610678252373610e+000	 6.285807696545841e-001	 1.041788660069356e+001
 4.604205618350422e+000	 6.743578801592035e-001	 1.042725582482287e+001
 4.597254859790193e+000	 7.202192333303771e-001	 1.043763338046599e+001
 4.589822408255249e+000	 7.661580618159762e-001	 1.044782104891339e+001
 4.581904808938610e+000	 8.121674840087109e-001	 1.045762612825012e+001
 4.573498724433014e+000	 8.582405060173919e-001	 1.046689242515343e+001
 4.564600938474771e+000	 9.043700237704185e-001	 1.047549935268046e+001
 4.658403862745927e+000	 4.490041977481146e-001	 1.039024892230683e+001
 4.653779555879138e+000	 4.946390145096463e-001	 1.039306116699147e+001
 4.648689806691922e+000	 5.403845970398687e-001	 1.039698574091940e+001
 4.643130607414196e+000	 5.862346160422692e-001	 1.040237389814844e+001
 4.637098049238887e+000	 6.321826206934798e-001	 1.040968115897942e+001
 4.630588326165689e+000	 6.782220401026525e-001	 1.041938302556993e+001
 4.623597738838499e+000	 7.243461848999591e-001	 1.042989023517156e+001
 4.616122698372031e+000	 7.705482489554486e-001	 1.044023099590887e+001
 4.608159730162813e+000	 8.168213112293123e-001	 1.045019830457096e+001
 4.599705477679802e+000	 8.631583377544388e-001	 1.045961993467386e+001
 4.590756706229706e+000	 9.095521837519599e-001	 1.046835839784134e+001
 4.684945102243493e+000	 4.515623975732859e-001	 1.038085038772426e+001
 4.680294448404837e+000	 4.974572185420616e-001	 1.038344103857003e+001
 4.675175700389737e+000	 5.434634363670420e-001	 1.038738667588221e+001
 4.669584827593855e+000	 5.895746856905717e-001	 1.039300123736610e+001
 4.663517898939720e+000	 6.357844789357413e-001	 1.040066298218716e+001
 4.656971086742348e+000	 6.820862077740765e-001	 1.041060262541764e+001
 4.649940670568578e+000	 7.284731447230901e-001	 1.042119097438099e+001
 4.642423041085466e+000	 7.749384448749320e-001	 1.043164534486119e+001
 4.634414703893005e+000	 8.214751477571947e-001	 1.044174989067504e+001
 4.625912283336335e+000	 8.680761793267663e-001	 1.045132040485652e+001
 4.616912526292515e+000	 9.147343540974277e-001	 1.046020516845104e+001
 4.711486401454396e+000	 4.541206031540578e-001	 1.037453363675628e+001
 4.706809400584461e+000	 5.002754289150643e-001	 1.037639831365467e+001
 4.701661653676148e+000	 5.465422826212096e-001	 1.037967375158797e+001
 4.696039107290806e+000	 5.929147628536142e-001	 1.038465979416750e+001
 4.689937808080498e+000	 6.393863452817449e-001	 1.039173702629254e+001
 4.683353906675524e+000	 6.859503841394172e-001	 1.040116704206087e+001
 4.676283661565610e+000	 7.326001138313998e-001	 1.041137183001499e+001
 4.668723442970103e+000	 7.793286506718558e-001	 1.042171517662968e+001
 4.660669736692414e+000	 8.261289947556906e-001	 1.043190317772377e+001
 4.652119147953820e+000	 8.729940319637025e-001	 1.044159752006727e+001
 4.643068405201682e+000	 9.199165361022299e-001	 1.045062781863977e+001
 4.381511479578153e+000	 8.680950852753392e-001	 1.052332931432422e+001
 4.372494256268734e+000	 9.124282726195251e-001	 1.053184212277625e+001
 4.362999102610631e+000	 9.568017434643775e-001	 1.053863382004319e+001
 4.353023304130100e+000	 1.001208360994867e+000	 1.054427072389701e+001
 4.342564276822998e+000	 1.045640891710206e+000	 1.054929762028529e+001
 4.331619570558887e+000	 1.090092008085801e+000	 1.055422075359234e+001
 4.320186872431323e+000	 1.134554291362543e+000	 1.055948481635069e+001
 4.308264010049258e+000	 1.179020234462681e+000	 1.056544952129141e+001
 4.295848954764352e+000	 1.223482245031362e+000	 1.057236066323381e+001
 4.282939824829096e+000	 1.267932648602656e+000	 1.058031733652761e+001
 4.269534888480566e+000	 1.312363691888676e+000	 1.058923457292743e+001
 4.407667064255488e+000	 8.732772089808063e-001	 1.051513778833164e+001
 4.398596012318690e+000	 9.178750448236624e-001	 1.052310341513327e+001
 4.389044177011387e+000	 9.625134046409613e-001	 1.052932687457095e+001
 4.379008827655715e+000	 1.007185109014209e+000	 1.053437285421205e+001
 4.368487364822227e+000	 1.051882881261982e+000	 1.053879577904786e+001
 4.357477323754350e+000	 1.096599350117776e+000	 1.054312360172061e+001
 4.345976377738679e+000	 1.141327052535939e+000	 1.054783617389120e+001
 4.333982341416010e+000	 1.186058436624959e+000	 1.055334261801347e+001
 4.321493174027922e+000	 1.230785864707158e+000	 1.055995351330143e+001
 4.308506982593759e+000	 1.275501616503612e+000	 1.056784915022519e+001
 4.295022025012785e+000	 1.320197892442914e+000	 1.057704317094223e+001
 4.433822655471317e+000	 8.784593339823469e-001	 1.050766742719699e+001
 4.424697774893605e+000	 9.233218183900277e-001	 1.051524332720534e+001
 4.415089257922868e+000	 9.682250672459721e-001	 1.052107364093642e+001
 4.404994357677095e+000	 1.013161858528212e+000	 1.052571848336286e+001
 4.394410459301542e+000	 1.058124872374679e+000	 1.052973889557143e+001
 4.383335083413516e+000	 1.103106693776948e+000	 1.053367920414743e+001
 4.371765889492628e+000	 1.148099815402816e+000	 1.053804910696643e+001
 4.359700679211524e+000	 1.193096640547001e+000	 1.054330080054156e+001
 4.347137399701697e+000	 1.238089486208987e+000	 1.054980259051394e+001
 4.334074146749346e+000	 1.283070586296851e+000	 1.055780826975170e+001
 4.320509167915921e+000	 1.328032094955653e+000	 1.056742185340363e+001
 4.459978259764122e+000	 8.836414615753685e-001	 1.050080262941166e+001
 4.450799550518535e+000	 9.287685946801909e-001	 1.050812655750756e+001
 4.441134351855977e+000	 9.739367327072045e-001	 1.051371691091449e+001
 4.430979900690285e+000	 1.019138611030946e+000	 1.051812637808288e+001
 4.420333566741421e+000	 1.064366866608685e+000	 1.052191759958954e+001
 4.409192856000539e+000	 1.109614040690050e+000	 1.052564698755069e+001
 4.397555414140287e+000	 1.154872581656271e+000	 1.052984774647277e+001
 4.385419029865138e+000	 1.200134847988272e+000	 1.053500827044131e+001
 4.372781638196507e+000	 1.245393111362680e+000	 1.054154697157126e+001
 4.359641323687431e+000	 1.290639559874549e+000	 1.054978287197485e+001
 4.345996323561553e+000	 1.335866301385387e+000	 1.055989791756969e+001
 4.486133883672388e+000	 8.888235930552790e-001	 1.049438167093860e+001
 4.476901345718530e+000	 9.342153750557224e-001	 1.050157211032076e+001
 4.467179465321620e+000	 9.796484024524531e-001	 1.050705475629408e+001
 4.456965463191335e+000	 1.025115368016482e+000	 1.051137128667108e+001
 4.446256693622319e+000	 1.070608865524384e+000	 1.051508131597340e+001
 4.435050647979574e+000	 1.116121392483815e+000	 1.051874767579608e+001
 4.423344958128768e+000	 1.161645352989399e+000	 1.052292049044188e+001
 4.411137399806195e+000	 1.207173060708235e+000	 1.052811691141233e+001
 4.398425895923182e+000	 1.252696741994063e+000	 1.053479725130697e+001
 4.385208519799599e+000	 1.298208539128881e+000	 1.054333688371691e+001
 4.371483498321260e+000	 1.343700513690607e+000	 1.055393238641451e+001
 4.512289533734597e+000	 8.940057297174857e-001	 1.048819797168945e+001
 4.503003167018644e+000	 9.396621608781911e-001	 1.049535473135196e+001
 4.493224604830710e+000	 9.853600779095113e-001	 1.050084213237613e+001
 4.482951051676290e+000	 1.031092130978891e+000	 1.050518680025194e+001
 4.472179846424698e+000	 1.076850870682165e+000	 1.050894019884785e+001
 4.460908465814776e+000	 1.122628750784973e+000	 1.051266538626426e+001
 4.449134527905187e+000	 1.168418131095294e+000	 1.051692226014495e+001
 4.436855795464037e+000	 1.214211280466358e+000	 1.052224870244218e+001
 4.424070179292549e+000	 1.260000379928967e+000	 1.052913810986359e+001
 4.410775741477422e+000	 1.305777525952022e+000	 1.053801269961575e+001
 4.396970698566631e+000	 1.351534733829807e+000	 1.054900431503159e+001
 4.538445216489230e+000	 8.991878728573967e-001	 1.048200136251347e+001
 4.529105020943929e+000	 9.451089535091676e-001	 1.048920634244183e+001
 4.519269776894151e+000	 9.910717605061750e-001	 1.049479247926698e+001
 4.508936672641196e+000	 1.037068901412242e+000	 1.049926682877569e+001
 4.498103031629028e+000	 1.083092883642414e+000	 1.050316706163749e+001
 4.486766315970298e+000	 1.129136117220259e+000	 1.050704972149495e+001
 4.474924129916655e+000	 1.175190917667052e+000	 1.051147675111300e+001
 4.462574223268007e+000	 1.221249509022102e+000	 1.051699812568642e+001
 4.449714494715444e+000	 1.267304026993219e+000	 1.052413087461393e+001
 4.436342995112481e+000	 1.313346522236146e+000	 1.053333389496071e+001
 4.422457930669241e+000	 1.359368963761479e+000	 1.054460357718065e+001
 4.564600938474771e+000	 9.043700237704185e-001	 1.047549935268046e+001
 4.555206914019435e+000	 9.505557543102214e-001	 1.048281747536183e+001
 4.545314988022852e+000	 9.967834516702375e-001	 1.048857932106168e+001
 4.534922332582100e+000	 1.043045680810607e+000	 1.049326736442422e+001
 4.524026255715766e+000	 1.089334905965518e+000	 1.049739930321575e+001
 4.512624204910296e+000	 1.135643493416402e+000	 1.050151785634782e+001
 4.500713770610291e+000	 1.181963714397768e+000	 1.050617867929094e+001
 4.488292689647441e+000	 1.228287748134932e+000	 1.051193456930203e+001
 4.475358848602695e+000	 1.274607685012647e+000	 1.051931607705756e+001
 4.461910287096350e+000	 1.320915529873429e+000	 1.052880793372555e+001
 4.447945201000673e+000	 1.367203205444115e+000	 1.054021703482164e+001
 4.590756706229706e+000	 9.095521837519599e-001	 1.046835839784134e+001
 4.581308852770215e+000	 9.560025646429226e-001	 1.047583870474206e+001
 4.571360244727722e+000	 1.002495152829494e+000	 1.048183786300816e+001
 4.560908037995049e+000	 1.049022470668055e+000	 1.048680824204277e+001
 4.549949525165379e+000	 1.095576939211864e+000	 1.049124083032312e+001
 4.538482139098918e+000	 1.142150881000136e+000	 1.049565662087139e+001
 4.526503456433209e+000	 1.188736522980538e+000	 1.050059602253416e+001
 4.514011201031685e+000	 1.235325999564314e+000	 1.050660472545270e+001
 4.501003247365126e+000	 1.281911355813081e+000	 1.051421600491151e+001
 4.487477623820609e+000	 1.328484550756046e+000	 1.052392887201128e+001
 4.473432515932508e+000	 1.375037460836209e+000	 1.053532897658227e+001
 4.616912526292515e+000	 9.147343540974277e-001	 1.046020516845104e+001
 4.607410843721322e+000	 9.614493858688408e-001	 1.046788208016992e+001
 4.597405553519670e+000	 1.008206865411738e+000	 1.047416658673949e+001
 4.586893795376091e+000	 1.054999272478657e+000	 1.047947489672483e+001
 4.575872846458330e+000	 1.101818984941837e+000	 1.048426397641331e+001
 4.564340125000325e+000	 1.148658281598193e+000	 1.048902457906337e+001
 4.552293193832522e+000	 1.195509345108456e+000	 1.049427225764758e+001
 4.539729763850074e+000	 1.242364265069712e+000	 1.050053498369448e+001
 4.526647697413574e+000	 1.289215041220347e+000	 1.050833724960602e+001
 4.513045011676836e+000	 1.336053586776172e+000	 1.051817670662129e+001
 4.498919881836328e+000	 1.382871731896253e+000	 1.052942155220657e+001
 4.643068405201682e+000	 9.199165361022299e-001	 1.045062781863977e+001
 4.633512893397807e+000	 9.668962193495462e-001	 1.045852255749817e+001
 4.623450920909602e+000	 1.013918590844765e+000	 1.046512878938146e+001
 4.612879611221273e+000	 1.060976087736484e+000	 1.047082011867182e+001
 4.601796226075082e+000	 1.108061044715826e+000	 1.047601141708024e+001
 4.590198169078671e+000	 1.155165696837305e+000	 1.048115410369833e+001
 4.578082989255348e+000	 1.202282182474619e+000	 1.048672859315930e+001
 4.565448384531957e+000	 1.249402546410591e+000	 1.049323381994290e+001
 4.552292205158868e+000	 1.296518743060276e+000	 1.050117324938697e+001
 4.538612457056609e+000	 1.343622639825983e+000	 1.051099549058043e+001
 4.524407305083716e+000	 1.390706020582740e+000	 1.052197520314647e+001
 4.269534888480566e+000	 1.312363691888676e+000	 1.058923457292743e+001
 4.255632565876872e+000	 1.356767545539909e+000	 1.059868156832283e+001
 4.241231428808608e+000	 1.401136305660351e+000	 1.060767673841813e+001
 4.226330206727042e+000	 1.445461999293613e+000	 1.061643666987462e+001
 4.210927790553208e+000	 1.489736588820483e+000	 1.062529287237954e+001
 4.195023235321111e+000	 1.533951975835254e+000	 1.063451204468946e+001
 4.178615762716243e+000	 1.578100005132252e+000	 1.064428398051351e+001
 4.161704763504535e+000	 1.622172468799514e+000	 1.065470855244312e+001
 4.144289799846913e+000	 1.666161110416385e+000	 1.066578175996249e+001
 4.126370607494755e+000	 1.710057629351524e+000	 1.067738083147337e+001
 4.107947097861664e+000	 1.753853685157622e+000	 1.068924837463147e+001
 4.295022025012785e+000	 1.320197892442914e+000	 1.057704317094223e+001
 4.281036712012197e+000	 1.364866816437977e+000	 1.058707034513303e+001
 4.266549606856836e+000	 1.409500437410215e+000	 1.059693860817903e+001
 4.251559431413378e+000	 1.454090734808399e+000	 1.060690192763191e+001
 4.236065069982165e+000	 1.498629623032470e+000	 1.061723493756080e+001
 4.220065571956186e+000	 1.543108955333008e+000	 1.062814261319220e+001
 4.203560154374750e+000	 1.587520527821554e+000	 1.063974805608656e+001
 4.186548204366940e+000	 1.631856083588732e+000	 1.065207934471481e+001
 4.169029281479970e+000	 1.676107316926896e+000	 1.066505543480955e+001
 4.151003119887775e+000	 1.720265877653798e+000	 1.067847109775807e+001
 4.132469630475130e+000	 1.764323375533540e+000	 1.069198088968267e+001
 4.320509167915921e+000	 1.328032094955653e+000	 1.056742185340363e+001
 4.306440864497702e+000	 1.372966089360724e+000	 1.057797855603531e+001
 4.291867791233776e+000	 1.417864571250883e+000	 1.058860484419615e+001
 4.276788662406223e+000	 1.462719472480056e+000	 1.059957224035722e+001
 4.261202355694691e+000	 1.507522659467327e+000	 1.061110439355022e+001
 4.245107914851145e+000	 1.552265937119550e+000	 1.062335141198537e+001
 4.228504552268713e+000	 1.596941052865475e+000	 1.063637754077363e+001
 4.211391651439615e+000	 1.641539700798301e+000	 1.065014789081822e+001
 4.193768769297368e+000	 1.686053525923383e+000	 1.066451420146096e+001
 4.175635638438451e+000	 1.730474128507555e+000	 1.067919962335734e+001
 4.156992169218810e+000	 1.774793068526321e+000	 1.069378251244406e+001
 4.345996323561553e+000	 1.335866301385387e+000	 1.055989791756969e+001
 4.331845029684224e+000	 1.381065366332917e+000	 1.057089167149856e+001
 4.317185988268775e+000	 1.426228709273348e+000	 1.058215565957749e+001
 4.302017906012684e+000	 1.471348214465735e+000	 1.059393331567281e+001
 4.286339653974895e+000	 1.516415700348281e+000	 1.060640308097127e+001
 4.270150270266356e+000	 1.561422923484098e+000	 1.061966692979034e+001
 4.253448962634001e+000	 1.606361582619120e+000	 1.063373795347162e+001
 4.236235110933194e+000	 1.651223322849098e+000	 1.064852697965127e+001
 4.218508269483743e+000	 1.695999739892365e+000	 1.066382820757551e+001
 4.200268169304669e+000	 1.740682384464818e+000	 1.067930384400964e+001
 4.181514720223089e+000	 1.785262766753336e+000	 1.069446772869190e+001
 4.371483498321260e+000	 1.343700513690607e+000	 1.055393238641451e+001
 4.357249213922601e+000	 1.389164649379327e+000	 1.056529159805115e+001
 4.342504204291177e+000	 1.434592853568603e+000	 1.057706823685225e+001
 4.327247168539863e+000	 1.479976962922586e+000	 1.058946810687759e+001
 4.311476971106893e+000	 1.525308747898565e+000	 1.060263010409210e+001
 4.295192644462189e+000	 1.570579916715873e+000	 1.061661467766174e+001
 4.278393391706491e+000	 1.615782119437594e+000	 1.063139133402779e+001
 4.261078589058305e+000	 1.660906952161998e+000	 1.064682515903059e+001
 4.243247788223721e+000	 1.705945961320360e+000	 1.066266233669969e+001
 4.224900718644309e+000	 1.750890648077604e+000	 1.067851464720051e+001
 4.206037289618354e+000	 1.795732472831950e+000	 1.069384293084267e+001
 4.396970698566631e+000	 1.351534733829807e+000	 1.054900431503159e+001
 4.382653423563671e+000	 1.397263940524723e+000	 1.056065713848002e+001
 4.367822445630329e+000	 1.442957006227640e+000	 1.057281720470430e+001
 4.352476456294863e+000	 1.488605720007758e+000	 1.058565731404442e+001
 4.336614313374794e+000	 1.534201804341407e+000	 1.059928236402862e+001
 4.320235043699010e+000	 1.579736919104094e+000	 1.061371776194110e+001
 4.303337845722058e+000	 1.625202665676005e+000	 1.062889686348516e+001
 4.285922092025571e+000	 1.670590591157880e+000	 1.064464741065696e+001
 4.267987331701934e+000	 1.715892192693890e+000	 1.066067694526110e+001
 4.249533292615256e+000	 1.761098921897935e+000	 1.067655717836386e+001
 4.230559883534988e+000	 1.806202189379531e+000	 1.069170730040595e+001
 4.422457930669241e+000	 1.359368963761479e+000	 1.054460357718065e+001
 4.408057664958273e+000	 1.405363241793874e+000	 1.055646444786392e+001
 4.393140718615578e+000	 1.451321169341453e+000	 1.056887511066188e+001
 4.377705775584789e+000	 1.497234487878403e+000	 1.058197988093315e+001
 4.361751687062711e+000	 1.543094871900039e+000	 1.059585508736104e+001
 4.345277474237193e+000	 1.588893932937980e+000	 1.061049745196301e+001
 4.328282330916576e+000	 1.634623223689457e+000	 1.062581147816159e+001
 4.310765626045626e+000	 1.680274242257618e+000	 1.064159581774057e+001
 4.292726906103013e+000	 1.725838436499470e+000	 1.065752859079559e+001
 4.274165897375392e+000	 1.771307208477830e+000	 1.067315163664067e+001
 4.255082508103374e+000	 1.816671919013446e+000	 1.068785367807140e+001
 4.447945201000673e+000	 1.367203205444115e+000	 1.054021703482164e+001
 4.433461944457242e+000	 1.413462555211549e+000	 1.055218748561165e+001
 4.418459029576267e+000	 1.459685345001031e+000	 1.056471288990976e+001
 4.402935132716746e+000	 1.505863268691669e+000	 1.057791348789132e+001
 4.386889098454756e+000	 1.551987952797688e+000	 1.059184235035273e+001
 4.370319942337102e+000	 1.598050960506750e+000	 1.060647374272900e+001
 4.353226853525914e+000	 1.644043795833055e+000	 1.062169047781505e+001
 4.335609197329095e+000	 1.689957907882090e+000	 1.063727022558628e+001
 4.317466517611591e+000	 1.735784695223622e+000	 1.065287075176506e+001
 4.298798539082598e+000	 1.781515510369310e+000	 1.066801406061976e+001
 4.279605169453902e+000	 1.827141664351063e+000	 1.068206942193268e+001
 4.473432515932508e+000	 1.375037460836209e+000	 1.053532897658227e+001
 4.458866268411421e+000	 1.421561882802518e+000	 1.054729846366806e+001
 4.443777384841743e+000	 1.468049535297369e+000	 1.055980033038216e+001
 4.428164533997837e+000	 1.514492064604708e+000	 1.057293504090659e+001
 4.412026553835039e+000	 1.560881049257587e+000	 1.058673759895104e+001
 4.395362454259105e+000	 1.607208004099624e+000	 1.060116591275432e+001
 4.378171419785953e+000	 1.653464384461907e+000	 1.061608812813578e+001
 4.360452812086606e+000	 1.699641590452172e+000	 1.063126889542439e+001
 4.342206172412295e+000	 1.745730971352862e+000	 1.064635453930741e+001
 4.323431223894759e+000	 1.791723830124395e+000	 1.066085710446647e+001
 4.304127873716955e+000	 1.837611428009748e+000	 1.067413725432765e+001
 4.498919881836328e+000	 1.382871731896253e+000	 1.052942155220657e+001
 4.484270643171641e+000	 1.429661226591549e+000	 1.054126829104356e+001
 4.469095790741352e+000	 1.476413742321459e+000	 1.055360653428817e+001
 4.453393985735166e+000	 1.523120877774670e+000	 1.056652115696785e+001
 4.437164059487675e+000	 1.569774163502965e+000	 1.058003416474187e+001
 4.420405016263574e+000	 1.616365066005822e+000	 1.059409307728440e+001
 4.403116035932563e+000	 1.662884991931116e+000	 1.060855825779593e+001
 4.385296476528788e+000	 1.709325292388740e+000	 1.062318915176094e+001
 4.366945876689758e+000	 1.755677267373712e+000	 1.063762940124410e+001
 4.348063957969758e+000	 1.801932170295104e+000	 1.065139080482673e+001
 4.328650627022915e+000	 1.848081212606869e+000	 1.066383609775303e+001
 4.524407305083716e+000	 1.390706020582740e+000	 1.052197520314647e+001
 4.509675075088746e+000	 1.437760588603412e+000	 1.053356701481591e+001
 4.494414253604441e+000	 1.484777968164294e+000	 1.054560037621416e+001
 4.478623494235841e+000	 1.531749710358706e+000	 1.055814864588509e+001
 4.462301621696776e+000	 1.578667297757051e+000	 1.057122577702260e+001
 4.445447634610877e+000	 1.625522148514563e+000	 1.058477473706827e+001
 4.428060708201621e+000	 1.672305620595791e+000	 1.059865485027621e+001
 4.410140196866269e+000	 1.719009016112672e+000	 1.061262802350857e+001
 4.391685636628613e+000	 1.765623585772688e+000	 1.062634381865707e+001
 4.372696747465477e+000	 1.812140533433459e+000	 1.063932333887648e+001
 4.353173435502172e+000	 1.858551020759794e+000	 1.065094190029108e+001
 4.107947097861664e+000	 1.753853685157622e+000	 1.068924837463147e+001
 4.089022237317836e+000	 1.797534358250065e+000	 1.070237089843965e+001
 4.069593571258428e+000	 1.841097824563030e+000	 1.071675729778575e+001
 4.049661552156451e+000	 1.884535657582464e+000	 1.073035147972730e+001
 4.029226814984733e+000	 1.927839409546484e+000	 1.074079417509521e+001
 4.008290178599602e+000	 1.971000616255271e+000	 1.074540334450205e+001
 3.986852646976334e+000	 2.014010801950552e+000	 1.074194755863995e+001
 3.964915410292882e+000	 2.056861484259474e+000	 1.073994387592041e+001
 3.942479845858591e+000	 2.099544179197508e+000	 1.074186268677822e+001
 3.919547518884828e+000	 2.142050406224803e+000	 1.074633172829408e+001
 3.896120183094670e+000	 2.184371693350319e+000	 1.075198972041975e+001
 4.132469630475130e+000	 1.764323375533540e+000	 1.069198088968267e+001
 4.113431797320074e+000	 1.808264801918528e+000	 1.070599635782348e+001
 4.093887151164926e+000	 1.852088321854113e+000	 1.072006261842773e+001
 4.073836147183756e+000	 1.895785458523871e+000	 1.073220699887764e+001
 4.053279424139898e+000	 1.939347713736705e+000	 1.074016633620852e+001
 4.032217805777887e+000	 1.982766572765458e+000	 1.074136702890989e+001
 4.010652302066275e+000	 2.026033509255521e+000	 1.073600499012604e+001
 3.988584110287832e+000	 2.069139990198221e+000	 1.073454827085741e+001
 3.966014615973810e+000	 2.112077480963578e+000	 1.073669849652646e+001
 3.942945393679174e+000	 2.154837450386865e+000	 1.074105176376326e+001
 3.919378207595922e+000	 2.197411375903190e+000	 1.074630792996698e+001
 4.156992169218810e+000	 1.774793068526321e+000	 1.069378251244406e+001
 4.137841363424330e+000	 1.818995248269089e+000	 1.070822032538110e+001
 4.118180737144486e+000	 1.863078821892374e+000	 1.072170425171514e+001
 4.098010748254415e+000	 1.907035262277361e+000	 1.073234052980101e+001
 4.077332039307959e+000	 1.950856020803727e+000	 1.073795645109859e+001
 4.056145438937857e+000	 1.994532532216958e+000	 1.073608005572761e+001
 4.034451963105935e+000	 2.038056219566090e+000	 1.073010115968548e+001
 4.012252816199793e+000	 2.081418499206607e+000	 1.072834040898488e+001
 3.989549391972591e+000	 2.124610785863070e+000	 1.073026352350492e+001
 3.966343274322895e+000	 2.167624497745854e+000	 1.073435351307531e+001
 3.942636237911626e+000	 2.210451061716201e+000	 1.073925240946678e+001
 4.181514720223089e+000	 1.785262766753336e+000	 1.069446772869190e+001
 4.162250941732745e+000	 1.829725699984286e+000	 1.070893021102647e+001
 4.142474335270258e+000	 1.874069327425340e+000	 1.072162470626270e+001
 4.122185361411839e+000	 1.918285071655267e+000	 1.073073194228743e+001
 4.101384666501830e+000	 1.962364333624481e+000	 1.073416412192631e+001
 4.080073084061181e+000	 2.006298497551087e+000	 1.072969274104905e+001
 4.058251636045005e+000	 2.050078935887735e+000	 1.072415529450530e+001
 4.035921533945723e+000	 2.093697014354039e+000	 1.072214183511063e+001
 4.013084179738415e+000	 2.137144097029069e+000	 1.072319258199881e+001
 3.989741166665249e+000	 2.180411551498271e+000	 1.072670166782730e+001
 3.965894279856078e+000	 2.223490754048992e+000	 1.073121196701854e+001
 4.206037289618354e+000	 1.795732472831950e+000	 1.069384293084267e+001
 4.186660538347462e+000	 1.840456159746657e+000	 1.070800384543081e+001
 4.166767951615396e+000	 1.885059841200544e+000	 1.071975580078322e+001
 4.146359992699433e+000	 1.929534889469920e+000	 1.072734967535555e+001
 4.125437311734429e+000	 1.973872655075903e+000	 1.072877714324904e+001
 4.104000747129545e+000	 2.018064471709167e+000	 1.072288268540144e+001
 4.082051326833178e+000	 2.062101661225940e+000	 1.071793004773352e+001
 4.059590269442583e+000	 2.105975538709923e+000	 1.071582477962588e+001
 4.036618985154762e+000	 2.149677417594655e+000	 1.071619596649903e+001
 4.013139076555490e+000	 2.193198614840611e+000	 1.071862112219791e+001
 3.989152339243564e+000	 2.236530456161203e+000	 1.072253286654680e+001
 4.230559883534988e+000	 1.806202189379531e+000	 1.069170730040595e+001
 4.211070159370624e+000	 1.851186630238740e+000	 1.070531043635334e+001
 4.191061592253049e+000	 1.896050365965515e+000	 1.071601968263831e+001
 4.170534648160610e+000	 1.940784718533653e+000	 1.072215180639283e+001
 4.149489981018677e+000	 1.985380988034921e+000	 1.072177261015966e+001
 4.127928434124628e+000	 2.029830457632516e+000	 1.071553563825719e+001
 4.105851041420148e+000	 2.074124398586184e+000	 1.071119902445990e+001
 4.083259028607333e+000	 2.118254075343664e+000	 1.070915464173631e+001
 4.060153814105110e+000	 2.162210750692910e+000	 1.070910835713375e+001
 4.036537009842877e+000	 2.205985690969373e+000	 1.071072195955675e+001
 4.012410421888376e+000	 2.249570171312477e+000	 1.071361133891012e+001
 4.255082508103374e+000	 1.816671919013446e+000	 1.068785367807140e+001
 4.235479810904371e+000	 1.861917114143071e+000	 1.070071151076105e+001
 4.215355263256366e+000	 1.907040904467783e+000	 1.071032983072947e+001
 4.194709333838777e+000	 1.952034561658800e+000	 1.071508710358294e+001
 4.173542680367494e+000	 1.996889335378473e+000	 1.071311800905125e+001
 4.151856151028107e+000	 2.041596458262454e+000	 1.070742798265306e+001
 4.129650785755607e+000	 2.086147150973949e+000	 1.070374704798134e+001
 4.106927817356930e+000	 2.130532627324669e+000	 1.070190860223912e+001
 4.083688672472943e+000	 2.174744099456915e+000	 1.070168340215444e+001
 4.059934972376665e+000	 2.218772783081055e+000	 1.070280442261643e+001
 4.035668533604805e+000	 2.262609902762454e+000	 1.070496494985626e+001
 4.279605169453902e+000	 1.827141664351063e+000	 1.068206942193268e+001
 4.259889499050845e+000	 1.872647614142192e+000	 1.069406184331400e+001
 4.239648970698495e+000	 1.918031459454879e+000	 1.070259204336528e+001
 4.218884055777344e+000	 1.963284421657692e+000	 1.070609606229811e+001
 4.197595415793796e+000	 2.008397699983488e+000	 1.070295216048801e+001
 4.175783903821666e+000	 2.053362476540301e+000	 1.069834735790536e+001
 4.153450565789250e+000	 2.098169921394717e+000	 1.069537040933035e+001
 4.130596641608336e+000	 2.142811197722343e+000	 1.069387585403985e+001
 4.107223566141736e+000	 2.187277467019753e+000	 1.069368763584602e+001
 4.083332970006111e+000	 2.231559894372153e+000	 1.069459703157605e+001
 4.058926680207141e+000	 2.275649653770777e+000	 1.069636066242700e+001
 4.304127873716955e+000	 1.837611428009748e+000	 1.067413725432765e+001
 4.284299229912194e+000	 1.883378132918639e+000	 1.068521037176700e+001
 4.263942720652592e+000	 1.929022033674333e+000	 1.069270541171075e+001
 4.243058820019718e+000	 1.974534301342661e+000	 1.069511192610350e+001
 4.221648193310499e+000	 2.019906084726900e+000	 1.069161303020964e+001
 4.199711698486983e+000	 2.065128515407376e+000	 1.068809290191712e+001
 4.177250387470769e+000	 2.110192712853969e+000	 1.068587710073837e+001
 4.154265507278509e+000	 2.155089789606091e+000	 1.068485781705539e+001
 4.130758500994972e+000	 2.199810856514507e+000	 1.068490066528674e+001
 4.106731008580471e+000	 2.244347028039165e+000	 1.068584254160569e+001
 4.082184867509671e+000	 2.288689427597086e+000	 1.068748955741800e+001
 4.328650627022915e+000	 1.848081212606869e+000	 1.066383609775303e+001
 4.308709009590553e+000	 1.894108673154950e+000	 1.067400109981329e+001
 4.288236519191803e+000	 1.940012629873676e+000	 1.068056327939821e+001
 4.267233632609309e+000	 1.985784203526040e+000	 1.068206169299129e+001
 4.245701018930528e+000	 2.031414492485641e+000	 1.067891401026425e+001
 4.223639541005738e+000	 2.076894577804998e+000	 1.067647547796390e+001
 4.201050256749856e+000	 2.122215528357184e+000	 1.067508703367497e+001
 4.177934420284409e+000	 2.167368406045322e+000	 1.067466833812695e+001
 4.154293482916130e+000	 2.212344271074256e+000	 1.067511534288414e+001
 4.130129093949002e+000	 2.257134187278590e+000	 1.067629807889280e+001
 4.105443101326692e+000	 2.301729227501026e+000	 1.067805851584117e+001
 4.353173435502172e+000	 1.858551020759794e+000	 1.065094190029108e+001
 4.333118844188068e+000	 1.904839237533664e+000	 1.066027398787257e+001
 4.312530372389279e+000	 1.951003250800439e+000	 1.066605418885236e+001
 4.291408499589530e+000	 1.997034131020163e+000	 1.066686710743490e+001
 4.269753898666800e+000	 2.042922926136646e+000	 1.066465369452810e+001
 4.247567437359612e+000	 2.088660666674489e+000	 1.066331788657456e+001
 4.224850179576209e+000	 2.134238370909848e+000	 1.066283224207499e+001
 4.201603386542995e+000	 2.179647050109439e+000	 1.066313387653724e+001
 4.177828517788692e+000	 2.224877713832085e+000	 1.066413792525126e+001
 4.153527231960959e+000	 2.269921375286926e+000	 1.066573526408046e+001
 4.128701387472490e+000	 2.314769056742235e+000	 1.066779029827038e+001
 3.896120183094670e+000	 2.184371693350319e+000	 1.075198972041975e+001
 3.872196156391829e+000	 2.226505887565815e+000	 1.075932406128217e+001
 3.847781051657800e+000	 2.268438184788724e+000	 1.076901058471765e+001
 3.822877194375688e+000	 2.310160168438054e+000	 1.078002473183262e+001
 3.797487099402197e+000	 2.351663451361818e+000	 1.079139641979972e+001
 3.771613470733660e+000	 2.392939681090943e+000	 1.080221197580990e+001
 3.745259201099025e+000	 2.433980545103553e+000	 1.081161464998278e+001
 3.718427371378763e+000	 2.474777776093069e+000	 1.081880364710778e+001
 3.691121249848879e+000	 2.515323157233418e+000	 1.082303163048993e+001
 3.663344291249592e+000	 2.555608527434690e+000	 1.082360066541537e+001
 3.635100135678463e+000	 2.595625786582434e+000	 1.081985658471607e+001
 3.919378207595922e+000	 2.197411375903190e+000	 1.074630792996698e+001
 3.895311365586440e+000	 2.239797091651857e+000	 1.075312424027484e+001
 3.870750514038508e+000	 2.281979705176810e+000	 1.076230854404641e+001
 3.845697992317274e+000	 2.323950749653989e+000	 1.077285218410139e+001
 3.820156330291953e+000	 2.365701787864013e+000	 1.078380285268356e+001
 3.794128248100461e+000	 2.407224417477454e+000	 1.079426672392725e+001
 3.767616655739987e+000	 2.448510276350555e+000	 1.080340910290396e+001
 3.740624652482406e+000	 2.489551047824762e+000	 1.081045352763038e+001
 3.713155526113802e+000	 2.530338466023375e+000	 1.081467927435420e+001
 3.685212751997570e+000	 2.570864321138577e+000	 1.081541723125003e+001
 3.656799991960951e+000	 2.611120464702003e+000	 1.081204412122911e+001
 3.942636237911626e+000	 2.210451061716201e+000	 1.073925240946678e+001
 3.918426580559851e+000	 2.253088299060945e+000	 1.074569351353928e+001
 3.893719982161631e+000	 2.295521228950526e+000	 1.075453087128913e+001
 3.868518795964158e+000	 2.337741334317804e+000	 1.076476360626003e+001
 3.842825566849163e+000	 2.379740127875997e+000	 1.077544982442152e+001
 3.816643031096151e+000	 2.421509157435315e+000	 1.078570897542653e+001
 3.789974115970546e+000	 2.463040011230107e+000	 1.079472266472099e+001
 3.762821939135638e+000	 2.504324323249834e+000	 1.080173384920420e+001
 3.735189807887587e+000	 2.545353778567168e+000	 1.080604436362809e+001
 3.707081218212969e+000	 2.586120118656368e+000	 1.080701074033403e+001
 3.678499853668706e+000	 2.626615146695153e+000	 1.080403830112699e+001
 3.965894279856078e+000	 2.223490754048992e+000	 1.073121196701854e+001
 3.941541807090636e+000	 2.266379513115587e+000	 1.073734240803473e+001
 3.916689461769292e+000	 2.309062759494951e+000	 1.074591881784014e+001
 3.891339611021287e+000	 2.351531925876843e+000	 1.075593987300287e+001
 3.865494814740869e+000	 2.393778474907056e+000	 1.076646662724452e+001
 3.839157825349139e+000	 2.435793904535413e+000	 1.077662513241498e+001
 3.812331587379767e+000	 2.477569753374350e+000	 1.078560744118125e+001
 3.785019236887463e+000	 2.519097606061324e+000	 1.079267092025080e+001
 3.757224100678466e+000	 2.560369098618346e+000	 1.079713581801414e+001
 3.728949695362553e+000	 2.601375923801743e+000	 1.079838104651655e+001
 3.700199726226330e+000	 2.642109836435286e+000	 1.079583815452507e+001
 3.989152339243564e+000	 2.236530456161203e+000	 1.072253286654680e+001
 3.964657050957377e+000	 2.279670737138295e+000	 1.072834138780992e+001
 3.939658958603628e+000	 2.322604300195173e+000	 1.073667584907254e+001
 3.914160443193614e+000	 2.365322527778455e+000	 1.074652614017903e+001
 3.888164079634114e+000	 2.407816832466474e+000	 1.075694868708531e+001
 3.861672636487839e+000	 2.450078662348639e+000	 1.076706936414506e+001
 3.834689075556711e+000	 2.492099506415425e+000	 1.077608471550049e+001
 3.807216551286875e+000	 2.533870899952260e+000	 1.078326141031983e+001
 3.779258409994675e+000	 2.575384429930460e+000	 1.078793387228275e+001
 3.750818188913088e+000	 2.616631740388381e+000	 1.078950004037791e+001
 3.721899615058423e+000	 2.657604537795814e+000	 1.078741523560884e+001
 4.012410421888376e+000	 2.249570171312477e+000	 1.071361133891012e+001
 3.987772317938652e+000	 2.292961974451581e+000	 1.071892222783903e+001
 3.962628478406766e+000	 2.336145854436272e+000	 1.072696899240982e+001
 3.936981298186090e+000	 2.379113143469984e+000	 1.073663317110950e+001
 3.910833367195940e+000	 2.421855204063538e+000	 1.074695887213677e+001
 3.884187470140660e+000	 2.464363434445877e+000	 1.075706490179430e+001
 3.857046586090441e+000	 2.506629273985478e+000	 1.076614623332796e+001
 3.829413887882881e+000	 2.548644208615681e+000	 1.077347362918535e+001
 3.801292741344446e+000	 2.590399776257064e+000	 1.077839135342770e+001
 3.772686704331336e+000	 2.631887572229962e+000	 1.078031292835166e+001
 3.743599525589591e+000	 2.673099254650146e+000	 1.077871685884271e+001
 4.035668533604805e+000	 2.262609902762454e+000	 1.070496494985626e+001
 4.010887613813039e+000	 2.306253228377955e+000	 1.070934781343361e+001
 3.985598026920840e+000	 2.349687425603333e+000	 1.071693017510363e+001
 3.959802181703660e+000	 2.392903776398775e+000	 1.072633865395179e+001
 3.933502683093391e+000	 2.435893593207532e+000	 1.073652879361847e+001
 3.906702331936014e+000	 2.478648224398017e+000	 1.074660532643276e+001
 3.879404124570022e+000	 2.521159059716648e+000	 1.075575548169628e+001
 3.851611252224484e+000	 2.563417535744618e+000	 1.076324880054139e+001
 3.823327100236012e+000	 2.605415141351707e+000	 1.076843495285108e+001
 3.794555247084062e+000	 2.647143423140168e+000	 1.077073950712335e+001
 3.765299463244429e+000	 2.688593990871691e+000	 1.076966239259459e+001
 4.058926680207141e+000	 2.275649653770777e+000	 1.069636066242700e+001
 4.034002944359119e+000	 2.319544502239928e+000	 1.070005352862679e+001
 4.008567609887977e+000	 2.363229017081439e+000	 1.070669903500220e+001
 3.982623099451280e+000	 2.406694430012176e+000	 1.071568851047629e+001
 3.956172032993508e+000	 2.449932003407742e+000	 1.072566009906969e+001
 3.929217227502315e+000	 2.492933035775949e+000	 1.073565585045705e+001
 3.901761696584512e+000	 2.535688867241081e+000	 1.074484896220289e+001
 3.873808649860681e+000	 2.578190885032107e+000	 1.075250233051871e+001
 3.845361492177609e+000	 2.620430528967939e+000	 1.075796649378355e+001
 3.816423822638035e+000	 2.662399296932676e+000	 1.076067543350220e+001
 3.786999433447542e+000	 2.704088750333855e+000	 1.076010415639399e+001
 4.082184867509671e+000	 2.288689427597086e+000	 1.068748955741800e+001
 4.057118315355471e+000	 2.332835799360011e+000	 1.069078585522997e+001
 4.031537233050311e+000	 2.376770632255675e+000	 1.069663670286154e+001
 4.005444057133899e+000	 2.420485107757529e+000	 1.070471460646360e+001
 3.978841422563335e+000	 2.463970438173453e+000	 1.071432575847235e+001
 3.951732162467971e+000	 2.507217872150561e+000	 1.072415459275725e+001
 3.924119307722977e+000	 2.550218700190915e+000	 1.073333745865971e+001
 3.896006086340478e+000	 2.592964260171184e+000	 1.074112507123590e+001
 3.867395922677467e+000	 2.635445942859313e+000	 1.074686419413625e+001
 3.838292436460014e+000	 2.677655197421170e+000	 1.074997998466609e+001
 3.808699441623531e+000	 2.719583536910049e+000	 1.074987064687689e+001
 4.105443101326692e+000	 2.301729227501026e+000	 1.067805851584117e+001
 4.080233732580672e+000	 2.346127123060713e+000	 1.068119707555364e+001
 4.054506902149972e+000	 2.390312274511121e+000	 1.068649509723912e+001
 4.028265060456468e+000	 2.434275813082186e+000	 1.069369518914386e+001
 4.001510857469911e+000	 2.478008901013949e+000	 1.070247258043541e+001
 3.974247142461394e+000	 2.521502737092740e+000	 1.071201384787175e+001
 3.946476963574480e+000	 2.564748562198295e+000	 1.072110729943628e+001
 3.918203567212872e+000	 2.607737664854879e+000	 1.072898457958850e+001
 3.889430397243821e+000	 2.650461386779379e+000	 1.073498392497261e+001
 3.860161094016767e+000	 2.692911128419327e+000	 1.073844765812636e+001
 3.830399493196997e+000	 2.735078354473679e+000	 1.073877520127285e+001
 4.128701387472490e+000	 2.314769056742235e+000	 1.066779029827038e+001
 4.103349201813303e+000	 2.359418476664549e+000	 1.067095680356602e+001
 4.077476622929091e+000	 2.403853947232864e+000	 1.067589625158979e+001
 4.051086115123939e+000	 2.448066549433488e+000	 1.068241806713139e+001
 4.024180343380284e+000	 2.492047395438518e+000	 1.069026813959354e+001
 3.996762173110999e+000	 2.535787634173376e+000	 1.069912134937355e+001
 3.968834669728083e+000	 2.579278456895365e+000	 1.070802161471316e+001
 3.940401098026868e+000	 2.622511102776230e+000	 1.071592637147091e+001
 3.911464921384907e+000	 2.665476864481691e+000	 1.072216046477999e+001
 3.882029800775059e+000	 2.708167093740830e+000	 1.072587099909673e+001
 3.852099593592544e+000	 2.750573206898158e+000	 1.072661743689850e+001
 3.635100135678463e+000	 2.595625786582434e+000	 1.081985658471607e+001
 3.606392606282453e+000	 2.635366899875415e+000	 1.081190804267446e+001
 3.577225704752324e+000	 2.674823900322948e+000	 1.080042346358461e+001
 3.547603612821848e+000	 2.713988896438097e+000	 1.078665224922030e+001
 3.517530691503431e+000	 2.752854078213755e+000	 1.077193387435732e+001
 3.487011479119200e+000	 2.791411722183962e+000	 1.075733962207928e+001
 3.456050689161567e+000	 2.829654196428459e+000	 1.074399218919277e+001
 3.424653207985159e+000	 2.867573965513815e+000	 1.073304768078117e+001
 3.392824092332316e+000	 2.905163595364521e+000	 1.072567593387739e+001
 3.360568566694637e+000	 2.942415758057519e+000	 1.072303929110414e+001
 3.327892020513366e+000	 2.979323236533758e+000	 1.072613348747218e+001
 3.656799991960951e+000	 2.611120464702003e+000	 1.081204412122911e+001
 3.627921091973301e+000	 2.651098813948400e+000	 1.080468835104281e+001
 3.598580077613613e+000	 2.690791354327859e+000	 1.079408512661819e+001
 3.568781155578661e+000	 2.730190147244944e+000	 1.078144444443971e+001
 3.538528712914067e+000	 2.769287336070452e+000	 1.076767739468102e+001
 3.507827315033624e+000	 2.808075151232928e+000	 1.075369674688704e+001
 3.476681703567104e+000	 2.846545915253110e+000	 1.074047187156129e+001
 3.445096794038395e+000	 2.884692047714543e+000	 1.072901051250320e+001
 3.413077673376231e+000	 2.922506070163753e+000	 1.072033880231447e+001
 3.380629597259997e+000	 2.959980610933397e+000	 1.071547964488794e+001
 3.347757987303395e+000	 2.997108409881948e+000	 1.071542960735379e+001
 3.678499853668706e+000	 2.626615146695153e+000	 1.080403830112699e+001
 3.649449583046558e+000	 2.666830731954233e+000	 1.079728508876272e+001
 3.619934455813749e+000	 2.706758812324470e+000	 1.078768739033868e+001
 3.589958703630073e+000	 2.746391402101920e+000	 1.077611873808285e+001
 3.559526739574368e+000	 2.785720598035260e+000	 1.076326909023452e+001
 3.528643156152110e+000	 2.824738584447534e+000	 1.074990697520490e+001
 3.497312723130439e+000	 2.863437638300464e+000	 1.073686295723063e+001
 3.465540385202507e+000	 2.901810134194557e+000	 1.072501114900193e+001
 3.433331259483469e+000	 2.939848549298364e+000	 1.071524887802914e+001
 3.400690632840491e+000	 2.977545468200245e+000	 1.070847463366152e+001
 3.367623959059742e+000	 3.014893587676185e+000	 1.070556444114268e+001
 3.700199726226330e+000	 2.642109836435286e+000	 1.079583815452507e+001
 3.670978084883970e+000	 2.682562657825637e+000	 1.078975065406413e+001
 3.641288844690951e+000	 2.722726278304399e+000	 1.078116419965264e+001
 3.611136262270088e+000	 2.762592665059089e+000	 1.077061137946466e+001
 3.580524776733460e+000	 2.802153868216250e+000	 1.075864597347632e+001
 3.549459007678244e+000	 2.841402025993399e+000	 1.074590623245751e+001
 3.517943753008951e+000	 2.880329369793212e+000	 1.073309814193140e+001
 3.485983986588032e+000	 2.918928229233141e+000	 1.072097663770540e+001
 3.453584855717059e+000	 2.957191037103733e+000	 1.071032488212223e+001
 3.420751678451020e+000	 2.995110334249034e+000	 1.070193173118188e+001
 3.387489940748560e+000	 3.032678774362513e+000	 1.069656754299445e+001
 3.721899615058423e+000	 2.657604537795814e+000	 1.078741523560884e+001
 3.692506602867291e+000	 2.698294595495337e+000	 1.078206484598751e+001
 3.662643249583429e+000	 2.738693756259258e+000	 1.077442804247350e+001
 3.632313836792711e+000	 2.778793940166521e+000	 1.076483757256582e+001
 3.601522829640472e+000	 2.818587150721498e+000	 1.075372438377559e+001
 3.570274874815602e+000	 2.858065480036140e+000	 1.074161010939379e+001
 3.538574798360021e+000	 2.897221113954047e+000	 1.072909009727106e+001
 3.506427603305496e+000	 2.936046337109576e+000	 1.071681429096050e+001
 3.473838467140046e+000	 2.974533537915240e+000	 1.070546607486510e+001
 3.440812739106494e+000	 3.012675213470732e+000	 1.069573921691680e+001
 3.407355937335999e+000	 3.050463974386978e+000	 1.068831306348842e+001
 3.743599525589591e+000	 2.673099254650146e+000	 1.077871685884271e+001
 3.714035142378266e+000	 2.714026548896057e+000	 1.077411573275384e+001
 3.683997675829406e+000	 2.754661250180662e+000	 1.076737142753374e+001
 3.653491432491949e+000	 2.794995231474284e+000	 1.075869295895130e+001
 3.622520903544523e+000	 2.835020449659075e+000	 1.074840147290204e+001
 3.591090762767767e+000	 2.874728950741376e+000	 1.073691534742282e+001
 3.559205864341032e+000	 2.914112875005660e+000	 1.072473295300592e+001
 3.526871240465430e+000	 2.953164462103145e+000	 1.071241316215140e+001
 3.494092098815462e+000	 2.991876056068264e+000	 1.070055372240165e+001
 3.460873819821821e+000	 3.030240110256312e+000	 1.068976762989941e+001
 3.427221953788212e+000	 3.068249192195625e+000	 1.068065766258092e+001
 3.765299463244429e+000	 2.688593990871691e+000	 1.076966239259459e+001
 3.735563708798650e+000	 2.729758521960522e+000	 1.076577240541032e+001
 3.705352128767096e+000	 2.770628764060227e+000	 1.075986835754280e+001
 3.674669054661810e+000	 2.811196543032450e+000	 1.075205509605588e+001
 3.643519003694747e+000	 2.851453769137058e+000	 1.074255668593496e+001
 3.611906676738323e+000	 2.891392442274725e+000	 1.073170131945818e+001
 3.579836956109366e+000	 2.931004657170744e+000	 1.071990377495359e+001
 3.547314903178364e+000	 2.970282608493129e+000	 1.070764551764045e+001
 3.514345755806345e+000	 3.009218595898184e+000	 1.069545255950997e+001
 3.480934925611909e+000	 3.047805028996744e+000	 1.068387121894170e+001
 3.447087995071351e+000	 3.086034432234503e+000	 1.067344194374656e+001
 3.786999433447542e+000	 2.704088750333855e+000	 1.076010415639399e+001
 3.757092307510190e+000	 2.745490518621454e+000	 1.075688643908959e+001
 3.726706613734713e+000	 2.786596301889565e+000	 1.075177579788670e+001
 3.695846708596300e+000	 2.827397878891083e+000	 1.074478493103260e+001
 3.664517135340263e+000	 2.867887113263518e+000	 1.073605323778515e+001
 3.632722621930851e+000	 2.908055958801806e+000	 1.072583150646045e+001
 3.600468078822399e+000	 2.947896464671987e+000	 1.071446403873079e+001
 3.567758596554828e+000	 2.987400780558812e+000	 1.070236830470842e+001
 3.534599443175730e+000	 3.026561161740376e+000	 1.069001224859148e+001
 3.500996061491667e+000	 3.065369974082997e+000	 1.067788938936331e+001
 3.466954066151565e+000	 3.103819698949656e+000	 1.066649188498736e+001
 3.808699441623531e+000	 2.719583536910049e+000	 1.074987064687689e+001
 3.778620943894639e+000	 2.761222542811580e+000	 1.074729335000042e+001
 3.748061136070473e+000	 2.802563867660294e+000	 1.074293514105729e+001
 3.717024399589421e+000	 2.843599243100253e+000	 1.073672827035053e+001
 3.685515303730202e+000	 2.884320486146530e+000	 1.072873958551458e+001
 3.653538603548932e+000	 2.924719504488238e+000	 1.071915496985970e+001
 3.621099237637516e+000	 2.964788301732086e+000	 1.070826109949281e+001
 3.588202325705353e+000	 3.004518982579476e+000	 1.069642461566434e+001
 3.554853165986656e+000	 3.043903757930221e+000	 1.068406883504845e+001
 3.521057232475999e+000	 3.082934949906039e+000	 1.067164814638429e+001
 3.486820171995006e+000	 3.121604996787129e+000	 1.065962026684472e+001
 3.830399493196997e+000	 2.735078354473679e+000	 1.073877520127285e+001
 3.800149623333742e+000	 2.776954598463621e+000	 1.073681404832984e+001
 3.769415701112595e+000	 2.818531465364028e+000	 1.073317366699085e+001
 3.738202132935184e+000	 2.859800639710028e+000	 1.072771724532159e+001
 3.706513514113687e+000	 2.900753891894165e+000	 1.072045089663128e+001
 3.674354626796148e+000	 2.941383083499638e+000	 1.071150782003221e+001
 3.641730437712097e+000	 2.981680172573729e+000	 1.070112965784454e+001
 3.608646095740468e+000	 3.021637218834404e+000	 1.068964514828740e+001
 3.575106929302158e+000	 3.061246388803097e+000	 1.067744619920360e+001
 3.541118443579816e+000	 3.100499960856845e+000	 1.066496153532497e+001
 3.506686317567826e+000	 3.139390330192968e+000	 1.065262809754376e+001
 3.852099593592544e+000	 2.750573206898158e+000	 1.072661743689850e+001
 3.821678351209255e+000	 2.792686689510306e+000	 1.072525628722816e+001
 3.790770314199296e+000	 2.834499098992382e+000	 1.072230599948808e+001
 3.759379913927593e+000	 2.876002072770478e+000	 1.071757177372754e+001
 3.727511771739844e+000	 2.917187334614500e+000	 1.071101051352930e+001
 3.695170696876085e+000	 2.958046700001626e+000	 1.070271468099795e+001
 3.662361684203526e+000	 2.998572081419612e+000	 1.069289322208465e+001
 3.629089911770705e+000	 3.038755493602876e+000	 1.068184966275676e+001
 3.595360738185273e+000	 3.078589058694386e+000	 1.066995750490959e+001
 3.561179699818027e+000	 3.118065011326384e+000	 1.065763307875026e+001
 3.526552507836178e+000	 3.157175703613221e+000	 1.064530603539404e+001
 3.327892020513366e+000	 2.979323236533758e+000	 1.072613348747218e+001
 3.294805000137952e+000	 3.015873473340294e+000	 1.072645020131604e+001
 3.261308345935689e+000	 3.052065054294208e+000	 1.071872088364344e+001
 3.227407924036499e+000	 3.087891128237413e+000	 1.070459646305224e+001
 3.193109752621236e+000	 3.123344972753669e+000	 1.068578260949805e+001
 3.158419998366947e+000	 3.158419998366946e+000	 1.066400821447694e+001
 3.123344972753669e+000	 3.193109752621236e+000	 1.064099350121891e+001
 3.087891128237412e+000	 3.227407924036499e+000	 1.061841803428918e+001
 3.052065054294209e+000	 3.261308345935690e+000	 1.059788889999641e+001
 3.015873473340295e+000	 3.294805000137951e+000	 1.058090932878801e+001
 2.979323236533757e+000	 3.327892020513365e+000	 1.056884802836758e+001
 3.347757987303395e+000	 2.997108409881948e+000	 1.071542960735379e+001
 3.314473452812669e+000	 3.033876834594318e+000	 1.071660368919260e+001
 3.280776839171726e+000	 3.070284462445565e+000	 1.071002521307463e+001
 3.246674047528561e+000	 3.106324401379362e+000	 1.069657446371524e+001
 3.212171131989779e+000	 3.141989888849766e+000	 1.067815195505473e+001
 3.177274296044633e+000	 3.177274296044633e+000	 1.065668330549333e+001
 3.141989888849765e+000	 3.212171131989779e+000	 1.063408577794230e+001
 3.106324401379361e+000	 3.246674047528561e+000	 1.061223471044984e+001
 3.070284462445565e+000	 3.280776839171725e+000	 1.059293011999390e+001
 3.033876834594319e+000	 3.314473452812669e+000	 1.057786376183434e+001
 2.997108409881948e+000	 3.347757987303394e+000	 1.056751297450935e+001
 3.367623959059742e+000	 3.014893587676185e+000	 1.070556444114268e+001
 3.334141910404290e+000	 3.051880200348930e+000	 1.070465559079647e+001
 3.300245337274650e+000	 3.088503875151511e+000	 1.069979558178688e+001
 3.265940175836902e+000	 3.124757679129364e+000	 1.068766221458508e+001
 3.231232516123408e+000	 3.160634809606826e+000	 1.067032667601486e+001
 3.196128598435629e+000	 3.196128598435629e+000	 1.064989025876721e+001
 3.160634809606826e+000	 3.231232516123408e+000	 1.062844614925144e+001
 3.124757679129364e+000	 3.265940175836902e+000	 1.060804427201451e+001
 3.088503875151512e+000	 3.300245337274650e+000	 1.059065630968072e+001
 3.051880200348930e+000	 3.334141910404290e+000	 1.057813756378427e+001
 3.014893587676185e+000	 3.367623959059741e+000	 1.056616661708745e+001
 3.387489940748560e+000	 3.032678774362513e+000	 1.069656754299445e+001
 3.353810377829602e+000	 3.069883575104714e+000	 1.069248905580159e+001
 3.319713845111269e+000	 3.106723296966643e+000	 1.068805323918208e+001
 3.285206313777744e+000	 3.143190966095471e+000	 1.067786181852295e+001
 3.250293909787164e+000	 3.179279739685799e+000	 1.066228868782618e+001
 3.214982910253217e+000	 3.214982910253217e+000	 1.064359025162246e+001
 3.179279739685799e+000	 3.250293909787164e+000	 1.062401499617276e+001
 3.143190966095470e+000	 3.285206313777744e+000	 1.060576673879909e+001
 3.106723296966643e+000	 3.319713845111268e+000	 1.059096805507578e+001
 3.069883575104714e+000	 3.353810377829601e+000	 1.057947914259176e+001
 3.032678774362512e+000	 3.387489940748560e+000	 1.056455415175157e+001
 3.407355937335999e+000	 3.050463974386978e+000	 1.068831306348842e+001
 3.373478860005382e+000	 3.087886963362258e+000	 1.068157415308486e+001
 3.339182367548385e+000	 3.124942732445551e+000	 1.067495572398238e+001
 3.304472466167311e+000	 3.161624266885730e+000	 1.066716454406915e+001
 3.269355317746096e+000	 3.197924683747635e+000	 1.065400922662361e+001
 3.233837236210685e+000	 3.233837236210685e+000	 1.063773394996631e+001
 3.197924683747635e+000	 3.269355317746097e+000	 1.062072236411846e+001
 3.161624266885730e+000	 3.304472466167311e+000	 1.060531197375522e+001
 3.124942732445551e+000	 3.339182367548385e+000	 1.059358193756061e+001
 3.087886963362259e+000	 3.373478860005382e+000	 1.057999304263549e+001
 3.050463974386978e+000	 3.407355937335999e+000	 1.056258157996648e+001
 3.427221953788212e+000	 3.068249192195625e+000	 1.068065766258092e+001
 3.393147361848419e+000	 3.105890369622151e+000	 1.067175082366815e+001
 3.358650909452801e+000	 3.143162186142826e+000	 1.066274454064217e+001
 3.323738637821821e+000	 3.180057586108190e+000	 1.065555110679348e+001
 3.288416744765252e+000	 3.216569646453285e+000	 1.064544909853631e+001
 3.252691581021320e+000	 3.252691581021320e+000	 1.063226172472486e+001
 3.216569646453285e+000	 3.288416744765251e+000	 1.061848814593244e+001
 3.180057586108189e+000	 3.323738637821821e+000	 1.060657983241996e+001
 3.143162186142825e+000	 3.358650909452801e+000	 1.059569222060991e+001
 3.105890369622150e+000	 3.393147361848419e+000	 1.057961321748978e+001
 3.068249192195627e+000	 3.427221953788212e+000	 1.056016469194829e+001
 3.447087995071351e+000	 3.086034432234503e+000	 1.067344194374656e+001
 3.412815888275492e+000	 3.123893798384978e+000	 1.066284317420632e+001
 3.378119475691321e+000	 3.161381662613056e+000	 1.065202526114040e+001
 3.343004833557501e+000	 3.198490928370902e+000	 1.064336871501410e+001
 3.307478195609674e+000	 3.235214632463700e+000	 1.063655892769766e+001
 3.271545949398408e+000	 3.271545949398408e+000	 1.062710386754077e+001
 3.235214632463700e+000	 3.307478195609674e+000	 1.061722226476866e+001
 3.198490928370902e+000	 3.343004833557501e+000	 1.060900118924552e+001
 3.161381662613058e+000	 3.378119475691321e+000	 1.059632618772922e+001
 3.123893798384977e+000	 3.412815888275493e+000	 1.057828236971088e+001
 3.086034432234504e+000	 3.447087995071351e+000	 1.055722838246158e+001
 3.466954066151565e+000	 3.103819698949656e+000	 1.066649188498736e+001
 3.432484444203388e+000	 3.141897254151326e+000	 1.065466088901073e+001
 3.397588071130751e+000	 3.179601166410839e+000	 1.064258911130230e+001
 3.362271058190569e+000	 3.216924298281913e+000	 1.063273303930309e+001
 3.326539675044415e+000	 3.253859646439833e+000	 1.062727940301070e+001
 3.290400346055237e+000	 3.290400346055237e+000	 1.062218080576329e+001
 3.253859646439832e+000	 3.326539675044415e+000	 1.061682485680795e+001
 3.216924298281913e+000	 3.362271058190569e+000	 1.060978623935971e+001
 3.179601166410840e+000	 3.397588071130752e+000	 1.059545325190005e+001
 3.141897254151326e+000	 3.432484444203388e+000	 1.057595129069331e+001
 3.103819698949656e+000	 3.466954066151564e+000	 1.055370596865331e+001
 3.486820171995006e+000	 3.121604996787129e+000	 1.065962026684472e+001
 3.452153034548887e+000	 3.159900741421783e+000	 1.064700063947143e+001
 3.417056700637892e+000	 3.197820702090761e+000	 1.063421445827204e+001
 3.381537316537248e+000	 3.235357700449275e+000	 1.062377586100114e+001
 3.345601187834515e+000	 3.272504693042630e+000	 1.061810411406753e+001
 3.309254775705090e+000	 3.309254775705090e+000	 1.061740331675815e+001
 3.272504693042630e+000	 3.345601187834515e+000	 1.061648133130306e+001
 3.235357700449274e+000	 3.381537316537249e+000	 1.060848049617294e+001
 3.197820702090761e+000	 3.417056700637892e+000	 1.059304995547594e+001
 3.159900741421783e+000	 3.452153034548888e+000	 1.057257820199499e+001
 3.121604996787129e+000	 3.486820171995005e+000	 1.054953850983792e+001
 3.506686317567826e+000	 3.139390330192968e+000	 1.065262809754376e+001
 3.471821664228771e+000	 3.177904264696934e+000	 1.063964749099146e+001
 3.436525369079552e+000	 3.216040274207416e+000	 1.062666819651409e+001
 3.400803613413762e+000	 3.253791139481034e+000	 1.061624409487565e+001
 3.364662738745025e+000	 3.291149776933046e+000	 1.061083516438056e+001
 3.328109243061256e+000	 3.328109243061256e+000	 1.061267274156485e+001
 3.291149776933045e+000	 3.364662738745025e+000	 1.061367069070294e+001
 3.253791139481035e+000	 3.400803613413763e+000	 1.060508581229670e+001
 3.216040274207415e+000	 3.436525369079551e+000	 1.058909933538392e+001
 3.177904264696934e+000	 3.471821664228771e+000	 1.056812809806782e+001
 3.139390330192968e+000	 3.506686317567826e+000	 1.054467412915147e+001
 3.526552507836178e+000	 3.157175703613221e+000	 1.064530603539404e+001
 3.491490338159828e+000	 3.195907828477368e+000	 1.063237630754235e+001
 3.455994081322530e+000	 3.234259887315395e+000	 1.061970713183919e+001
 3.420069953636332e+000	 3.272224619985245e+000	 1.060987463930854e+001
 3.383724332540992e+000	 3.309794902772032e+000	 1.060536215051677e+001
 3.346963752837024e+000	 3.346963752837023e+000	 1.060769908067629e+001
 3.309794902772032e+000	 3.383724332540992e+000	 1.060820350601652e+001
 3.272224619985245e+000	 3.420069953636333e+000	 1.059960966390483e+001
 3.234259887315396e+000	 3.455994081322531e+000	 1.058359028920517e+001
 3.195907828477369e+000	 3.491490338159829e+000	 1.056257209033391e+001
 3.157175703613221e+000	 3.526552507836178e+000	 1.053906733699601e+001
 2.979323236533757e+000	 3.327892020513365e+000	 1.056884802836758e+001
 2.942415758057520e+000	 3.360568566694637e+000	 1.055802137926174e+001
 2.905163595364522e+000	 3.392824092332316e+000	 1.054138257718555e+001
 2.867573965513814e+000	 3.424653207985159e+000	 1.051982192861103e+001
 2.829654196428458e+000	 3.456050689161565e+000	 1.049440557926269e+001
 2.791411722183963e+000	 3.487011479119200e+000	 1.046620774131953e+001
 2.752854078213755e+000	 3.517530691503430e+000	 1.043629413294411e+001
 2.713988896438097e+000	 3.547603612821848e+000	 1.040570641798225e+001
 2.674823900322948e+000	 3.577225704752323e+000	 1.037544775299423e+001
 2.635366899875414e+000	 3.606392606282453e+000	 1.034632483983540e+001
 2.595625786582433e+000	 3.635100135678463e+000	 1.031850506373083e+001
 2.997108409881948e+000	 3.347757987303394e+000	 1.056751297450935e+001
 2.959980610933398e+000	 3.380629597259997e+000	 1.055397874327151e+001
 2.922506070163753e+000	 3.413077673376230e+000	 1.053558016690265e+001
 2.884692047714542e+000	 3.445096794038394e+000	 1.051318852532225e+001
 2.846545915253110e+000	 3.476681703567104e+000	 1.048769642260221e+001
 2.808075151232929e+000	 3.507827315033624e+000	 1.046000008739894e+001
 2.769287336070453e+000	 3.538528712914067e+000	 1.043098260557229e+001
 2.730190147244945e+000	 3.568781155578661e+000	 1.040149820692331e+001
 2.690791354327859e+000	 3.598580077613613e+000	 1.037235771607419e+001
 2.651098813948400e+000	 3.627921091973301e+000	 1.034427704492577e+001
 2.611120464702003e+000	 3.656799991960951e+000	 1.031732652730570e+001
 3.014893587676185e+000	 3.367623959059741e+000	 1.056616661708745e+001
 2.977545468200246e+000	 3.400690632840491e+000	 1.055015296159585e+001
 2.939848549298365e+000	 3.433331259483467e+000	 1.053024563816008e+001
 2.901810134194557e+000	 3.465540385202508e+000	 1.050716629494954e+001
 2.863437638300464e+000	 3.497312723130438e+000	 1.048165382086222e+001
 2.824738584447536e+000	 3.528643156152111e+000	 1.045444633452510e+001
 2.785720598035260e+000	 3.559526739574368e+000	 1.042626415782573e+001
 2.746391402101920e+000	 3.589958703630074e+000	 1.039779389945487e+001
 2.706758812324470e+000	 3.619934455813751e+000	 1.036967376152041e+001
 2.666830731954233e+000	 3.649449583046558e+000	 1.034248016913466e+001
 2.626615146695152e+000	 3.678499853668705e+000	 1.031632505122112e+001
 3.032678774362512e+000	 3.387489940748560e+000	 1.056455415175157e+001
 2.995110334249033e+000	 3.420751678451020e+000	 1.054642346519087e+001
 2.957191037103733e+000	 3.453584855717059e+000	 1.052524641623596e+001
 2.918928229233141e+000	 3.485983986588032e+000	 1.050161442890882e+001
 2.880329369793212e+000	 3.517943753008950e+000	 1.047613217485849e+001
 2.841402025993399e+000	 3.549459007678244e+000	 1.044939919687005e+001
 2.802153868216250e+000	 3.580524776733461e+000	 1.042199257106246e+001
 2.762592665059089e+000	 3.611136262270088e+000	 1.039445073699602e+001
 2.722726278304399e+000	 3.641288844690951e+000	 1.036725861196477e+001
 2.682562657825637e+000	 3.670978084883970e+000	 1.034083409204148e+001
 2.642109836435286e+000	 3.700199726226330e+000	 1.031536527403931e+001
 3.050463974386978e+000	 3.407355937335999e+000	 1.056258157996648e+001
 3.012675213470734e+000	 3.440812739106494e+000	 1.054268052927128e+001
 2.974533537915240e+000	 3.473838467140046e+000	 1.052046108151714e+001
 2.936046337109576e+000	 3.506427603305496e+000	 1.049640353588845e+001
 2.897221113954047e+000	 3.538574798360020e+000	 1.047099752565055e+001
 2.858065480036139e+000	 3.570274874815601e+000	 1.044472322195931e+001
 2.818587150721498e+000	 3.601522829640471e+000	 1.041803363239218e+001
 2.778793940166522e+000	 3.632313836792711e+000	 1.039133812735938e+001
 2.738693756259257e+000	 3.662643249583430e+000	 1.036498731406387e+001
 2.698294595495338e+000	 3.692506602867291e+000	 1.033925936340411e+001
 2.657604537795815e+000	 3.721899615058424e+000	 1.031432681583822e+001
 3.068249192195627e+000	 3.427221953788212e+000	 1.056016469194829e+001
 3.030240110256312e+000	 3.460873819821820e+000	 1.053882456658228e+001
 2.991876056068266e+000	 3.494092098815463e+000	 1.051577864586022e+001
 2.953164462103144e+000	 3.526871240465430e+000	 1.049141490456969e+001
 2.914112875005661e+000	 3.559205864341033e+000	 1.046612680667145e+001
 2.874728950741376e+000	 3.591090762767767e+000	 1.044029403503499e+001
 2.835020449659075e+000	 3.622520903544523e+000	 1.041426437386762e+001
 2.794995231474285e+000	 3.653491432491950e+000	 1.038833688113203e+001
 2.754661250180662e+000	 3.683997675829406e+000	 1.036274647419431e+001
 2.714026548896058e+000	 3.714035142378267e+000	 1.033765003708387e+001
 2.673099254650146e+000	 3.743599525589590e+000	 1.031311414222308e+001
 3.086034432234504e+000	 3.447087995071351e+000	 1.055722838246158e+001
 3.047805028996744e+000	 3.480934925611909e+000	 1.053476542325748e+001
 3.009218595898184e+000	 3.514345755806345e+000	 1.051109783190496e+001
 2.970282608493129e+000	 3.547314903178364e+000	 1.048653976958244e+001
 2.931004657170742e+000	 3.579836956109365e+000	 1.046140709929929e+001
 2.891392442274725e+000	 3.611906676738323e+000	 1.043599758699953e+001
 2.851453769137057e+000	 3.643519003694747e+000	 1.041057231533601e+001
 2.811196543032450e+000	 3.674669054661810e+000	 1.038533845174560e+001
 2.770628764060226e+000	 3.705352128767094e+000	 1.036043349782325e+001
 2.729758521960522e+000	 3.735563708798650e+000	 1.033591113152671e+001
 2.688593990871690e+000	 3.765299463244428e+000	 1.031172873759503e+001
 3.103819698949656e+000	 3.466954066151564e+000	 1.055370596865331e+001
 3.065369974082997e+000	 3.500996061491667e+000	 1.053042167715441e+001
 3.026561161740377e+000	 3.534599443175730e+000	 1.050632635521776e+001
 2.987400780558812e+000	 3.567758596554827e+000	 1.048167858056204e+001
 2.947896464671988e+000	 3.600468078822398e+000	 1.045673489172777e+001
 2.908055958801806e+000	 3.632722621930851e+000	 1.043172940579187e+001
 2.867887113263519e+000	 3.664517135340264e+000	 1.040685471079945e+001
 2.827397878891083e+000	 3.695846708596299e+000	 1.038224417908251e+001
 2.786596301889565e+000	 3.726706613734713e+000	 1.035795583240259e+001
 2.745490518621454e+000	 3.757092307510191e+000	 1.033395787376302e+001
 2.704088750333855e+000	 3.786999433447542e+000	 1.031011598394291e+001
 3.121604996787129e+000	 3.486820171995005e+000	 1.054953850983792e+001
 3.082934949906041e+000	 3.521057232476000e+000	 1.052571993856443e+001
 3.043903757930221e+000	 3.554853165986655e+000	 1.050138020914726e+001
 3.004518982579476e+000	 3.588202325705353e+000	 1.047674027417829e+001
 2.964788301732086e+000	 3.621099237637516e+000	 1.045201534099959e+001
 2.924719504488238e+000	 3.653538603548932e+000	 1.042739385105420e+001
 2.884320486146530e+000	 3.685515303730201e+000	 1.040301779813903e+001
 2.843599243100252e+000	 3.717024399589421e+000	 1.037896453647290e+001
 2.802563867660294e+000	 3.748061136070473e+000	 1.035523021364118e+001
 2.761222542811580e+000	 3.778620943894639e+000	 1.033171494674206e+001
 2.719583536910048e+000	 3.808699441623531e+000	 1.030820984259972e+001
 3.139390330192968e+000	 3.506686317567826e+000	 1.054467412915147e+001
 3.100499960856846e+000	 3.541118443579816e+000	 1.052059415319800e+001
 3.061246388803097e+000	 3.575106929302157e+000	 1.049618295227965e+001
 3.021637218834404e+000	 3.608646095740469e+000	 1.047164154901432e+001
 2.981680172573729e+000	 3.641730437712096e+000	 1.044716153807188e+001
 2.941383083499637e+000	 3.674354626796148e+000	 1.042290337195361e+001
 2.900753891894165e+000	 3.706513514113686e+000	 1.039897605206455e+001
 2.859800639710027e+000	 3.738202132935184e+000	 1.037541838094241e+001
 2.818531465364027e+000	 3.769415701112596e+000	 1.035218191501592e+001
 2.776954598463622e+000	 3.800149623333742e+000	 1.032911573986352e+001
 2.735078354473680e+000	 3.830399493196998e+000	 1.030595317179553e+001
 3.157175703613221e+000	 3.526552507836178e+000	 1.053906733699601e+001
 3.118065011326384e+000	 3.561179699818027e+000	 1.051498490735035e+001
 3.078589058694385e+000	 3.595360738185272e+000	 1.049066499838616e+001
 3.038755493602876e+000	 3.629089911770705e+000	 1.046630614317730e+001
 2.998572081419611e+000	 3.662361684203525e+000	 1.044209377578915e+001
 2.958046700001627e+000	 3.695170696876085e+000	 1.041817776802917e+001
 2.917187334614500e+000	 3.727511771739845e+000	 1.039465144015703e+001
 2.876002072770478e+000	 3.759379913927594e+000	 1.037153220657739e+001
 2.834499098992381e+000	 3.790770314199297e+000	 1.034874400038913e+001
 2.792686689510306e+000	 3.821678351209255e+000	 1.032610160257502e+001
 2.750573206898158e+000	 3.852099593592544e+000	 1.030329698275931e+001
 2.595625786582433e+000	 3.635100135678463e+000	 1.031850506373083e+001
 2.555608527434690e+000	 3.663344291249593e+000	 1.029170887713416e+001
 2.515323157233419e+000	 3.691121249848880e+000	 1.026542018542458e+001
 2.474777776093069e+000	 3.718427371378763e+000	 1.023935646418850e+001
 2.433980545103553e+000	 3.745259201099026e+000	 1.021321623614705e+001
 2.392939681090943e+000	 3.771613470733660e+000	 1.018667394618519e+001
 2.351663451361818e+000	 3.797487099402197e+000	 1.015937591535578e+001
 2.310160168438054e+000	 3.822877194375687e+000	 1.013093737466955e+001
 2.268438184788723e+000	 3.847781051657798e+000	 1.010094056860468e+001
 2.226505887565815e+000	 3.872196156391829e+000	 1.006893390777442e+001
 2.184371693350319e+000	 3.896120183094671e+000	 1.003443214016430e+001
 2.611120464702003e+000	 3.656799991960951e+000	 1.031732652730570e+001
 2.570864321138576e+000	 3.685212751997569e+000	 1.029103733598050e+001
 2.530338466023376e+000	 3.713155526113802e+000	 1.026494070678858e+001
 2.489551047824762e+000	 3.740624652482407e+000	 1.023883716626435e+001
 2.448510276350555e+000	 3.767616655739987e+000	 1.021250750057556e+001
 2.407224417477455e+000	 3.794128248100461e+000	 1.018570736665242e+001
 2.365701787864013e+000	 3.820156330291954e+000	 1.015816303402874e+001
 2.323950749653989e+000	 3.845697992317275e+000	 1.012956825785124e+001
 2.281979705176810e+000	 3.870750514038510e+000	 1.009958227218404e+001
 2.239797091651857e+000	 3.895311365586440e+000	 1.006782888180383e+001
 2.197411375903191e+000	 3.919378207595922e+000	 1.003389662024213e+001
 2.626615146695152e+000	 3.678499853668705e+000	 1.031632505122112e+001
 2.586120118656368e+000	 3.707081218212970e+000	 1.029052787038294e+001
 2.545353778567168e+000	 3.735189807887587e+000	 1.026467984476265e+001
 2.504324323249834e+000	 3.762821939135639e+000	 1.023865562252700e+001
 2.463040011230107e+000	 3.789974115970545e+000	 1.021230862382371e+001
 2.421509157435315e+000	 3.816643031096151e+000	 1.018546540612996e+001
 2.379740127875997e+000	 3.842825566849163e+000	 1.015792121488360e+001
 2.337741334317804e+000	 3.868518795964159e+000	 1.012943671941011e+001
 2.295521228950525e+000	 3.893719982161630e+000	 1.009973592235999e+001
 2.253088299060944e+000	 3.918426580559851e+000	 1.006850521949000e+001
 2.210451061716201e+000	 3.942636237911626e+000	 1.003539357575344e+001
 2.642109836435286e+000	 3.700199726226330e+000	 1.031536527403931e+001
 2.601375923801742e+000	 3.728949695362553e+000	 1.029005038684096e+001
 2.560369098618346e+000	 3.757224100678466e+000	 1.026450558783577e+001
 2.519097606061323e+000	 3.785019236887461e+000	 1.023867078733602e+001
 2.477569753374350e+000	 3.812331587379766e+000	 1.021246247734419e+001
 2.435793904535414e+000	 3.839157825349139e+000	 1.018576786920906e+001
 2.393778474907056e+000	 3.865494814740869e+000	 1.015844027402275e+001
 2.351531925876844e+000	 3.891339611021289e+000	 1.013029572523887e+001
 2.309062759494951e+000	 3.916689461769292e+000	 1.010111083070760e+001
 2.266379513115586e+000	 3.941541807090635e+000	 1.007062182947663e+001
 2.223490754048992e+000	 3.965894279856078e+000	 1.003852481739537e+001
 2.657604537795815e+000	 3.721899615058424e+000	 1.031432681583822e+001
 2.616631740388380e+000	 3.750818188913088e+000	 1.028949007042658e+001
 2.575384429930460e+000	 3.779258409994674e+000	 1.026430169605414e+001
 2.533870899952260e+000	 3.807216551286875e+000	 1.023875807173751e+001
 2.492099506415425e+000	 3.834689075556711e+000	 1.021282926240018e+001
 2.450078662348638e+000	 3.861672636487839e+000	 1.018645294690033e+001
 2.407816832466474e+000	 3.888164079634114e+000	 1.015952964920066e+001
 2.365322527778456e+000	 3.914160443193614e+000	 1.013191927153599e+001
 2.322604300195172e+000	 3.939658958603628e+000	 1.010343891564822e+001
 2.279670737138295e+000	 3.964657050957376e+000	 1.007386196582818e+001
 2.236530456161203e+000	 3.989152339243565e+000	 1.004291839573541e+001
 2.673099254650146e+000	 3.743599525589590e+000	 1.031311414222308e+001
 2.631887572229961e+000	 3.772686704331335e+000	 1.028874663932404e+001
 2.590399776257064e+000	 3.801292741344445e+000	 1.026396695337942e+001
 2.548644208615680e+000	 3.829413887882882e+000	 1.023880858987753e+001
 2.506629273985478e+000	 3.857046586090442e+000	 1.021328574685041e+001
 2.464363434445877e+000	 3.884187470140660e+000	 1.018737644018795e+001
 2.421855204063538e+000	 3.910833367195940e+000	 1.016101760662669e+001
 2.379113143469984e+000	 3.936981298186089e+000	 1.013410157141992e+001
 2.336145854436271e+000	 3.962628478406766e+000	 1.010647386552231e+001
 2.292961974451582e+000	 3.987772317938653e+000	 1.007793236429371e+001
 2.249570171312477e+000	 4.012410421888376e+000	 1.004791384134983e+001
 2.688593990871690e+000	 3.765299463244428e+000	 1.031172873759503e+001
 2.647143423140168e+000	 3.794555247084063e+000	 1.028773360293687e+001
 2.605415141351708e+000	 3.823327100236014e+000	 1.026341442377843e+001
 2.563417535744618e+000	 3.851611252224485e+000	 1.023872840947161e+001
 2.521159059716648e+000	 3.879404124570021e+000	 1.021372450647245e+001
 2.478648224398018e+000	 3.906702331936015e+000	 1.018841098875851e+001
 2.435893593207532e+000	 3.933502683093391e+000	 1.016275045373033e+001
 2.392903776398776e+000	 3.959802181703660e+000	 1.013665624844099e+001
 2.349687425603333e+000	 3.985598026920839e+000	 1.010999030963914e+001
 2.306253228377954e+000	 4.010887613813039e+000	 1.008232373975995e+001
 2.262609902762454e+000	 4.035668533604806e+000	 1.005171319192325e+001
 2.704088750333855e+000	 3.786999433447542e+000	 1.031011598394291e+001
 2.662399296932676e+000	 3.816423822638034e+000	 1.028637752341566e+001
 2.620430528967939e+000	 3.845361492177609e+000	 1.026257071089084e+001
 2.578190885032107e+000	 3.873808649860682e+000	 1.023843780616396e+001
 2.535688867241081e+000	 3.901761696584513e+000	 1.021405317063872e+001
 2.492933035775950e+000	 3.929217227502316e+000	 1.018944530469378e+001
 2.449932003407742e+000	 3.956172032993508e+000	 1.016459175764625e+001
 2.406694430012176e+000	 3.982623099451280e+000	 1.013941553671104e+001
 2.363229017081439e+000	 4.008567609887977e+000	 1.011363734946908e+001
 2.319544502239928e+000	 4.034002944359120e+000	 1.008532179335921e+001
 2.275649653770777e+000	 4.058926680207140e+000	 1.005419022129437e+001
 2.719583536910048e+000	 3.808699441623531e+000	 1.030820984259972e+001
 2.677655197421170e+000	 3.838292436460014e+000	 1.028465654367831e+001
 2.635445942859313e+000	 3.867395922677467e+000	 1.026137522112827e+001
 2.592964260171184e+000	 3.896006086340477e+000	 1.023787052161724e+001
 2.550218700190915e+000	 3.924119307722978e+000	 1.021419367216756e+001
 2.507217872150561e+000	 3.951732162467970e+000	 1.019038341092548e+001
 2.463970438173452e+000	 3.978841422563334e+000	 1.016642156918770e+001
 2.420485107757531e+000	 4.005444057133899e+000	 1.014217169543378e+001
 2.376770632255675e+000	 4.031537233050311e+000	 1.011580788960069e+001
 2.332835799360011e+000	 4.057118315355471e+000	 1.008676731820463e+001
 2.288689427597086e+000	 4.082184867509672e+000	 1.005546368913994e+001
 2.735078354473680e+000	 3.830399493196998e+000	 1.030595317179553e+001
 2.692911128419328e+000	 3.860161094016767e+000	 1.028262740046742e+001
 2.650461386779380e+000	 3.889430397243821e+000	 1.025977943006430e+001
 2.607737664854879e+000	 3.918203567212871e+000	 1.023697302518103e+001
 2.564748562198296e+000	 3.946476963574480e+000	 1.021408150118005e+001
 2.521502737092740e+000	 3.974247142461395e+000	 1.019114388425945e+001
 2.478008901013948e+000	 4.001510857469911e+000	 1.016813129265634e+001
 2.434275813082186e+000	 4.028265060456468e+000	 1.014349212191735e+001
 2.390312274511121e+000	 4.054506902149972e+000	 1.011625106232357e+001
 2.346127123060713e+000	 4.080233732580672e+000	 1.008680897115555e+001
 2.301729227501026e+000	 4.105443101326692e+000	 1.005564066578602e+001
 2.750573206898158e+000	 3.852099593592544e+000	 1.030329698275931e+001
 2.708167093740830e+000	 3.882029800775059e+000	 1.028025458449274e+001
 2.665476864481691e+000	 3.911464921384907e+000	 1.025774615198135e+001
 2.622511102776230e+000	 3.940401098026868e+000	 1.023570377899324e+001
 2.579278456895366e+000	 3.968834669728083e+000	 1.021366496280017e+001
 2.535787634173377e+000	 3.996762173110999e+000	 1.019165910278481e+001
 2.492047395438517e+000	 4.024180343380285e+000	 1.016858472320779e+001
 2.448066549433489e+000	 4.051086115123940e+000	 1.014295812544493e+001
 2.403853947232864e+000	 4.077476622929091e+000	 1.011513883356627e+001
 2.359418476664550e+000	 4.103349201813303e+000	 1.008558256826788e+001
 2.314769056742236e+000	 4.128701387472491e+000	 1.005481651030519e+001
 2.184371693350319e+000	 3.896120183094671e+000	 1.003443214016430e+001
 2.142050406224803e+000	 3.919547518884829e+000	 9.999637037262872e+000
 2.099544179197507e+000	 3.942479845858591e+000	 9.966168735033557e+000
 2.056861484259474e+000	 3.964915410292883e+000	 9.932640878808632e+000
 2.014010801950552e+000	 3.986852646976335e+000	 9.897644315959052e+000
 1.971000616255271e+000	 4.008290178599602e+000	 9.862399494646050e+000
 1.927839409546484e+000	 4.029226814984732e+000	 9.832554916272244e+000
 1.884535657582464e+000	 4.049661552156452e+000	 9.806478698356784e+000
 1.841097824563030e+000	 4.069593571258429e+000	 9.782386887981918e+000
 1.797534358250065e+000	 4.089022237317836e+000	 9.758618211849036e+000
 1.753853685157622e+000	 4.107947097861665e+000	 9.733631387882289e+000
 2.197411375903191e+000	 3.919378207595922e+000	 1.003389662024213e+001
 2.154837450386865e+000	 3.942945393679175e+000	 1.000000257127499e+001
 2.112077480963578e+000	 3.966014615973811e+000	 9.967759232002127e+000
 2.069139990198221e+000	 3.988584110287832e+000	 9.935810343721153e+000
 2.026033509255522e+000	 4.010652302066275e+000	 9.902527203972165e+000
 1.982766572765459e+000	 4.032217805777887e+000	 9.866128013806705e+000
 1.939347713736705e+000	 4.053279424139899e+000	 9.833737211307280e+000
 1.895785458523871e+000	 4.073836147183757e+000	 9.805687515715931e+000
 1.852088321854113e+000	 4.093887151164926e+000	 9.780259840089215e+000
 1.808264801918528e+000	 4.113431797320074e+000	 9.755847730033473e+000
 1.764323375533540e+000	 4.132469630475131e+000	 9.730954723453278e+000
 2.210451061716201e+000	 3.942636237911626e+000	 1.003539357575344e+001
 2.167624497745855e+000	 3.966343274322894e+000	 1.000256517066811e+001
 2.124610785863071e+000	 3.989549391972592e+000	 9.971556335257196e+000
 2.081418499206607e+000	 4.012252816199792e+000	 9.940712864625127e+000
 2.038056219566090e+000	 4.034451963105934e+000	 9.907314695266486e+000
 1.994532532216958e+000	 4.056145438937855e+000	 9.870483997484081e+000
 1.950856020803727e+000	 4.077332039307960e+000	 9.835902686849840e+000
 1.907035262277360e+000	 4.098010748254415e+000	 9.806097172243081e+000
 1.863078821892374e+000	 4.118180737144485e+000	 9.779409920353714e+000
 1.818995248269089e+000	 4.137841363424329e+000	 9.754287037948133e+000
 1.774793068526321e+000	 4.156992169218810e+000	 9.729275679349545e+000
 2.223490754048992e+000	 3.965894279856078e+000	 1.003852481739537e+001
 2.180411551498271e+000	 3.989741166665249e+000	 1.000687239235118e+001
 2.137144097029070e+000	 4.013084179738415e+000	 9.976710024492897e+000
 2.093697014354038e+000	 4.035921533945723e+000	 9.945291151949679e+000
 2.050078935887736e+000	 4.058251636045005e+000	 9.911690445808553e+000
 2.006298497551088e+000	 4.080073084061181e+000	 9.875256599927546e+000
 1.962364333624481e+000	 4.101384666501830e+000	 9.838947958328092e+000
 1.918285071655266e+000	 4.122185361411838e+000	 9.807622101267290e+000
 1.874069327425340e+000	 4.142474335270259e+000	 9.779784030042832e+000
 1.829725699984286e+000	 4.162250941732745e+000	 9.753930185710066e+000
 1.785262766753336e+000	 4.181514720223090e+000	 9.728650155085990e+000
 2.236530456161203e+000	 3.989152339243565e+000	 1.004291839573541e+001
 2.193198614840611e+000	 4.013139076555489e+000	 1.001214440424434e+001
 2.149677417594655e+000	 4.036618985154762e+000	 9.981253944703409e+000
 2.105975538709923e+000	 4.059590269442583e+000	 9.949324687161781e+000
 2.062101661225939e+000	 4.082051326833177e+000	 9.915728757683985e+000
 2.018064471709168e+000	 4.104000747129544e+000	 9.879873588076475e+000
 1.973872655075903e+000	 4.125437311734431e+000	 9.842780820987853e+000
 1.929534889469919e+000	 4.146359992699434e+000	 9.810187664223653e+000
 1.885059841200544e+000	 4.166767951615396e+000	 9.781339419886956e+000
 1.840456159746657e+000	 4.186660538347462e+000	 9.754780663125853e+000
 1.795732472831950e+000	 4.206037289618354e+000	 9.729142245163912e+000
 2.249570171312477e+000	 4.012410421888376e+000	 1.004791384134983e+001
 2.205985690969373e+000	 4.036537009842877e+000	 1.001650134984266e+001
 2.162210750692910e+000	 4.060153814105111e+000	 9.985025471602791e+000
 2.118254075343664e+000	 4.083259028607333e+000	 9.952880924672051e+000
 2.074124398586184e+000	 4.105851041420147e+000	 9.919495683326279e+000
 2.029830457632516e+000	 4.127928434124628e+000	 9.884328358381575e+000
 1.985380988034921e+000	 4.149489981018679e+000	 9.847319274470294e+000
 1.940784718533653e+000	 4.170534648160611e+000	 9.813729218624751e+000
 1.896050365965514e+000	 4.191061592253049e+000	 9.784042810892084e+000
 1.851186630238740e+000	 4.211070159370624e+000	 9.756850582785397e+000
 1.806202189379531e+000	 4.230559883534988e+000	 9.730823493871245e+000
 2.262609902762454e+000	 4.035668533604806e+000	 1.005171319192325e+001
 2.218772783081055e+000	 4.059934972376666e+000	 1.001981122510232e+001
 2.174744099456915e+000	 4.083688672472943e+000	 9.988097790031322e+000
 2.130532627324668e+000	 4.106927817356930e+000	 9.956018542558041e+000
 2.086147150973949e+000	 4.129650785755607e+000	 9.923048852416928e+000
 2.041596458262454e+000	 4.151856151028106e+000	 9.888691067194058e+000
 1.996889335378473e+000	 4.173542680367493e+000	 9.852490560649679e+000
 1.952034561658799e+000	 4.194709333838777e+000	 9.818191198625730e+000
 1.907040904467783e+000	 4.215355263256366e+000	 9.787869526749859e+000
 1.861917114143072e+000	 4.235479810904370e+000	 9.760159873425771e+000
 1.816671919013446e+000	 4.255082508103376e+000	 9.733772158692688e+000
 2.275649653770777e+000	 4.058926680207140e+000	 1.005419022129437e+001
 2.231559894372153e+000	 4.083332970006111e+000	 1.002216460785956e+001
 2.187277467019754e+000	 4.107223566141736e+000	 9.990534543155508e+000
 2.142811197722343e+000	 4.130596641608336e+000	 9.958787297396921e+000
 2.098169921394717e+000	 4.153450565789250e+000	 9.926437311769719e+000
 2.053362476540301e+000	 4.175783903821666e+000	 9.893023343455237e+000
 2.008397699983487e+000	 4.197595415793795e+000	 9.858105637113440e+000
 1.963284421657691e+000	 4.218884055777343e+000	 9.823526207671714e+000
 1.918031459454879e+000	 4.239648970698496e+000	 9.792802637374059e+000
 1.872647614142193e+000	 4.259889499050847e+000	 9.764735483147568e+000
 1.827141664351063e+000	 4.279605169453904e+000	 9.738072481979414e+000
 2.288689427597086e+000	 4.082184867509672e+000	 1.005546368913994e+001
 2.244347028039166e+000	 4.106731008580471e+000	 1.002364155545647e+001
 2.199810856514507e+000	 4.130758500994972e+000	 9.992389722389930e+000
 2.155089789606092e+000	 4.154265507278510e+000	 9.961227891276350e+000
 2.110192712853969e+000	 4.177250387470769e+000	 9.929701377678468e+000
 2.065128515407376e+000	 4.199711698486983e+000	 9.897378134713915e+000
 2.019906084726899e+000	 4.221648193310500e+000	 9.863845811478425e+000
 1.974534301342661e+000	 4.243058820019718e+000	 9.829694122739166e+000
 1.929022033674333e+000	 4.263942720652591e+000	 9.798832113113789e+000
 1.883378132918639e+000	 4.284299229912193e+000	 9.770610592085065e+000
 1.837611428009748e+000	 4.304127873716954e+000	 9.743813970543467e+000
 2.301729227501026e+000	 4.105443101326692e+000	 1.005564066578602e+001
 2.257134187278591e+000	 4.130129093949001e+000	 1.002431153602378e+001
 2.212344271074256e+000	 4.154293482916130e+000	 9.993707568453628e+000
 2.167368406045321e+000	 4.177934420284410e+000	 9.963371850497916e+000
 2.122215528357185e+000	 4.201050256749856e+000	 9.932872500231268e+000
 2.076894577804999e+000	 4.223639541005737e+000	 9.901799565097825e+000
 2.031414492485641e+000	 4.245701018930528e+000	 9.869761962812138e+000
 1.985784203526040e+000	 4.267233632609310e+000	 9.836661209705021e+000
 1.940012629873676e+000	 4.288236519191803e+000	 9.805953989213593e+000
 1.894108673154950e+000	 4.308709009590554e+000	 9.777823834149677e+000
 1.848081212606869e+000	 4.328650627022916e+000	 9.751090682857301e+000
 2.314769056742236e+000	 4.128701387472491e+000	 1.005481651030519e+001
 2.269921375286927e+000	 4.153527231960959e+000	 1.002423336965026e+001
 2.224877713832085e+000	 4.177828517788692e+000	 9.994522483119527e+000
 2.179647050109438e+000	 4.201603386542996e+000	 9.965241415509485e+000
 2.134238370909848e+000	 4.224850179576209e+000	 9.935973139116578e+000
 2.088660666674489e+000	 4.247567437359611e+000	 9.906322804764667e+000
 2.042922926136646e+000	 4.269753898666801e+000	 9.875914560578401e+000
 1.997034131020162e+000	 4.291408499589529e+000	 9.844399249397890e+000
 1.951003250800438e+000	 4.312530372389278e+000	 9.814169540110255e+000
 1.904839237533663e+000	 4.333118844188068e+000	 9.786418527482745e+000
 1.858551020759794e+000	 4.353173435502171e+000	 9.760000523552845e+000
 1.753853685157622e+000	 4.107947097861665e+000	 9.733631387882289e+000
 1.710057629351524e+000	 4.126370607494756e+000	 9.706185437058775e+000
 1.666161110416385e+000	 4.144289799846914e+000	 9.676334085658873e+000
 1.622172468799514e+000	 4.161704763504537e+000	 9.644596591227296e+000
 1.578100005132252e+000	 4.178615762716244e+000	 9.611544265993617e+000
 1.533951975835255e+000	 4.195023235321111e+000	 9.577795905594048e+000
 1.489736588820484e+000	 4.210927790553209e+000	 9.544013317246602e+000
 1.445461999293614e+000	 4.226330206727043e+000	 9.510896948442818e+000
 1.401136305660350e+000	 4.241231428808610e+000	 9.479181619625264e+000
 1.356767545539909e+000	 4.255632565876874e+000	 9.449632366651002e+000
 1.312363691888676e+000	 4.269534888480566e+000	 9.423016215388504e+000
 1.764323375533540e+000	 4.132469630475131e+000	 9.730954723453278e+000
 1.720265877653797e+000	 4.151003119887775e+000	 9.704145652381978e+000
 1.676107316926896e+000	 4.169029281479971e+000	 9.675199477381478e+000
 1.631856083588732e+000	 4.186548204366939e+000	 9.644555599058037e+000
 1.587520527821553e+000	 4.203560154374750e+000	 9.612710063253527e+000
 1.543108955333008e+000	 4.220065571956186e+000	 9.580210980171222e+000
 1.498629623032470e+000	 4.236065069982164e+000	 9.547654024047521e+000
 1.454090734808400e+000	 4.251559431413378e+000	 9.515678014260692e+000
 1.409500437410214e+000	 4.266549606856837e+000	 9.484960581385550e+000
 1.364866816437977e+000	 4.281036712012199e+000	 9.456213924239313e+000
 1.320197892442914e+000	 4.295022025012785e+000	 9.430165690741131e+000
 1.774793068526321e+000	 4.156992169218810e+000	 9.729275679349545e+000
 1.730474128507555e+000	 4.175635638438452e+000	 9.702829171205295e+000
 1.686053525923382e+000	 4.193768769297368e+000	 9.674538523241679e+000
 1.641539700798301e+000	 4.211391651439615e+000	 9.644768229961599e+000
 1.596941052865475e+000	 4.228504552268712e+000	 9.613943096053614e+000
 1.552265937119550e+000	 4.245107914851144e+000	 9.582543662146620e+000
 1.507522659467327e+000	 4.261202355694691e+000	 9.551101692676326e+000
 1.462719472480057e+000	 4.276788662406223e+000	 9.520195726509952e+000
 1.417864571250882e+000	 4.291867791233776e+000	 9.490446693810057e+000
 1.372966089360723e+000	 4.306440864497702e+000	 9.462513605368004e+000
 1.328032094955653e+000	 4.320509167915921e+000	 9.437086408789037e+000
 1.785262766753336e+000	 4.181514720223090e+000	 9.728650155085990e+000
 1.740682384464818e+000	 4.200268169304669e+000	 9.702355333099645e+000
 1.695999739892365e+000	 4.218508269483743e+000	 9.674522426560047e+000
 1.651223322849097e+000	 4.236235110933195e+000	 9.645445942547138e+000
 1.606361582619119e+000	 4.253448962634002e+000	 9.615483452205158e+000
 1.561422923484098e+000	 4.270150270266356e+000	 9.585051039485498e+000
 1.516415700348281e+000	 4.286339653974895e+000	 9.554618793992162e+000
 1.471348214465735e+000	 4.302017906012684e+000	 9.524706348256366e+000
 1.426228709273348e+000	 4.317185988268775e+000	 9.495878462827404e+000
 1.381065366332916e+000	 4.331845029684224e+000	 9.468740665535689e+000
 1.335866301385387e+000	 4.345996323561552e+000	 9.443934954120298e+000
 1.795732472831950e+000	 4.206037289618354e+000	 9.729142245163912e+000
 1.750890648077604e+000	 4.224900718644310e+000	 9.702850395575354e+000
 1.705945961320361e+000	 4.243247788223719e+000	 9.675328303237034e+000
 1.660906952161998e+000	 4.261078589058305e+000	 9.646805372269020e+000
 1.615782119437594e+000	 4.278393391706492e+000	 9.617575928067044e+000
 1.570579916715873e+000	 4.295192644462189e+000	 9.587994705539270e+000
 1.525308747898565e+000	 4.311476971106893e+000	 9.558472363810388e+000
 1.479976962922586e+000	 4.327247168539862e+000	 9.529471027326014e+000
 1.434592853568603e+000	 4.342504204291177e+000	 9.501499856583351e+000
 1.389164649379327e+000	 4.357249213922600e+000	 9.475110654910957e+000
 1.343700513690607e+000	 4.371483498321261e+000	 9.450893520775953e+000
 1.806202189379531e+000	 4.230559883534988e+000	 9.730823493871245e+000
 1.761098921897934e+000	 4.249533292615256e+000	 9.704446861128345e+000
 1.715892192693890e+000	 4.267987331701934e+000	 9.677138572651030e+000
 1.670590591157879e+000	 4.285922092025571e+000	 9.649067777731673e+000
 1.625202665676004e+000	 4.303337845722058e+000	 9.620469521771168e+000
 1.579736919104094e+000	 4.320235043699012e+000	 9.591640290672343e+000
 1.534201804341407e+000	 4.336614313374795e+000	 9.562933564389159e+000
 1.488605720007758e+000	 4.352476456294862e+000	 9.534755379095818e+000
 1.442957006227640e+000	 4.367822445630329e+000	 9.507559900974821e+000
 1.397263940524723e+000	 4.382653423563673e+000	 9.481845018054111e+000
 1.351534733829807e+000	 4.396970698566631e+000	 9.458147959807342e+000
 1.816671919013446e+000	 4.255082508103376e+000	 9.733772158692688e+000
 1.771307208477830e+000	 4.274165897375390e+000	 9.707282811209721e+000
 1.725838436499470e+000	 4.292726906103013e+000	 9.680140354074705e+000
 1.680274242257617e+000	 4.310765626045626e+000	 9.652458491389430e+000
 1.634623223689456e+000	 4.328282330916574e+000	 9.624416930000587e+000
 1.588893932937980e+000	 4.345277474237194e+000	 9.596256996881209e+000
 1.543094871900039e+000	 4.361751687062710e+000	 9.568277248628100e+000
 1.497234487878402e+000	 4.377705775584788e+000	 9.540829071996264e+000
 1.451321169341452e+000	 4.393140718615578e+000	 9.514312278175289e+000
 1.405363241793874e+000	 4.408057664958274e+000	 9.489170697187163e+000
 1.359368963761479e+000	 4.422457930669241e+000	 9.465887782304456e+000
 1.827141664351063e+000	 4.279605169453904e+000	 9.738072481979414e+000
 1.781515510369310e+000	 4.298798539082597e+000	 9.711501246836610e+000
 1.735784695223622e+000	 4.317466517611590e+000	 9.684524868384219e+000
 1.689957907882089e+000	 4.335609197329096e+000	 9.657206374460881e+000
 1.644043795833055e+000	 4.353226853525915e+000	 9.629674048174366e+000
 1.598050960506749e+000	 4.370319942337101e+000	 9.602117135282029e+000
 1.551987952797689e+000	 4.386889098454755e+000	 9.574781526867206e+000
 1.505863268691669e+000	 4.402935132716745e+000	 9.547965415614620e+000
 1.459685345001030e+000	 4.418459029576267e+000	 9.522014928028995e+000
 1.413462555211549e+000	 4.433461944457243e+000	 9.497319738867612e+000
 1.367203205444115e+000	 4.447945201000673e+000	 9.474308677820876e+000
 1.837611428009748e+000	 4.304127873716954e+000	 9.743813970543467e+000
 1.791723830124394e+000	 4.323431223894759e+000	 9.717249435574310e+000
 1.745730971352862e+000	 4.342206172412294e+000	 9.690486844845527e+000
 1.699641590452171e+000	 4.360452812086607e+000	 9.663543275885504e+000
 1.653464384461906e+000	 4.378171419785954e+000	 9.636499473899177e+000
 1.607208004099624e+000	 4.395362454259105e+000	 9.609495666348975e+000
 1.560881049257587e+000	 4.412026553835040e+000	 9.582727336178976e+000
 1.514492064604708e+000	 4.428164533997836e+000	 9.556440951292082e+000
 1.468049535297369e+000	 4.443777384841744e+000	 9.530929652196708e+000
 1.421561882802517e+000	 4.458866268411420e+000	 9.506528903927576e+000
 1.375037460836209e+000	 4.473432515932509e+000	 9.483612122360196e+000
 1.848081212606869e+000	 4.328650627022916e+000	 9.751090682857301e+000
 1.801932170295104e+000	 4.348063957969758e+000	 9.724678264632141e+000
 1.755677267373712e+000	 4.366945876689758e+000	 9.698223932771743e+000
 1.709325292388740e+000	 4.385296476528788e+000	 9.671703495158017e+000
 1.662884991931116e+000	 4.403116035932563e+000	 9.645154013554370e+000
 1.616365066005822e+000	 4.420405016263575e+000	 9.618669742790429e+000
 1.569774163502965e+000	 4.437164059487676e+000	 9.592398012051449e+000
 1.523120877774671e+000	 4.453393985735167e+000	 9.566535045112630e+000
 1.476413742321459e+000	 4.469095790741354e+000	 9.541321720941188e+000
 1.429661226591549e+000	 4.484270643171642e+000	 9.517039280546275e+000
 1.382871731896253e+000	 4.498919881836328e+000	 9.494004990234080e+000
 1.858551020759794e+000	 4.353173435502171e+000	 9.760000523552845e+000
 1.812140533433458e+000	 4.372696747465477e+000	 9.733941599826682e+000
 1.765623585772689e+000	 4.391685636628613e+000	 9.707936117854752e+000
 1.719009016112671e+000	 4.410140196866270e+000	 9.681923248882944e+000
 1.672305620595791e+000	 4.428060708201621e+000	 9.655900191882562e+000
 1.625522148514562e+000	 4.445447634610877e+000	 9.629918254955342e+000
 1.578667297757052e+000	 4.462301621696777e+000	 9.604078862364498e+000
 1.531749710358706e+000	 4.478623494235841e+000	 9.578529483186376e+000
 1.484777968164294e+000	 4.494414253604442e+000	 9.553459482445247e+000
 1.437760588603412e+000	 4.509675075088746e+000	 9.529095900329542e+000
 1.390706020582741e+000	 4.524407305083716e+000	 9.505699169636568e+000
 1.312363691888676e+000	 4.269534888480566e+000	 9.423016215388504e+000
 1.267932648602657e+000	 4.282939824829096e+000	 9.398431172609305e+000
 1.223482245031363e+000	 4.295848954764352e+000	 9.374343759626635e+000
 1.179020234462681e+000	 4.308264010049258e+000	 9.350369381634049e+000
 1.134554291362543e+000	 4.320186872431324e+000	 9.326305551670915e+000
 1.090092008085801e+000	 4.331619570558885e+000	 9.302104734740867e+000
 1.045640891710206e+000	 4.342564276822999e+000	 9.277849361987267e+000
 1.001208360994867e+000	 4.353023304130099e+000	 9.253728711703463e+000
 9.568017434643769e-001	 4.362999102610631e+000	 9.230018431216616e+000
 9.124282726195250e-001	 4.372494256268735e+000	 9.207060310409689e+000
 8.680950852753391e-001	 4.381511479578151e+000	 9.185245116474532e+000
 1.320197892442914e+000	 4.295022025012785e+000	 9.430165690741131e+000
 1.275501616503612e+000	 4.308506982593760e+000	 9.405991391736347e+000
 1.230785864707158e+000	 4.321493174027922e+000	 9.382239505982660e+000
 1.186058436624959e+000	 4.333982341416011e+000	 9.358567541379083e+000
 1.141327052535938e+000	 4.345976377738679e+000	 9.334806180762703e+000
 1.096599350117776e+000	 4.357477323754349e+000	 9.310932511888055e+000
 1.051882881261982e+000	 4.368487364822227e+000	 9.287045404874503e+000
 1.007185109014209e+000	 4.379008827655715e+000	 9.263342791899696e+000
 9.625134046409606e-001	 4.389044177011387e+000	 9.240101249046411e+000
 9.178750448236620e-001	 4.398596012318689e+000	 9.217656349032176e+000
 8.732772089808063e-001	 4.407667064255488e+000	 9.196385509555334e+000
 1.328032094955653e+000	 4.320509167915921e+000	 9.437086408789037e+000
 1.283070586296851e+000	 4.334074146749346e+000	 9.413409428039836e+000
 1.238089486208987e+000	 4.347137399701696e+000	 9.390053956082809e+000
 1.193096640547000e+000	 4.359700679211523e+000	 9.366720106241763e+000
 1.148099815402816e+000	 4.371765889492630e+000	 9.343273291324696e+000
 1.103106693776948e+000	 4.383335083413516e+000	 9.319717868262886e+000
 1.058124872374679e+000	 4.394410459301542e+000	 9.296172901677082e+000
 1.013161858528212e+000	 4.404994357677095e+000	 9.272849878597699e+000
 9.682250672459715e-001	 4.415089257922869e+000	 9.250032243114122e+000
 9.233218183900274e-001	 4.424697774893605e+000	 9.228056599941169e+000
 8.784593339823467e-001	 4.433822655471317e+000	 9.207295280336041e+000
 1.335866301385387e+000	 4.345996323561552e+000	 9.443934954120298e+000
 1.290639559874550e+000	 4.359641323687433e+000	 9.420774835053065e+000
 1.245393111362680e+000	 4.372781638196507e+000	 9.397820147110771e+000
 1.200134847988272e+000	 4.385419029865138e+000	 9.374812962032594e+000
 1.154872581656271e+000	 4.397555414140287e+000	 9.351654574353162e+000
 1.109614040690050e+000	 4.409192856000539e+000	 9.328378867131459e+000
 1.064366866608685e+000	 4.420333566741420e+000	 9.305128486584831e+000
 1.019138611030946e+000	 4.430979900690285e+000	 9.282132925537452e+000
 9.739367327072042e-001	 4.441134351855978e+000	 9.259688430878926e+000
 9.287685946801907e-001	 4.450799550518534e+000	 9.238139275244922e+000
 8.836414615753684e-001	 4.459978259764122e+000	 9.217860805580932e+000
 1.343700513690607e+000	 4.371483498321261e+000	 9.450893520775953e+000
 1.298208539128881e+000	 4.385208519799600e+000	 9.428198615879641e+000
 1.252696741994064e+000	 4.398425895923181e+000	 9.405596275108504e+000
 1.207173060708235e+000	 4.411137399806195e+000	 9.382860389566124e+000
 1.161645352989398e+000	 4.423344958128768e+000	 9.359928864455176e+000
 1.116121392483815e+000	 4.435050647979575e+000	 9.336866963194128e+000
 1.070608865524384e+000	 4.446256693622319e+000	 9.313843920207910e+000
 1.025115368016482e+000	 4.456965463191335e+000	 9.291111413649279e+000
 9.796484024524523e-001	 4.467179465321619e+000	 9.268983845303032e+000
 9.342153750557217e-001	 4.476901345718529e+000	 9.247819739003653e+000
 8.888235930552790e-001	 4.486133883672388e+000	 9.228005201880258e+000
 1.351534733829807e+000	 4.396970698566631e+000	 9.458147959807342e+000
 1.305777525952022e+000	 4.410775741477424e+000	 9.435811079606664e+000
 1.260000379928967e+000	 4.424070179292549e+000	 9.413463661876843e+000
 1.214211280466357e+000	 4.436855795464039e+000	 9.390903147690937e+000
 1.168418131095294e+000	 4.449134527905186e+000	 9.368104344372661e+000
 1.122628750784974e+000	 4.460908465814775e+000	 9.345165333695391e+000
 1.076850870682165e+000	 4.472179846424699e+000	 9.322284552096930e+000
 1.031092130978891e+000	 4.482951051676290e+000	 9.299739675171058e+000
 9.853600779095110e-001	 4.493224604830711e+000	 9.277868273646568e+000
 9.396621608781907e-001	 4.503003167018645e+000	 9.257049390361965e+000
 8.940057297174856e-001	 4.512289533734595e+000	 9.237687356934172e+000
 1.359368963761479e+000	 4.422457930669241e+000	 9.465887782304456e+000
 1.313346522236146e+000	 4.436342995112480e+000	 9.443759702961501e+000
 1.267304026993219e+000	 4.449714494715444e+000	 9.421524727672107e+000
 1.221249509022101e+000	 4.462574223268007e+000	 9.399006562378203e+000
 1.175190917667051e+000	 4.474924129916656e+000	 9.376216755539335e+000
 1.129136117220259e+000	 4.486766315970297e+000	 9.353287215254689e+000
 1.083092883642415e+000	 4.498103031629028e+000	 9.330447788386950e+000
 1.037068901412243e+000	 4.508936672641196e+000	 9.308005581308191e+000
 9.910717605061742e-001	 4.519269776894150e+000	 9.286325999344752e+000
 9.451089535091670e-001	 4.529105020943928e+000	 9.265814548324913e+000
 8.991878728573962e-001	 4.538445216489230e+000	 9.246900960765949e+000
 1.367203205444115e+000	 4.447945201000673e+000	 9.474308677820876e+000
 1.320915529873429e+000	 4.461910287096349e+000	 9.452206996986538e+000
 1.274607685012648e+000	 4.475358848602692e+000	 9.429900969452215e+000
 1.228287748134932e+000	 4.488292689647440e+000	 9.407258621613655e+000
 1.181963714397768e+000	 4.500713770610291e+000	 9.384327614418353e+000
 1.135643493416402e+000	 4.512624204910294e+000	 9.361274246179653e+000
 1.089334905965519e+000	 4.524026255715766e+000	 9.338361564352329e+000
 1.043045680810607e+000	 4.534922332582100e+000	 9.315929149037935e+000
 9.967834516702370e-001	 4.545314988022852e+000	 9.294374546839144e+000
 9.505557543102210e-001	 4.555206914019435e+000	 9.274135338108721e+000
 9.043700237704184e-001	 4.564600938474771e+000	 9.255673536866061e+000
 1.375037460836209e+000	 4.473432515932509e+000	 9.483612122360196e+000
 1.328484550756046e+000	 4.487477623820608e+000	 9.461328378515187e+000
 1.281911355813081e+000	 4.501003247365126e+000	 9.438730944436683e+000
 1.235325999564314e+000	 4.514011201031684e+000	 9.415768075848867e+000
 1.188736522980537e+000	 4.526503456433209e+000	 9.392522434378890e+000
 1.142150881000136e+000	 4.538482139098919e+000	 9.369194814034017e+000
 1.095576939211864e+000	 4.549949525165379e+000	 9.346082821669089e+000
 1.049022470668055e+000	 4.560908037995049e+000	 9.323561151813150e+000
 1.002495152829493e+000	 4.571360244727723e+000	 9.302063429240551e+000
 9.560025646429224e-001	 4.581308852770217e+000	 9.282064578999824e+000
 9.095521837519596e-001	 4.590756706229706e+000	 9.264065473267213e+000
 1.382871731896253e+000	 4.498919881836328e+000	 9.494004990234080e+000
 1.336053586776172e+000	 4.513045011676836e+000	 9.471310251046729e+000
 1.289215041220348e+000	 4.526647697413575e+000	 9.448168258754476e+000
 1.242364265069711e+000	 4.539729763850075e+000	 9.424662543777945e+000
 1.195509345108456e+000	 4.552293193832522e+000	 9.400908952880611e+000
 1.148658281598193e+000	 4.564340125000327e+000	 9.377142408241594e+000
 1.101818984941837e+000	 4.575872846458329e+000	 9.353695990189655e+000
 1.054999272478657e+000	 4.586893795376091e+000	 9.330981734004096e+000
 1.008206865411738e+000	 4.597405553519671e+000	 9.309472898705836e+000
 9.614493858688403e-001	 4.607410843721321e+000	 9.289686673658732e+000
 9.147343540974272e-001	 4.616912526292514e+000	 9.272169053550966e+000
 1.390706020582741e+000	 4.524407305083716e+000	 9.505699169636568e+000
 1.343622639825983e+000	 4.538612457056611e+000	 9.482344626739902e+000
 1.296518743060277e+000	 4.552292205158869e+000	 9.458379560963424e+000
 1.249402546410590e+000	 4.565448384531957e+000	 9.434086623215816e+000
 1.202282182474618e+000	 4.578082989255348e+000	 9.409615363744312e+000
 1.155165696837305e+000	 4.590198169078671e+000	 9.385233977517620e+000
 1.108061044715827e+000	 4.601796226075082e+000	 9.361311474043173e+000
 1.060976087736485e+000	 4.612879611221273e+000	 9.338299028923702e+000
 1.013918590844765e+000	 4.623450920909603e+000	 9.316712542530032e+000
 9.668962193495460e-001	 4.633512893397808e+000	 9.297116498807283e+000
 9.199165361022298e-001	 4.643068405201682e+000	 9.280107487785335e+000
 8.680950852753391e-001	 4.381511479578151e+000	 9.185245116474532e+000
 8.238158559823361e-001	 4.390052368877189e+000	 9.165574768355437e+000
 7.795908563484760e-001	 4.398121279226209e+000	 9.148316024476870e+000
 7.354269054959154e-001	 4.405721297882294e+000	 9.132815709111954e+000
 6.913307167858134e-001	 4.412855628386947e+000	 9.118441909980758e+000
 6.473088957992209e-001	 4.419527586972392e+000	 9.104137327822764e+000
 6.033679384448826e-001	 4.425740598943745e+000	 9.086390680938843e+000
 5.595142291933083e-001	 4.431498195041700e+000	 9.065326307360840e+000
 5.157540394362644e-001	 4.436804007790360e+000	 9.042116426978240e+000
 4.720935259706708e-001	 4.441661767834681e+000	 9.018114801027483e+000
 4.285387296057504e-001	 4.446075300271935e+000	 8.994769601131640e+000
 8.732772089808063e-001	 4.407667064255488e+000	 9.196385509555334e+000
 8.287336532936124e-001	 4.416258938689484e+000	 9.177366942337001e+000
 7.842446509914092e-001	 4.424376016678724e+000	 9.160896218124099e+000
 7.398170619033307e-001	 4.432021403909765e+000	 9.146226195825864e+000
 6.954576394661727e-001	 4.439198323047760e+000	 9.132625813771227e+000
 6.511730286932236e-001	 4.445910110121298e+000	 9.119076921522781e+000
 6.069697642707742e-001	 4.452160210882961e+000	 9.101920823338999e+000
 5.628542687816454e-001	 4.457952177150323e+000	 9.081195262307206e+000
 5.188328510548876e-001	 4.463289663131957e+000	 9.058280452115454e+000
 4.749117046406270e-001	 4.468176421743034e+000	 9.034688755348062e+000
 4.310969064089004e-001	 4.472616300914868e+000	 9.011987286621210e+000
 8.784593339823467e-001	 4.433822655471317e+000	 9.207295280336041e+000
 8.336514518348716e-001	 4.442465515053096e+000	 9.188914973316253e+000
 7.888984467982979e-001	 4.450630760694662e+000	 9.173259566209859e+000
 7.442072194087525e-001	 4.458321516512071e+000	 9.159508150115254e+000
 6.995845631786759e-001	 4.465541024294118e+000	 9.146850776928464e+000
 6.550371625536070e-001	 4.472292639865747e+000	 9.134306726254268e+000
 6.105715909973929e-001	 4.478579829427027e+000	 9.118153623277893e+000
 5.661943092051769e-001	 4.484406165872398e+000	 9.098234419459370e+000
 5.219116634433041e-001	 4.489775325094919e+000	 9.076101524190451e+000
 4.777298840151175e-001	 4.494691082279965e+000	 9.053388066354902e+000
 4.336550838514772e-001	 4.499157308192906e+000	 9.031740842049398e+000
 8.836414615753684e-001	 4.459978259764122e+000	 9.217860805580932e+000
 8.385692528354413e-001	 4.468672104519223e+000	 9.200113653541616e+000
 7.935522449324753e-001	 4.476885517837254e+000	 9.185302754789477e+000
 7.485973791096096e-001	 4.484621642263762e+000	 9.172553329762145e+000
 7.037114889549524e-001	 4.491883738711194e+000	 9.160996548349813e+000
 6.589012983463134e-001	 4.498675182800865e+000	 9.149680429875506e+000
 6.141734195251157e-001	 4.504999461180328e+000	 9.134918584304241e+000
 5.695343512988461e-001	 4.510860167820907e+000	 9.116250363626076e+000
 5.249904773711640e-001	 4.516261000300146e+000	 9.095361010910569e+000
 4.805480647986481e-001	 4.521205756073643e+000	 9.073963008373617e+000
 4.362132625730023e-001	 4.525698328740825e+000	 9.053740000362517e+000
 8.888235930552790e-001	 4.486133883672388e+000	 9.228005201880258e+000
 8.434870575246498e-001	 4.494878713639076e+000	 9.210893699914923e+000
 7.982060465572729e-001	 4.503140294669722e+000	 9.196957324981582e+000
 7.529875421033313e-001	 4.510921787739378e+000	 9.185287023300329e+000
 7.078384178266317e-001	 4.518226472884164e+000	 9.174974829380121e+000
 6.627654370372837e-001	 4.525057745521771e+000	 9.165083267302000e+000
 6.177752507543193e-001	 4.531419112747249e+000	 9.152073489008501e+000
 5.728743958975961e-001	 4.537314189608826e+000	 9.135074978714307e+000
 5.280692936081175e-001	 4.542746695368543e+000	 9.115862805255649e+000
 4.833662476957264e-001	 4.547720449752236e+000	 9.096183731321059e+000
 4.387714432129979e-001	 4.552239369193409e+000	 9.077711762935746e+000
 8.940057297174856e-001	 4.512289533734595e+000	 9.237687356934172e+000
 8.484048671318258e-001	 4.521085348963855e+000	 9.221220932604808e+000
 8.028598528360235e-001	 4.529395097755289e+000	 9.208188993447559e+000
 7.573777094873467e-001	 4.537221959513468e+000	 9.197667506597671e+000
 7.119653508253424e-001	 4.544569233398201e+000	 9.188728860449157e+000
 6.666295795924608e-001	 4.551440334623584e+000	 9.180431792238979e+000
 6.213770855853806e-001	 4.557838790732177e+000	 9.169504251679697e+000
 5.762144438363704e-001	 4.563768237849135e+000	 9.154565382955637e+000
 5.311481129238144e-001	 4.569232416921015e+000	 9.137433343815317e+000
 4.861844334108584e-001	 4.574235169943914e+000	 9.119840361597774e+000
 4.413296264109850e-001	 4.578780436185433e+000	 9.103400581378553e+000
 8.991878728573962e-001	 4.538445216489230e+000	 9.246900960765949e+000
 8.533226828862972e-001	 4.547292017044767e+000	 9.231095451754513e+000
 8.075136649320586e-001	 4.555649933657177e+000	 9.218996969166604e+000
 7.617678823590857e-001	 4.563522164160577e+000	 9.209685493976327e+000
 7.160922889827143e-001	 4.570912026838485e+000	 9.202233000537069e+000
 6.704937269777868e-001	 4.577822956701428e+000	 9.195693314375468e+000
 6.249789249186767e-001	 4.584258501739503e+000	 9.187124760543037e+000
 5.795544959501117e-001	 4.590222319154812e+000	 9.174603852176922e+000
 5.342269360879054e-001	 4.595718171578467e+000	 9.159921611706514e+000
 4.890026226485514e-001	 4.600749923276846e+000	 9.144743088174488e+000
 4.438878128064858e-001	 4.605321536351674e+000	 9.130568523230673e+000
 9.043700237704184e-001	 4.564600938474771e+000	 9.255673536866061e+000
 8.582405060173920e-001	 4.573498724433014e+000	 9.240550812360464e+000
 8.121674840087108e-001	 4.581904808938609e+000	 9.229413266655264e+000
 7.661580618159765e-001	 4.589822408255249e+000	 9.221363584091387e+000
 7.202192333303767e-001	 4.597254859790194e+000	 9.215492299757701e+000
 6.743578801592034e-001	 4.604205618350421e+000	 9.210867560418199e+000
 6.285807696545844e-001	 4.610678252373612e+000	 9.204876710000194e+000
 5.828945530737637e-001	 4.616676440138839e+000	 9.195097731598834e+000
 5.373057638700403e-001	 4.622203965961802e+000	 9.183199134613970e+000
 4.918208161133116e-001	 4.627264716379196e+000	 9.170722234471096e+000
 4.464460030390218e-001	 4.631862676326913e+000	 9.158995422199219e+000
 9.095521837519596e-001	 4.590756706229706e+000	 9.264065473267213e+000
 8.631583377544390e-001	 4.599705477679803e+000	 9.249653197393192e+000
 8.168213112293120e-001	 4.608159730162813e+000	 9.239502015773459e+000
 7.705482489554487e-001	 4.616122698372030e+000	 9.232755700778217e+000
 7.243461848999587e-001	 4.623597738838499e+000	 9.228542065336399e+000
 6.782220401026525e-001	 4.630588326165689e+000	 9.225962606108585e+000
 6.321826206934803e-001	 4.637098049238887e+000	 9.222729423274869e+000
 5.862346160422692e-001	 4.643130607414196e+000	 9.215979336623837e+000
 5.403845970398691e-001	 4.648689806691922e+000	 9.207159958471372e+000
 4.946390145096462e-001	 4.653779555879138e+000	 9.197628316599165e+000
 4.490041977481147e-001	 4.658403862745925e+000	 9.188479013558306e+000
 9.147343540974272e-001	 4.616912526292514e+000	 9.272169053550966e+000
 8.680761793267666e-001	 4.625912283336335e+000	 9.258500589229215e+000
 8.214751477571944e-001	 4.634414703893005e+000	 9.249358768252154e+000
 7.749384448749321e-001	 4.642423041085466e+000	 9.243946529068639e+000
 7.284731447230899e-001	 4.649940670568578e+000	 9.241447421245727e+000
 6.820862077740764e-001	 4.656971086742350e+000	 9.241015109994963e+000
 6.357844789357414e-001	 4.663517898939720e+000	 9.240679665847653e+000
 5.895746856905716e-001	 4.669584827593856e+000	 9.237110418846703e+000
 5.434634363670423e-001	 4.675175700389738e+000	 9.230828992105758e+000
 4.974572185420614e-001	 4.680294448404837e+000	 9.222880539251053e+000
 4.515623975732861e-001	 4.684945102243493e+000	 9.214185784769997e+000
 9.199165361022298e-001	 4.643068405201682e+000	 9.280107487785335e+000
 8.729940319637027e-001	 4.652119147953820e+000	 9.267221939458727e+000
 8.261289947556902e-001	 4.660669736692415e+000	 9.259109801071402e+000
 7.793286506718555e-001	 4.668723442970103e+000	 9.255018843434849e+000
 7.326001138313993e-001	 4.676283661565610e+000	 9.253510874303585e+000
 6.859503841394172e-001	 4.683353906675524e+000	 9.253462800583474e+000
 6.393863452817451e-001	 4.689937808080498e+000	 9.253140379908107e+000
 5.929147628536142e-001	 4.696039107290805e+000	 9.248994869352638e+000
 5.465422826212100e-001	 4.701661653676148e+000	 9.241825946811325e+000
 5.002754289150642e-001	 4.706809400584463e+000	 9.232651808482620e+000
 4.541206031540580e-001	 4.711486401454395e+000	 9.222262601004298e+000
 4.285387296057504e-001	 4.446075300271935e+000	 8.994769601131640e+000
 3.850890805500643e-001	 4.450049084339991e+000	 8.974518498488223e+000
 3.417570031782413e-001	 4.453586430291698e+000	 8.958611221855399e+000
 2.985482730329779e-001	 4.456691427433116e+000	 8.946696851286578e+000
 2.554685425323549e-001	 4.459368244970696e+000	 8.938348265529415e+000
 2.125233401846509e-001	 4.461621128336633e+000	 8.933026519515089e+000
 1.697180699191656e-001	 4.463454395533640e+000	 8.930049296922171e+000
 1.270580105308178e-001	 4.464872433502731e+000	 8.928561796281660e+000
 8.454831523620064e-002	 4.465879694517425e+000	 8.927508561294420e+000
 4.219401133867746e-002	 4.466480692607675e+000	 8.925604920547993e+000
 0.000000000000000e+000	 4.466680000016666e+000	 8.921306857097861e+000
 4.310969064089004e-001	 4.472616300914868e+000	 9.011987286621210e+000
 3.873878831668753e-001	 4.476613806624297e+000	 8.992883746783615e+000
 3.437971334569232e-001	 4.480172268884856e+000	 8.978878223943877e+000
 3.003304672990531e-001	 4.483295801413886e+000	 8.969669650229529e+000
 2.569935708536610e-001	 4.485988598306078e+000	 8.964866947918338e+000
 2.137920056316580e-001	 4.488254930336909e+000	 8.963962596536636e+000
 1.707312078212959e-001	 4.490099141285577e+000	 8.966309846362533e+000
 1.278164877294525e-001	 4.491525644281117e+000	 8.971101868983736e+000
 8.505302933503577e-002	 4.492538918175070e+000	 8.977351295776813e+000
 4.244588995207965e-002	 4.493143503944065e+000	 8.983868757675078e+000
 0.000000000000000e+000	 4.493344001125478e+000	 8.989239202765351e+000
 4.336550838514772e-001	 4.499157308192906e+000	 9.031740842049398e+000
 3.896866863581598e-001	 4.503178535549549e+000	 9.014014313547259e+000
 3.458372642453053e-001	 4.506758114124130e+000	 9.001855708021564e+000
 3.021126620102520e-001	 4.509900182045276e+000	 8.995006113798823e+000
 2.585185995557294e-001	 4.512608958295947e+000	 8.993105857771084e+000
 2.150606713952958e-001	 4.514888738994899e+000	 8.995677664964607e+000
 1.717443459761731e-001	 4.516743893697840e+000	 9.002113007961929e+000
 1.285749651172138e-001	 4.518178861721836e+000	 9.011659867172078e+000
 8.555774355965584e-002	 4.519198148496463e+000	 9.023410291450629e+000
 4.269776862821956e-002	 4.519806321945047e+000	 9.036286319331405e+000
 0.000000000000000e+000	 4.520008008899155e+000	 9.049022992471318e+000
 4.362132625730023e-001	 4.525698328740825e+000	 9.053740000362517e+000
 3.919854906986117e-001	 4.529743277756488e+000	 9.037588440087207e+000
 3.478773960534283e-001	 4.533343972655577e+000	 9.027217580940389e+000
 3.038948576121460e-001	 4.536504575978025e+000	 9.022398840920106e+000
 2.600436290198505e-001	 4.539229331595073e+000	 9.022795237902550e+000
 2.163293377927728e-001	 4.541522560968785e+000	 9.027954562122499e+000
 1.727574846371275e-001	 4.543388659431392e+000	 9.037305253127911e+000
 1.293334428837651e-001	 4.544832092488000e+000	 9.050153130664322e+000
 8.606245803627605e-002	 4.545857392146253e+000	 9.065677306027872e+000
 4.294964743008914e-002	 4.546469153276179e+000	 9.082923779725608e+000
 0.000000000000000e+000	 4.546672030003566e+000	 9.100795411067733e+000
 4.387714432129979e-001	 4.552239369193409e+000	 9.077711762935746e+000
 3.942842967629250e-001	 4.556308039885857e+000	 9.063298475864048e+000
 3.499175293913340e-001	 4.559929851125254e+000	 9.054647560907002e+000
 3.056770545503056e-001	 4.563108989862871e+000	 9.051544746085094e+000
 2.615686596273151e-001	 4.565849724858241e+000	 9.053662891697710e+000
 2.175980051412969e-001	 4.568156402916755e+000	 9.060565614008224e+000
 1.737706240574891e-001	 4.570033445147191e+000	 9.071713098232300e+000
 1.300919212187698e-001	 4.571485343242732e+000	 9.086468176817368e+000
 8.656717289111159e-002	 4.572516655789086e+000	 9.104100934951491e+000
 4.320152642068027e-002	 4.573132004603027e+000	 9.123790293369130e+000
 0.000000000000000e+000	 4.573336071104578e+000	 9.144621207037385e+000
 4.413296264109850e-001	 4.578780436185433e+000	 9.103400581378553e+000
 3.965831051257935e-001	 4.582872828578392e+000	 9.090851153411549e+000
 3.519576647690631e-001	 4.586515756179225e+000	 9.083839571254471e+000
 3.074592532703023e-001	 4.589713430350549e+000	 9.082145596205113e+000
 2.630936917594145e-001	 4.592470144740219e+000	 9.085434885778682e+000
 2.188666737580767e-001	 4.594790271496990e+000	 9.093273525015622e+000
 1.747837644905881e-001	 4.596678257506201e+000	 9.105144201150015e+000
 1.308504003118915e-001	 4.598138620649134e+000	 9.120462022182675e+000
 8.707188825037780e-002	 4.599175946089609e+000	 9.138588175020786e+000
 4.345340566298491e-002	 4.599794882591152e+000	 9.158839816100112e+000
 0.000000000000000e+000	 4.600000138868055e+000	 9.180494784942637e+000
 4.438878128064858e-001	 4.605321536351674e+000	 9.130568523230673e+000
 3.988819163619112e-001	 4.609437650474841e+000	 9.119967845415262e+000
 3.539978026966568e-001	 4.613101694463545e+000	 9.114498113709697e+000
 3.092414542177066e-001	 4.616317904091794e+000	 9.113908523389501e+000
 2.646187257974394e-001	 4.619090597895789e+000	 9.117836224137914e+000
 2.201353439603201e-001	 4.621424173367672e+000	 9.125832233797624e+000
 1.757969061897544e-001	 4.623323103169382e+000	 9.137388417770637e+000
 1.316088803527938e-001	 4.624791931370332e+000	 9.151963457143644e+000
 8.757660424028992e-002	 4.625835269712468e+000	 9.169005933209018e+000
 4.370528521999494e-002	 4.626457793906114e+000	 9.187972862733458e+000
 0.000000000000000e+000	 4.626664239959867e+000	 9.208342225181404e+000
 4.464460030390218e-001	 4.631862676326913e+000	 9.158995422199219e+000
 4.011807310459722e-001	 4.636002512215940e+000	 9.150384804669434e+000
 3.560379436841565e-001	 4.639687672624278e+000	 9.146338621984103e+000
 3.110236578380897e-001	 4.642922417737343e+000	 9.146546514619695e+000
 2.661437621226806e-001	 4.645711090979727e+000	 9.150591494887509e+000
 2.214040160652356e-001	 4.648058115186988e+000	 9.157987736634349e+000
 1.768100494083184e-001	 4.649967988797697e+000	 9.168218820093410e+000
 1.323673615311400e-001	 4.651445282069431e+000	 9.180774275425854e+000
 8.808132098706309e-002	 4.652494633322308e+000	 9.195182482876025e+000
 4.395716515470233e-002	 4.653120745213482e+000	 9.211038203882916e+000
 0.000000000000000e+000	 4.653328381045878e+000	 9.228023233969262e+000
 4.490041977481147e-001	 4.658403862745925e+000	 9.188479013558306e+000
 4.034795497526701e-001	 4.662567420442431e+000	 9.181853387600189e+000
 3.580780882416032e-001	 4.666273697307478e+000	 9.179087796477479e+000
 3.128058645770226e-001	 4.669526977937935e+000	 9.179660210675118e+000
 2.676688011164292e-001	 4.672331630646809e+000	 9.182968808589665e+000
 2.226726903900313e-001	 4.674692103613121e+000	 9.188615190791454e+000
 1.778231943996100e-001	 4.676612921052107e+000	 9.196197279474383e+000
 1.331258440365939e-001	 4.678098679409549e+000	 9.205334867971237e+000
 8.858603861691267e-002	 4.679154043583776e+000	 9.215696388726981e+000
 4.420904553009895e-002	 4.679783743178811e+000	 9.227024369273213e+000
 0.000000000000000e+000	 4.679992568791956e+000	 9.239159744458700e+000
 4.515623975732861e-001	 4.684945102243493e+000	 9.214185784769997e+000
 4.057783730566993e-001	 4.689132381795057e+000	 9.206865505321177e+000
 3.601182368790378e-001	 4.692859775159207e+000	 9.202439684567718e+000
 3.145880748800762e-001	 4.696131591344303e+000	 9.200708758229828e+000
 2.691938431599759e-001	 4.698952223551812e+000	 9.201410526453152e+000
 2.239413672519154e-001	 4.701326145304251e+000	 9.204250973837187e+000
 1.788363414169593e-001	 4.703257906593571e+000	 9.208933200682081e+000
 1.338843280588187e-001	 4.704752130053802e+000	 9.215184681628047e+000
 8.909075725605382e-002	 4.705813507161520e+000	 9.222783055872053e+000
 4.446092640917675e-002	 4.706446794467667e+000	 9.231580640023759e+000
 0.000000000000000e+000	 4.706656809863968e+000	 9.241527840604681e+000
 4.541206031540580e-001	 4.711486401454395e+000	 9.222262601004298e+000
 4.080772015327535e-001	 4.715697402914556e+000	 9.212834668729940e+000
 3.621583901065020e-001	 4.719445912825524e+000	 9.206115024174663e+000
 3.163702891928216e-001	 4.722736264607185e+000	 9.202037685134904e+000
 2.707188886346119e-001	 4.725572876349515e+000	 9.200481322546461e+000
 2.252100469680961e-001	 4.727960246918567e+000	 9.201298887079153e+000
 1.798494907136967e-001	 4.729902952083056e+000	 9.204345352378192e+000
 1.346428137874782e-001	 4.731405640665301e+000	 9.209503802973973e+000
 8.959547703070191e-002	 4.732473030720189e+000	 9.216710082035139e+000
 4.471280785492766e-002	 4.733109905745613e+000	 9.225976200126315e+000
 0.000000000000000e+000	 4.733321110927780e+000	 9.237412691164128e+000
 4.733321110927780e+000	 0.000000000000000e+000	 1.037371224311372e+001
 4.733109905745614e+000	 4.471280785492782e-002	 1.037044754676273e+001
 4.732473030720188e+000	 8.959547703070217e-002	 1.036847233006375e+001
 4.731405640665302e+000	 1.346428137874779e-001	 1.036757065384273e+001
 4.729902952083056e+000	 1.798494907136964e-001	 1.036752465515809e+001
 4.727960246918567e+000	 2.252100469680961e-001	 1.036812108380569e+001
 4.725572876349514e+000	 2.707188886346120e-001	 1.036915833214796e+001
 4.722736264607185e+000	 3.163702891928218e-001	 1.037045402008943e+001
 4.719445912825525e+000	 3.621583901065016e-001	 1.037185320257161e+001
 4.715697402914556e+000	 4.080772015327532e-001	 1.037323727242727e+001
 4.711486401454396e+000	 4.541206031540578e-001	 1.037453363675628e+001
 4.759989469820151e+000	 0.000000000000000e+000	 1.037560207202743e+001
 4.759777074671016e+000	 4.496472763253102e-002	 1.037265532884952e+001
 4.759136611380217e+000	 9.010027361466881e-002	 1.037059545825859e+001
 4.758063207462941e+000	 1.354014149440845e-001	 1.036928493271223e+001
 4.756552052470238e+000	 1.808627941936055e-001	 1.036858248059343e+001
 4.754598401764884e+000	 2.264789197545885e-001	 1.036834927270407e+001
 4.752197580332300e+000	 2.722441661938199e-001	 1.036845558298623e+001
 4.749344986623096e+000	 3.181527747266116e-001	 1.036878798728006e+001
 4.746036096423839e+000	 3.641988538086731e-001	 1.036925716980073e+001
 4.742266466752271e+000	 4.103763798492339e-001	 1.036980641281327e+001
 4.738031739773277e+000	 4.566791980477859e-001	 1.037042085063851e+001
 4.786657848721421e+000	 0.000000000000000e+000	 1.037431923757415e+001
 4.786444263604396e+000	 4.521664759929026e-002	 1.037208534422207e+001
 4.785800212045456e+000	 9.060507057761931e-002	 1.037038446459053e+001
 4.784720794261157e+000	 1.361600166701585e-001	 1.036914527879086e+001
 4.783201172851483e+000	 1.818760984341038e-001	 1.036829109112538e+001
 4.781236576596880e+000	 2.277477934934140e-001	 1.036774567463389e+001
 4.778822304290480e+000	 2.737694448977088e-001	 1.036743956982921e+001
 4.775953728602227e+000	 3.199352615980164e-001	 1.036731690342164e+001
 4.772626299971281e+000	 3.662393190419610e-001	 1.036734279903790e+001
 4.768835550523108e+000	 4.126755598908812e-001	 1.036751145807459e+001
 4.764577098007343e+000	 4.592377948612594e-001	 1.036785499482371e+001
 4.813326200962828e+000	 0.000000000000000e+000	 1.037076952243747e+001
 4.813111425879085e+000	 4.546856731450769e-002	 1.036950564815446e+001
 4.812463786055540e+000	 9.110986703643684e-002	 1.036847347974429e+001
 4.811378354410160e+000	 1.369186176384996e-001	 1.036765595289086e+001
 4.809850266591902e+000	 1.828894016623030e-001	 1.036702918974388e+001
 4.807874724798891e+000	 2.290166659644496e-001	 1.036656800909283e+001
 4.805447001632020e+000	 2.752947220774363e-001	 1.036625186970131e+001
 4.802562443980586e+000	 3.217177466880521e-001	 1.036607131459736e+001
 4.799216476936393e+000	 3.682797822358816e-001	 1.036603499066192e+001
 4.795404607732644e+000	 4.149747376344186e-001	 1.036617732434137e+001
 4.791122429703764e+000	 4.617963891171834e-001	 1.036656694065890e+001
 4.839994479875599e+000	 0.000000000000000e+000	 1.036583764479918e+001
 4.839778514828407e+000	 4.572048633748538e-002	 1.036566677310687e+001
 4.839127286750117e+000	 9.161466210800462e-002	 1.036548250321521e+001
 4.838035841260179e+000	 1.376772165219083e-001	 1.036531032375573e+001
 4.836499287056592e+000	 1.839027021053143e-001	 1.036516767174688e+001
 4.834512799755251e+000	 2.302855349475718e-001	 1.036506911547979e+001
 4.832071625764876e+000	 2.768199950641596e-001	 1.036503194849796e+001
 4.829171086194195e+000	 3.235002268777344e-001	 1.036508226446608e+001
 4.825806580787717e+000	 3.703202398199507e-001	 1.036526158962220e+001
 4.821973591886459e+000	 4.172739090565691e-001	 1.036563415634812e+001
 4.817667688409711e+000	 4.643549763382627e-001	 1.036629490810647e+001
 4.866662638790971e+000	 0.000000000000000e+000	 1.036038783573282e+001
 4.866445483785694e+000	 4.597240422752544e-002	 1.036130221649212e+001
 4.865790667468827e+000	 9.211945490920574e-002	 1.036201780374857e+001
 4.864693208161425e+000	 1.384358119931847e-001	 1.036259118360219e+001
 4.863148187610657e+000	 1.849159979902493e-001	 1.036306985794504e+001
 4.861150754850293e+000	 2.315543982226573e-001	 1.036349710665376e+001
 4.858696130097010e+000	 2.783452611890360e-001	 1.036391723772175e+001
 4.855779608679063e+000	 3.252826990480789e-001	 1.036438129713193e+001
 4.852396564993790e+000	 3.723606882236841e-001	 1.036495331752978e+001
 4.848542456490132e+000	 4.195730701340565e-001	 1.036571719196729e+001
 4.844212827672349e+000	 4.669135520472020e-001	 1.036678426607479e+001
 4.893330631040176e+000	 0.000000000000000e+000	 1.035526439791684e+001
 4.893112286084271e+000	 4.622432054392998e-002	 1.035712891263927e+001
 4.892453881551311e+000	 9.262424455692345e-002	 1.035867230676147e+001
 4.891350408464123e+000	 1.391944027251289e-001	 1.035997105333361e+001
 4.889796921619200e+000	 1.859292875442192e-001	 1.036109172012723e+001
 4.887788543468358e+000	 2.328232535695832e-001	 1.036209551723921e+001
 4.885320468036373e+000	 2.798705177832224e-001	 1.036304320834425e+001
 4.882387964871203e+000	 3.270651600801012e-001	 1.036400045940704e+001
 4.878986383023156e+000	 3.744011238765979e-001	 1.036504370629544e+001
 4.875111155049246e+000	 4.218722168436039e-001	 1.036626663032621e+001
 4.870757801038845e+000	 4.694721117667059e-001	 1.036778733824636e+001
 4.919998409954449e+000	 0.000000000000000e+000	 1.035129224636946e+001
 4.919778875057467e+000	 4.647623484600112e-002	 1.035384768954816e+001
 4.919116882337212e+000	 9.312903016804093e-002	 1.035602596923573e+001
 4.918007395518489e+000	 1.399529873905411e-001	 1.035791247781256e+001
 4.916445442447325e+000	 1.869425689943357e-001	 1.035958209907697e+001
 4.914426118993778e+000	 2.340920987682258e-001	 1.036110344687501e+001
 4.911944592990930e+000	 2.813957621778768e-001	 1.036254344190033e+001
 4.908996108206632e+000	 3.288476068548174e-001	 1.036397230249019e+001
 4.905575988344355e+000	 3.764415432082078e-001	 1.036546903325663e+001
 4.901679641069378e+000	 4.241713451619347e-001	 1.036712750337228e+001
 4.897302562056371e+000	 4.720306510194794e-001	 1.036906321419756e+001
 4.946665928865022e+000	 0.000000000000000e+000	 1.034927743187753e+001
 4.946445204038611e+000	 4.672814669304094e-002	 1.035214371100325e+001
 4.945779623166172e+000	 9.363381085944132e-002	 1.035464614255000e+001
 4.944664122674740e+000	 1.407115646622214e-001	 1.035686831156335e+001
 4.943093703460129e+000	 1.879558405677100e-001	 1.035888291541749e+001
 4.941063434810887e+000	 2.353609315984621e-001	 1.036075569859485e+001
 4.938568458368636e+000	 2.829209917041559e-001	 1.036254969891825e+001
 4.935603992121361e+000	 3.306300362532426e-001	 1.036432988308235e+001
 4.932165334425927e+000	 3.784819426480299e-001	 1.036616825773706e+001
 4.928247868056106e+000	 4.264704510657721e-001	 1.036814955075778e+001
 4.923847064272091e+000	 4.745891653282273e-001	 1.037037756561226e+001
 4.973333141103128e+000	 0.000000000000000e+000	 1.035000764776321e+001
 4.973111226361028e+000	 4.698005564435157e-002	 1.035268690459097e+001
 4.972442057377832e+000	 9.413858574800782e-002	 1.035508792369888e+001
 4.971320543283099e+000	 1.414701332129701e-001	 1.035728199525975e+001
 4.969741658022721e+000	 1.889691004914536e-001	 1.035932937355146e+001
 4.967700444304020e+000	 2.366297498401687e-001	 1.036128291251956e+001
 4.965192017577452e+000	 2.844462036932173e-001	 1.036319198478343e+001
 4.962211570051403e+000	 3.324124451563927e-001	 1.036510676395969e+001
 4.958754374736414e+000	 3.805223186255800e-001	 1.036708295898557e+001
 4.954815789515014e+000	 4.287695305318400e-001	 1.036918709792071e+001
 4.950391261233177e+000	 4.771476502156544e-001	 1.037150246740065e+001
 5.000000000000000e+000	 0.000000000000000e+000	 1.035425272060491e+001
 4.999776895358052e+000	 4.723196125923512e-002	 1.035613237614176e+001
 4.999104138311836e+000	 9.464335395062359e-002	 1.035789449532835e+001
 4.997976610693785e+000	 1.422286917155873e-001	 1.035958782333820e+001
 4.996389259500201e+000	 1.899823469926779e-001	 1.036125015894995e+001
 4.994337100857515e+000	 2.378985512732224e-001	 1.036291169503407e+001
 4.991815224025335e+000	 2.859713954762181e-001	 1.036459861313058e+001
 4.988818795432773e+000	 3.341948304452838e-001	 1.036633701402361e+001
 4.985343062744358e+000	 3.825626675703741e-001	 1.036815727544297e+001
 4.981383358951679e+000	 4.310685795368612e-001	 1.037009893724384e+001
 4.976935106486797e+000	 4.797061012044654e-001	 1.037221622354197e+001
 4.711486401454396e+000	 4.541206031540578e-001	 1.037453363675628e+001
 4.706809400584461e+000	 5.002754289150643e-001	 1.037639831365467e+001
 4.701661653676148e+000	 5.465422826212096e-001	 1.037967375158797e+001
 4.696039107290806e+000	 5.929147628536142e-001	 1.038465979416750e+001
 4.689937808080498e+000	 6.393863452817449e-001	 1.039173702629254e+001
 4.683353906675524e+000	 6.859503841394172e-001	 1.040116704206087e+001
 4.676283661565610e+000	 7.326001138313998e-001	 1.041137183001499e+001
 4.668723442970103e+000	 7.793286506718558e-001	 1.042171517662968e+001
 4.660669736692414e+000	 8.261289947556906e-001	 1.043190317772377e+001
 4.652119147953820e+000	 8.729940319637025e-001	 1.044159752006727e+001
 4.643068405201682e+000	 9.199165361022299e-001	 1.045062781863977e+001
 4.738031739773277e+000	 4.566791980477859e-001	 1.037042085063851e+001
 4.733328387862385e+000	 5.030940681690770e-001	 1.037169757733316e+001
 4.728151637647651e+000	 5.496215974204831e-001	 1.037437967417004e+001
 4.722497412852645e+000	 5.962553483164128e-001	 1.037875672303478e+001
 4.716361737855573e+000	 6.429887597671158e-001	 1.038519316077607e+001
 4.709740741598712e+000	 6.898151485630015e-001	 1.039386122560669e+001
 4.702630661491456e+000	 7.367277109902937e-001	 1.040327349980069e+001
 4.695027847302340e+000	 7.837195245792673e-001	 1.041294196330822e+001
 4.686928765035166e+000	 8.307835499861415e-001	 1.042264895071043e+001
 4.678330000784434e+000	 8.779126330095242e-001	 1.043218477971221e+001
 4.669228264565003e+000	 9.250995067421184e-001	 1.044134782051046e+001
 4.764577098007343e+000	 4.592377948612594e-001	 1.036785499482371e+001
 4.759847395035628e+000	 5.059127095378930e-001	 1.036890719829858e+001
 4.754641641492657e+000	 5.527009145300991e-001	 1.037131316332441e+001
 4.748955738264196e+000	 5.995959362855475e-001	 1.037535050865112e+001
 4.742785687454573e+000	 6.465911769552420e-001	 1.038136636209127e+001
 4.736127596318020e+000	 6.936799158861571e-001	 1.038944357612863e+001
 4.728977681183593e+000	 7.408553112459421e-001	 1.039821252739480e+001
 4.721332271368975e+000	 7.881104017809547e-001	 1.040730426567121e+001
 4.713187813078357e+000	 8.354381087086968e-001	 1.041652576504174e+001
 4.704540873279440e+000	 8.828312377455565e-001	 1.042568861361244e+001
 4.695388143554560e+000	 9.302824812705676e-001	 1.043460898609074e+001
 4.791122429703764e+000	 4.617963891171834e-001	 1.036656694065890e+001
 4.786366375697530e+000	 5.087313480891076e-001	 1.036767170915122e+001
 4.781131618855300e+000	 5.557802285614466e-001	 1.037004177669011e+001
 4.775414037225055e+000	 6.029365209151659e-001	 1.037394125063953e+001
 4.769209610637268e+000	 6.501935905420583e-001	 1.037969893667592e+001
 4.762514424658146e+000	 6.975446793456980e-001	 1.038731114543593e+001
 4.755324674536412e+000	 7.449829073751971e-001	 1.039554556794868e+001
 4.747636669138935e+000	 7.925012745930328e-001	 1.040412787978230e+001
 4.739446834870297e+000	 8.400926627780260e-001	 1.041289018007979e+001
 4.730751719571419e+000	 8.877498375643830e-001	 1.042166651475949e+001
 4.721547996392131e+000	 9.354654506175090e-001	 1.043029276650756e+001
 4.817667688409711e+000	 4.643549763382627e-001	 1.036629490810647e+001
 4.812885283441428e+000	 5.115499788903157e-001	 1.036764491344180e+001
 4.807621523379715e+000	 5.588595341259147e-001	 1.037014403650146e+001
 4.801872263434824e+000	 6.062770963594154e-001	 1.037404148048987e+001
 4.795633461163435e+000	 6.537959942234990e-001	 1.037964686630383e+001
 4.788901180443781e+000	 7.014094321784387e-001	 1.038687523065410e+001
 4.781671595444322e+000	 7.491104921549108e-001	 1.039464431398170e+001
 4.773940994581147e+000	 7.968921353316147e-001	 1.040275419899649e+001
 4.765705784459295e+000	 8.447472040487973e-001	 1.041106259612527e+001
 4.756962493792951e+000	 8.926684238585888e-001	 1.041942719245620e+001
 4.747707777299494e+000	 9.406484057128738e-001	 1.042770547327629e+001
 4.844212827672349e+000	 4.669135520472020e-001	 1.036678426607479e+001
 4.839404071860662e+000	 5.143685970091132e-001	 1.036848962618584e+001
 4.834111308710036e+000	 5.619388258348922e-001	 1.037120911563799e+001
 4.828330370593108e+000	 6.096176567724444e-001	 1.037517579855206e+001
 4.822057192792849e+000	 6.573983816954989e-001	 1.038067940148241e+001
 4.815287817499625e+000	 7.052741676211931e-001	 1.038756095011647e+001
 4.808018397801715e+000	 7.532380583619343e-001	 1.039489504017320e+001
 4.800245201664535e+000	 8.012829763128148e-001	 1.040253973305806e+001
 4.791964615893655e+000	 8.494017243756789e-001	 1.041037883741820e+001
 4.783173150076617e+000	 8.975869880207577e-001	 1.041829486112377e+001
 4.773867440498422e+000	 9.458313374865937e-001	 1.042616877841690e+001
 4.870757801038845e+000	 4.694721117667059e-001	 1.036778733824636e+001
 4.865922694548569e+000	 5.171871975130948e-001	 1.036987742163635e+001
 4.860600928490404e+000	 5.650180982997678e-001	 1.037283653250930e+001
 4.854788312399505e+000	 6.129581963083999e-001	 1.037688052125577e+001
 4.848480759285287e+000	 6.610007466539924e-001	 1.038227866628201e+001
 4.841674289650374e+000	 7.091388789107757e-001	 1.038880683172064e+001
 4.834365035503001e+000	 7.573655987731198e-001	 1.039569816145133e+001
 4.826549244358028e+000	 8.056737898527467e-001	 1.040285564114069e+001
 4.818223283221691e+000	 8.540562156133400e-001	 1.041018966535265e+001
 4.809383642555000e+000	 9.025055214434747e-001	 1.041760873891519e+001
 4.800026940210696e+000	 9.510142368686005e-001	 1.042501920368653e+001
 4.897302562056371e+000	 4.720306510194794e-001	 1.036906321419756e+001
 4.892441105098484e+000	 5.200057754698558e-001	 1.037148838804313e+001
 4.887090336364951e+000	 5.680973461319306e-001	 1.037463585444396e+001
 4.881246042553618e+000	 6.162987091214294e-001	 1.037870333817349e+001
 4.874904114400523e+000	 6.646030827949143e-001	 1.038393927416944e+001
 4.868060550720721e+000	 7.130035592839998e-001	 1.039006441328317e+001
 4.860711462442573e+000	 7.614931061653185e-001	 1.039646780388167e+001
 4.852853076630552e+000	 8.100645682675247e-001	 1.040308727830937e+001
 4.844481740491708e+000	 8.587106696164488e-001	 1.040986030555531e+001
 4.835593925360677e+000	 9.074240155193241e-001	 1.041672256045456e+001
 4.826186230658091e+000	 9.561970947888256e-001	 1.042360762402165e+001
 4.923847064272091e+000	 4.745891653282273e-001	 1.037037756561226e+001
 4.918959257103752e+000	 5.228243259469916e-001	 1.037301088913809e+001
 4.913579485977811e+000	 5.711765639427692e-001	 1.037622640926603e+001
 4.907703514755047e+000	 6.196391893656807e-001	 1.038020297856123e+001
 4.901327211898328e+000	 6.682053838141988e-001	 1.038516746110275e+001
 4.894446554535365e+000	 7.168682019776804e-001	 1.039079785444611e+001
 4.887057632514837e+000	 7.656205733153826e-001	 1.039663138787980e+001
 4.879156652451032e+000	 8.144553038732628e-001	 1.040263375490531e+001
 4.870739941752015e+000	 8.633650782396735e-001	 1.040876998831329e+001
 4.861803952626233e+000	 9.123424616408908e-001	 1.041500410317945e+001
 4.852345266062381e+000	 9.613799021772007e-001	 1.042129878466370e+001
 4.950391261233177e+000	 4.771476502156544e-001	 1.037150246740065e+001
 4.945477104157705e+000	 5.256428440120975e-001	 1.037414133209733e+001
 4.940068330973120e+000	 5.742557463436725e-001	 1.037723700475573e+001
 4.934160682703396e+000	 6.229796311953015e-001	 1.038094888702587e+001
 4.927750005538484e+000	 6.718076434077811e-001	 1.038547821110315e+001
 4.920832254918999e+000	 7.207328002286313e-001	 1.039048355970837e+001
 4.913403499614191e+000	 7.697479930001636e-001	 1.039562922329241e+001
 4.905459925788396e+000	 8.188459889860744e-001	 1.040090750837688e+001
 4.896997841050921e+000	 8.680194333376835e-001	 1.040631150185915e+001
 4.888013678484247e+000	 9.172608512007584e-001	 1.041183472678494e+001
 4.878504000645348e+000	 9.665626499636572e-001	 1.041747083146514e+001
 4.976935106486797e+000	 4.797061012044654e-001	 1.037221622354197e+001
 4.971994599853684e+000	 5.284613247327683e-001	 1.037458394174147e+001
 4.966556824995020e+000	 5.773348879460297e-001	 1.037730565570453e+001
 4.960617500098262e+000	 6.263200287644395e-001	 1.038052090798406e+001
 4.954172449080763e+000	 6.754098552715953e-001	 1.038440222419111e+001
 4.947217605696318e+000	 7.245973472736667e-001	 1.038860981217240e+001
 4.939749017635035e+000	 7.738753579965135e-001	 1.039291411591078e+001
 4.931762850611571e+000	 8.232366159220740e-001	 1.039733388709980e+001
 4.923255392436735e+000	 8.726737267651470e-001	 1.040189075804156e+001
 4.914223057067300e+000	 9.221791755915121e-001	 1.040660892528982e+001
 4.904662388628768e+000	 9.717453290781268e-001	 1.041151485389407e+001
 4.643068405201682e+000	 9.199165361022299e-001	 1.045062781863977e+001
 4.633512893397807e+000	 9.668962193495462e-001	 1.045852255749817e+001
 4.623450920909602e+000	 1.013918590844765e+000	 1.046512878938146e+001
 4.612879611221273e+000	 1.060976087736484e+000	 1.047082011867182e+001
 4.601796226075082e+000	 1.108061044715826e+000	 1.047601141708024e+001
 4.590198169078671e+000	 1.155165696837305e+000	 1.048115410369833e+001
 4.578082989255348e+000	 1.202282182474619e+000	 1.048672859315930e+001
 4.565448384531957e+000	 1.249402546410591e+000	 1.049323381994290e+001
 4.552292205158868e+000	 1.296518743060276e+000	 1.050117324938697e+001
 4.538612457056609e+000	 1.343622639825983e+000	 1.051099549058043e+001
 4.524407305083716e+000	 1.390706020582740e+000	 1.052197520314647e+001
 4.669228264565003e+000	 9.250995067421184e-001	 1.044134782051046e+001
 4.659618915336746e+000	 9.723438817405616e-001	 1.044961812421709e+001
 4.649500251936108e+000	 1.019631185499926e+000	 1.045670652702076e+001
 4.638869381640498e+000	 1.066953812558382e+000	 1.046292953927751e+001
 4.627723550764356e+000	 1.114304054419368e+000	 1.046865261690406e+001
 4.616060148286781e+000	 1.161674102388337e+000	 1.047427958240245e+001
 4.603876709421853e+000	 1.209056050545213e+000	 1.048024693968345e+001
 4.591170919126121e+000	 1.256441898851737e+000	 1.048701535272241e+001
 4.577940615537888e+000	 1.303823556392735e+000	 1.049505768824226e+001
 4.564183793342687e+000	 1.351192844750042e+000	 1.050473715220472e+001
 4.549898607059532e+000	 1.398541501507601e+000	 1.051536396727366e+001
 4.695388143554560e+000	 9.302824812705676e-001	 1.043460898609074e+001
 4.685724956861634e+000	 9.777915482187314e-001	 1.044288993588853e+001
 4.675549602506141e+000	 1.025343784441016e+000	 1.045038535742187e+001
 4.664859171558672e+000	 1.072931541865137e+000	 1.045730619846005e+001
 4.653650894905826e+000	 1.120547068806811e+000	 1.046377726750592e+001
 4.641922146898159e+000	 1.168182512822401e+000	 1.047006908032166e+001
 4.629670448940495e+000	 1.215829923698024e+000	 1.047656693710368e+001
 4.616893473019093e+000	 1.263481256574304e+000	 1.048368604025681e+001
 4.603589045160168e+000	 1.311128375205806e+000	 1.049186170384314e+001
 4.589755148814240e+000	 1.358763055353852e+000	 1.050135892505459e+001
 4.575389928160807e+000	 1.406376988311272e+000	 1.051161683696420e+001
 4.721547996392131e+000	 9.354654506175090e-001	 1.043029276650756e+001
 4.711830972288418e+000	 9.832392092507670e-001	 1.043844196239116e+001
 4.701598927034792e+000	 1.031056377671105e+000	 1.044601091297880e+001
 4.690848935495056e+000	 1.078909265195828e+000	 1.045318719191837e+001
 4.679578213127978e+000	 1.126790076952974e+000	 1.046017251391569e+001
 4.667784119655580e+000	 1.174690916749863e+000	 1.046718294452989e+001
 4.655464162673451e+000	 1.222603790078849e+000	 1.047437902002817e+001
 4.642616001197560e+000	 1.270520607259488e+000	 1.048198185339944e+001
 4.629237449142049e+000	 1.318433186716127e+000	 1.049038054908747e+001
 4.615326478722450e+000	 1.366333258389628e+000	 1.049974714933961e+001
 4.600881223778736e+000	 1.414212467281752e+000	 1.050970021101233e+001
 4.747707777299494e+000	 9.406484057128738e-001	 1.042770547327629e+001
 4.737936915933036e+000	 9.886868553033804e-001	 1.043563733418864e+001
 4.727648179937163e+000	 1.036768955193263e+000	 1.044315813049624e+001
 4.716838627968923e+000	 1.084886972089533e+000	 1.045043015493968e+001
 4.705505460059300e+000	 1.133033067932675e+000	 1.045762625607275e+001
 4.693646021301823e+000	 1.181199302781087e+000	 1.046492996634516e+001
 4.681257805482885e+000	 1.229377637833485e+000	 1.047253553239237e+001
 4.668338458648202e+000	 1.277559938588484e+000	 1.048064807979256e+001
 4.654885782599884e+000	 1.325737978140340e+000	 1.048942126459861e+001
 4.640897738318490e+000	 1.373903440609585e+000	 1.049880041656131e+001
 4.626372449304512e+000	 1.422047924707039e+000	 1.050859167962864e+001
 4.773867440498422e+000	 9.458313374865937e-001	 1.042616877841690e+001
 4.764042742111434e+000	 9.941344768432839e-001	 1.043380339165353e+001
 4.753697315628352e+000	 1.042481507010558e+000	 1.044116739639197e+001
 4.742828203499542e+000	 1.090864652085331e+000	 1.044839877169790e+001
 4.731432590328278e+000	 1.139276030820732e+000	 1.045564305142706e+001
 4.719507806579668e+000	 1.187707659526438e+000	 1.046305338267481e+001
 4.707051332230972e+000	 1.236151455107730e+000	 1.047079050621056e+001
 4.694060800357711e+000	 1.284599238242489e+000	 1.047902286226922e+001
 4.680534000650018e+000	 1.333042736695088e+000	 1.048792680158354e+001
 4.666468882853537e+000	 1.381473588765937e+000	 1.049742962391987e+001
 4.651863560129326e+000	 1.429883346875132e+000	 1.050728014311625e+001
 4.800026940210696e+000	 9.510142368686005e-001	 1.042501920368653e+001
 4.790148405139556e+000	 9.995820643371889e-001	 1.043228196952635e+001
 4.779746288523451e+000	 1.048194023126059e+000	 1.043939305359843e+001
 4.768817616606178e+000	 1.096842294722300e+000	 1.044646711100511e+001
 4.757359558563400e+000	 1.145518954691962e+000	 1.045362393223455e+001
 4.745369430231897e+000	 1.194215975596279e+000	 1.046098844363147e+001
 4.732844697779878e+000	 1.242925230047382e+000	 1.046869064483282e+001
 4.719782981312769e+000	 1.291638493902698e+000	 1.047686566177165e+001
 4.706182058408797e+000	 1.340347449597011e+000	 1.048565092517204e+001
 4.692039867578769e+000	 1.389043689610899e+000	 1.049499144173573e+001
 4.677354511644375e+000	 1.437718720074028e+000	 1.050482626369855e+001
 4.826186230658091e+000	 9.561970947888256e-001	 1.042360762402165e+001
 4.816253859333342e+000	 1.005029608251808e+000	 1.043042889559499e+001
 4.805795053037557e+000	 1.053906493542835e+000	 1.043720289952281e+001
 4.794806821808104e+000	 1.102819889539520e+000	 1.044402197953462e+001
 4.783286319393154e+000	 1.151761828621185e+000	 1.045098177458512e+001
 4.771230847001283e+000	 1.200724239600977e+000	 1.045818117258750e+001
 4.758637856991777e+000	 1.249698950798238e+000	 1.046572221162612e+001
 4.745504956500062e+000	 1.298677693250309e+000	 1.047371008618689e+001
 4.731829910992569e+000	 1.347652104062751e+000	 1.048224809834419e+001
 4.717610647745362e+000	 1.396613729896686e+000	 1.049134082320779e+001
 4.702845259240852e+000	 1.445554030591728e+000	 1.050098610378113e+001
 4.852345266062381e+000	 9.613799021772007e-001	 1.042129878466370e+001
 4.842359059008737e+000	 1.010477099053851e+000	 1.042761348001659e+001
 4.831843563585774e+000	 1.059618908263955e+000	 1.043397769739983e+001
 4.820795773624588e+000	 1.108797426076069e+000	 1.044046243615543e+001
 4.809212827446027e+000	 1.158004641683217e+000	 1.044714081964541e+001
 4.797092011630610e+000	 1.207232440150896e+000	 1.045408789826025e+001
 4.784430764728838e+000	 1.256472605506095e+000	 1.046138054406918e+001
 4.771226680906277e+000	 1.305716823966516e+000	 1.046909741612770e+001
 4.757477513517682e+000	 1.354956687308949e+000	 1.047732086788916e+001
 4.743181178604490e+000	 1.404183696375512e+000	 1.048612894930257e+001
 4.728335758309949e+000	 1.453389264716227e+000	 1.049554447663290e+001
 4.878504000645348e+000	 9.665626499636572e-001	 1.041747083146514e+001
 4.868463958481681e+000	 1.015924527210032e+000	 1.042321813506049e+001
 4.857891774583191e+000	 1.065331257292488e+000	 1.042911070054633e+001
 4.846784426574896e+000	 1.114774893871026e+000	 1.043519931882654e+001
 4.835139037350504e+000	 1.164247382952877e+000	 1.044153620698416e+001
 4.822952878862654e+000	 1.213740565856399e+000	 1.044817479826783e+001
 4.810223375853233e+000	 1.263246182316751e+000	 1.045516961134286e+001
 4.796948109518097e+000	 1.312755873732517e+000	 1.046257618036483e+001
 4.783124821100483e+000	 1.362261186552246e+000	 1.047047398270786e+001
 4.768751415407335e+000	 1.411753575799593e+000	 1.047900816255033e+001
 4.753825964242860e+000	 1.461224408735526e+000	 1.048820849653857e+001
 4.904662388628768e+000	 9.717453290781268e-001	 1.041151485389407e+001
 4.894568512068120e+000	 1.021371883187062e+000	 1.041663776745614e+001
 4.883939640444909e+000	 1.071043530631502e+000	 1.042200718904803e+001
 4.872772735178299e+000	 1.120752282463470e+000	 1.042765478359507e+001
 4.861064903735073e+000	 1.170490041504983e+000	 1.043361351954289e+001
 4.848813403440197e+000	 1.220248605327853e+000	 1.043991745374113e+001
 4.836015645227128e+000	 1.270019669376003e+000	 1.044660158225814e+001
 4.822669197322209e+000	 1.319794830229507e+000	 1.045370174074832e+001
 4.808771788857317e+000	 1.369565589009283e+000	 1.046131437429417e+001
 4.794321313405072e+000	 1.419323354921142e+000	 1.046963203067108e+001
 4.779315832430783e+000	 1.469059448937622e+000	 1.047868542321646e+001
 4.524407305083716e+000	 1.390706020582740e+000	 1.052197520314647e+001
 4.509675075088746e+000	 1.437760588603412e+000	 1.053356701481591e+001
 4.494414253604441e+000	 1.484777968164294e+000	 1.054560037621416e+001
 4.478623494235841e+000	 1.531749710358706e+000	 1.055814864588509e+001
 4.462301621696776e+000	 1.578667297757051e+000	 1.057122577702260e+001
 4.445447634610877e+000	 1.625522148514563e+000	 1.058477473706827e+001
 4.428060708201621e+000	 1.672305620595791e+000	 1.059865485027621e+001
 4.410140196866269e+000	 1.719009016112672e+000	 1.061262802350857e+001
 4.391685636628613e+000	 1.765623585772688e+000	 1.062634381865707e+001
 4.372696747465477e+000	 1.812140533433459e+000	 1.063932333887648e+001
 4.353173435502172e+000	 1.858551020759794e+000	 1.065094190029108e+001
 4.549898607059532e+000	 1.398541501507601e+000	 1.051536396727366e+001
 4.535083373104526e+000	 1.445861183193071e+000	 1.052658024565386e+001
 4.519736569483269e+000	 1.493143466892460e+000	 1.053818680208918e+001
 4.503856842214986e+000	 1.540379856096477e+000	 1.055024913488421e+001
 4.487443009391756e+000	 1.587561785386847e+000	 1.056277713888638e+001
 4.470494063995282e+000	 1.634680624567193e+000	 1.057571357226460e+001
 4.453009176602114e+000	 1.681727682911336e+000	 1.058892142268139e+001
 4.434987697972090e+000	 1.728694213525793e+000	 1.060217013015043e+001
 4.416429161514877e+000	 1.775571417823013e+000	 1.061512062695598e+001
 4.397333285629620e+000	 1.822350450101617e+000	 1.062730915877880e+001
 4.377699975912726e+000	 1.869022422229697e+000	 1.063812985565212e+001
 4.575389928160807e+000	 1.406376988311272e+000	 1.051161683696420e+001
 4.560491690183496e+000	 1.453961783860481e+000	 1.052241007160791e+001
 4.545058904360769e+000	 1.501508971897163e+000	 1.053353966093228e+001
 4.529090209126037e+000	 1.549010008309379e+000	 1.054506649312601e+001
 4.512584415949610e+000	 1.596456279690133e+000	 1.055699946450089e+001
 4.495540512171280e+000	 1.643839107491402e+000	 1.056928399764850e+001
 4.477957663720667e+000	 1.691149752296235e+000	 1.058178943582966e+001
 4.459835217720181e+000	 1.738379418205699e+000	 1.059429526782785e+001
 4.441172704965378e+000	 1.785519257337162e+000	 1.060647614052852e+001
 4.421969842277712e+000	 1.832560374430207e+000	 1.061788562022635e+001
 4.402226534724702e+000	 1.879493831556170e+000	 1.062793866814057e+001
 4.600881223778736e+000	 1.414212467281752e+000	 1.050970021101233e+001
 4.585899981862074e+000	 1.462062376429718e+000	 1.052010442296083e+001
 4.570381213923802e+000	 1.509874468538930e+000	 1.053078389079566e+001
 4.554323550811519e+000	 1.557640151894844e+000	 1.054179803656742e+001
 4.537725797373788e+000	 1.605350765101788e+000	 1.055315771444148e+001
 4.520586935308484e+000	 1.652997581260137e+000	 1.056481378504794e+001
 4.502906125898312e+000	 1.700571812262213e+000	 1.057664454333302e+001
 4.484682712628256e+000	 1.748064613203672e+000	 1.058844195098964e+001
 4.465916223679772e+000	 1.795467086906851e+000	 1.059989662751632e+001
 4.446606374296626e+000	 1.842770288552342e+000	 1.061058155765899e+001
 4.426753069017446e+000	 1.889965230414766e+000	 1.061993447746241e+001
 4.626372449304512e+000	 1.422047924707039e+000	 1.050859167962864e+001
 4.611308203676677e+000	 1.470162946724857e+000	 1.051872133671313e+001
 4.595703453859223e+000	 1.518239942178288e+000	 1.052905355450180e+001
 4.579556823113963e+000	 1.566270271750308e+000	 1.053964932436333e+001
 4.562867109667729e+000	 1.614245226056694e+000	 1.055052430875166e+001
 4.545633289576500e+000	 1.662156029846346e+000	 1.056163747719222e+001
 4.527854519476074e+000	 1.709993846320988e+000	 1.057287857348467e+001
 4.509530139214028e+000	 1.757749781570994e+000	 1.058405436195109e+001
 4.490659674357717e+000	 1.805414889123798e+000	 1.059487360346319e+001
 4.471242838573231e+000	 1.852980174601130e+000	 1.060493071564810e+001
 4.451279535870309e+000	 1.900436600481029e+000	 1.061368807613263e+001
 4.651863560129326e+000	 1.429883346875132e+000	 1.050728014311625e+001
 4.636716311163720e+000	 1.478263480569973e+000	 1.051732914090565e+001
 4.621025579853891e+000	 1.526605378175764e+000	 1.052749208737468e+001
 4.604789981875902e+000	 1.574900352773203e+000	 1.053783446771031e+001
 4.588008308834882e+000	 1.623139646989730e+000	 1.054837949454513e+001
 4.570679531144937e+000	 1.671314437222977e+000	 1.055909681166116e+001
 4.552802800794987e+000	 1.719415837984281e+000	 1.056989000708892e+001
 4.534377453995210e+000	 1.767434906358946e+000	 1.058058288008337e+001
 4.515403013698872e+000	 1.815362646579719e+000	 1.059090440928964e+001
 4.495879191994396e+000	 1.863190014709682e+000	 1.060047237303079e+001
 4.475805892362633e+000	 1.910907923430507e+000	 1.060877557709396e+001
 4.677354511644375e+000	 1.437718720074028e+000	 1.050482626369855e+001
 4.662124259859619e+000	 1.486363963789141e+000	 1.051500664424817e+001
 4.646347547594663e+000	 1.534970761891882e+000	 1.052525254884434e+001
 4.630022982939863e+000	 1.583530379860966e+000	 1.053557644121279e+001
 4.613149350878688e+000	 1.632034012335777e+000	 1.054601171486232e+001
 4.595725616183406e+000	 1.680472787362977e+000	 1.055654114490442e+001
 4.577750926196078e+000	 1.728837770763812e+000	 1.056708445426011e+001
 4.559224613489509e+000	 1.777119970618810e+000	 1.057748460895535e+001
 4.540146198402895e+000	 1.825310341866332e+000	 1.058749278628822e+001
 4.520515391446991e+000	 1.873399791011110e+000	 1.059675196321808e+001
 4.500332095573771e+000	 1.921379180938751e+000	 1.060477907674783e+001
 4.702845259240852e+000	 1.445554030591728e+000	 1.050098610378113e+001
 4.687532005300790e+000	 1.494464382206437e+000	 1.051108906134158e+001
 4.671669312768399e+000	 1.543336078687172e+000	 1.052150851246562e+001
 4.655255782148381e+000	 1.592160337911028e+000	 1.053210739664529e+001
 4.638290191802595e+000	 1.640928306529714e+000	 1.054271797870042e+001
 4.620771500861515e+000	 1.689631064239296e+000	 1.055332787629191e+001
 4.602698852020377e+000	 1.738259628171301e+000	 1.056387513019143e+001
 4.584071574214639e+000	 1.786804957401869e+000	 1.057422390146490e+001
 4.564889185169442e+000	 1.835257957575353e+000	 1.058414944820940e+001
 4.545151393817889e+000	 1.883609485638523e+000	 1.059332169077655e+001
 4.524858102583068e+000	 1.931850354681308e+000	 1.060128731352392e+001
 4.728335758309949e+000	 1.453389264716227e+000	 1.049554447663290e+001
 4.712939503023649e+000	 1.502564721645936e+000	 1.050551478801032e+001
 4.696990831061950e+000	 1.551701313922157e+000	 1.051594847585503e+001
 4.680488335343984e+000	 1.600790211820825e+000	 1.052675692929074e+001
 4.663430787610049e+000	 1.649822514006423e+000	 1.053780423213881e+001
 4.645817141348873e+000	 1.698789251824879e+000	 1.054882287215791e+001
 4.627646534608913e+000	 1.747681393718468e+000	 1.055968332989321e+001
 4.608918292688312e+000	 1.796489849759405e+000	 1.057027288299386e+001
 4.589631930698174e+000	 1.845205476298499e+000	 1.058039265050351e+001
 4.569787155993959e+000	 1.893819080725033e+000	 1.058974114437733e+001
 4.549383870469874e+000	 1.942321426333725e+000	 1.059789632210722e+001
 4.753825964242860e+000	 1.461224408735526e+000	 1.048820849653857e+001
 4.738346708564612e+000	 1.510664967931713e+000	 1.049805587896449e+001
 4.722312058162186e+000	 1.560066452957368e+000	 1.050849859936482e+001
 4.705720598369203e+000	 1.609419986487791e+000	 1.051945993046602e+001
 4.688571094304491e+000	 1.658716619200784e+000	 1.053082006610942e+001
 4.670862493815088e+000	 1.707947334092675e+000	 1.054240719594913e+001
 4.652593930302718e+000	 1.757103050917035e+000	 1.055393890189905e+001
 4.633764725428239e+000	 1.806174630742699e+000	 1.056511197261779e+001
 4.614374391688747e+000	 1.855152880627489e+000	 1.057574875678030e+001
 4.594422634862072e+000	 1.904028558403749e+000	 1.058557790620130e+001
 4.573909356313535e+000	 1.952792377571551e+000	 1.059421008343587e+001
 4.779315832430783e+000	 1.469059448937622e+000	 1.047868542321646e+001
 4.763753577460099e+000	 1.518765106887844e+000	 1.048847518782596e+001
 4.747632949755955e+000	 1.568431481153328e+000	 1.049897408254351e+001
 4.730952527066571e+000	 1.618049646809360e+000	 1.051012007093411e+001
 4.713711067889371e+000	 1.667610606547676e+000	 1.052180847003880e+001
 4.695907514429774e+000	 1.717105295015633e+000	 1.053388309496585e+001
 4.677540995442822e+000	 1.766524583278722e+000	 1.054612633289900e+001
 4.658610828952133e+000	 1.815859283403033e+000	 1.055823040239969e+001
 4.639116524840821e+000	 1.865100153154037e+000	 1.056975280254366e+001
 4.619057787309097e+000	 1.914237900807783e+000	 1.058040815788365e+001
 4.598434517193399e+000	 1.963263190070334e+000	 1.058984117057618e+001
 4.353173435502172e+000	 1.858551020759794e+000	 1.065094190029108e+001
 4.333118844188068e+000	 1.904839237533664e+000	 1.066027398787257e+001
 4.312530372389279e+000	 1.951003250800439e+000	 1.066605418885236e+001
 4.291408499589530e+000	 1.997034131020163e+000	 1.066686710743490e+001
 4.269753898666800e+000	 2.042922926136646e+000	 1.066465369452810e+001
 4.247567437359612e+000	 2.088660666674489e+000	 1.066331788657456e+001
 4.224850179576209e+000	 2.134238370909848e+000	 1.066283224207499e+001
 4.201603386542995e+000	 2.179647050109439e+000	 1.066313387653724e+001
 4.177828517788692e+000	 2.224877713832085e+000	 1.066413792525126e+001
 4.153527231960959e+000	 2.269921375286926e+000	 1.066573526408046e+001
 4.128701387472490e+000	 2.314769056742235e+000	 1.066779029827038e+001
 4.377699975912726e+000	 1.869022422229697e+000	 1.063812985565212e+001
 4.357532393524315e+000	 1.915571434911691e+000	 1.064670111412715e+001
 4.336827922675254e+000	 1.961995544302362e+000	 1.065181562253012e+001
 4.315587045550744e+000	 2.008285770551152e+000	 1.065221462147498e+001
 4.293810438819873e+000	 2.054433111164409e+000	 1.065119685033852e+001
 4.271498975110129e+000	 2.100428546131130e+000	 1.065090091876887e+001
 4.248653724323997e+000	 2.146263043122858e+000	 1.065129536446066e+001
 4.225275954793839e+000	 2.191927562762203e+000	 1.065233015034878e+001
 4.201367134271600e+000	 2.237413063954258e+000	 1.065393426733554e+001
 4.176928930750042e+000	 2.282710509275001e+000	 1.065601338404277e+001
 4.151963213112460e+000	 2.327810870410583e+000	 1.065844756314342e+001
 4.402226534724702e+000	 1.879493831556170e+000	 1.062793866814057e+001
 4.381945961177230e+000	 1.926303640341893e+000	 1.063579758278973e+001
 4.361125491190895e+000	 1.972987846051518e+000	 1.064031412811880e+001
 4.339765609652384e+000	 2.019537418523855e+000	 1.064072397010505e+001
 4.317866997021875e+000	 2.065943304827759e+000	 1.064074390050081e+001
 4.295430530815842e+000	 2.112196434416587e+000	 1.064134533894962e+001
 4.272457286930998e+000	 2.158287724357238e+000	 1.064250958961950e+001
 4.248948540805664e+000	 2.204208084628180e+000	 1.064420015693189e+001
 4.224905768415010e+000	 2.249948423480746e+000	 1.064636027108034e+001
 4.200330647096902e+000	 2.295499652857716e+000	 1.064891045882347e+001
 4.175225056205250e+000	 2.340852693863086e+000	 1.065174617999430e+001
 4.426753069017446e+000	 1.889965230414766e+000	 1.061993447746241e+001
 4.406359504423866e+000	 1.937035835043452e+000	 1.062716154646458e+001
 4.385423035416232e+000	 1.983980136811944e+000	 1.063117454718922e+001
 4.363944149582699e+000	 2.030789055248471e+000	 1.063194303466610e+001
 4.341923531174544e+000	 2.077453486984452e+000	 1.063286320330433e+001
 4.319362062597205e+000	 2.123964310937663e+000	 1.063425039272213e+001
 4.296260825741616e+000	 2.170312393570410e+000	 1.063609967389146e+001
 4.272621103152047e+000	 2.216488594217080e+000	 1.063838879622774e+001
 4.248444379026887e+000	 2.262483770475299e+000	 1.064107562734583e+001
 4.223732340049086e+000	 2.308288783654709e+000	 1.064409563685554e+001
 4.198486876043155e+000	 2.353894504277207e+000	 1.064735944558157e+001
 4.451279535870309e+000	 1.900436600481029e+000	 1.061368807613263e+001
 4.430772980541286e+000	 1.947768000235553e+000	 1.062039562902630e+001
 4.409720512831290e+000	 1.994972397347677e+000	 1.062402608296078e+001
 4.388122623029949e+000	 2.042040661035201e+000	 1.062542281879587e+001
 4.365979999179608e+000	 2.088963637492247e+000	 1.062714167353924e+001
 4.343293528574663e+000	 2.135732155101159e+000	 1.062923360593674e+001
 4.320064299100253e+000	 2.182337029719798e+000	 1.063170845954944e+001
 4.296293600406571e+000	 2.228769070038614e+000	 1.063455894277293e+001
 4.271982924915197e+000	 2.275019083001672e+000	 1.063775797415655e+001
 4.247133968654143e+000	 2.321077879285622e+000	 1.064125607103947e+001
 4.221748631918484e+000	 2.366936278830407e+000	 1.064497880388707e+001
 4.475805892362633e+000	 1.910907923430507e+000	 1.060877557709396e+001
 4.455186346806543e+000	 1.958500117137379e+000	 1.061510763401770e+001
 4.434017880916100e+000	 2.005964608422758e+000	 1.061853605366816e+001
 4.412300987682382e+000	 2.053292216194244e+000	 1.062073323189171e+001
 4.390036358938797e+000	 2.100473736208904e+000	 1.062318478052573e+001
 4.367224886868669e+000	 2.147499946313880e+000	 1.062593078612167e+001
 4.343867665351314e+000	 2.194361611762826e+000	 1.062899687720278e+001
 4.319965991142815e+000	 2.241049490602491e+000	 1.063239144665158e+001
 4.295521364887908e+000	 2.287554339123615e+000	 1.063610289379314e+001
 4.270535491959617e+000	 2.333866917370093e+000	 1.064009690958018e+001
 4.245010283123539e+000	 2.379977994700152e+000	 1.064431382832031e+001
 4.500332095573771e+000	 1.921379180938751e+000	 1.060477907674783e+001
 4.479599560496697e+000	 1.969232166968115e+000	 1.061091124778319e+001
 4.458315097150689e+000	 2.016956750801223e+000	 1.061447846027529e+001
 4.436479201228257e+000	 2.064543701035800e+000	 1.061746307447887e+001
 4.414092568353847e+000	 2.111983762992179e+000	 1.062061653892086e+001
 4.391156095599677e+000	 2.159267663982629e+000	 1.062399601637138e+001
 4.367670882839205e+000	 2.206386118656919e+000	 1.062764394041942e+001
 4.343638233934361e+000	 2.253329834418422e+000	 1.063158512651468e+001
 4.319059657752982e+000	 2.300089516904883e+000	 1.063582390188484e+001
 4.293936869013054e+000	 2.346655875527764e+000	 1.064034127884400e+001
 4.268271788950622e+000	 2.393019629063903e+000	 1.064509219604755e+001
 4.524858102583068e+000	 1.931850354681308e+000	 1.060128731352392e+001
 4.504012578888808e+000	 1.979964130946945e+000	 1.060742673748698e+001
 4.482612119015089e+000	 2.027948805247112e+000	 1.061144767955191e+001
 4.460657221355826e+000	 2.075795095870069e+000	 1.061522001699852e+001
 4.438148585326482e+000	 2.123493697699832e+000	 1.061907949255360e+001
 4.415087112888133e+000	 2.171035287514209e+000	 1.062310164195363e+001
 4.391473909908328e+000	 2.218410529359499e+000	 1.062734673283920e+001
 4.367310287354787e+000	 2.265610079996117e+000	 1.063185675494490e+001
 4.342597762318389e+000	 2.312624594409228e+000	 1.063665242878451e+001
 4.317338058861998e+000	 2.359444731378275e+000	 1.064173025851672e+001
 4.291533108692034e+000	 2.406061159099123e+000	 1.064705965472254e+001
 4.549383870469874e+000	 1.942321426333725e+000	 1.059789632210722e+001
 4.528425359259934e+000	 1.990695990293054e+000	 1.060428164415802e+001
 4.506908903989322e+000	 2.038940752524462e+000	 1.060903068133741e+001
 4.484835005753348e+000	 2.087046381007252e+000	 1.061363057224149e+001
 4.462204367758439e+000	 2.135003520189621e+000	 1.061823469152898e+001
 4.439017896854491e+000	 2.182802796315421e+000	 1.062293824988774e+001
 4.415276704903087e+000	 2.230434822827990e+000	 1.062782038803945e+001
 4.390982109977674e+000	 2.277890205845287e+000	 1.063294103643431e+001
 4.366135637392091e+000	 2.325159549700400e+000	 1.063833779349563e+001
 4.340739020553997e+000	 2.372233462541265e+000	 1.064402284933226e+001
 4.314794201640082e+000	 2.419102561983274e+000	 1.064997998188527e+001
 4.573909356313535e+000	 1.952792377571551e+000	 1.059421008343587e+001
 4.552837858887132e+000	 2.001427726225625e+000	 1.060111235766540e+001
 4.531205409553421e+000	 2.049932573397313e+000	 1.060683364406103e+001
 4.509012512109073e+000	 2.098297536757549e+000	 1.061234006164417e+001
 4.486259873551445e+000	 2.146513210319305e+000	 1.061776166283232e+001
 4.462948405619200e+000	 2.194570169793071e+000	 1.062321464173666e+001
 4.439079226167888e+000	 2.242458978019816e+000	 1.062879806240433e+001
 4.414653660376605e+000	 2.290170190475642e+000	 1.063459057823117e+001
 4.389673241782057e+000	 2.337694360842154e+000	 1.064064717041056e+001
 4.364139713136595e+000	 2.385022046636375e+000	 1.064699593363042e+001
 4.338055027087065e+000	 2.432143814893820e+000	 1.065363493728384e+001
 4.598434517193399e+000	 1.963263190070334e+000	 1.058984117057618e+001
 4.577250035047463e+000	 2.012159319963842e+000	 1.059761285902272e+001
 4.555501593187413e+000	 2.060924248629703e+000	 1.060448190909320e+001
 4.533189698111257e+000	 2.109548543431159e+000	 1.061101257565506e+001
 4.510315060607234e+000	 2.158022747946641e+000	 1.061735837465533e+001
 4.486878597302711e+000	 2.206337387353961e+000	 1.062365779984553e+001
 4.462881432047135e+000	 2.254482973892403e+000	 1.063003090123811e+001
 4.438324897125158e+000	 2.302450012396893e+000	 1.063657585430234e+001
 4.413210534296251e+000	 2.350229005898243e+000	 1.064336554910864e+001
 4.387540095657340e+000	 2.397810461283245e+000	 1.065044422899243e+001
 4.361315544325288e+000	 2.445184895008222e+000	 1.065782420836491e+001
 4.128701387472490e+000	 2.314769056742235e+000	 1.066779029827038e+001
 4.103349201813303e+000	 2.359418476664549e+000	 1.067095680356602e+001
 4.077476622929091e+000	 2.403853947232864e+000	 1.067589625158979e+001
 4.051086115123939e+000	 2.448066549433488e+000	 1.068241806713139e+001
 4.024180343380284e+000	 2.492047395438518e+000	 1.069026813959354e+001
 3.996762173110999e+000	 2.535787634173376e+000	 1.069912134937355e+001
 3.968834669728083e+000	 2.579278456895365e+000	 1.070802161471316e+001
 3.940401098026868e+000	 2.622511102776230e+000	 1.071592637147091e+001
 3.911464921384907e+000	 2.665476864481691e+000	 1.072216046477999e+001
 3.882029800775059e+000	 2.708167093740830e+000	 1.072587099909673e+001
 3.852099593592544e+000	 2.750573206898158e+000	 1.072661743689850e+001
 4.151963213112460e+000	 2.327810870410583e+000	 1.065844756314342e+001
 4.126468188805896e+000	 2.372711852972974e+000	 1.066175407813202e+001
 4.100449839287810e+000	 2.417397680753247e+000	 1.066648446749551e+001
 4.073910642746603e+000	 2.461859384486436e+000	 1.067250741578195e+001
 4.046853279179697e+000	 2.506088026269067e+000	 1.067963197634582e+001
 4.019280630144203e+000	 2.550074705158072e+000	 1.068760552818241e+001
 3.991195778323188e+000	 2.593810562780759e+000	 1.069607214307966e+001
 3.962602006906415e+000	 2.637286788948846e+000	 1.070396978956925e+001
 3.933502798784717e+000	 2.680494627269417e+000	 1.071039326851540e+001
 3.903901835557514e+000	 2.723425380745691e+000	 1.071427659412325e+001
 3.873802996353269e+000	 2.766070417360369e+000	 1.071542205889739e+001
 4.175225056205250e+000	 2.340852693863086e+000	 1.065174617999430e+001
 4.149587193144094e+000	 2.386005239254254e+000	 1.065526465075198e+001
 4.123423072882692e+000	 2.430941424434304e+000	 1.065991664345365e+001
 4.096735187493784e+000	 2.475652229886951e+000	 1.066561835524688e+001
 4.069526231989785e+000	 2.520128667633114e+000	 1.067222981449305e+001
 4.041799104072064e+000	 2.564361786861186e+000	 1.067955273873370e+001
 4.013556903694774e+000	 2.608342679568453e+000	 1.068732860591107e+001
 3.984802932442126e+000	 2.652062486206557e+000	 1.069512251859738e+001
 3.955540692718248e+000	 2.695512401323906e+000	 1.070162034605263e+001
 3.925773886749148e+000	 2.738683679197817e+000	 1.070564344189266e+001
 3.895506415396551e+000	 2.781567639449147e+000	 1.070713497478489e+001
 4.198486876043155e+000	 2.353894504277207e+000	 1.064735944558157e+001
 4.172706174370148e+000	 2.399298612245635e+000	 1.065116021874182e+001
 4.146396283511082e+000	 2.444485154575171e+000	 1.065585680986909e+001
 4.119559709423028e+000	 2.489445061498262e+000	 1.066140139254114e+001
 4.092199162133382e+000	 2.534169294960265e+000	 1.066769299792250e+001
 4.064317555487758e+000	 2.578648854281084e+000	 1.067457528756746e+001
 4.035918006711386e+000	 2.622874781828017e+000	 1.068183453878236e+001
 4.007003835782910e+000	 2.666838168692685e+000	 1.068919785304233e+001
 3.977578564619736e+000	 2.710530160364864e+000	 1.069557678638299e+001
 3.947645916074441e+000	 2.753941962396012e+000	 1.069967184966352e+001
 3.917209812741994e+000	 2.797064846045182e+000	 1.070141731325530e+001
 4.221748631918484e+000	 2.366936278830407e+000	 1.064497880388707e+001
 4.195825092026315e+000	 2.412591948684358e+000	 1.064913086575874e+001
 4.169369430970327e+000	 2.458028847474985e+000	 1.065398772710773e+001
 4.142384168591881e+000	 2.503237855183603e+000	 1.065952620920373e+001
 4.114872029933324e+000	 2.548209883680131e+000	 1.066567258683280e+001
 4.086835944984467e+000	 2.592935882416122e+000	 1.067230028935594e+001
 4.058279048241575e+000	 2.637406844129022e+000	 1.067922781480934e+001
 4.029204678077674e+000	 2.681613810550553e+000	 1.068614814026322e+001
 3.999616375923409e+000	 2.725547878111994e+000	 1.069198869032068e+001
 3.969517885257865e+000	 2.769200203639073e+000	 1.069605460738611e+001
 3.938913150409198e+000	 2.812562010029166e+000	 1.069792446789862e+001
 4.245010283123539e+000	 2.379977994700152e+000	 1.064431382832031e+001
 4.218943905654852e+000	 2.425885225307669e+000	 1.064888503273235e+001
 4.192342475057771e+000	 2.471572479432886e+000	 1.065401084232433e+001
 4.165208525057892e+000	 2.517030586806201e+000	 1.065968160131875e+001
 4.137544795712442e+000	 2.562250409222323e+000	 1.066583927837451e+001
 4.109354233155368e+000	 2.607222846264664e+000	 1.067237510903350e+001
 4.080639989153886e+000	 2.651938841041037e+000	 1.067912745286960e+001
 4.051405420475334e+000	 2.696389385923487e+000	 1.068559921511309e+001
 4.021654088063499e+000	 2.740565528285002e+000	 1.069074479358980e+001
 3.991389756023894e+000	 2.784458376225799e+000	 1.069447837406365e+001
 3.960616390417768e+000	 2.828059104281789e+000	 1.069630746427762e+001
 4.268271788950622e+000	 2.393019629063903e+000	 1.064509219604755e+001
 4.242062574798013e+000	 2.439178418852811e+000	 1.065014948111898e+001
 4.215315375570760e+000	 2.485116026748010e+000	 1.065564623891243e+001
 4.188032738878609e+000	 2.530823232229287e+000	 1.066157541255462e+001
 4.160217419793572e+000	 2.576290847016447e+000	 1.066788332079768e+001
 4.131872380593638e+000	 2.621509720825070e+000	 1.067446725469982e+001
 4.103000790316869e+000	 2.666470747133635e+000	 1.068117329184823e+001
 4.073606024124797e+000	 2.711164868954810e+000	 1.068715051107214e+001
 4.043691662474240e+000	 2.755583084603597e+000	 1.069165049231467e+001
 4.013261490097003e+000	 2.799716453454992e+000	 1.069468831841761e+001
 3.982319494787302e+000	 2.843556101683741e+000	 1.069621432611524e+001
 4.291533108692034e+000	 2.406061159099123e+000	 1.064705965472254e+001
 4.265181058998054e+000	 2.452471506057028e+000	 1.065266924874896e+001
 4.238288092306640e+000	 2.498659465719494e+000	 1.065863257883553e+001
 4.210856770111574e+000	 2.544615767316092e+000	 1.066493446046596e+001
 4.182889862499549e+000	 2.590331172492116e+000	 1.067151442133304e+001
 4.154390347892455e+000	 2.635796481095701e+000	 1.067826426481316e+001
 4.125361412599069e+000	 2.681002536976384e+000	 1.068495555139313e+001
 4.095806450174976e+000	 2.725940233787844e+000	 1.069042814478480e+001
 4.065729060589863e+000	 2.770600520787480e+000	 1.069430038078634e+001
 4.035133049201670e+000	 2.814974408625452e+000	 1.069657158932841e+001
 4.004022425537404e+000	 2.859052975115712e+000	 1.069729709246721e+001
 4.314794201640082e+000	 2.419102561983274e+000	 1.064997998188527e+001
 4.288299317797230e+000	 2.465764463657564e+000	 1.065620759852632e+001
 4.261260585062755e+000	 2.512202772646476e+000	 1.066272703808832e+001
 4.233680578814340e+000	 2.558408167929847e+000	 1.066950445629268e+001
 4.205562084153207e+000	 2.604371361078937e+000	 1.067646164802400e+001
 4.176908095644997e+000	 2.650083102074917e+000	 1.068347358987058e+001
 4.147721816869038e+000	 2.695534185138858e+000	 1.069007985844086e+001
 4.118006659774780e+000	 2.740715454565915e+000	 1.069508426481603e+001
 4.087766243844597e+000	 2.785617810556358e+000	 1.069831568363787e+001
 4.057004395062369e+000	 2.830232215035975e+000	 1.069974435450675e+001
 4.025725144687676e+000	 2.874549697458392e+000	 1.069939725972966e+001
 4.338055027087065e+000	 2.432143814893820e+000	 1.065363493728384e+001
 4.311417310737799e+000	 2.479057268391663e+000	 1.066054596022963e+001
 4.284232813636448e+000	 2.525745923828093e+000	 1.066770523552675e+001
 4.256504125044452e+000	 2.572200409933782e+000	 1.067504991848228e+001
 4.228234045077379e+000	 2.618411388206522e+000	 1.068247332571866e+001
 4.199425584444444e+000	 2.664369558761082e+000	 1.068982246876455e+001
 4.170081963995317e+000	 2.710065666190624e+000	 1.069624995571772e+001
 4.140206614073119e+000	 2.755490505432348e+000	 1.070079639623144e+001
 4.109803173672678e+000	 2.800634927629938e+000	 1.070334363031119e+001
 4.078875489403575e+000	 2.845489845985365e+000	 1.070381971773185e+001
 4.047427614257718e+000	 2.890046241592473e+000	 1.070220976814219e+001
 4.361315544325288e+000	 2.445184895008222e+000	 1.065782420836491e+001
 4.334534997362014e+000	 2.492349896996569e+000	 1.066548386565305e+001
 4.307204737825070e+000	 2.539288895563483e+000	 1.067336115529635e+001
 4.279327368859456e+000	 2.585992469191127e+000	 1.068135408015156e+001
 4.250905705594900e+000	 2.632451229304479e+000	 1.068931692642256e+001
 4.221942774883971e+000	 2.678655826152554e+000	 1.069700870595153e+001
 4.192441814846461e+000	 2.724596954701255e+000	 1.070319381868612e+001
 4.162406274218904e+000	 2.770265360530463e+000	 1.070726678116704e+001
 4.131839811508336e+000	 2.815651845727923e+000	 1.070905676500052e+001
 4.100746293949762e+000	 2.860747274772420e+000	 1.070843678789779e+001
 4.069129796267132e+000	 2.905542580398644e+000	 1.070533677815140e+001
 3.852099593592544e+000	 2.750573206898158e+000	 1.072661743689850e+001
 3.821678351209255e+000	 2.792686689510306e+000	 1.072525628722816e+001
 3.790770314199296e+000	 2.834499098992382e+000	 1.072230599948808e+001
 3.759379913927593e+000	 2.876002072770478e+000	 1.071757177372754e+001
 3.727511771739844e+000	 2.917187334614500e+000	 1.071101051352930e+001
 3.695170696876085e+000	 2.958046700001626e+000	 1.070271468099795e+001
 3.662361684203526e+000	 2.998572081419612e+000	 1.069289322208465e+001
 3.629089911770705e+000	 3.038755493602876e+000	 1.068184966275676e+001
 3.595360738185273e+000	 3.078589058694386e+000	 1.066995750490959e+001
 3.561179699818027e+000	 3.118065011326384e+000	 1.065763307875026e+001
 3.526552507836178e+000	 3.157175703613221e+000	 1.064530603539404e+001
 3.873802996353269e+000	 2.766070417360369e+000	 1.071542205889739e+001
 3.843210355370016e+000	 2.808421174698224e+000	 1.071461566767366e+001
 3.812128177074004e+000	 2.850469162607365e+000	 1.071227043369942e+001
 3.780560917797259e+000	 2.892205971397670e+000	 1.070814773267103e+001
 3.748513224922961e+000	 2.933623278209317e+000	 1.070217033304334e+001
 3.715989934787253e+000	 2.974712852406442e+000	 1.069440591279899e+001
 3.682996070399315e+000	 3.015466560910336e+000	 1.068504751450515e+001
 3.649536838981732e+000	 3.055876373465035e+000	 1.067439104131738e+001
 3.615617629333495e+000	 3.095934367828269e+000	 1.066280992609825e+001
 3.581244009018294e+000	 3.135632734880840e+000	 1.065072713476029e+001
 3.546421721381069e+000	 3.174963783647567e+000	 1.063858469304253e+001
 3.895506415396551e+000	 2.781567639449147e+000	 1.070713497478489e+001
 3.864742375684650e+000	 2.824155671690768e+000	 1.070677768504184e+001
 3.833486055971865e+000	 2.866439238203753e+000	 1.070487037540962e+001
 3.801741937557329e+000	 2.908409882181733e+000	 1.070114778461104e+001
 3.769514693861728e+000	 2.950059234135116e+000	 1.069551709610806e+001
 3.736809188317338e+000	 2.991379017314970e+000	 1.068804107930035e+001
 3.703630472075320e+000	 3.032361053076081e+000	 1.067891803050619e+001
 3.669983781532329e+000	 3.072997266172066e+000	 1.066845861862619e+001
 3.635874535678719e+000	 3.113279689975391e+000	 1.065705977105844e+001
 3.601308333271101e+000	 3.153200471615381e+000	 1.064517576552323e+001
 3.566290949832161e+000	 3.192751877027289e+000	 1.063328672268350e+001
 3.917209812741994e+000	 2.797064846045182e+000	 1.070141731325530e+001
 3.886274374472733e+000	 2.839890152953399e+000	 1.070136657385732e+001
 3.854843913517218e+000	 2.882409297834738e+000	 1.069970145904344e+001
 3.822922936141673e+000	 2.924613776766639e+000	 1.069614683155193e+001
 3.790516141804253e+000	 2.966495173629784e+000	 1.069061242415204e+001
 3.757628421033338e+000	 3.008045165562214e+000	 1.068317556830391e+001
 3.724264853122052e+000	 3.049255528352266e+000	 1.067406057752550e+001
 3.690430703641079e+000	 3.090118141763178e+000	 1.066361489269797e+001
 3.656131421772110e+000	 3.130624994782196e+000	 1.065228212840834e+001
 3.621372637464639e+000	 3.170768190787212e+000	 1.064057219070677e+001
 3.586160158419070e+000	 3.210539952623959e+000	 1.062902866705098e+001
 3.938913150409198e+000	 2.812562010029166e+000	 1.069792446789862e+001
 3.907806314053837e+000	 2.855624590951576e+000	 1.069800246628746e+001
 3.876201712334408e+000	 2.898379313553518e+000	 1.069635656321787e+001
 3.844103876484156e+000	 2.940817626796362e+000	 1.069271808609716e+001
 3.811517531998638e+000	 2.982931067931204e+000	 1.068701704218296e+001
 3.778447596502258e+000	 3.024711267983181e+000	 1.067936439811569e+001
 3.744899177430023e+000	 3.066149957174311e+000	 1.067003086239702e+001
 3.710877569526564e+000	 3.107238970277573e+000	 1.065942228046495e+001
 3.676388252164828e+000	 3.147970251895124e+000	 1.064805178512498e+001
 3.641436886487100e+000	 3.188335861653542e+000	 1.063650887760476e+001
 3.606029312371414e+000	 3.228327979309159e+000	 1.062542564610245e+001
 3.960616390417768e+000	 2.828059104281789e+000	 1.069630746427762e+001
 3.929338156747529e+000	 2.871358958150761e+000	 1.069630274018836e+001
 3.897559415047773e+000	 2.914349257413284e+000	 1.069442714368297e+001
 3.865284721518648e+000	 2.957021403914880e+000	 1.069043439298993e+001
 3.832518827692987e+000	 2.999366888277262e+000	 1.068429209241049e+001
 3.799266678291103e+000	 3.041377295412881e+000	 1.067616352651050e+001
 3.765533408889745e+000	 3.083044309977635e+000	 1.066638579869227e+001
 3.731324343407371e+000	 3.124359721754460e+000	 1.065544442630516e+001
 3.696644991408034e+000	 3.165315430960619e+000	 1.064394453884475e+001
 3.661501045226677e+000	 3.205903453471577e+000	 1.063257885956970e+001
 3.625898376918811e+000	 3.246115925954463e+000	 1.062209268371744e+001
 3.982319494787302e+000	 2.843556101683741e+000	 1.069621432611524e+001
 3.950869864873384e+000	 2.887093227016413e+000	 1.069588336713817e+001
 3.918916984281657e+000	 2.930319101467231e+000	 1.069350456695107e+001
 3.886465434179013e+000	 2.973225079766164e+000	 1.068886955187400e+001
 3.853519992135404e+000	 3.015802605905841e+000	 1.068200044945941e+001
 3.820085629966870e+000	 3.058043218686316e+000	 1.067313116150124e+001
 3.786167511391733e+000	 3.099938557197659e+000	 1.066268481593299e+001
 3.751770989502083e+000	 3.141480366233044e+000	 1.065124751236834e+001
 3.716901604052891e+000	 3.182660501625122e+000	 1.063953851175467e+001
 3.681565078571562e+000	 3.223470935498525e+000	 1.062837705570359e+001
 3.645767317290876e+000	 3.263903761431448e+000	 1.061864603520466e+001
 4.004022425537404e+000	 2.859052975115712e+000	 1.069729709246721e+001
 3.972401400750971e+000	 2.902827370013992e+000	 1.069636026037746e+001
 3.940274382660400e+000	 2.946288817768555e+000	 1.069318144450668e+001
 3.907645977399121e+000	 2.989428625994191e+000	 1.068759964114644e+001
 3.874520988573994e+000	 3.032238192054827e+000	 1.067970803702936e+001
 3.840904415096563e+000	 3.074709008638496e+000	 1.066982907376089e+001
 3.806801448826499e+000	 3.116832669269804e+000	 1.065849117052060e+001
 3.772217472029282e+000	 3.158600873752531e+000	 1.064640157054737e+001
 3.737158054650565e+000	 3.200005433535078e+000	 1.063441546593008e+001
 3.701628951409946e+000	 3.241038276991590e+000	 1.062350159167583e+001
 3.665636098717228e+000	 3.281691454611689e+000	 1.061470451550378e+001
 4.025725144687676e+000	 2.874549697458392e+000	 1.069939725972966e+001
 3.993932726699862e+000	 2.918561359608961e+000	 1.069735062257625e+001
 3.961631572808341e+000	 2.962258378370446e+000	 1.069305296749025e+001
 3.928826314112840e+000	 3.005632014242935e+000	 1.068620434277497e+001
 3.895521780256860e+000	 3.048673617962106e+000	 1.067698514586067e+001
 3.861722997247186e+000	 3.091374636104424e+000	 1.066582391054847e+001
 3.827435185084556e+000	 3.133726616629490e+000	 1.065337325823047e+001
 3.792663755207555e+000	 3.175721214352128e+000	 1.064048179594606e+001
 3.757414307752212e+000	 3.217350196336925e+000	 1.062816211997746e+001
 3.721692628630024e+000	 3.258605447207982e+000	 1.061755512153911e+001
 3.685504686427484e+000	 3.299478974366764e+000	 1.060989082796947e+001
 4.047427614257718e+000	 2.890046241592473e+000	 1.070220976814219e+001
 4.015463805039629e+000	 2.934295168266779e+000	 1.069854875465098e+001
 3.982988517349825e+000	 2.978227755326101e+000	 1.069271824175015e+001
 3.950006407254037e+000	 3.021835216156370e+000	 1.068426826795540e+001
 3.916522330432105e+000	 3.065108854865561e+000	 1.067340775286761e+001
 3.882541339985741e+000	 3.108040071919109e+000	 1.066068851099214e+001
 3.848068684056416e+000	 3.150620369712136e+000	 1.064690592812231e+001
 3.813109803255483e+000	 3.192841358071038e+000	 1.063306986169697e+001
 3.777670327908999e+000	 3.234694759677108e+000	 1.062037146684300e+001
 3.741756075119985e+000	 3.276172415404907e+000	 1.061014615041581e+001
 3.705373045651260e+000	 3.317266289568248e+000	 1.060383289362645e+001
 4.069129796267132e+000	 2.905542580398644e+000	 1.070533677815140e+001
 4.036994598089843e+000	 2.950028768452905e+000	 1.069975777018881e+001
 4.004345178909193e+000	 2.994196920688713e+000	 1.069178718412161e+001
 3.971186219756580e+000	 3.038038203378471e+000	 1.068138228348563e+001
 3.937522602347835e+000	 3.081543874003077e+000	 1.066855884130329e+001
 3.903359406879230e+000	 3.124705286917557e+000	 1.065400322258653e+001
 3.868701909632592e+000	 3.167513898953164e+000	 1.063867179772071e+001
 3.833555580391654e+000	 3.209961274948470e+000	 1.062375523498554e+001
 3.797926079672085e+000	 3.252039093202069e+000	 1.061064409265057e+001
 3.761819255768023e+000	 3.293739150839572e+000	 1.060089035792972e+001
 3.725241141618175e+000	 3.335053369087720e+000	 1.059615750471033e+001
 3.526552507836178e+000	 3.157175703613221e+000	 1.064530603539404e+001
 3.491490338159828e+000	 3.195907828477368e+000	 1.063237630754235e+001
 3.455994081322530e+000	 3.234259887315395e+000	 1.061970713183919e+001
 3.420069953636332e+000	 3.272224619985245e+000	 1.060987463930854e+001
 3.383724332540992e+000	 3.309794902772032e+000	 1.060536215051677e+001
 3.346963752837024e+000	 3.346963752837023e+000	 1.060769908067629e+001
 3.309794902772032e+000	 3.383724332540992e+000	 1.060820350601652e+001
 3.272224619985245e+000	 3.420069953636333e+000	 1.059960966390483e+001
 3.234259887315396e+000	 3.455994081322531e+000	 1.058359028920517e+001
 3.195907828477369e+000	 3.491490338159829e+000	 1.056257209033391e+001
 3.157175703613221e+000	 3.526552507836178e+000	 1.053906733699601e+001
 3.546421721381069e+000	 3.174963783647567e+000	 1.063858469304253e+001
 3.511162005309020e+000	 3.213914132076515e+000	 1.062599770342400e+001
 3.475465756353109e+000	 3.252482273120869e+000	 1.061403495394844e+001
 3.439339225849170e+000	 3.290660905733674e+000	 1.060527578184069e+001
 3.402788827168555e+000	 3.328442866063796e+000	 1.060220784058986e+001
 3.365821131929980e+000	 3.365821131929980e+000	 1.060262736132145e+001
 3.328442866063796e+000	 3.402788827168555e+000	 1.060082218021159e+001
 3.290660905733673e+000	 3.439339225849170e+000	 1.059273184064877e+001
 3.252482273120868e+000	 3.475465756353109e+000	 1.057714247779975e+001
 3.213914132076515e+000	 3.511162005309020e+000	 1.055647007197930e+001
 3.174963783647567e+000	 3.546421721381069e+000	 1.053321641420387e+001
 3.566290949832161e+000	 3.192751877027289e+000	 1.063328672268350e+001
 3.530833687216242e+000	 3.231920449184716e+000	 1.062124062284424e+001
 3.494937445991728e+000	 3.270704672597463e+000	 1.061029824178438e+001
 3.458608512518249e+000	 3.309097205313643e+000	 1.060302157661220e+001
 3.421853336098788e+000	 3.347090843345853e+000	 1.060110823729342e+001
 3.384678525170281e+000	 3.384678525170280e+000	 1.059806315223983e+001
 3.347090843345852e+000	 3.421853336098788e+000	 1.059289563930574e+001
 3.309097205313644e+000	 3.458608512518250e+000	 1.058518817366564e+001
 3.270704672597464e+000	 3.494937445991728e+000	 1.057044805170391e+001
 3.231920449184716e+000	 3.530833687216242e+000	 1.055046974365718e+001
 3.192751877027288e+000	 3.566290949832161e+000	 1.052772169793479e+001
 3.586160158419070e+000	 3.210539952623959e+000	 1.062902866705098e+001
 3.550505349456825e+000	 3.249926748291658e+000	 1.061774488103871e+001
 3.514409116163698e+000	 3.288927053856720e+000	 1.060815533882322e+001
 3.477877779923087e+000	 3.327533486462375e+000	 1.060278463718878e+001
 3.440917825969560e+000	 3.365738801984989e+000	 1.059988340558920e+001
 3.403535899558242e+000	 3.403535899558242e+000	 1.059388754564261e+001
 3.365738801984989e+000	 3.440917825969561e+000	 1.058590052737190e+001
 3.327533486462375e+000	 3.477877779923087e+000	 1.057707262746415e+001
 3.288927053856719e+000	 3.514409116163698e+000	 1.056360705437077e+001
 3.249926748291657e+000	 3.550505349456825e+000	 1.054467636323060e+001
 3.210539952623960e+000	 3.586160158419070e+000	 1.052269327228017e+001
 3.606029312371414e+000	 3.228327979309159e+000	 1.062542564610245e+001
 3.570176957606095e+000	 3.267932997887018e+000	 1.061514809955123e+001
 3.533880732794333e+000	 3.307149385010174e+000	 1.060726163086113e+001
 3.497146994343197e+000	 3.345969716917085e+000	 1.060363862101275e+001
 3.459982263418742e+000	 3.384386709347995e+000	 1.059831139279192e+001
 3.422393222094180e+000	 3.422393222094181e+000	 1.058998623480053e+001
 3.384386709347995e+000	 3.459982263418742e+000	 1.057980481023899e+001
 3.345969716917085e+000	 3.497146994343197e+000	 1.056892373108912e+001
 3.307149385010175e+000	 3.533880732794334e+000	 1.055672070782013e+001
 3.267932997887018e+000	 3.570176957606095e+000	 1.053919605078630e+001
 3.228327979309159e+000	 3.606029312371414e+000	 1.051824182123691e+001
 3.625898376918811e+000	 3.246115925954463e+000	 1.062209268371744e+001
 3.589848477239379e+000	 3.285939166460482e+000	 1.061308704014513e+001
 3.553352261808945e+000	 3.325371634169370e+000	 1.060727088322110e+001
 3.516416122058093e+000	 3.364405864414994e+000	 1.060354525762725e+001
 3.479046615084206e+000	 3.403034532801657e+000	 1.059627325980595e+001
 3.441250459778411e+000	 3.441250459778410e+000	 1.058624950781627e+001
 3.403034532801657e+000	 3.479046615084205e+000	 1.057450557934963e+001
 3.364405864414993e+000	 3.516416122058093e+000	 1.056208760636162e+001
 3.325371634169370e+000	 3.553352261808945e+000	 1.054989083996328e+001
 3.285939166460482e+000	 3.589848477239380e+000	 1.053413520952281e+001
 3.246115925954463e+000	 3.625898376918810e+000	 1.051447804344812e+001
 3.645767317290876e+000	 3.263903761431448e+000	 1.061864603520466e+001
 3.609519873932002e+000	 3.303945222501730e+000	 1.061119893905950e+001
 3.572823669132848e+000	 3.343593769445843e+000	 1.060748493026929e+001
 3.535685129347288e+000	 3.382841896693317e+000	 1.060225223516135e+001
 3.498110847603819e+000	 3.421682239712764e+000	 1.059365497102984e+001
 3.460107579611251e+000	 3.460107579611250e+000	 1.058257224036440e+001
 3.421682239712764e+000	 3.498110847603818e+000	 1.056990424484219e+001
 3.382841896693318e+000	 3.535685129347289e+000	 1.055656516376437e+001
 3.343593769445843e+000	 3.572823669132847e+000	 1.054347595049105e+001
 3.303945222501731e+000	 3.609519873932002e+000	 1.052959994530502e+001
 3.263903761431447e+000	 3.645767317290875e+000	 1.051151206556008e+001
 3.665636098717228e+000	 3.281691454611689e+000	 1.061470451550378e+001
 3.629191113259290e+000	 3.321951134500448e+000	 1.060912284151478e+001
 3.592294920691352e+000	 3.361815758951137e+000	 1.060600138560651e+001
 3.554953982490301e+000	 3.401277781489275e+000	 1.059963909505893e+001
 3.517174927615451e+000	 3.440329797448102e+000	 1.059034738120166e+001
 3.478964548593018e+000	 3.478964548593018e+000	 1.057885388743256e+001
 3.440329797448102e+000	 3.517174927615451e+000	 1.056590653089298e+001
 3.401277781489275e+000	 3.554953982490301e+000	 1.055226645000204e+001
 3.361815758951137e+000	 3.592294920691351e+000	 1.053870086949637e+001
 3.321951134500448e+000	 3.629191113259292e+000	 1.052569548497205e+001
 3.281691454611689e+000	 3.665636098717227e+000	 1.050945285428484e+001
 3.685504686427484e+000	 3.299478974366764e+000	 1.060989082796947e+001
 3.648862160796576e+000	 3.339956870946316e+000	 1.060637193522961e+001
 3.611765982409771e+000	 3.380037570796788e+000	 1.060247578846717e+001
 3.574222647766643e+000	 3.419713486540085e+000	 1.059559061359687e+001
 3.536238821756975e+000	 3.458977173374460e+000	 1.058624622146954e+001
 3.497821333724026e+000	 3.497821333724026e+000	 1.057499847409607e+001
 3.458977173374461e+000	 3.536238821756975e+000	 1.056242246994301e+001
 3.419713486540085e+000	 3.574222647766643e+000	 1.054910559507030e+001
 3.380037570796788e+000	 3.611765982409771e+000	 1.053564049159138e+001
 3.339956870946316e+000	 3.648862160796576e+000	 1.052261799536985e+001
 3.299478974366763e+000	 3.685504686427483e+000	 1.050840762725556e+001
 3.705373045651260e+000	 3.317266289568248e+000	 1.060383289362645e+001
 3.668532982119181e+000	 3.357962400329018e+000	 1.060127594242593e+001
 3.631236820213418e+000	 3.398259173094338e+000	 1.059678455250745e+001
 3.593491091455829e+000	 3.438148979582966e+000	 1.058999678126227e+001
 3.555302496666260e+000	 3.477624334858628e+000	 1.058125208471159e+001
 3.516677902004593e+000	 3.516677902004593e+000	 1.057091458535717e+001
 3.477624334858627e+000	 3.555302496666260e+000	 1.055936639584605e+001
 3.438148979582966e+000	 3.593491091455829e+000	 1.054700080771572e+001
 3.398259173094338e+000	 3.631236820213418e+000	 1.053421539758629e+001
 3.357962400329018e+000	 3.668532982119181e+000	 1.052140510360267e+001
 3.317266289568248e+000	 3.705373045651260e+000	 1.050848126275985e+001
 3.725241141618175e+000	 3.335053369087720e+000	 1.059615750471033e+001
 3.688203542802433e+000	 3.375967691138236e+000	 1.059331138870012e+001
 3.650707400027606e+000	 3.416480533955327e+000	 1.058880968765885e+001
 3.612759279837374e+000	 3.456584228355136e+000	 1.058275278162543e+001
 3.574365918981176e+000	 3.496271249267390e+000	 1.057527041012742e+001
 3.535534220435035e+000	 3.535534220435034e+000	 1.056651535507857e+001
 3.496271249267390e+000	 3.574365918981176e+000	 1.055665693597328e+001
 3.456584228355136e+000	 3.612759279837374e+000	 1.054587436974762e+001
 3.416480533955327e+000	 3.650707400027606e+000	 1.053435004851737e+001
 3.375967691138236e+000	 3.688203542802433e+000	 1.052226278883975e+001
 3.335053369087720e+000	 3.725241141618175e+000	 1.050978110617787e+001
 3.157175703613221e+000	 3.526552507836178e+000	 1.053906733699601e+001
 3.118065011326384e+000	 3.561179699818027e+000	 1.051498490735035e+001
 3.078589058694385e+000	 3.595360738185272e+000	 1.049066499838616e+001
 3.038755493602876e+000	 3.629089911770705e+000	 1.046630614317730e+001
 2.998572081419611e+000	 3.662361684203525e+000	 1.044209377578915e+001
 2.958046700001627e+000	 3.695170696876085e+000	 1.041817776802917e+001
 2.917187334614500e+000	 3.727511771739845e+000	 1.039465144015703e+001
 2.876002072770478e+000	 3.759379913927594e+000	 1.037153220657739e+001
 2.834499098992381e+000	 3.790770314199297e+000	 1.034874400038913e+001
 2.792686689510306e+000	 3.821678351209255e+000	 1.032610160257502e+001
 2.750573206898158e+000	 3.852099593592544e+000	 1.030329698275931e+001
 3.174963783647567e+000	 3.546421721381069e+000	 1.053321641420387e+001
 3.135632734880840e+000	 3.581244009018294e+000	 1.050932664953110e+001
 3.095934367828270e+000	 3.615617629333495e+000	 1.048519829950964e+001
 3.055876373465033e+000	 3.649536838981733e+000	 1.046104827184043e+001
 3.015466560910336e+000	 3.682996070399315e+000	 1.043707647184295e+001
 2.974712852406443e+000	 3.715989934787254e+000	 1.041344252900459e+001
 2.933623278209317e+000	 3.748513224922959e+000	 1.039024406896396e+001
 2.892205971397670e+000	 3.780560917797260e+000	 1.036749669733203e+001
 2.850469162607365e+000	 3.812128177074004e+000	 1.034511584392390e+001
 2.808421174698224e+000	 3.843210355370014e+000	 1.032290059717418e+001
 2.766070417360369e+000	 3.873802996353269e+000	 1.030051963891944e+001
 3.192751877027288e+000	 3.566290949832161e+000	 1.052772169793479e+001
 3.153200471615381e+000	 3.601308333271101e+000	 1.050416794893868e+001
 3.113279689975391e+000	 3.635874535678719e+000	 1.048027759882627e+001
 3.072997266172066e+000	 3.669983781532329e+000	 1.045631014856257e+001
 3.032361053076081e+000	 3.703630472075320e+000	 1.043250372145711e+001
 2.991379017314971e+000	 3.736809188317337e+000	 1.040905091290649e+001
 2.950059234135116e+000	 3.769514693861728e+000	 1.038607626036083e+001
 2.908409882181733e+000	 3.801741937557330e+000	 1.036361550552909e+001
 2.866439238203751e+000	 3.833486055971865e+000	 1.034159680230224e+001
 2.824155671690768e+000	 3.864742375684651e+000	 1.031982400433848e+001
 2.781567639449146e+000	 3.895506415396550e+000	 1.029796214590673e+001
 3.210539952623960e+000	 3.586160158419070e+000	 1.052269327228017e+001
 3.170768190787212e+000	 3.621372637464638e+000	 1.049962314926597e+001
 3.130624994782196e+000	 3.656131421772108e+000	 1.047602021481397e+001
 3.090118141763177e+000	 3.690430703641078e+000	 1.045221044019635e+001
 3.049255528352266e+000	 3.724264853122051e+000	 1.042849356465468e+001
 3.008045165562214e+000	 3.757628421033338e+000	 1.040511800152716e+001
 2.966495173629784e+000	 3.790516141804253e+000	 1.038225744277074e+001
 2.924613776766639e+000	 3.822922936141672e+000	 1.035998933973711e+001
 2.882409297834738e+000	 3.854843913517219e+000	 1.033827541879620e+001
 2.839890152953399e+000	 3.886274374472734e+000	 1.031694437010694e+001
 2.797064846045182e+000	 3.917209812741993e+000	 1.029567682670138e+001
 3.228327979309159e+000	 3.606029312371414e+000	 1.051824182123691e+001
 3.188335861653542e+000	 3.641436886487099e+000	 1.049580699315017e+001
 3.147970251895125e+000	 3.676388252164827e+000	 1.047254374450188e+001
 3.107238970277573e+000	 3.710877569526563e+000	 1.044886806285681e+001
 3.066149957174312e+000	 3.744899177430023e+000	 1.042516436277365e+001
 3.024711267983182e+000	 3.778447596502260e+000	 1.040175938128698e+001
 2.982931067931204e+000	 3.811517531998638e+000	 1.037889785340324e+001
 2.940817626796362e+000	 3.844103876484156e+000	 1.035672015154856e+001
 2.898379313553517e+000	 3.876201712334408e+000	 1.033524205288821e+001
 2.855624590951576e+000	 3.907806314053837e+000	 1.031433677735675e+001
 2.812562010029165e+000	 3.938913150409198e+000	 1.029371941729487e+001
 3.246115925954463e+000	 3.625898376918810e+000	 1.051447804344812e+001
 3.205903453471578e+000	 3.661501045226677e+000	 1.049283403093016e+001
 3.165315430960621e+000	 3.696644991408035e+000	 1.046996546596207e+001
 3.124359721754459e+000	 3.731324343407371e+000	 1.044640157764927e+001
 3.083044309977635e+000	 3.765533408889745e+000	 1.042263418671583e+001
 3.041377295412882e+000	 3.799266678291102e+000	 1.039909052307196e+001
 2.999366888277262e+000	 3.832518827692987e+000	 1.037610790853053e+001
 2.957021403914880e+000	 3.865284721518647e+000	 1.035391049492782e+001
 2.914349257413283e+000	 3.897559415047773e+000	 1.033258822710600e+001
 2.871358958150760e+000	 3.929338156747529e+000	 1.031207817832346e+001
 2.828059104281789e+000	 3.960616390417767e+000	 1.029214838287745e+001
 3.263903761431447e+000	 3.645767317290875e+000	 1.051151206556008e+001
 3.223470935498525e+000	 3.681565078571562e+000	 1.049081802798801e+001
 3.182660501625123e+000	 3.716901604052892e+000	 1.046840173938708e+001
 3.141480366233044e+000	 3.751770989502083e+000	 1.044492858502542e+001
 3.099938557197659e+000	 3.786167511391734e+000	 1.042102020391504e+001
 3.058043218686317e+000	 3.820085629966870e+000	 1.039722616093770e+001
 3.015802605905841e+000	 3.853519992135404e+000	 1.037399757284123e+001
 2.973225079766165e+000	 3.886465434179013e+000	 1.035166288491796e+001
 2.930319101467231e+000	 3.918916984281657e+000	 1.033040597357626e+001
 2.887093227016413e+000	 3.950869864873384e+000	 1.031024672728526e+001
 2.843556101683741e+000	 3.982319494787302e+000	 1.029102423472726e+001
 3.281691454611689e+000	 3.665636098717227e+000	 1.050945285428484e+001
 3.241038276991591e+000	 3.701628951409947e+000	 1.048987137076608e+001
 3.200005433535079e+000	 3.737158054650565e+000	 1.046796740684481e+001
 3.158600873752532e+000	 3.772217472029283e+000	 1.044456511785827e+001
 3.116832669269804e+000	 3.806801448826499e+000	 1.042043806411205e+001
 3.074709008638497e+000	 3.840904415096564e+000	 1.039627966976216e+001
 3.032238192054828e+000	 3.874520988573996e+000	 1.037267572794549e+001
 2.989428625994191e+000	 3.907645977399120e+000	 1.035007915577028e+001
 2.946288817768555e+000	 3.940274382660400e+000	 1.032878718034705e+001
 2.902827370013992e+000	 3.972401400750971e+000	 1.030892111344420e+001
 2.859052975115711e+000	 4.004022425537404e+000	 1.029038596014335e+001
 3.299478974366763e+000	 3.685504686427483e+000	 1.050840762725556e+001
 3.258605447207982e+000	 3.721692628630023e+000	 1.049010447154855e+001
 3.217350196336926e+000	 3.757414307752213e+000	 1.046877519080049e+001
 3.175721214352127e+000	 3.792663755207555e+000	 1.044542503332431e+001
 3.133726616629490e+000	 3.827435185084556e+000	 1.042100128402199e+001
 3.091374636104424e+000	 3.861722997247187e+000	 1.039636244192745e+001
 3.048673617962106e+000	 3.895521780256860e+000	 1.037224954010476e+001
 3.005632014242934e+000	 3.928826314112840e+000	 1.034925981855908e+001
 2.962258378370446e+000	 3.961631572808341e+000	 1.032782293752877e+001
 2.918561359608961e+000	 3.993932726699862e+000	 1.030817989403801e+001
 2.874549697458392e+000	 4.025725144687677e+000	 1.028946043869493e+001
 3.317266289568248e+000	 3.705373045651260e+000	 1.050848126275985e+001
 3.276172415404907e+000	 3.741756075119985e+000	 1.049162517209438e+001
 3.234694759677108e+000	 3.777670327908998e+000	 1.047093509149295e+001
 3.192841358071037e+000	 3.813109803255483e+000	 1.044761940367928e+001
 3.150620369712136e+000	 3.848068684056416e+000	 1.042282063097754e+001
 3.108040071919110e+000	 3.882541339985742e+000	 1.039758326310955e+001
 3.065108854865560e+000	 3.916522330432104e+000	 1.037282382725765e+001
 3.021835216156370e+000	 3.950006407254037e+000	 1.034930341834390e+001
 2.978227755326099e+000	 3.982988517349826e+000	 1.032760288330296e+001
 2.934295168266778e+000	 4.015463805039629e+000	 1.030779244560940e+001
 2.890046241592473e+000	 4.047427614257718e+000	 1.028798217633672e+001
 3.335053369087720e+000	 3.725241141618175e+000	 1.050978110617787e+001
 3.293739150839573e+000	 3.761819255768024e+000	 1.049453814620651e+001
 3.252039093202069e+000	 3.797926079672084e+000	 1.047455378325060e+001
 3.209961274948469e+000	 3.833555580391654e+000	 1.045125590601200e+001
 3.167513898953163e+000	 3.868701909632593e+000	 1.042600350562963e+001
 3.124705286917558e+000	 3.903359406879230e+000	 1.040004768725275e+001
 3.081543874003077e+000	 3.937522602347834e+000	 1.037450042541212e+001
 3.038038203378471e+000	 3.971186219756580e+000	 1.035030589093990e+001
 2.994196920688713e+000	 4.004345178909193e+000	 1.032819180821309e+001
 2.950028768452905e+000	 4.036994598089843e+000	 1.030705169333341e+001
 2.905542580398644e+000	 4.069129796267133e+000	 1.028612704145252e+001
 2.750573206898158e+000	 3.852099593592544e+000	 1.030329698275931e+001
 2.708167093740830e+000	 3.882029800775059e+000	 1.028025458449274e+001
 2.665476864481691e+000	 3.911464921384907e+000	 1.025774615198135e+001
 2.622511102776230e+000	 3.940401098026868e+000	 1.023570377899324e+001
 2.579278456895366e+000	 3.968834669728083e+000	 1.021366496280018e+001
 2.535787634173377e+000	 3.996762173110999e+000	 1.019165910278481e+001
 2.492047395438517e+000	 4.024180343380285e+000	 1.016858472320779e+001
 2.448066549433489e+000	 4.051086115123940e+000	 1.014295812544493e+001
 2.403853947232864e+000	 4.077476622929091e+000	 1.011513883356627e+001
 2.359418476664550e+000	 4.103349201813303e+000	 1.008558256826788e+001
 2.314769056742236e+000	 4.128701387472491e+000	 1.005481651030519e+001
 2.766070417360369e+000	 3.873802996353269e+000	 1.030051963891944e+001
 2.723425380745691e+000	 3.903901835557514e+000	 1.027788578076050e+001
 2.680494627269417e+000	 3.933502798784716e+000	 1.025577701474242e+001
 2.637286788948846e+000	 3.962602006906416e+000	 1.023457335711937e+001
 2.593810562780759e+000	 3.991195778323189e+000	 1.021352589226963e+001
 2.550074705158071e+000	 4.019280630144203e+000	 1.019190648761967e+001
 2.506088026269068e+000	 4.046853279179696e+000	 1.016784031729956e+001
 2.461859384486437e+000	 4.073910642746603e+000	 1.014152906203662e+001
 2.417397680753247e+000	 4.100449839287810e+000	 1.011339420828889e+001
 2.372711852972975e+000	 4.126468188805896e+000	 1.008393156809852e+001
 2.327810870410583e+000	 4.151963213112461e+000	 1.005370590123531e+001
 2.781567639449146e+000	 3.895506415396550e+000	 1.029796214590673e+001
 2.738683679197817e+000	 3.925773886749149e+000	 1.027591104584162e+001
 2.695512401323906e+000	 3.955540692718250e+000	 1.025442320233394e+001
 2.652062486206556e+000	 3.984802932442126e+000	 1.023411029613676e+001
 2.608342679568453e+000	 4.013556903694774e+000	 1.021394001366311e+001
 2.564361786861187e+000	 4.041799104072063e+000	 1.019155836991544e+001
 2.520128667633114e+000	 4.069526231989785e+000	 1.016684346916641e+001
 2.475652229886951e+000	 4.096735187493784e+000	 1.014016009498571e+001
 2.430941424434304e+000	 4.123423072882693e+000	 1.011195074093156e+001
 2.386005239254254e+000	 4.149587193144094e+000	 1.008273023638887e+001
 2.340852693863086e+000	 4.175225056205249e+000	 1.005308022415510e+001
 2.797064846045182e+000	 3.917209812741993e+000	 1.029567682670138e+001
 2.753941962396011e+000	 3.947645916074441e+000	 1.027436082888730e+001
 2.710530160364864e+000	 3.977578564619736e+000	 1.025369524586456e+001
 2.666838168692685e+000	 4.007003835782910e+000	 1.023423279755592e+001
 2.622874781828017e+000	 4.035918006711387e+000	 1.021371038827393e+001
 2.578648854281084e+000	 4.064317555487758e+000	 1.019079834776734e+001
 2.534169294960265e+000	 4.092199162133383e+000	 1.016578143803855e+001
 2.489445061498263e+000	 4.119559709423028e+000	 1.013902592419136e+001
 2.444485154575171e+000	 4.146396283511083e+000	 1.011097425597998e+001
 2.399298612245635e+000	 4.172706174370148e+000	 1.008213957393475e+001
 2.353894504277207e+000	 4.198486876043154e+000	 1.005310007044730e+001
 2.812562010029165e+000	 3.938913150409198e+000	 1.029371941729487e+001
 2.769200203639073e+000	 3.969517885257865e+000	 1.027326996581498e+001
 2.725547878111994e+000	 3.999616375923409e+000	 1.025360850613922e+001
 2.681613810550553e+000	 4.029204678077674e+000	 1.023391113054531e+001
 2.637406844129022e+000	 4.058279048241575e+000	 1.021290275713100e+001
 2.592935882416122e+000	 4.086835944984467e+000	 1.018981409869728e+001
 2.548209883680132e+000	 4.114872029933324e+000	 1.016482646940172e+001
 2.503237855183603e+000	 4.142384168591883e+000	 1.013828661894720e+001
 2.458028847474985e+000	 4.169369430970327e+000	 1.011061626790097e+001
 2.412591948684358e+000	 4.195825092026315e+000	 1.008230652262571e+001
 2.366936278830408e+000	 4.221748631918484e+000	 1.005391214742128e+001
 2.828059104281789e+000	 3.960616390417767e+000	 1.029214838287745e+001
 2.784458376225800e+000	 3.991389756023894e+000	 1.027267697872566e+001
 2.740565528285003e+000	 4.021654088063499e+000	 1.025345544153662e+001
 2.696389385923487e+000	 4.051405420475334e+000	 1.023302420859010e+001
 2.651938841041037e+000	 4.080639989153886e+000	 1.021170734508348e+001
 2.607222846264664e+000	 4.109354233155368e+000	 1.018877799637799e+001
 2.562250409222322e+000	 4.137544795712441e+000	 1.016413592476166e+001
 2.517030586806201e+000	 4.165208525057891e+000	 1.013808773033311e+001
 2.471572479432886e+000	 4.192342475057773e+000	 1.011101407780034e+001
 2.425885225307669e+000	 4.218943905654851e+000	 1.008336404823025e+001
 2.379977994700152e+000	 4.245010283123538e+000	 1.005564934930655e+001
 2.843556101683741e+000	 3.982319494787302e+000	 1.029102423472726e+001
 2.799716453454992e+000	 4.013261490097004e+000	 1.027236178379549e+001
 2.755583084603597e+000	 4.043691662474240e+000	 1.025259212377225e+001
 2.711164868954809e+000	 4.073606024124798e+000	 1.023175045480173e+001
 2.666470747133636e+000	 4.103000790316870e+000	 1.021029877822753e+001
 2.621509720825070e+000	 4.131872380593638e+000	 1.018784726328617e+001
 2.576290847016447e+000	 4.160217419793572e+000	 1.016385241594292e+001
 2.530823232229287e+000	 4.188032738878607e+000	 1.013856040852116e+001
 2.485116026748009e+000	 4.215315375570761e+000	 1.011229087531499e+001
 2.439178418852812e+000	 4.242062574798013e+000	 1.008543122866826e+001
 2.393019629063903e+000	 4.268271788950621e+000	 1.005843083391313e+001
 2.859052975115711e+000	 4.004022425537404e+000	 1.029038596014335e+001
 2.814974408625451e+000	 4.035133049201670e+000	 1.027138221049464e+001
 2.770600520787481e+000	 4.065729060589862e+000	 1.025120017927817e+001
 2.725940233787844e+000	 4.095806450174977e+000	 1.023025072743403e+001
 2.681002536976385e+000	 4.125361412599069e+000	 1.020891186679960e+001
 2.635796481095702e+000	 4.154390347892455e+000	 1.018716412731176e+001
 2.590331172492116e+000	 4.182889862499548e+000	 1.016410394376092e+001
 2.544615767316093e+000	 4.210856770111573e+000	 1.013982152482067e+001
 2.498659465719494e+000	 4.238288092306640e+000	 1.011455584555228e+001
 2.452471506057028e+000	 4.265181058998053e+000	 1.008861334757497e+001
 2.406061159099123e+000	 4.291533108692034e+000	 1.006236210475675e+001
 2.874549697458392e+000	 4.025725144687677e+000	 1.028946043869493e+001
 2.830232215035976e+000	 4.057004395062370e+000	 1.026981057396156e+001
 2.785617810556359e+000	 4.087766243844597e+000	 1.024944414652868e+001
 2.740715454565916e+000	 4.118006659774781e+000	 1.022866888272850e+001
 2.695534185138857e+000	 4.147721816869036e+000	 1.020775843145451e+001
 2.650083102074918e+000	 4.176908095644997e+000	 1.018685598218367e+001
 2.604371361078937e+000	 4.205562084153207e+000	 1.016500404091222e+001
 2.558408167929847e+000	 4.233680578814339e+000	 1.014197379829426e+001
 2.512202772646476e+000	 4.261260585062754e+000	 1.011790428089750e+001
 2.465764463657564e+000	 4.288299317797230e+000	 1.009300199296821e+001
 2.419102561983274e+000	 4.314794201640082e+000	 1.006753509845479e+001
 2.890046241592473e+000	 4.047427614257718e+000	 1.028798217633672e+001
 2.845489845985365e+000	 4.078875489403575e+000	 1.026781655491666e+001
 2.800634927629938e+000	 4.109803173672678e+000	 1.024747182780792e+001
 2.755490505432347e+000	 4.140206614073120e+000	 1.022713234055190e+001
 2.710065666190624e+000	 4.170081963995318e+000	 1.020694738894593e+001
 2.664369558761082e+000	 4.199425584444443e+000	 1.018703555157724e+001
 2.618411388206522e+000	 4.228234045077379e+000	 1.016665191893381e+001
 2.572200409933783e+000	 4.256504125044452e+000	 1.014510592678286e+001
 2.525745923828092e+000	 4.284232813636448e+000	 1.012241769751703e+001
 2.479057268391664e+000	 4.311417310737799e+000	 1.009867516083859e+001
 2.432143814893819e+000	 4.338055027087065e+000	 1.007402827720669e+001
 2.905542580398644e+000	 4.069129796267133e+000	 1.028612704145252e+001
 2.860747274772420e+000	 4.100746293949762e+000	 1.026555336798165e+001
 2.815651845727925e+000	 4.131839811508338e+000	 1.024541488066213e+001
 2.770265360530463e+000	 4.162406274218905e+000	 1.022575265270644e+001
 2.724596954701255e+000	 4.192441814846461e+000	 1.020657199433992e+001
 2.678655826152554e+000	 4.221942774883971e+000	 1.018784901784063e+001
 2.632451229304479e+000	 4.250905705594900e+000	 1.016913261908812e+001
 2.585992469191127e+000	 4.279327368859455e+000	 1.014929272218435e+001
 2.539288895563483e+000	 4.307204737825071e+000	 1.012816395639147e+001
 2.492349896996570e+000	 4.334534997362014e+000	 1.010569736348866e+001
 2.445184895008223e+000	 4.361315544325288e+000	 1.008190672617940e+001
 2.314769056742236e+000	 4.128701387472491e+000	 1.005481651030519e+001
 2.269921375286927e+000	 4.153527231960959e+000	 1.002423336965026e+001
 2.224877713832085e+000	 4.177828517788692e+000	 9.994522483119527e+000
 2.179647050109438e+000	 4.201603386542996e+000	 9.965241415509485e+000
 2.134238370909848e+000	 4.224850179576209e+000	 9.935973139116578e+000
 2.088660666674489e+000	 4.247567437359611e+000	 9.906322804764667e+000
 2.042922926136646e+000	 4.269753898666801e+000	 9.875914560578401e+000
 1.997034131020162e+000	 4.291408499589529e+000	 9.844399249397890e+000
 1.951003250800438e+000	 4.312530372389278e+000	 9.814169540110255e+000
 1.904839237533663e+000	 4.333118844188068e+000	 9.786418527482745e+000
 1.858551020759794e+000	 4.353173435502171e+000	 9.760000523552845e+000
 2.327810870410583e+000	 4.151963213112461e+000	 1.005370590123531e+001
 2.282710509275002e+000	 4.176928930750042e+000	 1.002394717733777e+001
 2.237413063954258e+000	 4.201367134271600e+000	 9.995168234911319e+000
 2.191927562762202e+000	 4.225275954793839e+000	 9.966942016634427e+000
 2.146263043122858e+000	 4.248653724323997e+000	 9.938867783005440e+000
 2.100428546131131e+000	 4.271498975110129e+000	 9.910567741537536e+000
 2.054433111164409e+000	 4.293810438819873e+000	 9.881683728662054e+000
 2.008285770551152e+000	 4.315587045550745e+000	 9.851873969109469e+000
 1.961995544302362e+000	 4.336827922675253e+000	 9.822292447071215e+000
 1.915571434911692e+000	 4.357532393524315e+000	 9.795008238281913e+000
 1.869022422229697e+000	 4.377699975912726e+000	 9.768990742937739e+000
 2.340852693863086e+000	 4.175225056205249e+000	 1.005308022415510e+001
 2.295499652857716e+000	 4.200330647096901e+000	 1.002407573919607e+001
 2.249948423480745e+000	 4.224905768415010e+000	 9.996081457214693e+000
 2.204208084628181e+000	 4.248948540805665e+000	 9.968696210259910e+000
 2.158287724357238e+000	 4.272457286930998e+000	 9.941546171489316e+000
 2.112196434416588e+000	 4.295430530815842e+000	 9.914281317482846e+000
 2.065943304827759e+000	 4.317866997021875e+000	 9.886571948541713e+000
 2.019537418523855e+000	 4.339765609652385e+000	 9.858105292839070e+000
 1.972987846051518e+000	 4.361125491190895e+000	 9.829243813553797e+000
 1.926303640341893e+000	 4.381945961177230e+000	 9.802289814524251e+000
 1.879493831556171e+000	 4.402226534724702e+000	 9.776560664972161e+000
 2.353894504277207e+000	 4.198486876043154e+000	 1.005310007044730e+001
 2.308288783654709e+000	 4.223732340049086e+000	 1.002478328565847e+001
 2.262483770475299e+000	 4.248444379026887e+000	 9.997433362326706e+000
 2.216488594217080e+000	 4.272621103152047e+000	 9.970685379186270e+000
 2.170312393570410e+000	 4.296260825741617e+000	 9.944202889843202e+000
 2.123964310937664e+000	 4.319362062597204e+000	 9.917674193163514e+000
 2.077453486984452e+000	 4.341923531174544e+000	 9.890808667243828e+000
 2.030789055248471e+000	 4.363944149582699e+000	 9.863333194005158e+000
 1.983980136811944e+000	 4.385423035416231e+000	 9.835192808799988e+000
 1.937035835043453e+000	 4.406359504423866e+000	 9.808438413571251e+000
 1.889965230414765e+000	 4.426753069017446e+000	 9.782893108670979e+000
 2.366936278830408e+000	 4.221748631918484e+000	 1.005391214742128e+001
 2.321077879285621e+000	 4.247133968654143e+000	 1.002622027089530e+001
 2.275019083001671e+000	 4.271982924915197e+000	 9.999381444063188e+000
 2.228769070038613e+000	 4.296293600406571e+000	 9.973077200333208e+000
 2.182337029719799e+000	 4.320064299100254e+000	 9.947018789747494e+000
 2.135732155101160e+000	 4.343293528574663e+000	 9.920943232396670e+000
 2.088963637492247e+000	 4.365979999179607e+000	 9.894609441339689e+000
 2.042040661035200e+000	 4.388122623029947e+000	 9.867794443322687e+000
 1.994972397347677e+000	 4.409720512831290e+000	 9.840307213739052e+000
 1.947768000235553e+000	 4.430772980541284e+000	 9.813628224113806e+000
 1.900436600481028e+000	 4.451279535870308e+000	 9.788170311317805e+000
 2.379977994700152e+000	 4.245010283123538e+000	 1.005564934930655e+001
 2.333866917370094e+000	 4.270535491959619e+000	 1.002852343388127e+001
 2.287554339123615e+000	 4.295521364887908e+000	 1.000206953034244e+001
 2.241049490602490e+000	 4.319965991142815e+000	 9.976025690192593e+000
 2.194361611762827e+000	 4.343867665351315e+000	 9.950161028872323e+000
 2.147499946313881e+000	 4.367224886868669e+000	 9.924271537140895e+000
 2.100473736208903e+000	 4.390036358938797e+000	 9.898175968216073e+000
 2.053292216194243e+000	 4.412300987682381e+000	 9.871711830299615e+000
 2.005964608422758e+000	 4.434017880916100e+000	 9.844731512082358e+000
 1.958500117137380e+000	 4.455186346806542e+000	 9.818031800864898e+000
 1.910907923430507e+000	 4.475805892362633e+000	 9.792573293957402e+000
 2.393019629063903e+000	 4.268271788950621e+000	 1.005843083391313e+001
 2.346655875527765e+000	 4.293936869013054e+000	 1.003181586524345e+001
 2.300089516904883e+000	 4.319059657752982e+000	 1.000562784161150e+001
 2.253329834418422e+000	 4.343638233934360e+000	 9.979671256136996e+000
 2.206386118656919e+000	 4.367670882839204e+000	 9.953783116285656e+000
 2.159267663982630e+000	 4.391156095599676e+000	 9.927828488133924e+000
 2.111983762992179e+000	 4.414092568353846e+000	 9.901696122984507e+000
 2.064543701035800e+000	 4.436479201228258e+000	 9.875294197371661e+000
 2.016956750801223e+000	 4.458315097150689e+000	 9.848546195372432e+000
 1.969232166968115e+000	 4.479599560496697e+000	 9.821819403945883e+000
 1.921379180938751e+000	 4.500332095573771e+000	 9.796281231329157e+000
 2.406061159099123e+000	 4.291533108692034e+000	 1.006236210475675e+001
 2.359444731378276e+000	 4.317338058861998e+000	 1.003620707968396e+001
 2.312624594409227e+000	 4.342597762318389e+000	 1.001017305490690e+001
 2.265610079996117e+000	 4.367310287354787e+000	 9.984140753376259e+000
 2.218410529359499e+000	 4.391473909908328e+000	 9.958024963479312e+000
 2.171035287514209e+000	 4.415087112888133e+000	 9.931769791077670e+000
 2.123493697699832e+000	 4.438148585326483e+000	 9.905344000830551e+000
 2.075795095870068e+000	 4.460657221355827e+000	 9.878736479336380e+000
 2.027948805247112e+000	 4.482612119015087e+000	 9.851951850408323e+000
 1.979964130946946e+000	 4.504012578888808e+000	 9.825158342831175e+000
 1.931850354681307e+000	 4.524858102583068e+000	 9.799470826113655e+000
 2.419102561983274e+000	 4.314794201640082e+000	 1.006753509845479e+001
 2.372233462541266e+000	 4.340739020553997e+000	 1.004179309377961e+001
 2.325159549700400e+000	 4.366135637392092e+000	 1.001580837335069e+001
 2.277890205845287e+000	 4.390982109977675e+000	 9.989547547362239e+000
 2.230434822827990e+000	 4.415276704903087e+000	 9.963012940814528e+000
 2.182802796315422e+000	 4.439017896854491e+000	 9.936237528175623e+000
 2.135003520189621e+000	 4.462204367758440e+000	 9.909279964612718e+000
 2.087046381007252e+000	 4.484835005753348e+000	 9.882219747901557e+000
 2.038940752524462e+000	 4.506908903989322e+000	 9.855152542807529e+000
 1.990695990293054e+000	 4.528425359259935e+000	 9.828212324723710e+000
 1.942321426333725e+000	 4.549383870469874e+000	 9.802315687371481e+000
 2.432143814893819e+000	 4.338055027087065e+000	 1.007402827720669e+001
 2.385022046636375e+000	 4.364139713136595e+000	 1.004865650896866e+001
 2.337694360842154e+000	 4.389673241782057e+000	 1.002262360088988e+001
 2.290170190475642e+000	 4.414653660376604e+000	 9.995991581450246e+000
 2.242458978019817e+000	 4.439079226167888e+000	 9.968859939197046e+000
 2.194570169793072e+000	 4.462948405619200e+000	 9.941360214835406e+000
 2.146513210319304e+000	 4.486259873551445e+000	 9.913650697527906e+000
 2.098297536757549e+000	 4.509012512109074e+000	 9.885911261170529e+000
 2.049932573397312e+000	 4.531205409553420e+000	 9.858338373995373e+000
 2.001427726225625e+000	 4.552837858887132e+000	 9.831140312203303e+000
 1.952792377571551e+000	 4.573909356313535e+000	 9.804985713059070e+000
 2.445184895008223e+000	 4.361315544325288e+000	 1.008190672617940e+001
 2.397810461283245e+000	 4.387540095657339e+000	 1.005686659954209e+001
 2.350229005898243e+000	 4.413210534296250e+000	 1.003069522209532e+001
 2.302450012396893e+000	 4.438324897125159e+000	 1.000355944963306e+001
 2.254482973892404e+000	 4.462881432047135e+000	 9.975665436799142e+000
 2.206337387353962e+000	 4.486878597302711e+000	 9.947252861356645e+000
 2.158022747946641e+000	 4.510315060607234e+000	 9.918589260667783e+000
 2.109548543431158e+000	 4.533189698111257e+000	 9.889964517893894e+000
 2.060924248629702e+000	 4.555501593187414e+000	 9.861685532903090e+000
 2.012159319963842e+000	 4.577250035047464e+000	 9.834071110110234e+000
 1.963263190070333e+000	 4.598434517193399e+000	 9.807646476513561e+000
 1.858551020759794e+000	 4.353173435502171e+000	 9.760000523552845e+000
 1.812140533433458e+000	 4.372696747465477e+000	 9.733941599826682e+000
 1.765623585772689e+000	 4.391685636628613e+000	 9.707936117854752e+000
 1.719009016112671e+000	 4.410140196866270e+000	 9.681923248882944e+000
 1.672305620595791e+000	 4.428060708201621e+000	 9.655900191882562e+000
 1.625522148514562e+000	 4.445447634610877e+000	 9.629918254955342e+000
 1.578667297757052e+000	 4.462301621696777e+000	 9.604078862364498e+000
 1.531749710358706e+000	 4.478623494235841e+000	 9.578529483186376e+000
 1.484777968164294e+000	 4.494414253604442e+000	 9.553459482445247e+000
 1.437760588603412e+000	 4.509675075088746e+000	 9.529095900329542e+000
 1.390706020582741e+000	 4.524407305083716e+000	 9.505699169636568e+000
 1.869022422229697e+000	 4.377699975912726e+000	 9.768990742937739e+000
 1.822350450101617e+000	 4.397333285629620e+000	 9.743350914985367e+000
 1.775571417823013e+000	 4.416429161514879e+000	 9.717822769172775e+000
 1.728694213525793e+000	 4.434987697972089e+000	 9.692314773767865e+000
 1.681727682911335e+000	 4.453009176602113e+000	 9.666790133165252e+000
 1.634680624567193e+000	 4.470494063995282e+000	 9.641263013503075e+000
 1.587561785386847e+000	 4.487443009391756e+000	 9.615794676451898e+000
 1.540379856096477e+000	 4.503856842214985e+000	 9.590489516301782e+000
 1.493143466892459e+000	 4.519736569483269e+000	 9.565491000636394e+000
 1.445861183193071e+000	 4.535083373104527e+000	 9.540977519909848e+000
 1.398541501507601e+000	 4.549898607059533e+000	 9.517158156070645e+000
 1.879493831556171e+000	 4.402226534724702e+000	 9.776560664972161e+000
 1.832560374430207e+000	 4.421969842277712e+000	 9.751241307896784e+000
 1.785519257337162e+000	 4.441172704965379e+000	 9.726091093696230e+000
 1.738379418205698e+000	 4.459835217720181e+000	 9.700994962906179e+000
 1.691149752296235e+000	 4.477957663720667e+000	 9.675889972261286e+000
 1.643839107491402e+000	 4.495540512171281e+000	 9.650761651069397e+000
 1.596456279690133e+000	 4.512584415949611e+000	 9.625640246308599e+000
 1.549010008309379e+000	 4.529090209126037e+000	 9.600596850733451e+000
 1.501508971897163e+000	 4.545058904360770e+000	 9.575739413747526e+000
 1.453961783860480e+000	 4.560491690183496e+000	 9.551208640127692e+000
 1.406376988311272e+000	 4.575389928160809e+000	 9.527173786807275e+000
 1.889965230414765e+000	 4.426753069017446e+000	 9.782893108670979e+000
 1.842770288552342e+000	 4.446606374296625e+000	 9.757808664865156e+000
 1.795467086906851e+000	 4.465916223679772e+000	 9.732959233827144e+000
 1.748064613203671e+000	 4.484682712628255e+000	 9.708213249913527e+000
 1.700571812262212e+000	 4.502906125898311e+000	 9.683489313112547e+000
 1.652997581260137e+000	 4.520586935308484e+000	 9.658752663282218e+000
 1.605350765101788e+000	 4.537725797373788e+000	 9.634011521626281e+000
 1.557640151894845e+000	 4.554323550811518e+000	 9.609313292882243e+000
 1.509874468538930e+000	 4.570381213923803e+000	 9.584740627487253e+000
 1.462062376429717e+000	 4.585899981862074e+000	 9.560407348629790e+000
 1.414212467281752e+000	 4.600881223778737e+000	 9.536454254520747e+000
 1.900436600481028e+000	 4.451279535870308e+000	 9.788170311317805e+000
 1.852980174601130e+000	 4.471242838573231e+000	 9.763248558398072e+000
 1.805414889123797e+000	 4.490659674357718e+000	 9.738645079673326e+000
 1.757749781570993e+000	 4.509530139214029e+000	 9.714218670836896e+000
 1.709993846320988e+000	 4.527854519476076e+000	 9.689877010010441e+000
 1.662156029846346e+000	 4.545633289576499e+000	 9.665573237517576e+000
 1.614245226056694e+000	 4.562867109667729e+000	 9.641302379333048e+000
 1.566270271750308e+000	 4.579556823113962e+000	 9.617097606895808e+000
 1.518239942178288e+000	 4.595703453859223e+000	 9.593026332100315e+000
 1.470162946724856e+000	 4.611308203676677e+000	 9.569186142247812e+000
 1.422047924707039e+000	 4.626372449304512e+000	 9.545700585482130e+000
 1.910907923430507e+000	 4.475805892362633e+000	 9.792573293957402e+000
 1.863190014709682e+000	 4.495879191994394e+000	 9.767755646295141e+000
 1.815362646579719e+000	 4.515403013698873e+000	 9.743365706796402e+000
 1.767434906358945e+000	 4.534377453995209e+000	 9.719259345518239e+000
 1.719415837984281e+000	 4.552802800794987e+000	 9.695340697421905e+000
 1.671314437222977e+000	 4.570679531144937e+000	 9.671558835922999e+000
 1.623139646989730e+000	 4.588008308834882e+000	 9.647904264434862e+000
 1.574900352773204e+000	 4.604789981875901e+000	 9.624405217832992e+000
 1.526605378175763e+000	 4.621025579853892e+000	 9.601123772241575e+000
 1.478263480569972e+000	 4.636716311163720e+000	 9.578151767849336e+000
 1.429883346875132e+000	 4.651863560129327e+000	 9.555606555533352e+000
 1.921379180938751e+000	 4.500332095573771e+000	 9.796281231329157e+000
 1.873399791011110e+000	 4.520515391446992e+000	 9.771523074827540e+000
 1.825310341866332e+000	 4.540146198402895e+000	 9.747336817528041e+000
 1.777119970618810e+000	 4.559224613489509e+000	 9.723581961833284e+000
 1.728837770763811e+000	 4.577750926196077e+000	 9.700166321829567e+000
 1.680472787362977e+000	 4.595725616183406e+000	 9.677042779428401e+000
 1.632034012335777e+000	 4.613149350878687e+000	 9.654205830655224e+000
 1.583530379860965e+000	 4.630022982939862e+000	 9.631687913276753e+000
 1.534970761891882e+000	 4.646347547594663e+000	 9.609555513791770e+000
 1.486363963789141e+000	 4.662124259859619e+000	 9.587905058469140e+000
 1.437718720074029e+000	 4.677354511644375e+000	 9.566542839034023e+000
 1.931850354681307e+000	 4.524858102583068e+000	 9.799470826113655e+000
 1.883609485638523e+000	 4.545151393817890e+000	 9.774741885891475e+000
 1.835257957575353e+000	 4.564889185169442e+000	 9.750772185754636e+000
 1.786804957401869e+000	 4.584071574214638e+000	 9.727431262729503e+000
 1.738259628171301e+000	 4.602698852020377e+000	 9.704637675540250e+000
 1.689631064239296e+000	 4.620771500861515e+000	 9.682355832735260e+000
 1.640928306529714e+000	 4.638290191802595e+000	 9.660592580906227e+000
 1.592160337911028e+000	 4.655255782148380e+000	 9.639393543477537e+000
 1.543336078687171e+000	 4.671669312768398e+000	 9.618778683729319e+000
 1.494464382206437e+000	 4.687532005300789e+000	 9.597886710135629e+000
 1.445554030591727e+000	 4.702845259240850e+000	 9.576368235168340e+000
 1.942321426333725e+000	 4.549383870469874e+000	 9.802315687371481e+000
 1.893819080725033e+000	 4.569787155993959e+000	 9.777600428024590e+000
 1.845205476298500e+000	 4.589631930698174e+000	 9.753883105076135e+000
 1.796489849759405e+000	 4.608918292688313e+000	 9.731049535991653e+000
 1.747681393718468e+000	 4.627646534608914e+000	 9.709035932418837e+000
 1.698789251824879e+000	 4.645817141348874e+000	 9.687825790275863e+000
 1.649822514006423e+000	 4.663430787610048e+000	 9.667446507623506e+000
 1.600790211820825e+000	 4.680488335343983e+000	 9.647518564274566e+000
 1.551701313922157e+000	 4.696990831061952e+000	 9.627149816949824e+000
 1.502564721645936e+000	 4.712939503023649e+000	 9.606249982197344e+000
 1.453389264716227e+000	 4.728335758309949e+000	 9.584769580990127e+000
 1.952792377571551e+000	 4.573909356313535e+000	 9.804985713059070e+000
 1.904028558403749e+000	 4.594422634862072e+000	 9.780283771180358e+000
 1.855152880627489e+000	 4.614374391688747e+000	 9.756877840249874e+000
 1.806174630742698e+000	 4.633764725428240e+000	 9.734676106667466e+000
 1.757103050917035e+000	 4.652593930302718e+000	 9.713639185507743e+000
 1.707947334092676e+000	 4.670862493815091e+000	 9.693740853962845e+000
 1.658716619200784e+000	 4.688571094304492e+000	 9.674064088178090e+000
 1.609419986487791e+000	 4.705720598369203e+000	 9.654120181639673e+000
 1.560066452957367e+000	 4.722312058162185e+000	 9.633831894621750e+000
 1.510664967931713e+000	 4.738346708564613e+000	 9.613144644621581e+000
 1.461224408735526e+000	 4.753825964242861e+000	 9.592022287127014e+000
 1.963263190070333e+000	 4.598434517193399e+000	 9.807646476513561e+000
 1.914237900807783e+000	 4.619057787309098e+000	 9.782973125161362e+000
 1.865100153154037e+000	 4.639116524840821e+000	 9.759961081835060e+000
 1.815859283403032e+000	 4.658610828952133e+000	 9.738546832089758e+000
 1.766524583278722e+000	 4.677540995442822e+000	 9.718485180272818e+000
 1.717105295015633e+000	 4.695907514429774e+000	 9.698672897436921e+000
 1.667610606547676e+000	 4.713711067889371e+000	 9.678867983701768e+000
 1.618049646809361e+000	 4.730952527066571e+000	 9.658984286876933e+000
 1.568431481153328e+000	 4.747632949755955e+000	 9.638964287335872e+000
 1.518765106887843e+000	 4.763753577460099e+000	 9.618774374644136e+000
 1.469059448937622e+000	 4.779315832430783e+000	 9.598400665018755e+000
 1.390706020582741e+000	 4.524407305083716e+000	 9.505699169636568e+000
 1.343622639825983e+000	 4.538612457056611e+000	 9.482344626739902e+000
 1.296518743060277e+000	 4.552292205158869e+000	 9.458379560963424e+000
 1.249402546410590e+000	 4.565448384531957e+000	 9.434086623215816e+000
 1.202282182474618e+000	 4.578082989255348e+000	 9.409615363744312e+000
 1.155165696837305e+000	 4.590198169078671e+000	 9.385233977517620e+000
 1.108061044715827e+000	 4.601796226075082e+000	 9.361311474043173e+000
 1.060976087736485e+000	 4.612879611221273e+000	 9.338299028923702e+000
 1.013918590844765e+000	 4.623450920909603e+000	 9.316712542530032e+000
 9.668962193495460e-001	 4.633512893397808e+000	 9.297116498807283e+000
 9.199165361022298e-001	 4.643068405201682e+000	 9.280107487785335e+000
 1.398541501507601e+000	 4.549898607059533e+000	 9.517158156070645e+000
 1.351192844750042e+000	 4.564183793342687e+000	 9.493146866694026e+000
 1.303823556392736e+000	 4.577940615537889e+000	 9.468412782836820e+000
 1.256441898851737e+000	 4.591170919126120e+000	 9.443467483958667e+000
 1.209056050545213e+000	 4.603876709421853e+000	 9.418503979963154e+000
 1.161674102388337e+000	 4.616060148286783e+000	 9.393816356528383e+000
 1.114304054419368e+000	 4.627723550764355e+000	 9.369802550891574e+000
 1.066953812558383e+000	 4.638869381640499e+000	 9.346946324752699e+000
 1.019631185499925e+000	 4.649500251936108e+000	 9.325800336344210e+000
 9.723438817405614e-001	 4.659618915336745e+000	 9.306970376037508e+000
 9.250995067421181e-001	 4.669228264565003e+000	 9.291061552271692e+000
 1.406376988311272e+000	 4.575389928160809e+000	 9.527173786807275e+000
 1.358763055353852e+000	 4.589755148814241e+000	 9.502838112851414e+000
 1.311128375205806e+000	 4.603589045160168e+000	 9.477786776626545e+000
 1.263481256574304e+000	 4.616893473019093e+000	 9.452748741624333e+000
 1.215829923698024e+000	 4.629670448940495e+000	 9.427980465864778e+000
 1.168182512822401e+000	 4.641922146898160e+000	 9.403788179530377e+000
 1.120547068806810e+000	 4.653650894905825e+000	 9.380584465310387e+000
 1.072931541865138e+000	 4.664859171558672e+000	 9.358870952510989e+000
 1.025343784441015e+000	 4.675549602506140e+000	 9.338835041106862e+000
 9.777915482187310e-001	 4.685724956861635e+000	 9.320308801781573e+000
 9.302824812705675e-001	 4.695388143554560e+000	 9.303800403857931e+000
 1.414212467281752e+000	 4.600881223778737e+000	 9.536454254520747e+000
 1.366333258389628e+000	 4.615326478722449e+000	 9.512211874959489e+000
 1.318433186716127e+000	 4.629237449142049e+000	 9.487381325186862e+000
 1.270520607259488e+000	 4.642616001197559e+000	 9.462861237353677e+000
 1.222603790078848e+000	 4.655464162673450e+000	 9.439004251805120e+000
 1.174690916749863e+000	 4.667784119655579e+000	 9.416110216144199e+000
 1.126790076952974e+000	 4.679578213127977e+000	 9.393908265855647e+000
 1.078909265195828e+000	 4.690848935495056e+000	 9.372303560799324e+000
 1.031056377671105e+000	 4.701598927034792e+000	 9.351715062880899e+000
 9.832392092507666e-001	 4.711830972288416e+000	 9.332616726469826e+000
 9.354654506175086e-001	 4.721547996392132e+000	 9.315523724100110e+000
 1.422047924707039e+000	 4.626372449304512e+000	 9.545700585482130e+000
 1.373903440609585e+000	 4.640897738318490e+000	 9.522052999390089e+000
 1.325737978140341e+000	 4.654885782599885e+000	 9.498066123419934e+000
 1.277559938588484e+000	 4.668338458648202e+000	 9.474719841361964e+000
 1.229377637833484e+000	 4.681257805482884e+000	 9.451761434158833e+000
 1.181199302781087e+000	 4.693646021301823e+000	 9.428891662469104e+000
 1.133033067932675e+000	 4.705505460059300e+000	 9.406341850913442e+000
 1.084886972089533e+000	 4.716838627968924e+000	 9.384430000026054e+000
 1.036768955193263e+000	 4.727648179937164e+000	 9.363545557016238e+000
 9.886868553033802e-001	 4.737936915933037e+000	 9.344135523579217e+000
 9.406484057128736e-001	 4.747707777299493e+000	 9.326690826795803e+000
 1.429883346875132e+000	 4.651863560129327e+000	 9.555606555533352e+000
 1.381473588765937e+000	 4.666468882853536e+000	 9.533137656681397e+000
 1.333042736695088e+000	 4.680534000650019e+000	 9.510092374098935e+000
 1.284599238242489e+000	 4.694060800357713e+000	 9.486688070658614e+000
 1.236151455107730e+000	 4.707051332230971e+000	 9.463423561377665e+000
 1.187707659526437e+000	 4.719507806579669e+000	 9.440380198938534e+000
 1.139276030820732e+000	 4.731432590328278e+000	 9.417743719143859e+000
 1.090864652085331e+000	 4.742828203499541e+000	 9.395787802625888e+000
 1.042481507010558e+000	 4.753697315628349e+000	 9.374858890108431e+000
 9.941344768432837e-001	 4.764042742111435e+000	 9.355362367665565e+000
 9.458313374865938e-001	 4.773867440498423e+000	 9.337749134951867e+000
 1.437718720074029e+000	 4.677354511644375e+000	 9.566542839034023e+000
 1.389043689610899e+000	 4.692039867578768e+000	 9.544293612242583e+000
 1.340347449597012e+000	 4.706182058408798e+000	 9.521004235201925e+000
 1.291638493902698e+000	 4.719782981312770e+000	 9.497366998951929e+000
 1.242925230047382e+000	 4.732844697779878e+000	 9.474057512918398e+000
 1.194215975596279e+000	 4.745369430231895e+000	 9.451111679365145e+000
 1.145518954691962e+000	 4.757359558563401e+000	 9.428658858669420e+000
 1.096842294722300e+000	 4.768817616606178e+000	 9.406916340355563e+000
 1.048194023126059e+000	 4.779746288523452e+000	 9.386174256726545e+000
 9.995820643371887e-001	 4.790148405139557e+000	 9.366781904177630e+000
 9.510142368686004e-001	 4.800026940210696e+000	 9.349134561947720e+000
 1.445554030591727e+000	 4.702845259240850e+000	 9.576368235168340e+000
 1.396613729896686e+000	 4.717610647745360e+000	 9.553998457217901e+000
 1.347652104062751e+000	 4.731829910992570e+000	 9.530767046780811e+000
 1.298677693250309e+000	 4.745504956500064e+000	 9.507219240047135e+000
 1.249698950798238e+000	 4.758637856991777e+000	 9.484163773731151e+000
 1.200724239600977e+000	 4.771230847001283e+000	 9.461609725598569e+000
 1.151761828621185e+000	 4.783286319393155e+000	 9.439619480642294e+000
 1.102819889539521e+000	 4.794806821808105e+000	 9.418342051273269e+000
 1.053906493542834e+000	 4.805795053037559e+000	 9.397998143281725e+000
 1.005029608251807e+000	 4.816253859333343e+000	 9.378866671726186e+000
 9.561970947888254e-001	 4.826186230658090e+000	 9.361271884370959e+000
 1.453389264716227e+000	 4.728335758309949e+000	 9.584769580990127e+000
 1.404183696375512e+000	 4.743181178604490e+000	 9.562597252176168e+000
 1.354956687308949e+000	 4.757477513517681e+000	 9.539778777467936e+000
 1.305716823966516e+000	 4.771226680906276e+000	 9.516697991184158e+000
 1.256472605506095e+000	 4.784430764728838e+000	 9.494232073931537e+000
 1.207232440150895e+000	 4.797092011630609e+000	 9.472386256819156e+000
 1.158004641683217e+000	 4.809212827446026e+000	 9.451145531341531e+000
 1.108797426076070e+000	 4.820795773624587e+000	 9.430578926646399e+000
 1.059618908263954e+000	 4.831843563585775e+000	 9.410824781894510e+000
 1.010477099053851e+000	 4.842359059008735e+000	 9.392077385722699e+000
 9.613799021772006e-001	 4.852345266062382e+000	 9.374575106831772e+000
 1.461224408735526e+000	 4.753825964242861e+000	 9.592022287127014e+000
 1.411753575799593e+000	 4.768751415407335e+000	 9.570432763662421e+000
 1.362261186552246e+000	 4.783124821100481e+000	 9.548433868785184e+000
 1.312755873732517e+000	 4.796948109518096e+000	 9.526247562643203e+000
 1.263246182316751e+000	 4.810223375853232e+000	 9.504741917017471e+000
 1.213740565856399e+000	 4.822952878862654e+000	 9.483942008390429e+000
 1.164247382952877e+000	 4.835139037350503e+000	 9.463745193816331e+000
 1.114774893871027e+000	 4.846784426574896e+000	 9.444128987674947e+000
 1.065331257292487e+000	 4.857891774583192e+000	 9.425136594625009e+000
 1.015924527210032e+000	 4.868463958481681e+000	 9.406863871636380e+000
 9.665626499636570e-001	 4.878504000645348e+000	 9.389447819049597e+000
 1.469059448937622e+000	 4.779315832430783e+000	 9.598400665018755e+000
 1.419323354921142e+000	 4.794321313405072e+000	 9.577845313573143e+000
 1.369565589009284e+000	 4.808771788857317e+000	 9.557123276764200e+000
 1.319794830229506e+000	 4.822669197322210e+000	 9.536303898134001e+000
 1.270019669376002e+000	 4.836015645227129e+000	 9.516163098303872e+000
 1.220248605327853e+000	 4.848813403440197e+000	 9.496767040643348e+000
 1.170490041504983e+000	 4.861064903735073e+000	 9.477915379450739e+000
 1.120752282463471e+000	 4.872772735178299e+000	 9.459482752397557e+000
 1.071043530631502e+000	 4.883939640444909e+000	 9.441404628414412e+000
 1.021371883187062e+000	 4.894568512068119e+000	 9.423664649702593e+000
 9.717453290781267e-001	 4.904662388628768e+000	 9.406283545492425e+000
 9.199165361022298e-001	 4.643068405201682e+000	 9.280107487785335e+000
 8.729940319637027e-001	 4.652119147953820e+000	 9.267221939458727e+000
 8.261289947556902e-001	 4.660669736692415e+000	 9.259109801071402e+000
 7.793286506718555e-001	 4.668723442970103e+000	 9.255018843434849e+000
 7.326001138313993e-001	 4.676283661565610e+000	 9.253510874303585e+000
 6.859503841394172e-001	 4.683353906675524e+000	 9.253462800583474e+000
 6.393863452817451e-001	 4.689937808080498e+000	 9.253140379908107e+000
 5.929147628536142e-001	 4.696039107290805e+000	 9.248994869352638e+000
 5.465422826212100e-001	 4.701661653676148e+000	 9.241825946811325e+000
 5.002754289150642e-001	 4.706809400584463e+000	 9.232651808482620e+000
 4.541206031540580e-001	 4.711486401454395e+000	 9.222262601004298e+000
 9.250995067421181e-001	 4.669228264565003e+000	 9.291061552271692e+000
 8.779126330095246e-001	 4.678330000784435e+000	 9.278751567136379e+000
 8.307835499861411e-001	 4.686928765035168e+000	 9.270226904511519e+000
 7.837195245792673e-001	 4.695027847302340e+000	 9.264733822013328e+000
 7.367277109902933e-001	 4.702630661491456e+000	 9.261501687941571e+000
 6.898151485630014e-001	 4.709740741598712e+000	 9.259736077695310e+000
 6.429887597671163e-001	 4.716361737855575e+000	 9.257987023276193e+000
 5.962553483164127e-001	 4.722497412852645e+000	 9.252567911229148e+000
 5.496215974204833e-001	 4.728151637647651e+000	 9.243956470635933e+000
 5.030940681690768e-001	 4.733328387862385e+000	 9.233051271890572e+000
 4.566791980477861e-001	 4.738031739773277e+000	 9.220525791140291e+000
 9.302824812705675e-001	 4.695388143554560e+000	 9.303800403857931e+000
 8.828312377455568e-001	 4.704540873279440e+000	 9.290452353513526e+000
 8.354381087086966e-001	 4.713187813078358e+000	 9.280594410327227e+000
 7.881104017809549e-001	 4.721332271368976e+000	 9.273550541122432e+000
 7.408553112459415e-001	 4.728977681183592e+000	 9.268627098779389e+000
 6.936799158861571e-001	 4.736127596318021e+000	 9.265106077334451e+000
 6.465911769552424e-001	 4.742785687454572e+000	 9.261797815508590e+000
 5.995959362855475e-001	 4.748955738264196e+000	 9.254994438000407e+000
 5.527009145300994e-001	 4.754641641492657e+000	 9.244840679462975e+000
 5.059127095378927e-001	 4.759847395035628e+000	 9.232127539399357e+000
 4.592377948612595e-001	 4.764577098007342e+000	 9.217424562243604e+000
 9.354654506175086e-001	 4.721547996392132e+000	 9.315523724100110e+000
 8.877498375643833e-001	 4.730751719571418e+000	 9.301365794998185e+000
 8.400926627780257e-001	 4.739446834870297e+000	 9.290319383152825e+000
 7.925012745930328e-001	 4.747636669138935e+000	 9.281792042972473e+000
 7.449829073751970e-001	 4.755324674536412e+000	 9.275173282033160e+000
 6.975446793456980e-001	 4.762514424658146e+000	 9.269827971932962e+000
 6.501935905420585e-001	 4.769209610637268e+000	 9.264800716378078e+000
 6.029365209151658e-001	 4.775414037225054e+000	 9.256471550893357e+000
 5.557802285614469e-001	 4.781131618855300e+000	 9.244647857332762e+000
 5.087313480891073e-001	 4.786366375697530e+000	 9.230025256474558e+000
 4.617963891171836e-001	 4.791122429703765e+000	 9.213082250811121e+000
 9.406484057128736e-001	 4.747707777299493e+000	 9.326690826795803e+000
 8.926684238585888e-001	 4.756962493792949e+000	 9.311896361745026e+000
 8.447472040487972e-001	 4.765705784459295e+000	 9.299758029508576e+000
 7.968921353316149e-001	 4.773940994581146e+000	 9.289772591071971e+000
 7.491104921549106e-001	 4.781671595444320e+000	 9.281418608740168e+000
 7.014094321784385e-001	 4.788901180443780e+000	 9.274150010775751e+000
 6.537959942234994e-001	 4.795633461163435e+000	 9.267218876422287e+000
 6.062770963594154e-001	 4.801872263434825e+000	 9.257192855435402e+000
 5.588595341259153e-001	 4.807621523379716e+000	 9.243544857256623e+000
 5.115499788903155e-001	 4.812885283441428e+000	 9.226887466317079e+000
 4.643549763382629e-001	 4.817667688409712e+000	 9.207621197267072e+000
 9.458313374865938e-001	 4.773867440498423e+000	 9.337749134951867e+000
 8.975869880207580e-001	 4.783173150076617e+000	 9.322437845203545e+000
 8.494017243756786e-001	 4.791964615893654e+000	 9.309256995356236e+000
 8.012829763128150e-001	 4.800245201664534e+000	 9.297797914385372e+000
 7.532380583619339e-001	 4.808018397801716e+000	 9.287633850953180e+000
 7.052741676211933e-001	 4.815287817499627e+000	 9.278313690825737e+000
 6.573983816954993e-001	 4.822057192792849e+000	 9.269270630891786e+000
 6.096176567724443e-001	 4.828330370593107e+000	 9.257348453941559e+000
 5.619388258348925e-001	 4.834111308710037e+000	 9.241696093925011e+000
 5.143685970091130e-001	 4.839404071860662e+000	 9.222855604443826e+000
 4.669135520472021e-001	 4.844212827672349e+000	 9.201162744038841e+000
 9.510142368686004e-001	 4.800026940210696e+000	 9.349134561947720e+000
 9.025055214434751e-001	 4.809383642555000e+000	 9.333373687117874e+000
 8.540562156133398e-001	 4.818223283221690e+000	 9.319153647750527e+000
 8.056737898527467e-001	 4.826549244358027e+000	 9.306165446340819e+000
 7.573655987731195e-001	 4.834365035503001e+000	 9.294082382694986e+000
 7.091388789107757e-001	 4.841674289650374e+000	 9.282553924097121e+000
 6.610007466539928e-001	 4.848480759285287e+000	 9.271169490880139e+000
 6.129581963083997e-001	 4.854788312399506e+000	 9.257124935714655e+000
 5.650180982997681e-001	 4.860600928490404e+000	 9.239263534554251e+000
 5.171871975130945e-001	 4.865922694548567e+000	 9.218069491730415e+000
 4.694721117667061e-001	 4.870757801038844e+000	 9.193827232319469e+000
 9.561970947888254e-001	 4.826186230658090e+000	 9.361271884370959e+000
 9.074240155193247e-001	 4.835593925360678e+000	 9.345077301448901e+000
 8.587106696164484e-001	 4.844481740491709e+000	 9.329776350534957e+000
 8.100645682675248e-001	 4.852853076630551e+000	 9.315164558880190e+000
 7.614931061653182e-001	 4.860711462442573e+000	 9.301020376831900e+000
 7.130035592839998e-001	 4.868060550720722e+000	 9.287099201706408e+000
 6.646030827949145e-001	 4.874904114400521e+000	 9.273124131750015e+000
 6.162987091214293e-001	 4.881246042553617e+000	 9.256705365050740e+000
 5.680973461319310e-001	 4.887090336364951e+000	 9.236406687946463e+000
 5.200057754698557e-001	 4.892441105098486e+000	 9.212667325976920e+000
 4.720306510194796e-001	 4.897302562056369e+000	 9.185733997568340e+000
 9.613799021772006e-001	 4.852345266062382e+000	 9.374575106831772e+000
 9.123424616408911e-001	 4.861803952626235e+000	 9.357912389479553e+000
 8.633650782396735e-001	 4.870739941752015e+000	 9.341444734302135e+000
 8.144553038732627e-001	 4.879156652451032e+000	 9.325076791734867e+000
 7.656205733153824e-001	 4.887057632514837e+000	 9.308696998017723e+000
 7.168682019776804e-001	 4.894446554535365e+000	 9.292171754725221e+000
 6.682053838141991e-001	 4.901327211898328e+000	 9.275340307880889e+000
 6.196391893656806e-001	 4.907703514755047e+000	 9.256269267138197e+000
 5.711765639427697e-001	 4.913579485977811e+000	 9.233282591834216e+000
 5.228243259469914e-001	 4.918959257103752e+000	 9.206785672055402e+000
 4.745891653282275e-001	 4.923847064272092e+000	 9.177001363799416e+000
 9.665626499636570e-001	 4.878504000645348e+000	 9.389447819049597e+000
 9.172608512007585e-001	 4.888013678484246e+000	 9.372233248352950e+000
 8.680194333376832e-001	 4.896997841050921e+000	 9.354469960829167e+000
 8.188459889860744e-001	 4.905459925788397e+000	 9.336176077103302e+000
 7.697479930001633e-001	 4.913403499614190e+000	 9.317354591853343e+000
 7.207328002286312e-001	 4.920832254918998e+000	 9.297987711953551e+000
 6.718076434077814e-001	 4.927750005538484e+000	 9.278031920412690e+000
 6.229796311953014e-001	 4.934160682703395e+000	 9.255992611935511e+000
 5.742557463436729e-001	 4.940068330973121e+000	 9.230045798578711e+000
 5.256428440120972e-001	 4.945477104157705e+000	 9.200559450695350e+000
 4.771476502156546e-001	 4.950391261233177e+000	 9.167746636704544e+000
 9.717453290781267e-001	 4.904662388628768e+000	 9.406283545492425e+000
 9.221791755915123e-001	 4.914223057067299e+000	 9.388385073282365e+000
 8.726737267651468e-001	 4.923255392436735e+000	 9.369154982189428e+000
 8.232366159220739e-001	 4.931762850611570e+000	 9.348728959898059e+000
 7.738753579965130e-001	 4.939749017635035e+000	 9.327228870400866e+000
 7.245973472736665e-001	 4.947217605696317e+000	 9.304757254726709e+000
 6.754098552715956e-001	 4.954172449080763e+000	 9.281392584529876e+000
 6.263200287644393e-001	 4.960617500098262e+000	 9.256047796109217e+000
 5.773348879460301e-001	 4.966556824995019e+000	 9.226848359287452e+000
 5.284613247327682e-001	 4.971994599853685e+000	 9.194121925961102e+000
 4.797061012044656e-001	 4.976935106486796e+000	 9.158086095657353e+000
 4.541206031540580e-001	 4.711486401454395e+000	 9.222262601004298e+000
 4.080772015327535e-001	 4.715697402914556e+000	 9.212834668729940e+000
 3.621583901065020e-001	 4.719445912825524e+000	 9.206115024174663e+000
 3.163702891928216e-001	 4.722736264607185e+000	 9.202037685134904e+000
 2.707188886346119e-001	 4.725572876349515e+000	 9.200481322546461e+000
 2.252100469680961e-001	 4.727960246918567e+000	 9.201298887079153e+000
 1.798494907136967e-001	 4.729902952083056e+000	 9.204345352378192e+000
 1.346428137874782e-001	 4.731405640665301e+000	 9.209503802973973e+000
 8.959547703070191e-002	 4.732473030720189e+000	 9.216710082035139e+000
 4.471280785492766e-002	 4.733109905745613e+000	 9.225976200126315e+000
 0.000000000000000e+000	 4.733321110927780e+000	 9.237412691164128e+000
 4.566791980477861e-001	 4.738031739773277e+000	 9.220525791140291e+000
 4.103763798492342e-001	 4.742266466752270e+000	 9.208714023668417e+000
 3.641988538086733e-001	 4.746036096423838e+000	 9.199683298486256e+000
 3.181527747266113e-001	 4.749344986623094e+000	 9.193502955290494e+000
 2.722441661938198e-001	 4.752197580332298e+000	 9.190195522543622e+000
 2.264789197545885e-001	 4.754598401764885e+000	 9.189765052899681e+000
 1.808627941936057e-001	 4.756552052470236e+000	 9.192223581390351e+000
 1.354014149440849e-001	 4.758063207462941e+000	 9.197615946721291e+000
 9.010027361466855e-002	 4.759136611380218e+000	 9.206043202291824e+000
 4.496472763253088e-002	 4.759777074671015e+000	 9.217684828612986e+000
 0.000000000000000e+000	 4.759989469820151e+000	 9.232819942885831e+000
 4.592377948612595e-001	 4.764577098007342e+000	 9.217424562243604e+000
 4.126755598908816e-001	 4.768835550523108e+000	 9.203318337721777e+000
 3.662393190419615e-001	 4.772626299971283e+000	 9.192257233045211e+000
 3.199352615980161e-001	 4.775953728602224e+000	 9.184408342095290e+000
 2.737694448977087e-001	 4.778822304290480e+000	 9.179901235302895e+000
 2.277477934934141e-001	 4.781236576596879e+000	 9.178854980668509e+000
 1.818760984341040e-001	 4.783201172851484e+000	 9.181403292877203e+000
 1.361600166701588e-001	 4.784720794261157e+000	 9.187718063586532e+000
 9.060507057761903e-002	 4.785800212045456e+000	 9.198031511311841e+000
 4.521664759929012e-002	 4.786444263604397e+000	 9.212657173443141e+000
 0.000000000000000e+000	 4.786657848721421e+000	 9.232009946039293e+000
 4.617963891171836e-001	 4.791122429703765e+000	 9.213082250811121e+000
 4.149747376344188e-001	 4.795404607732642e+000	 9.196749679639337e+000
 3.682797822358820e-001	 4.799216476936393e+000	 9.183914984718557e+000
 3.217177466880519e-001	 4.802562443980586e+000	 9.174806502757129e+000
 2.752947220774362e-001	 4.805447001632021e+000	 9.169625085592143e+000
 2.290166659644496e-001	 4.807874724798890e+000	 9.168569780740951e+000
 1.828894016623032e-001	 4.809850266591902e+000	 9.171861644681393e+000
 1.369186176384999e-001	 4.811378354410161e+000	 9.179765955077185e+000
 9.110986703643656e-002	 4.812463786055542e+000	 9.192613072566115e+000
 4.546856731450755e-002	 4.813111425879084e+000	 9.210818185857718e+000
 0.000000000000000e+000	 4.813326200962828e+000	 9.234900155993921e+000
 4.643549763382629e-001	 4.817667688409712e+000	 9.207621197267072e+000
 4.172739090565695e-001	 4.821973591886457e+000	 9.189109595359120e+000
 3.703202398199511e-001	 4.825806580787716e+000	 9.174734604382131e+000
 3.235002268777343e-001	 4.829171086194195e+000	 9.164750343207144e+000
 2.768199950641594e-001	 4.832071625764876e+000	 9.159394234158775e+000
 2.302855349475718e-001	 4.834512799755250e+000	 9.158911314174560e+000
 1.839027021053145e-001	 4.836499287056593e+000	 9.163576682705051e+000
 1.376772165219087e-001	 4.838035841260179e+000	 9.173716366130226e+000
 9.161466210800430e-002	 4.839127286750117e+000	 9.189726861893762e+000
 4.572048633748523e-002	 4.839778514828407e+000	 9.212093607676417e+000
 0.000000000000000e+000	 4.839994479875599e+000	 9.241408601999737e+000
 4.669135520472021e-001	 4.844212827672349e+000	 9.201162744038841e+000
 4.195730701340568e-001	 4.848542456490133e+000	 9.180499109099150e+000
 3.723606882236846e-001	 4.852396564993791e+000	 9.164794038799579e+000
 3.252826990480787e-001	 4.855779608679061e+000	 9.154293019041477e+000
 2.783452611890358e-001	 4.858696130097008e+000	 9.149236376509180e+000
 2.315543982226574e-001	 4.861150754850294e+000	 9.149882188616957e+000
 1.849159979902495e-001	 4.863148187610658e+000	 9.156527333668143e+000
 1.384358119931851e-001	 4.864693208161425e+000	 9.169526974989783e+000
 9.211945490920545e-002	 4.865790667468827e+000	 9.189312755229619e+000
 4.597240422752529e-002	 4.866445483785694e+000	 9.216409958080378e+000
 0.000000000000000e+000	 4.866662638790971e+000	 9.251453874700028e+000
 4.694721117667061e-001	 4.870757801038844e+000	 9.193827232319469e+000
 4.218722168436042e-001	 4.875111155049245e+000	 9.171018723331997e+000
 3.744011238765984e-001	 4.878986383023154e+000	 9.154171131612129e+000
 3.270651600801012e-001	 4.882387964871204e+000	 9.143487935819001e+000
 2.798705177832224e-001	 4.885320468036373e+000	 9.139179741292610e+000
 2.328232535695833e-001	 4.887788543468358e+000	 9.141485754037131e+000
 1.859292875442194e-001	 4.889796921619200e+000	 9.150693397926665e+000
 1.391944027251293e-001	 4.891350408464122e+000	 9.167156383325391e+000
 9.262424455692317e-002	 4.892453881551312e+000	 9.191311516703559e+000
 4.622432054392983e-002	 4.893112286084270e+000	 9.223694520837135e+000
 0.000000000000000e+000	 4.893330631040176e+000	 9.264955114082040e+000
 4.720306510194796e-001	 4.897302562056369e+000	 9.185733997568340e+000
 4.241713451619350e-001	 4.901679641069377e+000	 9.160768417685729e+000
 3.764415432082083e-001	 4.905575988344355e+000	 9.142943623473265e+000
 3.288476068548171e-001	 4.908996108206632e+000	 9.132388748738743e+000
 2.813957621778767e-001	 4.911944592990930e+000	 9.129253088304139e+000
 2.340920987682259e-001	 4.914426118993778e+000	 9.133726098305786e+000
 1.869425689943359e-001	 4.916445442447325e+000	 9.146055542347950e+000
 1.399529873905414e-001	 4.918007395518488e+000	 9.166564106580763e+000
 9.312903016804063e-002	 4.919116882337212e+000	 9.195664787097709e+000
 4.647623484600098e-002	 4.919778875057467e+000	 9.233875331950568e+000
 0.000000000000000e+000	 4.919998409954449e+000	 9.281831997849427e+000
 4.745891653282275e-001	 4.923847064272092e+000	 9.177001363799416e+000
 4.264704510657725e-001	 4.928247868056106e+000	 9.149847646812786e+000
 3.784819426480304e-001	 4.932165334425926e+000	 9.131189151360587e+000
 3.306300362532424e-001	 4.935603992121360e+000	 9.121049361720804e+000
 2.829209917041558e-001	 4.938568458368636e+000	 9.119485706120655e+000
 2.353609315984621e-001	 4.941063434810887e+000	 9.126608042629853e+000
 1.879558405677102e-001	 4.943093703460130e+000	 9.142595293240497e+000
 1.407115646622218e-001	 4.944664122674740e+000	 9.167710564544422e+000
 9.363381085944102e-002	 4.945779623166171e+000	 9.202315072647034e+000
 4.672814669304079e-002	 4.946445204038611e+000	 9.246881167720146e+000
 0.000000000000000e+000	 4.946665928865022e+000	 9.302004730200650e+000
 4.771476502156546e-001	 4.950391261233177e+000	 9.167746636704544e+000
 4.287695305318403e-001	 4.954815789515013e+000	 9.138355337266535e+000
 3.805223186255805e-001	 4.958754374736414e+000	 9.118985247096557e+000
 3.324124451563926e-001	 4.962211570051403e+000	 9.109523925912747e+000
 2.844462036932172e-001	 4.965192017577452e+000	 9.109907409383220e+000
 2.366297498401687e-001	 4.967700444304020e+000	 9.120137136846235e+000
 1.889691004914538e-001	 4.969741658022721e+000	 9.140295029335478e+000
 1.414701332129704e-001	 4.971320543283099e+000	 9.170557072133054e+000
 9.413858574800750e-002	 4.972442057377831e+000	 9.211205734170923e+000
 4.698005564435141e-002	 4.973111226361029e+000	 9.262641533193742e+000
 0.000000000000000e+000	 4.973333141103128e+000	 9.325394030998417e+000
 4.797061012044656e-001	 4.976935106486796e+000	 9.158086095657353e+000
 4.310685795368616e-001	 4.981383358951680e+000	 9.126389883423746e+000
 3.825626675703746e-001	 4.985343062744358e+000	 9.106409335107584e+000
 3.341948304452835e-001	 4.988818795432772e+000	 9.097866837643116e+000
 2.859713954762180e-001	 4.991815224025334e+000	 9.100548535738916e+000
 2.378985512732225e-001	 4.994337100857515e+000	 9.114319654579392e+000
 1.899823469926781e-001	 4.996389259500201e+000	 9.139137974817968e+000
 1.422286917155876e-001	 4.997976610693785e+000	 9.175065830379438e+000
 9.464335395062330e-002	 4.999104138311836e+000	 9.222280976522496e+000
 4.723196125923496e-002	 4.999776895358052e+000	 9.281086650999569e+000
 0.000000000000000e+000	 5.000000000000000e+000	 9.351921125315359e+000
